# vtk DataFile Version 3.0
vtk output
ASCII
DATASET UNSTRUCTURED_GRID
POINTS      5151 double 
  0.00000000E+00  1.00000000E+02  0.00000000E+00
  0.00000000E+00  9.80000000E+01  0.00000000E+00
  0.00000000E+00  9.60000000E+01  0.00000000E+00
  0.00000000E+00  9.40000000E+01  0.00000000E+00
  0.00000000E+00  9.20000000E+01  0.00000000E+00
  0.00000000E+00  9.00000000E+01  0.00000000E+00
  0.00000000E+00  8.80000000E+01  0.00000000E+00
  0.00000000E+00  8.60000000E+01  0.00000000E+00
  0.00000000E+00  8.40000000E+01  0.00000000E+00
  0.00000000E+00  8.20000000E+01  0.00000000E+00
  0.00000000E+00  8.00000000E+01  0.00000000E+00
  0.00000000E+00  7.80000000E+01  0.00000000E+00
  0.00000000E+00  7.60000000E+01  0.00000000E+00
  0.00000000E+00  7.40000000E+01  0.00000000E+00
  0.00000000E+00  7.20000000E+01  0.00000000E+00
  0.00000000E+00  7.00000000E+01  0.00000000E+00
  0.00000000E+00  6.80000000E+01  0.00000000E+00
  0.00000000E+00  6.60000000E+01  0.00000000E+00
  0.00000000E+00  6.40000000E+01  0.00000000E+00
  0.00000000E+00  6.20000000E+01  0.00000000E+00
  0.00000000E+00  6.00000000E+01  0.00000000E+00
  0.00000000E+00  5.80000000E+01  0.00000000E+00
  0.00000000E+00  5.60000000E+01  0.00000000E+00
  0.00000000E+00  5.40000000E+01  0.00000000E+00
  0.00000000E+00  5.20000000E+01  0.00000000E+00
  0.00000000E+00  5.00000000E+01  0.00000000E+00
  0.00000000E+00  4.80000000E+01  0.00000000E+00
  0.00000000E+00  4.60000000E+01  0.00000000E+00
  0.00000000E+00  4.40000000E+01  0.00000000E+00
  0.00000000E+00  4.20000000E+01  0.00000000E+00
  0.00000000E+00  4.00000000E+01  0.00000000E+00
  0.00000000E+00  3.80000000E+01  0.00000000E+00
  0.00000000E+00  3.60000000E+01  0.00000000E+00
  0.00000000E+00  3.40000000E+01  0.00000000E+00
  0.00000000E+00  3.20000000E+01  0.00000000E+00
  0.00000000E+00  3.00000000E+01  0.00000000E+00
  0.00000000E+00  2.80000000E+01  0.00000000E+00
  0.00000000E+00  2.60000000E+01  0.00000000E+00
  0.00000000E+00  2.40000000E+01  0.00000000E+00
  0.00000000E+00  2.20000000E+01  0.00000000E+00
  0.00000000E+00  2.00000000E+01  0.00000000E+00
  0.00000000E+00  1.80000000E+01  0.00000000E+00
  0.00000000E+00  1.60000000E+01  0.00000000E+00
  0.00000000E+00  1.40000000E+01  0.00000000E+00
  0.00000000E+00  1.20000000E+01  0.00000000E+00
  0.00000000E+00  1.00000000E+01  0.00000000E+00
  0.00000000E+00  8.00000000E+00  0.00000000E+00
  0.00000000E+00  6.00000000E+00  0.00000000E+00
  0.00000000E+00  4.00000000E+00  0.00000000E+00
  0.00000000E+00  2.00000000E+00  0.00000000E+00
  0.00000000E+00 -3.33066907E-14  0.00000000E+00
  1.00000000E+01  1.00000000E+02  0.00000000E+00
  1.00000000E+01  9.80000000E+01  0.00000000E+00
  1.00000000E+01  9.60000000E+01  0.00000000E+00
  1.00000000E+01  9.40000000E+01  0.00000000E+00
  1.00000000E+01  9.20000000E+01  0.00000000E+00
  1.00000000E+01  9.00000000E+01  0.00000000E+00
  1.00000000E+01  8.80000000E+01  0.00000000E+00
  1.00000000E+01  8.60000000E+01  0.00000000E+00
  1.00000000E+01  8.40000000E+01  0.00000000E+00
  1.00000000E+01  8.20000000E+01  0.00000000E+00
  1.00000000E+01  8.00000000E+01  0.00000000E+00
  1.00000000E+01  7.80000000E+01  0.00000000E+00
  1.00000000E+01  7.60000000E+01  0.00000000E+00
  1.00000000E+01  7.40000000E+01  0.00000000E+00
  1.00000000E+01  7.20000000E+01  0.00000000E+00
  1.00000000E+01  7.00000000E+01  0.00000000E+00
  1.00000000E+01  6.80000000E+01  0.00000000E+00
  1.00000000E+01  6.60000000E+01  0.00000000E+00
  1.00000000E+01  6.40000000E+01  0.00000000E+00
  1.00000000E+01  6.20000000E+01  0.00000000E+00
  1.00000000E+01  6.00000000E+01  0.00000000E+00
  1.00000000E+01  5.80000000E+01  0.00000000E+00
  1.00000000E+01  5.60000000E+01  0.00000000E+00
  1.00000000E+01  5.40000000E+01  0.00000000E+00
  1.00000000E+01  5.20000000E+01  0.00000000E+00
  1.00000000E+01  5.00000000E+01  0.00000000E+00
  1.00000000E+01  4.80000000E+01  0.00000000E+00
  1.00000000E+01  4.60000000E+01  0.00000000E+00
  1.00000000E+01  4.40000000E+01  0.00000000E+00
  1.00000000E+01  4.20000000E+01  0.00000000E+00
  1.00000000E+01  4.00000000E+01  0.00000000E+00
  1.00000000E+01  3.80000000E+01  0.00000000E+00
  1.00000000E+01  3.60000000E+01  0.00000000E+00
  1.00000000E+01  3.40000000E+01  0.00000000E+00
  1.00000000E+01  3.20000000E+01  0.00000000E+00
  1.00000000E+01  3.00000000E+01  0.00000000E+00
  1.00000000E+01  2.80000000E+01  0.00000000E+00
  1.00000000E+01  2.60000000E+01  0.00000000E+00
  1.00000000E+01  2.40000000E+01  0.00000000E+00
  1.00000000E+01  2.20000000E+01  0.00000000E+00
  1.00000000E+01  2.00000000E+01  0.00000000E+00
  1.00000000E+01  1.80000000E+01  0.00000000E+00
  1.00000000E+01  1.60000000E+01  0.00000000E+00
  1.00000000E+01  1.40000000E+01  0.00000000E+00
  1.00000000E+01  1.20000000E+01  0.00000000E+00
  1.00000000E+01  1.00000000E+01  0.00000000E+00
  1.00000000E+01  8.00000000E+00  0.00000000E+00
  1.00000000E+01  6.00000000E+00  0.00000000E+00
  1.00000000E+01  4.00000000E+00  0.00000000E+00
  1.00000000E+01  2.00000000E+00  0.00000000E+00
  1.00000000E+01 -3.33066907E-14  0.00000000E+00
  2.00000000E+01  1.00000000E+02  0.00000000E+00
  2.00000000E+01  9.80000000E+01  0.00000000E+00
  2.00000000E+01  9.60000000E+01  0.00000000E+00
  2.00000000E+01  9.40000000E+01  0.00000000E+00
  2.00000000E+01  9.20000000E+01  0.00000000E+00
  2.00000000E+01  9.00000000E+01  0.00000000E+00
  2.00000000E+01  8.80000000E+01  0.00000000E+00
  2.00000000E+01  8.60000000E+01  0.00000000E+00
  2.00000000E+01  8.40000000E+01  0.00000000E+00
  2.00000000E+01  8.20000000E+01  0.00000000E+00
  2.00000000E+01  8.00000000E+01  0.00000000E+00
  2.00000000E+01  7.80000000E+01  0.00000000E+00
  2.00000000E+01  7.60000000E+01  0.00000000E+00
  2.00000000E+01  7.40000000E+01  0.00000000E+00
  2.00000000E+01  7.20000000E+01  0.00000000E+00
  2.00000000E+01  7.00000000E+01  0.00000000E+00
  2.00000000E+01  6.80000000E+01  0.00000000E+00
  2.00000000E+01  6.60000000E+01  0.00000000E+00
  2.00000000E+01  6.40000000E+01  0.00000000E+00
  2.00000000E+01  6.20000000E+01  0.00000000E+00
  2.00000000E+01  6.00000000E+01  0.00000000E+00
  2.00000000E+01  5.80000000E+01  0.00000000E+00
  2.00000000E+01  5.60000000E+01  0.00000000E+00
  2.00000000E+01  5.40000000E+01  0.00000000E+00
  2.00000000E+01  5.20000000E+01  0.00000000E+00
  2.00000000E+01  5.00000000E+01  0.00000000E+00
  2.00000000E+01  4.80000000E+01  0.00000000E+00
  2.00000000E+01  4.60000000E+01  0.00000000E+00
  2.00000000E+01  4.40000000E+01  0.00000000E+00
  2.00000000E+01  4.20000000E+01  0.00000000E+00
  2.00000000E+01  4.00000000E+01  0.00000000E+00
  2.00000000E+01  3.80000000E+01  0.00000000E+00
  2.00000000E+01  3.60000000E+01  0.00000000E+00
  2.00000000E+01  3.40000000E+01  0.00000000E+00
  2.00000000E+01  3.20000000E+01  0.00000000E+00
  2.00000000E+01  3.00000000E+01  0.00000000E+00
  2.00000000E+01  2.80000000E+01  0.00000000E+00
  2.00000000E+01  2.60000000E+01  0.00000000E+00
  2.00000000E+01  2.40000000E+01  0.00000000E+00
  2.00000000E+01  2.20000000E+01  0.00000000E+00
  2.00000000E+01  2.00000000E+01  0.00000000E+00
  2.00000000E+01  1.80000000E+01  0.00000000E+00
  2.00000000E+01  1.60000000E+01  0.00000000E+00
  2.00000000E+01  1.40000000E+01  0.00000000E+00
  2.00000000E+01  1.20000000E+01  0.00000000E+00
  2.00000000E+01  1.00000000E+01  0.00000000E+00
  2.00000000E+01  8.00000000E+00  0.00000000E+00
  2.00000000E+01  6.00000000E+00  0.00000000E+00
  2.00000000E+01  4.00000000E+00  0.00000000E+00
  2.00000000E+01  2.00000000E+00  0.00000000E+00
  2.00000000E+01 -3.33066907E-14  0.00000000E+00
  3.00000000E+01  1.00000000E+02  0.00000000E+00
  3.00000000E+01  9.80000000E+01  0.00000000E+00
  3.00000000E+01  9.60000000E+01  0.00000000E+00
  3.00000000E+01  9.40000000E+01  0.00000000E+00
  3.00000000E+01  9.20000000E+01  0.00000000E+00
  3.00000000E+01  9.00000000E+01  0.00000000E+00
  3.00000000E+01  8.80000000E+01  0.00000000E+00
  3.00000000E+01  8.60000000E+01  0.00000000E+00
  3.00000000E+01  8.40000000E+01  0.00000000E+00
  3.00000000E+01  8.20000000E+01  0.00000000E+00
  3.00000000E+01  8.00000000E+01  0.00000000E+00
  3.00000000E+01  7.80000000E+01  0.00000000E+00
  3.00000000E+01  7.60000000E+01  0.00000000E+00
  3.00000000E+01  7.40000000E+01  0.00000000E+00
  3.00000000E+01  7.20000000E+01  0.00000000E+00
  3.00000000E+01  7.00000000E+01  0.00000000E+00
  3.00000000E+01  6.80000000E+01  0.00000000E+00
  3.00000000E+01  6.60000000E+01  0.00000000E+00
  3.00000000E+01  6.40000000E+01  0.00000000E+00
  3.00000000E+01  6.20000000E+01  0.00000000E+00
  3.00000000E+01  6.00000000E+01  0.00000000E+00
  3.00000000E+01  5.80000000E+01  0.00000000E+00
  3.00000000E+01  5.60000000E+01  0.00000000E+00
  3.00000000E+01  5.40000000E+01  0.00000000E+00
  3.00000000E+01  5.20000000E+01  0.00000000E+00
  3.00000000E+01  5.00000000E+01  0.00000000E+00
  3.00000000E+01  4.80000000E+01  0.00000000E+00
  3.00000000E+01  4.60000000E+01  0.00000000E+00
  3.00000000E+01  4.40000000E+01  0.00000000E+00
  3.00000000E+01  4.20000000E+01  0.00000000E+00
  3.00000000E+01  4.00000000E+01  0.00000000E+00
  3.00000000E+01  3.80000000E+01  0.00000000E+00
  3.00000000E+01  3.60000000E+01  0.00000000E+00
  3.00000000E+01  3.40000000E+01  0.00000000E+00
  3.00000000E+01  3.20000000E+01  0.00000000E+00
  3.00000000E+01  3.00000000E+01  0.00000000E+00
  3.00000000E+01  2.80000000E+01  0.00000000E+00
  3.00000000E+01  2.60000000E+01  0.00000000E+00
  3.00000000E+01  2.40000000E+01  0.00000000E+00
  3.00000000E+01  2.20000000E+01  0.00000000E+00
  3.00000000E+01  2.00000000E+01  0.00000000E+00
  3.00000000E+01  1.80000000E+01  0.00000000E+00
  3.00000000E+01  1.60000000E+01  0.00000000E+00
  3.00000000E+01  1.40000000E+01  0.00000000E+00
  3.00000000E+01  1.20000000E+01  0.00000000E+00
  3.00000000E+01  1.00000000E+01  0.00000000E+00
  3.00000000E+01  8.00000000E+00  0.00000000E+00
  3.00000000E+01  6.00000000E+00  0.00000000E+00
  3.00000000E+01  4.00000000E+00  0.00000000E+00
  3.00000000E+01  2.00000000E+00  0.00000000E+00
  3.00000000E+01 -3.33066907E-14  0.00000000E+00
  4.00000000E+01  1.00000000E+02  0.00000000E+00
  4.00000000E+01  9.80000000E+01  0.00000000E+00
  4.00000000E+01  9.60000000E+01  0.00000000E+00
  4.00000000E+01  9.40000000E+01  0.00000000E+00
  4.00000000E+01  9.20000000E+01  0.00000000E+00
  4.00000000E+01  9.00000000E+01  0.00000000E+00
  4.00000000E+01  8.80000000E+01  0.00000000E+00
  4.00000000E+01  8.60000000E+01  0.00000000E+00
  4.00000000E+01  8.40000000E+01  0.00000000E+00
  4.00000000E+01  8.20000000E+01  0.00000000E+00
  4.00000000E+01  8.00000000E+01  0.00000000E+00
  4.00000000E+01  7.80000000E+01  0.00000000E+00
  4.00000000E+01  7.60000000E+01  0.00000000E+00
  4.00000000E+01  7.40000000E+01  0.00000000E+00
  4.00000000E+01  7.20000000E+01  0.00000000E+00
  4.00000000E+01  7.00000000E+01  0.00000000E+00
  4.00000000E+01  6.80000000E+01  0.00000000E+00
  4.00000000E+01  6.60000000E+01  0.00000000E+00
  4.00000000E+01  6.40000000E+01  0.00000000E+00
  4.00000000E+01  6.20000000E+01  0.00000000E+00
  4.00000000E+01  6.00000000E+01  0.00000000E+00
  4.00000000E+01  5.80000000E+01  0.00000000E+00
  4.00000000E+01  5.60000000E+01  0.00000000E+00
  4.00000000E+01  5.40000000E+01  0.00000000E+00
  4.00000000E+01  5.20000000E+01  0.00000000E+00
  4.00000000E+01  5.00000000E+01  0.00000000E+00
  4.00000000E+01  4.80000000E+01  0.00000000E+00
  4.00000000E+01  4.60000000E+01  0.00000000E+00
  4.00000000E+01  4.40000000E+01  0.00000000E+00
  4.00000000E+01  4.20000000E+01  0.00000000E+00
  4.00000000E+01  4.00000000E+01  0.00000000E+00
  4.00000000E+01  3.80000000E+01  0.00000000E+00
  4.00000000E+01  3.60000000E+01  0.00000000E+00
  4.00000000E+01  3.40000000E+01  0.00000000E+00
  4.00000000E+01  3.20000000E+01  0.00000000E+00
  4.00000000E+01  3.00000000E+01  0.00000000E+00
  4.00000000E+01  2.80000000E+01  0.00000000E+00
  4.00000000E+01  2.60000000E+01  0.00000000E+00
  4.00000000E+01  2.40000000E+01  0.00000000E+00
  4.00000000E+01  2.20000000E+01  0.00000000E+00
  4.00000000E+01  2.00000000E+01  0.00000000E+00
  4.00000000E+01  1.80000000E+01  0.00000000E+00
  4.00000000E+01  1.60000000E+01  0.00000000E+00
  4.00000000E+01  1.40000000E+01  0.00000000E+00
  4.00000000E+01  1.20000000E+01  0.00000000E+00
  4.00000000E+01  1.00000000E+01  0.00000000E+00
  4.00000000E+01  8.00000000E+00  0.00000000E+00
  4.00000000E+01  6.00000000E+00  0.00000000E+00
  4.00000000E+01  4.00000000E+00  0.00000000E+00
  4.00000000E+01  2.00000000E+00  0.00000000E+00
  4.00000000E+01 -3.33066907E-14  0.00000000E+00
  5.00000000E+01  1.00000000E+02  0.00000000E+00
  5.00000000E+01  9.80000000E+01  0.00000000E+00
  5.00000000E+01  9.60000000E+01  0.00000000E+00
  5.00000000E+01  9.40000000E+01  0.00000000E+00
  5.00000000E+01  9.20000000E+01  0.00000000E+00
  5.00000000E+01  9.00000000E+01  0.00000000E+00
  5.00000000E+01  8.80000000E+01  0.00000000E+00
  5.00000000E+01  8.60000000E+01  0.00000000E+00
  5.00000000E+01  8.40000000E+01  0.00000000E+00
  5.00000000E+01  8.20000000E+01  0.00000000E+00
  5.00000000E+01  8.00000000E+01  0.00000000E+00
  5.00000000E+01  7.80000000E+01  0.00000000E+00
  5.00000000E+01  7.60000000E+01  0.00000000E+00
  5.00000000E+01  7.40000000E+01  0.00000000E+00
  5.00000000E+01  7.20000000E+01  0.00000000E+00
  5.00000000E+01  7.00000000E+01  0.00000000E+00
  5.00000000E+01  6.80000000E+01  0.00000000E+00
  5.00000000E+01  6.60000000E+01  0.00000000E+00
  5.00000000E+01  6.40000000E+01  0.00000000E+00
  5.00000000E+01  6.20000000E+01  0.00000000E+00
  5.00000000E+01  6.00000000E+01  0.00000000E+00
  5.00000000E+01  5.80000000E+01  0.00000000E+00
  5.00000000E+01  5.60000000E+01  0.00000000E+00
  5.00000000E+01  5.40000000E+01  0.00000000E+00
  5.00000000E+01  5.20000000E+01  0.00000000E+00
  5.00000000E+01  5.00000000E+01  0.00000000E+00
  5.00000000E+01  4.80000000E+01  0.00000000E+00
  5.00000000E+01  4.60000000E+01  0.00000000E+00
  5.00000000E+01  4.40000000E+01  0.00000000E+00
  5.00000000E+01  4.20000000E+01  0.00000000E+00
  5.00000000E+01  4.00000000E+01  0.00000000E+00
  5.00000000E+01  3.80000000E+01  0.00000000E+00
  5.00000000E+01  3.60000000E+01  0.00000000E+00
  5.00000000E+01  3.40000000E+01  0.00000000E+00
  5.00000000E+01  3.20000000E+01  0.00000000E+00
  5.00000000E+01  3.00000000E+01  0.00000000E+00
  5.00000000E+01  2.80000000E+01  0.00000000E+00
  5.00000000E+01  2.60000000E+01  0.00000000E+00
  5.00000000E+01  2.40000000E+01  0.00000000E+00
  5.00000000E+01  2.20000000E+01  0.00000000E+00
  5.00000000E+01  2.00000000E+01  0.00000000E+00
  5.00000000E+01  1.80000000E+01  0.00000000E+00
  5.00000000E+01  1.60000000E+01  0.00000000E+00
  5.00000000E+01  1.40000000E+01  0.00000000E+00
  5.00000000E+01  1.20000000E+01  0.00000000E+00
  5.00000000E+01  1.00000000E+01  0.00000000E+00
  5.00000000E+01  8.00000000E+00  0.00000000E+00
  5.00000000E+01  6.00000000E+00  0.00000000E+00
  5.00000000E+01  4.00000000E+00  0.00000000E+00
  5.00000000E+01  2.00000000E+00  0.00000000E+00
  5.00000000E+01 -3.33066907E-14  0.00000000E+00
  6.00000000E+01  1.00000000E+02  0.00000000E+00
  6.00000000E+01  9.80000000E+01  0.00000000E+00
  6.00000000E+01  9.60000000E+01  0.00000000E+00
  6.00000000E+01  9.40000000E+01  0.00000000E+00
  6.00000000E+01  9.20000000E+01  0.00000000E+00
  6.00000000E+01  9.00000000E+01  0.00000000E+00
  6.00000000E+01  8.80000000E+01  0.00000000E+00
  6.00000000E+01  8.60000000E+01  0.00000000E+00
  6.00000000E+01  8.40000000E+01  0.00000000E+00
  6.00000000E+01  8.20000000E+01  0.00000000E+00
  6.00000000E+01  8.00000000E+01  0.00000000E+00
  6.00000000E+01  7.80000000E+01  0.00000000E+00
  6.00000000E+01  7.60000000E+01  0.00000000E+00
  6.00000000E+01  7.40000000E+01  0.00000000E+00
  6.00000000E+01  7.20000000E+01  0.00000000E+00
  6.00000000E+01  7.00000000E+01  0.00000000E+00
  6.00000000E+01  6.80000000E+01  0.00000000E+00
  6.00000000E+01  6.60000000E+01  0.00000000E+00
  6.00000000E+01  6.40000000E+01  0.00000000E+00
  6.00000000E+01  6.20000000E+01  0.00000000E+00
  6.00000000E+01  6.00000000E+01  0.00000000E+00
  6.00000000E+01  5.80000000E+01  0.00000000E+00
  6.00000000E+01  5.60000000E+01  0.00000000E+00
  6.00000000E+01  5.40000000E+01  0.00000000E+00
  6.00000000E+01  5.20000000E+01  0.00000000E+00
  6.00000000E+01  5.00000000E+01  0.00000000E+00
  6.00000000E+01  4.80000000E+01  0.00000000E+00
  6.00000000E+01  4.60000000E+01  0.00000000E+00
  6.00000000E+01  4.40000000E+01  0.00000000E+00
  6.00000000E+01  4.20000000E+01  0.00000000E+00
  6.00000000E+01  4.00000000E+01  0.00000000E+00
  6.00000000E+01  3.80000000E+01  0.00000000E+00
  6.00000000E+01  3.60000000E+01  0.00000000E+00
  6.00000000E+01  3.40000000E+01  0.00000000E+00
  6.00000000E+01  3.20000000E+01  0.00000000E+00
  6.00000000E+01  3.00000000E+01  0.00000000E+00
  6.00000000E+01  2.80000000E+01  0.00000000E+00
  6.00000000E+01  2.60000000E+01  0.00000000E+00
  6.00000000E+01  2.40000000E+01  0.00000000E+00
  6.00000000E+01  2.20000000E+01  0.00000000E+00
  6.00000000E+01  2.00000000E+01  0.00000000E+00
  6.00000000E+01  1.80000000E+01  0.00000000E+00
  6.00000000E+01  1.60000000E+01  0.00000000E+00
  6.00000000E+01  1.40000000E+01  0.00000000E+00
  6.00000000E+01  1.20000000E+01  0.00000000E+00
  6.00000000E+01  1.00000000E+01  0.00000000E+00
  6.00000000E+01  8.00000000E+00  0.00000000E+00
  6.00000000E+01  6.00000000E+00  0.00000000E+00
  6.00000000E+01  4.00000000E+00  0.00000000E+00
  6.00000000E+01  2.00000000E+00  0.00000000E+00
  6.00000000E+01 -3.33066907E-14  0.00000000E+00
  7.00000000E+01  1.00000000E+02  0.00000000E+00
  7.00000000E+01  9.80000000E+01  0.00000000E+00
  7.00000000E+01  9.60000000E+01  0.00000000E+00
  7.00000000E+01  9.40000000E+01  0.00000000E+00
  7.00000000E+01  9.20000000E+01  0.00000000E+00
  7.00000000E+01  9.00000000E+01  0.00000000E+00
  7.00000000E+01  8.80000000E+01  0.00000000E+00
  7.00000000E+01  8.60000000E+01  0.00000000E+00
  7.00000000E+01  8.40000000E+01  0.00000000E+00
  7.00000000E+01  8.20000000E+01  0.00000000E+00
  7.00000000E+01  8.00000000E+01  0.00000000E+00
  7.00000000E+01  7.80000000E+01  0.00000000E+00
  7.00000000E+01  7.60000000E+01  0.00000000E+00
  7.00000000E+01  7.40000000E+01  0.00000000E+00
  7.00000000E+01  7.20000000E+01  0.00000000E+00
  7.00000000E+01  7.00000000E+01  0.00000000E+00
  7.00000000E+01  6.80000000E+01  0.00000000E+00
  7.00000000E+01  6.60000000E+01  0.00000000E+00
  7.00000000E+01  6.40000000E+01  0.00000000E+00
  7.00000000E+01  6.20000000E+01  0.00000000E+00
  7.00000000E+01  6.00000000E+01  0.00000000E+00
  7.00000000E+01  5.80000000E+01  0.00000000E+00
  7.00000000E+01  5.60000000E+01  0.00000000E+00
  7.00000000E+01  5.40000000E+01  0.00000000E+00
  7.00000000E+01  5.20000000E+01  0.00000000E+00
  7.00000000E+01  5.00000000E+01  0.00000000E+00
  7.00000000E+01  4.80000000E+01  0.00000000E+00
  7.00000000E+01  4.60000000E+01  0.00000000E+00
  7.00000000E+01  4.40000000E+01  0.00000000E+00
  7.00000000E+01  4.20000000E+01  0.00000000E+00
  7.00000000E+01  4.00000000E+01  0.00000000E+00
  7.00000000E+01  3.80000000E+01  0.00000000E+00
  7.00000000E+01  3.60000000E+01  0.00000000E+00
  7.00000000E+01  3.40000000E+01  0.00000000E+00
  7.00000000E+01  3.20000000E+01  0.00000000E+00
  7.00000000E+01  3.00000000E+01  0.00000000E+00
  7.00000000E+01  2.80000000E+01  0.00000000E+00
  7.00000000E+01  2.60000000E+01  0.00000000E+00
  7.00000000E+01  2.40000000E+01  0.00000000E+00
  7.00000000E+01  2.20000000E+01  0.00000000E+00
  7.00000000E+01  2.00000000E+01  0.00000000E+00
  7.00000000E+01  1.80000000E+01  0.00000000E+00
  7.00000000E+01  1.60000000E+01  0.00000000E+00
  7.00000000E+01  1.40000000E+01  0.00000000E+00
  7.00000000E+01  1.20000000E+01  0.00000000E+00
  7.00000000E+01  1.00000000E+01  0.00000000E+00
  7.00000000E+01  8.00000000E+00  0.00000000E+00
  7.00000000E+01  6.00000000E+00  0.00000000E+00
  7.00000000E+01  4.00000000E+00  0.00000000E+00
  7.00000000E+01  2.00000000E+00  0.00000000E+00
  7.00000000E+01 -3.33066907E-14  0.00000000E+00
  8.00000000E+01  1.00000000E+02  0.00000000E+00
  8.00000000E+01  9.80000000E+01  0.00000000E+00
  8.00000000E+01  9.60000000E+01  0.00000000E+00
  8.00000000E+01  9.40000000E+01  0.00000000E+00
  8.00000000E+01  9.20000000E+01  0.00000000E+00
  8.00000000E+01  9.00000000E+01  0.00000000E+00
  8.00000000E+01  8.80000000E+01  0.00000000E+00
  8.00000000E+01  8.60000000E+01  0.00000000E+00
  8.00000000E+01  8.40000000E+01  0.00000000E+00
  8.00000000E+01  8.20000000E+01  0.00000000E+00
  8.00000000E+01  8.00000000E+01  0.00000000E+00
  8.00000000E+01  7.80000000E+01  0.00000000E+00
  8.00000000E+01  7.60000000E+01  0.00000000E+00
  8.00000000E+01  7.40000000E+01  0.00000000E+00
  8.00000000E+01  7.20000000E+01  0.00000000E+00
  8.00000000E+01  7.00000000E+01  0.00000000E+00
  8.00000000E+01  6.80000000E+01  0.00000000E+00
  8.00000000E+01  6.60000000E+01  0.00000000E+00
  8.00000000E+01  6.40000000E+01  0.00000000E+00
  8.00000000E+01  6.20000000E+01  0.00000000E+00
  8.00000000E+01  6.00000000E+01  0.00000000E+00
  8.00000000E+01  5.80000000E+01  0.00000000E+00
  8.00000000E+01  5.60000000E+01  0.00000000E+00
  8.00000000E+01  5.40000000E+01  0.00000000E+00
  8.00000000E+01  5.20000000E+01  0.00000000E+00
  8.00000000E+01  5.00000000E+01  0.00000000E+00
  8.00000000E+01  4.80000000E+01  0.00000000E+00
  8.00000000E+01  4.60000000E+01  0.00000000E+00
  8.00000000E+01  4.40000000E+01  0.00000000E+00
  8.00000000E+01  4.20000000E+01  0.00000000E+00
  8.00000000E+01  4.00000000E+01  0.00000000E+00
  8.00000000E+01  3.80000000E+01  0.00000000E+00
  8.00000000E+01  3.60000000E+01  0.00000000E+00
  8.00000000E+01  3.40000000E+01  0.00000000E+00
  8.00000000E+01  3.20000000E+01  0.00000000E+00
  8.00000000E+01  3.00000000E+01  0.00000000E+00
  8.00000000E+01  2.80000000E+01  0.00000000E+00
  8.00000000E+01  2.60000000E+01  0.00000000E+00
  8.00000000E+01  2.40000000E+01  0.00000000E+00
  8.00000000E+01  2.20000000E+01  0.00000000E+00
  8.00000000E+01  2.00000000E+01  0.00000000E+00
  8.00000000E+01  1.80000000E+01  0.00000000E+00
  8.00000000E+01  1.60000000E+01  0.00000000E+00
  8.00000000E+01  1.40000000E+01  0.00000000E+00
  8.00000000E+01  1.20000000E+01  0.00000000E+00
  8.00000000E+01  1.00000000E+01  0.00000000E+00
  8.00000000E+01  8.00000000E+00  0.00000000E+00
  8.00000000E+01  6.00000000E+00  0.00000000E+00
  8.00000000E+01  4.00000000E+00  0.00000000E+00
  8.00000000E+01  2.00000000E+00  0.00000000E+00
  8.00000000E+01 -3.33066907E-14  0.00000000E+00
  9.00000000E+01  1.00000000E+02  0.00000000E+00
  9.00000000E+01  9.80000000E+01  0.00000000E+00
  9.00000000E+01  9.60000000E+01  0.00000000E+00
  9.00000000E+01  9.40000000E+01  0.00000000E+00
  9.00000000E+01  9.20000000E+01  0.00000000E+00
  9.00000000E+01  9.00000000E+01  0.00000000E+00
  9.00000000E+01  8.80000000E+01  0.00000000E+00
  9.00000000E+01  8.60000000E+01  0.00000000E+00
  9.00000000E+01  8.40000000E+01  0.00000000E+00
  9.00000000E+01  8.20000000E+01  0.00000000E+00
  9.00000000E+01  8.00000000E+01  0.00000000E+00
  9.00000000E+01  7.80000000E+01  0.00000000E+00
  9.00000000E+01  7.60000000E+01  0.00000000E+00
  9.00000000E+01  7.40000000E+01  0.00000000E+00
  9.00000000E+01  7.20000000E+01  0.00000000E+00
  9.00000000E+01  7.00000000E+01  0.00000000E+00
  9.00000000E+01  6.80000000E+01  0.00000000E+00
  9.00000000E+01  6.60000000E+01  0.00000000E+00
  9.00000000E+01  6.40000000E+01  0.00000000E+00
  9.00000000E+01  6.20000000E+01  0.00000000E+00
  9.00000000E+01  6.00000000E+01  0.00000000E+00
  9.00000000E+01  5.80000000E+01  0.00000000E+00
  9.00000000E+01  5.60000000E+01  0.00000000E+00
  9.00000000E+01  5.40000000E+01  0.00000000E+00
  9.00000000E+01  5.20000000E+01  0.00000000E+00
  9.00000000E+01  5.00000000E+01  0.00000000E+00
  9.00000000E+01  4.80000000E+01  0.00000000E+00
  9.00000000E+01  4.60000000E+01  0.00000000E+00
  9.00000000E+01  4.40000000E+01  0.00000000E+00
  9.00000000E+01  4.20000000E+01  0.00000000E+00
  9.00000000E+01  4.00000000E+01  0.00000000E+00
  9.00000000E+01  3.80000000E+01  0.00000000E+00
  9.00000000E+01  3.60000000E+01  0.00000000E+00
  9.00000000E+01  3.40000000E+01  0.00000000E+00
  9.00000000E+01  3.20000000E+01  0.00000000E+00
  9.00000000E+01  3.00000000E+01  0.00000000E+00
  9.00000000E+01  2.80000000E+01  0.00000000E+00
  9.00000000E+01  2.60000000E+01  0.00000000E+00
  9.00000000E+01  2.40000000E+01  0.00000000E+00
  9.00000000E+01  2.20000000E+01  0.00000000E+00
  9.00000000E+01  2.00000000E+01  0.00000000E+00
  9.00000000E+01  1.80000000E+01  0.00000000E+00
  9.00000000E+01  1.60000000E+01  0.00000000E+00
  9.00000000E+01  1.40000000E+01  0.00000000E+00
  9.00000000E+01  1.20000000E+01  0.00000000E+00
  9.00000000E+01  1.00000000E+01  0.00000000E+00
  9.00000000E+01  8.00000000E+00  0.00000000E+00
  9.00000000E+01  6.00000000E+00  0.00000000E+00
  9.00000000E+01  4.00000000E+00  0.00000000E+00
  9.00000000E+01  2.00000000E+00  0.00000000E+00
  9.00000000E+01 -3.33066907E-14  0.00000000E+00
  1.00000000E+02  1.00000000E+02  0.00000000E+00
  1.00000000E+02  9.80000000E+01  0.00000000E+00
  1.00000000E+02  9.60000000E+01  0.00000000E+00
  1.00000000E+02  9.40000000E+01  0.00000000E+00
  1.00000000E+02  9.20000000E+01  0.00000000E+00
  1.00000000E+02  9.00000000E+01  0.00000000E+00
  1.00000000E+02  8.80000000E+01  0.00000000E+00
  1.00000000E+02  8.60000000E+01  0.00000000E+00
  1.00000000E+02  8.40000000E+01  0.00000000E+00
  1.00000000E+02  8.20000000E+01  0.00000000E+00
  1.00000000E+02  8.00000000E+01  0.00000000E+00
  1.00000000E+02  7.80000000E+01  0.00000000E+00
  1.00000000E+02  7.60000000E+01  0.00000000E+00
  1.00000000E+02  7.40000000E+01  0.00000000E+00
  1.00000000E+02  7.20000000E+01  0.00000000E+00
  1.00000000E+02  7.00000000E+01  0.00000000E+00
  1.00000000E+02  6.80000000E+01  0.00000000E+00
  1.00000000E+02  6.60000000E+01  0.00000000E+00
  1.00000000E+02  6.40000000E+01  0.00000000E+00
  1.00000000E+02  6.20000000E+01  0.00000000E+00
  1.00000000E+02  6.00000000E+01  0.00000000E+00
  1.00000000E+02  5.80000000E+01  0.00000000E+00
  1.00000000E+02  5.60000000E+01  0.00000000E+00
  1.00000000E+02  5.40000000E+01  0.00000000E+00
  1.00000000E+02  5.20000000E+01  0.00000000E+00
  1.00000000E+02  5.00000000E+01  0.00000000E+00
  1.00000000E+02  4.80000000E+01  0.00000000E+00
  1.00000000E+02  4.60000000E+01  0.00000000E+00
  1.00000000E+02  4.40000000E+01  0.00000000E+00
  1.00000000E+02  4.20000000E+01  0.00000000E+00
  1.00000000E+02  4.00000000E+01  0.00000000E+00
  1.00000000E+02  3.80000000E+01  0.00000000E+00
  1.00000000E+02  3.60000000E+01  0.00000000E+00
  1.00000000E+02  3.40000000E+01  0.00000000E+00
  1.00000000E+02  3.20000000E+01  0.00000000E+00
  1.00000000E+02  3.00000000E+01  0.00000000E+00
  1.00000000E+02  2.80000000E+01  0.00000000E+00
  1.00000000E+02  2.60000000E+01  0.00000000E+00
  1.00000000E+02  2.40000000E+01  0.00000000E+00
  1.00000000E+02  2.20000000E+01  0.00000000E+00
  1.00000000E+02  2.00000000E+01  0.00000000E+00
  1.00000000E+02  1.80000000E+01  0.00000000E+00
  1.00000000E+02  1.60000000E+01  0.00000000E+00
  1.00000000E+02  1.40000000E+01  0.00000000E+00
  1.00000000E+02  1.20000000E+01  0.00000000E+00
  1.00000000E+02  1.00000000E+01  0.00000000E+00
  1.00000000E+02  8.00000000E+00  0.00000000E+00
  1.00000000E+02  6.00000000E+00  0.00000000E+00
  1.00000000E+02  4.00000000E+00  0.00000000E+00
  1.00000000E+02  2.00000000E+00  0.00000000E+00
  1.00000000E+02 -3.33066907E-14  0.00000000E+00
  1.10000000E+02  1.00000000E+02  0.00000000E+00
  1.10000000E+02  9.80000000E+01  0.00000000E+00
  1.10000000E+02  9.60000000E+01  0.00000000E+00
  1.10000000E+02  9.40000000E+01  0.00000000E+00
  1.10000000E+02  9.20000000E+01  0.00000000E+00
  1.10000000E+02  9.00000000E+01  0.00000000E+00
  1.10000000E+02  8.80000000E+01  0.00000000E+00
  1.10000000E+02  8.60000000E+01  0.00000000E+00
  1.10000000E+02  8.40000000E+01  0.00000000E+00
  1.10000000E+02  8.20000000E+01  0.00000000E+00
  1.10000000E+02  8.00000000E+01  0.00000000E+00
  1.10000000E+02  7.80000000E+01  0.00000000E+00
  1.10000000E+02  7.60000000E+01  0.00000000E+00
  1.10000000E+02  7.40000000E+01  0.00000000E+00
  1.10000000E+02  7.20000000E+01  0.00000000E+00
  1.10000000E+02  7.00000000E+01  0.00000000E+00
  1.10000000E+02  6.80000000E+01  0.00000000E+00
  1.10000000E+02  6.60000000E+01  0.00000000E+00
  1.10000000E+02  6.40000000E+01  0.00000000E+00
  1.10000000E+02  6.20000000E+01  0.00000000E+00
  1.10000000E+02  6.00000000E+01  0.00000000E+00
  1.10000000E+02  5.80000000E+01  0.00000000E+00
  1.10000000E+02  5.60000000E+01  0.00000000E+00
  1.10000000E+02  5.40000000E+01  0.00000000E+00
  1.10000000E+02  5.20000000E+01  0.00000000E+00
  1.10000000E+02  5.00000000E+01  0.00000000E+00
  1.10000000E+02  4.80000000E+01  0.00000000E+00
  1.10000000E+02  4.60000000E+01  0.00000000E+00
  1.10000000E+02  4.40000000E+01  0.00000000E+00
  1.10000000E+02  4.20000000E+01  0.00000000E+00
  1.10000000E+02  4.00000000E+01  0.00000000E+00
  1.10000000E+02  3.80000000E+01  0.00000000E+00
  1.10000000E+02  3.60000000E+01  0.00000000E+00
  1.10000000E+02  3.40000000E+01  0.00000000E+00
  1.10000000E+02  3.20000000E+01  0.00000000E+00
  1.10000000E+02  3.00000000E+01  0.00000000E+00
  1.10000000E+02  2.80000000E+01  0.00000000E+00
  1.10000000E+02  2.60000000E+01  0.00000000E+00
  1.10000000E+02  2.40000000E+01  0.00000000E+00
  1.10000000E+02  2.20000000E+01  0.00000000E+00
  1.10000000E+02  2.00000000E+01  0.00000000E+00
  1.10000000E+02  1.80000000E+01  0.00000000E+00
  1.10000000E+02  1.60000000E+01  0.00000000E+00
  1.10000000E+02  1.40000000E+01  0.00000000E+00
  1.10000000E+02  1.20000000E+01  0.00000000E+00
  1.10000000E+02  1.00000000E+01  0.00000000E+00
  1.10000000E+02  8.00000000E+00  0.00000000E+00
  1.10000000E+02  6.00000000E+00  0.00000000E+00
  1.10000000E+02  4.00000000E+00  0.00000000E+00
  1.10000000E+02  2.00000000E+00  0.00000000E+00
  1.10000000E+02 -3.33066907E-14  0.00000000E+00
  1.20000000E+02  1.00000000E+02  0.00000000E+00
  1.20000000E+02  9.80000000E+01  0.00000000E+00
  1.20000000E+02  9.60000000E+01  0.00000000E+00
  1.20000000E+02  9.40000000E+01  0.00000000E+00
  1.20000000E+02  9.20000000E+01  0.00000000E+00
  1.20000000E+02  9.00000000E+01  0.00000000E+00
  1.20000000E+02  8.80000000E+01  0.00000000E+00
  1.20000000E+02  8.60000000E+01  0.00000000E+00
  1.20000000E+02  8.40000000E+01  0.00000000E+00
  1.20000000E+02  8.20000000E+01  0.00000000E+00
  1.20000000E+02  8.00000000E+01  0.00000000E+00
  1.20000000E+02  7.80000000E+01  0.00000000E+00
  1.20000000E+02  7.60000000E+01  0.00000000E+00
  1.20000000E+02  7.40000000E+01  0.00000000E+00
  1.20000000E+02  7.20000000E+01  0.00000000E+00
  1.20000000E+02  7.00000000E+01  0.00000000E+00
  1.20000000E+02  6.80000000E+01  0.00000000E+00
  1.20000000E+02  6.60000000E+01  0.00000000E+00
  1.20000000E+02  6.40000000E+01  0.00000000E+00
  1.20000000E+02  6.20000000E+01  0.00000000E+00
  1.20000000E+02  6.00000000E+01  0.00000000E+00
  1.20000000E+02  5.80000000E+01  0.00000000E+00
  1.20000000E+02  5.60000000E+01  0.00000000E+00
  1.20000000E+02  5.40000000E+01  0.00000000E+00
  1.20000000E+02  5.20000000E+01  0.00000000E+00
  1.20000000E+02  5.00000000E+01  0.00000000E+00
  1.20000000E+02  4.80000000E+01  0.00000000E+00
  1.20000000E+02  4.60000000E+01  0.00000000E+00
  1.20000000E+02  4.40000000E+01  0.00000000E+00
  1.20000000E+02  4.20000000E+01  0.00000000E+00
  1.20000000E+02  4.00000000E+01  0.00000000E+00
  1.20000000E+02  3.80000000E+01  0.00000000E+00
  1.20000000E+02  3.60000000E+01  0.00000000E+00
  1.20000000E+02  3.40000000E+01  0.00000000E+00
  1.20000000E+02  3.20000000E+01  0.00000000E+00
  1.20000000E+02  3.00000000E+01  0.00000000E+00
  1.20000000E+02  2.80000000E+01  0.00000000E+00
  1.20000000E+02  2.60000000E+01  0.00000000E+00
  1.20000000E+02  2.40000000E+01  0.00000000E+00
  1.20000000E+02  2.20000000E+01  0.00000000E+00
  1.20000000E+02  2.00000000E+01  0.00000000E+00
  1.20000000E+02  1.80000000E+01  0.00000000E+00
  1.20000000E+02  1.60000000E+01  0.00000000E+00
  1.20000000E+02  1.40000000E+01  0.00000000E+00
  1.20000000E+02  1.20000000E+01  0.00000000E+00
  1.20000000E+02  1.00000000E+01  0.00000000E+00
  1.20000000E+02  8.00000000E+00  0.00000000E+00
  1.20000000E+02  6.00000000E+00  0.00000000E+00
  1.20000000E+02  4.00000000E+00  0.00000000E+00
  1.20000000E+02  2.00000000E+00  0.00000000E+00
  1.20000000E+02 -3.33066907E-14  0.00000000E+00
  1.30000000E+02  1.00000000E+02  0.00000000E+00
  1.30000000E+02  9.80000000E+01  0.00000000E+00
  1.30000000E+02  9.60000000E+01  0.00000000E+00
  1.30000000E+02  9.40000000E+01  0.00000000E+00
  1.30000000E+02  9.20000000E+01  0.00000000E+00
  1.30000000E+02  9.00000000E+01  0.00000000E+00
  1.30000000E+02  8.80000000E+01  0.00000000E+00
  1.30000000E+02  8.60000000E+01  0.00000000E+00
  1.30000000E+02  8.40000000E+01  0.00000000E+00
  1.30000000E+02  8.20000000E+01  0.00000000E+00
  1.30000000E+02  8.00000000E+01  0.00000000E+00
  1.30000000E+02  7.80000000E+01  0.00000000E+00
  1.30000000E+02  7.60000000E+01  0.00000000E+00
  1.30000000E+02  7.40000000E+01  0.00000000E+00
  1.30000000E+02  7.20000000E+01  0.00000000E+00
  1.30000000E+02  7.00000000E+01  0.00000000E+00
  1.30000000E+02  6.80000000E+01  0.00000000E+00
  1.30000000E+02  6.60000000E+01  0.00000000E+00
  1.30000000E+02  6.40000000E+01  0.00000000E+00
  1.30000000E+02  6.20000000E+01  0.00000000E+00
  1.30000000E+02  6.00000000E+01  0.00000000E+00
  1.30000000E+02  5.80000000E+01  0.00000000E+00
  1.30000000E+02  5.60000000E+01  0.00000000E+00
  1.30000000E+02  5.40000000E+01  0.00000000E+00
  1.30000000E+02  5.20000000E+01  0.00000000E+00
  1.30000000E+02  5.00000000E+01  0.00000000E+00
  1.30000000E+02  4.80000000E+01  0.00000000E+00
  1.30000000E+02  4.60000000E+01  0.00000000E+00
  1.30000000E+02  4.40000000E+01  0.00000000E+00
  1.30000000E+02  4.20000000E+01  0.00000000E+00
  1.30000000E+02  4.00000000E+01  0.00000000E+00
  1.30000000E+02  3.80000000E+01  0.00000000E+00
  1.30000000E+02  3.60000000E+01  0.00000000E+00
  1.30000000E+02  3.40000000E+01  0.00000000E+00
  1.30000000E+02  3.20000000E+01  0.00000000E+00
  1.30000000E+02  3.00000000E+01  0.00000000E+00
  1.30000000E+02  2.80000000E+01  0.00000000E+00
  1.30000000E+02  2.60000000E+01  0.00000000E+00
  1.30000000E+02  2.40000000E+01  0.00000000E+00
  1.30000000E+02  2.20000000E+01  0.00000000E+00
  1.30000000E+02  2.00000000E+01  0.00000000E+00
  1.30000000E+02  1.80000000E+01  0.00000000E+00
  1.30000000E+02  1.60000000E+01  0.00000000E+00
  1.30000000E+02  1.40000000E+01  0.00000000E+00
  1.30000000E+02  1.20000000E+01  0.00000000E+00
  1.30000000E+02  1.00000000E+01  0.00000000E+00
  1.30000000E+02  8.00000000E+00  0.00000000E+00
  1.30000000E+02  6.00000000E+00  0.00000000E+00
  1.30000000E+02  4.00000000E+00  0.00000000E+00
  1.30000000E+02  2.00000000E+00  0.00000000E+00
  1.30000000E+02 -3.33066907E-14  0.00000000E+00
  1.40000000E+02  1.00000000E+02  0.00000000E+00
  1.40000000E+02  9.80000000E+01  0.00000000E+00
  1.40000000E+02  9.60000000E+01  0.00000000E+00
  1.40000000E+02  9.40000000E+01  0.00000000E+00
  1.40000000E+02  9.20000000E+01  0.00000000E+00
  1.40000000E+02  9.00000000E+01  0.00000000E+00
  1.40000000E+02  8.80000000E+01  0.00000000E+00
  1.40000000E+02  8.60000000E+01  0.00000000E+00
  1.40000000E+02  8.40000000E+01  0.00000000E+00
  1.40000000E+02  8.20000000E+01  0.00000000E+00
  1.40000000E+02  8.00000000E+01  0.00000000E+00
  1.40000000E+02  7.80000000E+01  0.00000000E+00
  1.40000000E+02  7.60000000E+01  0.00000000E+00
  1.40000000E+02  7.40000000E+01  0.00000000E+00
  1.40000000E+02  7.20000000E+01  0.00000000E+00
  1.40000000E+02  7.00000000E+01  0.00000000E+00
  1.40000000E+02  6.80000000E+01  0.00000000E+00
  1.40000000E+02  6.60000000E+01  0.00000000E+00
  1.40000000E+02  6.40000000E+01  0.00000000E+00
  1.40000000E+02  6.20000000E+01  0.00000000E+00
  1.40000000E+02  6.00000000E+01  0.00000000E+00
  1.40000000E+02  5.80000000E+01  0.00000000E+00
  1.40000000E+02  5.60000000E+01  0.00000000E+00
  1.40000000E+02  5.40000000E+01  0.00000000E+00
  1.40000000E+02  5.20000000E+01  0.00000000E+00
  1.40000000E+02  5.00000000E+01  0.00000000E+00
  1.40000000E+02  4.80000000E+01  0.00000000E+00
  1.40000000E+02  4.60000000E+01  0.00000000E+00
  1.40000000E+02  4.40000000E+01  0.00000000E+00
  1.40000000E+02  4.20000000E+01  0.00000000E+00
  1.40000000E+02  4.00000000E+01  0.00000000E+00
  1.40000000E+02  3.80000000E+01  0.00000000E+00
  1.40000000E+02  3.60000000E+01  0.00000000E+00
  1.40000000E+02  3.40000000E+01  0.00000000E+00
  1.40000000E+02  3.20000000E+01  0.00000000E+00
  1.40000000E+02  3.00000000E+01  0.00000000E+00
  1.40000000E+02  2.80000000E+01  0.00000000E+00
  1.40000000E+02  2.60000000E+01  0.00000000E+00
  1.40000000E+02  2.40000000E+01  0.00000000E+00
  1.40000000E+02  2.20000000E+01  0.00000000E+00
  1.40000000E+02  2.00000000E+01  0.00000000E+00
  1.40000000E+02  1.80000000E+01  0.00000000E+00
  1.40000000E+02  1.60000000E+01  0.00000000E+00
  1.40000000E+02  1.40000000E+01  0.00000000E+00
  1.40000000E+02  1.20000000E+01  0.00000000E+00
  1.40000000E+02  1.00000000E+01  0.00000000E+00
  1.40000000E+02  8.00000000E+00  0.00000000E+00
  1.40000000E+02  6.00000000E+00  0.00000000E+00
  1.40000000E+02  4.00000000E+00  0.00000000E+00
  1.40000000E+02  2.00000000E+00  0.00000000E+00
  1.40000000E+02 -3.33066907E-14  0.00000000E+00
  1.50000000E+02  1.00000000E+02  0.00000000E+00
  1.50000000E+02  9.80000000E+01  0.00000000E+00
  1.50000000E+02  9.60000000E+01  0.00000000E+00
  1.50000000E+02  9.40000000E+01  0.00000000E+00
  1.50000000E+02  9.20000000E+01  0.00000000E+00
  1.50000000E+02  9.00000000E+01  0.00000000E+00
  1.50000000E+02  8.80000000E+01  0.00000000E+00
  1.50000000E+02  8.60000000E+01  0.00000000E+00
  1.50000000E+02  8.40000000E+01  0.00000000E+00
  1.50000000E+02  8.20000000E+01  0.00000000E+00
  1.50000000E+02  8.00000000E+01  0.00000000E+00
  1.50000000E+02  7.80000000E+01  0.00000000E+00
  1.50000000E+02  7.60000000E+01  0.00000000E+00
  1.50000000E+02  7.40000000E+01  0.00000000E+00
  1.50000000E+02  7.20000000E+01  0.00000000E+00
  1.50000000E+02  7.00000000E+01  0.00000000E+00
  1.50000000E+02  6.80000000E+01  0.00000000E+00
  1.50000000E+02  6.60000000E+01  0.00000000E+00
  1.50000000E+02  6.40000000E+01  0.00000000E+00
  1.50000000E+02  6.20000000E+01  0.00000000E+00
  1.50000000E+02  6.00000000E+01  0.00000000E+00
  1.50000000E+02  5.80000000E+01  0.00000000E+00
  1.50000000E+02  5.60000000E+01  0.00000000E+00
  1.50000000E+02  5.40000000E+01  0.00000000E+00
  1.50000000E+02  5.20000000E+01  0.00000000E+00
  1.50000000E+02  5.00000000E+01  0.00000000E+00
  1.50000000E+02  4.80000000E+01  0.00000000E+00
  1.50000000E+02  4.60000000E+01  0.00000000E+00
  1.50000000E+02  4.40000000E+01  0.00000000E+00
  1.50000000E+02  4.20000000E+01  0.00000000E+00
  1.50000000E+02  4.00000000E+01  0.00000000E+00
  1.50000000E+02  3.80000000E+01  0.00000000E+00
  1.50000000E+02  3.60000000E+01  0.00000000E+00
  1.50000000E+02  3.40000000E+01  0.00000000E+00
  1.50000000E+02  3.20000000E+01  0.00000000E+00
  1.50000000E+02  3.00000000E+01  0.00000000E+00
  1.50000000E+02  2.80000000E+01  0.00000000E+00
  1.50000000E+02  2.60000000E+01  0.00000000E+00
  1.50000000E+02  2.40000000E+01  0.00000000E+00
  1.50000000E+02  2.20000000E+01  0.00000000E+00
  1.50000000E+02  2.00000000E+01  0.00000000E+00
  1.50000000E+02  1.80000000E+01  0.00000000E+00
  1.50000000E+02  1.60000000E+01  0.00000000E+00
  1.50000000E+02  1.40000000E+01  0.00000000E+00
  1.50000000E+02  1.20000000E+01  0.00000000E+00
  1.50000000E+02  1.00000000E+01  0.00000000E+00
  1.50000000E+02  8.00000000E+00  0.00000000E+00
  1.50000000E+02  6.00000000E+00  0.00000000E+00
  1.50000000E+02  4.00000000E+00  0.00000000E+00
  1.50000000E+02  2.00000000E+00  0.00000000E+00
  1.50000000E+02 -3.33066907E-14  0.00000000E+00
  1.60000000E+02  1.00000000E+02  0.00000000E+00
  1.60000000E+02  9.80000000E+01  0.00000000E+00
  1.60000000E+02  9.60000000E+01  0.00000000E+00
  1.60000000E+02  9.40000000E+01  0.00000000E+00
  1.60000000E+02  9.20000000E+01  0.00000000E+00
  1.60000000E+02  9.00000000E+01  0.00000000E+00
  1.60000000E+02  8.80000000E+01  0.00000000E+00
  1.60000000E+02  8.60000000E+01  0.00000000E+00
  1.60000000E+02  8.40000000E+01  0.00000000E+00
  1.60000000E+02  8.20000000E+01  0.00000000E+00
  1.60000000E+02  8.00000000E+01  0.00000000E+00
  1.60000000E+02  7.80000000E+01  0.00000000E+00
  1.60000000E+02  7.60000000E+01  0.00000000E+00
  1.60000000E+02  7.40000000E+01  0.00000000E+00
  1.60000000E+02  7.20000000E+01  0.00000000E+00
  1.60000000E+02  7.00000000E+01  0.00000000E+00
  1.60000000E+02  6.80000000E+01  0.00000000E+00
  1.60000000E+02  6.60000000E+01  0.00000000E+00
  1.60000000E+02  6.40000000E+01  0.00000000E+00
  1.60000000E+02  6.20000000E+01  0.00000000E+00
  1.60000000E+02  6.00000000E+01  0.00000000E+00
  1.60000000E+02  5.80000000E+01  0.00000000E+00
  1.60000000E+02  5.60000000E+01  0.00000000E+00
  1.60000000E+02  5.40000000E+01  0.00000000E+00
  1.60000000E+02  5.20000000E+01  0.00000000E+00
  1.60000000E+02  5.00000000E+01  0.00000000E+00
  1.60000000E+02  4.80000000E+01  0.00000000E+00
  1.60000000E+02  4.60000000E+01  0.00000000E+00
  1.60000000E+02  4.40000000E+01  0.00000000E+00
  1.60000000E+02  4.20000000E+01  0.00000000E+00
  1.60000000E+02  4.00000000E+01  0.00000000E+00
  1.60000000E+02  3.80000000E+01  0.00000000E+00
  1.60000000E+02  3.60000000E+01  0.00000000E+00
  1.60000000E+02  3.40000000E+01  0.00000000E+00
  1.60000000E+02  3.20000000E+01  0.00000000E+00
  1.60000000E+02  3.00000000E+01  0.00000000E+00
  1.60000000E+02  2.80000000E+01  0.00000000E+00
  1.60000000E+02  2.60000000E+01  0.00000000E+00
  1.60000000E+02  2.40000000E+01  0.00000000E+00
  1.60000000E+02  2.20000000E+01  0.00000000E+00
  1.60000000E+02  2.00000000E+01  0.00000000E+00
  1.60000000E+02  1.80000000E+01  0.00000000E+00
  1.60000000E+02  1.60000000E+01  0.00000000E+00
  1.60000000E+02  1.40000000E+01  0.00000000E+00
  1.60000000E+02  1.20000000E+01  0.00000000E+00
  1.60000000E+02  1.00000000E+01  0.00000000E+00
  1.60000000E+02  8.00000000E+00  0.00000000E+00
  1.60000000E+02  6.00000000E+00  0.00000000E+00
  1.60000000E+02  4.00000000E+00  0.00000000E+00
  1.60000000E+02  2.00000000E+00  0.00000000E+00
  1.60000000E+02 -3.33066907E-14  0.00000000E+00
  1.70000000E+02  1.00000000E+02  0.00000000E+00
  1.70000000E+02  9.80000000E+01  0.00000000E+00
  1.70000000E+02  9.60000000E+01  0.00000000E+00
  1.70000000E+02  9.40000000E+01  0.00000000E+00
  1.70000000E+02  9.20000000E+01  0.00000000E+00
  1.70000000E+02  9.00000000E+01  0.00000000E+00
  1.70000000E+02  8.80000000E+01  0.00000000E+00
  1.70000000E+02  8.60000000E+01  0.00000000E+00
  1.70000000E+02  8.40000000E+01  0.00000000E+00
  1.70000000E+02  8.20000000E+01  0.00000000E+00
  1.70000000E+02  8.00000000E+01  0.00000000E+00
  1.70000000E+02  7.80000000E+01  0.00000000E+00
  1.70000000E+02  7.60000000E+01  0.00000000E+00
  1.70000000E+02  7.40000000E+01  0.00000000E+00
  1.70000000E+02  7.20000000E+01  0.00000000E+00
  1.70000000E+02  7.00000000E+01  0.00000000E+00
  1.70000000E+02  6.80000000E+01  0.00000000E+00
  1.70000000E+02  6.60000000E+01  0.00000000E+00
  1.70000000E+02  6.40000000E+01  0.00000000E+00
  1.70000000E+02  6.20000000E+01  0.00000000E+00
  1.70000000E+02  6.00000000E+01  0.00000000E+00
  1.70000000E+02  5.80000000E+01  0.00000000E+00
  1.70000000E+02  5.60000000E+01  0.00000000E+00
  1.70000000E+02  5.40000000E+01  0.00000000E+00
  1.70000000E+02  5.20000000E+01  0.00000000E+00
  1.70000000E+02  5.00000000E+01  0.00000000E+00
  1.70000000E+02  4.80000000E+01  0.00000000E+00
  1.70000000E+02  4.60000000E+01  0.00000000E+00
  1.70000000E+02  4.40000000E+01  0.00000000E+00
  1.70000000E+02  4.20000000E+01  0.00000000E+00
  1.70000000E+02  4.00000000E+01  0.00000000E+00
  1.70000000E+02  3.80000000E+01  0.00000000E+00
  1.70000000E+02  3.60000000E+01  0.00000000E+00
  1.70000000E+02  3.40000000E+01  0.00000000E+00
  1.70000000E+02  3.20000000E+01  0.00000000E+00
  1.70000000E+02  3.00000000E+01  0.00000000E+00
  1.70000000E+02  2.80000000E+01  0.00000000E+00
  1.70000000E+02  2.60000000E+01  0.00000000E+00
  1.70000000E+02  2.40000000E+01  0.00000000E+00
  1.70000000E+02  2.20000000E+01  0.00000000E+00
  1.70000000E+02  2.00000000E+01  0.00000000E+00
  1.70000000E+02  1.80000000E+01  0.00000000E+00
  1.70000000E+02  1.60000000E+01  0.00000000E+00
  1.70000000E+02  1.40000000E+01  0.00000000E+00
  1.70000000E+02  1.20000000E+01  0.00000000E+00
  1.70000000E+02  1.00000000E+01  0.00000000E+00
  1.70000000E+02  8.00000000E+00  0.00000000E+00
  1.70000000E+02  6.00000000E+00  0.00000000E+00
  1.70000000E+02  4.00000000E+00  0.00000000E+00
  1.70000000E+02  2.00000000E+00  0.00000000E+00
  1.70000000E+02 -3.33066907E-14  0.00000000E+00
  1.80000000E+02  1.00000000E+02  0.00000000E+00
  1.80000000E+02  9.80000000E+01  0.00000000E+00
  1.80000000E+02  9.60000000E+01  0.00000000E+00
  1.80000000E+02  9.40000000E+01  0.00000000E+00
  1.80000000E+02  9.20000000E+01  0.00000000E+00
  1.80000000E+02  9.00000000E+01  0.00000000E+00
  1.80000000E+02  8.80000000E+01  0.00000000E+00
  1.80000000E+02  8.60000000E+01  0.00000000E+00
  1.80000000E+02  8.40000000E+01  0.00000000E+00
  1.80000000E+02  8.20000000E+01  0.00000000E+00
  1.80000000E+02  8.00000000E+01  0.00000000E+00
  1.80000000E+02  7.80000000E+01  0.00000000E+00
  1.80000000E+02  7.60000000E+01  0.00000000E+00
  1.80000000E+02  7.40000000E+01  0.00000000E+00
  1.80000000E+02  7.20000000E+01  0.00000000E+00
  1.80000000E+02  7.00000000E+01  0.00000000E+00
  1.80000000E+02  6.80000000E+01  0.00000000E+00
  1.80000000E+02  6.60000000E+01  0.00000000E+00
  1.80000000E+02  6.40000000E+01  0.00000000E+00
  1.80000000E+02  6.20000000E+01  0.00000000E+00
  1.80000000E+02  6.00000000E+01  0.00000000E+00
  1.80000000E+02  5.80000000E+01  0.00000000E+00
  1.80000000E+02  5.60000000E+01  0.00000000E+00
  1.80000000E+02  5.40000000E+01  0.00000000E+00
  1.80000000E+02  5.20000000E+01  0.00000000E+00
  1.80000000E+02  5.00000000E+01  0.00000000E+00
  1.80000000E+02  4.80000000E+01  0.00000000E+00
  1.80000000E+02  4.60000000E+01  0.00000000E+00
  1.80000000E+02  4.40000000E+01  0.00000000E+00
  1.80000000E+02  4.20000000E+01  0.00000000E+00
  1.80000000E+02  4.00000000E+01  0.00000000E+00
  1.80000000E+02  3.80000000E+01  0.00000000E+00
  1.80000000E+02  3.60000000E+01  0.00000000E+00
  1.80000000E+02  3.40000000E+01  0.00000000E+00
  1.80000000E+02  3.20000000E+01  0.00000000E+00
  1.80000000E+02  3.00000000E+01  0.00000000E+00
  1.80000000E+02  2.80000000E+01  0.00000000E+00
  1.80000000E+02  2.60000000E+01  0.00000000E+00
  1.80000000E+02  2.40000000E+01  0.00000000E+00
  1.80000000E+02  2.20000000E+01  0.00000000E+00
  1.80000000E+02  2.00000000E+01  0.00000000E+00
  1.80000000E+02  1.80000000E+01  0.00000000E+00
  1.80000000E+02  1.60000000E+01  0.00000000E+00
  1.80000000E+02  1.40000000E+01  0.00000000E+00
  1.80000000E+02  1.20000000E+01  0.00000000E+00
  1.80000000E+02  1.00000000E+01  0.00000000E+00
  1.80000000E+02  8.00000000E+00  0.00000000E+00
  1.80000000E+02  6.00000000E+00  0.00000000E+00
  1.80000000E+02  4.00000000E+00  0.00000000E+00
  1.80000000E+02  2.00000000E+00  0.00000000E+00
  1.80000000E+02 -3.33066907E-14  0.00000000E+00
  1.90000000E+02  1.00000000E+02  0.00000000E+00
  1.90000000E+02  9.80000000E+01  0.00000000E+00
  1.90000000E+02  9.60000000E+01  0.00000000E+00
  1.90000000E+02  9.40000000E+01  0.00000000E+00
  1.90000000E+02  9.20000000E+01  0.00000000E+00
  1.90000000E+02  9.00000000E+01  0.00000000E+00
  1.90000000E+02  8.80000000E+01  0.00000000E+00
  1.90000000E+02  8.60000000E+01  0.00000000E+00
  1.90000000E+02  8.40000000E+01  0.00000000E+00
  1.90000000E+02  8.20000000E+01  0.00000000E+00
  1.90000000E+02  8.00000000E+01  0.00000000E+00
  1.90000000E+02  7.80000000E+01  0.00000000E+00
  1.90000000E+02  7.60000000E+01  0.00000000E+00
  1.90000000E+02  7.40000000E+01  0.00000000E+00
  1.90000000E+02  7.20000000E+01  0.00000000E+00
  1.90000000E+02  7.00000000E+01  0.00000000E+00
  1.90000000E+02  6.80000000E+01  0.00000000E+00
  1.90000000E+02  6.60000000E+01  0.00000000E+00
  1.90000000E+02  6.40000000E+01  0.00000000E+00
  1.90000000E+02  6.20000000E+01  0.00000000E+00
  1.90000000E+02  6.00000000E+01  0.00000000E+00
  1.90000000E+02  5.80000000E+01  0.00000000E+00
  1.90000000E+02  5.60000000E+01  0.00000000E+00
  1.90000000E+02  5.40000000E+01  0.00000000E+00
  1.90000000E+02  5.20000000E+01  0.00000000E+00
  1.90000000E+02  5.00000000E+01  0.00000000E+00
  1.90000000E+02  4.80000000E+01  0.00000000E+00
  1.90000000E+02  4.60000000E+01  0.00000000E+00
  1.90000000E+02  4.40000000E+01  0.00000000E+00
  1.90000000E+02  4.20000000E+01  0.00000000E+00
  1.90000000E+02  4.00000000E+01  0.00000000E+00
  1.90000000E+02  3.80000000E+01  0.00000000E+00
  1.90000000E+02  3.60000000E+01  0.00000000E+00
  1.90000000E+02  3.40000000E+01  0.00000000E+00
  1.90000000E+02  3.20000000E+01  0.00000000E+00
  1.90000000E+02  3.00000000E+01  0.00000000E+00
  1.90000000E+02  2.80000000E+01  0.00000000E+00
  1.90000000E+02  2.60000000E+01  0.00000000E+00
  1.90000000E+02  2.40000000E+01  0.00000000E+00
  1.90000000E+02  2.20000000E+01  0.00000000E+00
  1.90000000E+02  2.00000000E+01  0.00000000E+00
  1.90000000E+02  1.80000000E+01  0.00000000E+00
  1.90000000E+02  1.60000000E+01  0.00000000E+00
  1.90000000E+02  1.40000000E+01  0.00000000E+00
  1.90000000E+02  1.20000000E+01  0.00000000E+00
  1.90000000E+02  1.00000000E+01  0.00000000E+00
  1.90000000E+02  8.00000000E+00  0.00000000E+00
  1.90000000E+02  6.00000000E+00  0.00000000E+00
  1.90000000E+02  4.00000000E+00  0.00000000E+00
  1.90000000E+02  2.00000000E+00  0.00000000E+00
  1.90000000E+02 -3.33066907E-14  0.00000000E+00
  2.00000000E+02  1.00000000E+02  0.00000000E+00
  2.00000000E+02  9.80000000E+01  0.00000000E+00
  2.00000000E+02  9.60000000E+01  0.00000000E+00
  2.00000000E+02  9.40000000E+01  0.00000000E+00
  2.00000000E+02  9.20000000E+01  0.00000000E+00
  2.00000000E+02  9.00000000E+01  0.00000000E+00
  2.00000000E+02  8.80000000E+01  0.00000000E+00
  2.00000000E+02  8.60000000E+01  0.00000000E+00
  2.00000000E+02  8.40000000E+01  0.00000000E+00
  2.00000000E+02  8.20000000E+01  0.00000000E+00
  2.00000000E+02  8.00000000E+01  0.00000000E+00
  2.00000000E+02  7.80000000E+01  0.00000000E+00
  2.00000000E+02  7.60000000E+01  0.00000000E+00
  2.00000000E+02  7.40000000E+01  0.00000000E+00
  2.00000000E+02  7.20000000E+01  0.00000000E+00
  2.00000000E+02  7.00000000E+01  0.00000000E+00
  2.00000000E+02  6.80000000E+01  0.00000000E+00
  2.00000000E+02  6.60000000E+01  0.00000000E+00
  2.00000000E+02  6.40000000E+01  0.00000000E+00
  2.00000000E+02  6.20000000E+01  0.00000000E+00
  2.00000000E+02  6.00000000E+01  0.00000000E+00
  2.00000000E+02  5.80000000E+01  0.00000000E+00
  2.00000000E+02  5.60000000E+01  0.00000000E+00
  2.00000000E+02  5.40000000E+01  0.00000000E+00
  2.00000000E+02  5.20000000E+01  0.00000000E+00
  2.00000000E+02  5.00000000E+01  0.00000000E+00
  2.00000000E+02  4.80000000E+01  0.00000000E+00
  2.00000000E+02  4.60000000E+01  0.00000000E+00
  2.00000000E+02  4.40000000E+01  0.00000000E+00
  2.00000000E+02  4.20000000E+01  0.00000000E+00
  2.00000000E+02  4.00000000E+01  0.00000000E+00
  2.00000000E+02  3.80000000E+01  0.00000000E+00
  2.00000000E+02  3.60000000E+01  0.00000000E+00
  2.00000000E+02  3.40000000E+01  0.00000000E+00
  2.00000000E+02  3.20000000E+01  0.00000000E+00
  2.00000000E+02  3.00000000E+01  0.00000000E+00
  2.00000000E+02  2.80000000E+01  0.00000000E+00
  2.00000000E+02  2.60000000E+01  0.00000000E+00
  2.00000000E+02  2.40000000E+01  0.00000000E+00
  2.00000000E+02  2.20000000E+01  0.00000000E+00
  2.00000000E+02  2.00000000E+01  0.00000000E+00
  2.00000000E+02  1.80000000E+01  0.00000000E+00
  2.00000000E+02  1.60000000E+01  0.00000000E+00
  2.00000000E+02  1.40000000E+01  0.00000000E+00
  2.00000000E+02  1.20000000E+01  0.00000000E+00
  2.00000000E+02  1.00000000E+01  0.00000000E+00
  2.00000000E+02  8.00000000E+00  0.00000000E+00
  2.00000000E+02  6.00000000E+00  0.00000000E+00
  2.00000000E+02  4.00000000E+00  0.00000000E+00
  2.00000000E+02  2.00000000E+00  0.00000000E+00
  2.00000000E+02 -3.33066907E-14  0.00000000E+00
  2.10000000E+02  1.00000000E+02  0.00000000E+00
  2.10000000E+02  9.80000000E+01  0.00000000E+00
  2.10000000E+02  9.60000000E+01  0.00000000E+00
  2.10000000E+02  9.40000000E+01  0.00000000E+00
  2.10000000E+02  9.20000000E+01  0.00000000E+00
  2.10000000E+02  9.00000000E+01  0.00000000E+00
  2.10000000E+02  8.80000000E+01  0.00000000E+00
  2.10000000E+02  8.60000000E+01  0.00000000E+00
  2.10000000E+02  8.40000000E+01  0.00000000E+00
  2.10000000E+02  8.20000000E+01  0.00000000E+00
  2.10000000E+02  8.00000000E+01  0.00000000E+00
  2.10000000E+02  7.80000000E+01  0.00000000E+00
  2.10000000E+02  7.60000000E+01  0.00000000E+00
  2.10000000E+02  7.40000000E+01  0.00000000E+00
  2.10000000E+02  7.20000000E+01  0.00000000E+00
  2.10000000E+02  7.00000000E+01  0.00000000E+00
  2.10000000E+02  6.80000000E+01  0.00000000E+00
  2.10000000E+02  6.60000000E+01  0.00000000E+00
  2.10000000E+02  6.40000000E+01  0.00000000E+00
  2.10000000E+02  6.20000000E+01  0.00000000E+00
  2.10000000E+02  6.00000000E+01  0.00000000E+00
  2.10000000E+02  5.80000000E+01  0.00000000E+00
  2.10000000E+02  5.60000000E+01  0.00000000E+00
  2.10000000E+02  5.40000000E+01  0.00000000E+00
  2.10000000E+02  5.20000000E+01  0.00000000E+00
  2.10000000E+02  5.00000000E+01  0.00000000E+00
  2.10000000E+02  4.80000000E+01  0.00000000E+00
  2.10000000E+02  4.60000000E+01  0.00000000E+00
  2.10000000E+02  4.40000000E+01  0.00000000E+00
  2.10000000E+02  4.20000000E+01  0.00000000E+00
  2.10000000E+02  4.00000000E+01  0.00000000E+00
  2.10000000E+02  3.80000000E+01  0.00000000E+00
  2.10000000E+02  3.60000000E+01  0.00000000E+00
  2.10000000E+02  3.40000000E+01  0.00000000E+00
  2.10000000E+02  3.20000000E+01  0.00000000E+00
  2.10000000E+02  3.00000000E+01  0.00000000E+00
  2.10000000E+02  2.80000000E+01  0.00000000E+00
  2.10000000E+02  2.60000000E+01  0.00000000E+00
  2.10000000E+02  2.40000000E+01  0.00000000E+00
  2.10000000E+02  2.20000000E+01  0.00000000E+00
  2.10000000E+02  2.00000000E+01  0.00000000E+00
  2.10000000E+02  1.80000000E+01  0.00000000E+00
  2.10000000E+02  1.60000000E+01  0.00000000E+00
  2.10000000E+02  1.40000000E+01  0.00000000E+00
  2.10000000E+02  1.20000000E+01  0.00000000E+00
  2.10000000E+02  1.00000000E+01  0.00000000E+00
  2.10000000E+02  8.00000000E+00  0.00000000E+00
  2.10000000E+02  6.00000000E+00  0.00000000E+00
  2.10000000E+02  4.00000000E+00  0.00000000E+00
  2.10000000E+02  2.00000000E+00  0.00000000E+00
  2.10000000E+02 -3.33066907E-14  0.00000000E+00
  2.20000000E+02  1.00000000E+02  0.00000000E+00
  2.20000000E+02  9.80000000E+01  0.00000000E+00
  2.20000000E+02  9.60000000E+01  0.00000000E+00
  2.20000000E+02  9.40000000E+01  0.00000000E+00
  2.20000000E+02  9.20000000E+01  0.00000000E+00
  2.20000000E+02  9.00000000E+01  0.00000000E+00
  2.20000000E+02  8.80000000E+01  0.00000000E+00
  2.20000000E+02  8.60000000E+01  0.00000000E+00
  2.20000000E+02  8.40000000E+01  0.00000000E+00
  2.20000000E+02  8.20000000E+01  0.00000000E+00
  2.20000000E+02  8.00000000E+01  0.00000000E+00
  2.20000000E+02  7.80000000E+01  0.00000000E+00
  2.20000000E+02  7.60000000E+01  0.00000000E+00
  2.20000000E+02  7.40000000E+01  0.00000000E+00
  2.20000000E+02  7.20000000E+01  0.00000000E+00
  2.20000000E+02  7.00000000E+01  0.00000000E+00
  2.20000000E+02  6.80000000E+01  0.00000000E+00
  2.20000000E+02  6.60000000E+01  0.00000000E+00
  2.20000000E+02  6.40000000E+01  0.00000000E+00
  2.20000000E+02  6.20000000E+01  0.00000000E+00
  2.20000000E+02  6.00000000E+01  0.00000000E+00
  2.20000000E+02  5.80000000E+01  0.00000000E+00
  2.20000000E+02  5.60000000E+01  0.00000000E+00
  2.20000000E+02  5.40000000E+01  0.00000000E+00
  2.20000000E+02  5.20000000E+01  0.00000000E+00
  2.20000000E+02  5.00000000E+01  0.00000000E+00
  2.20000000E+02  4.80000000E+01  0.00000000E+00
  2.20000000E+02  4.60000000E+01  0.00000000E+00
  2.20000000E+02  4.40000000E+01  0.00000000E+00
  2.20000000E+02  4.20000000E+01  0.00000000E+00
  2.20000000E+02  4.00000000E+01  0.00000000E+00
  2.20000000E+02  3.80000000E+01  0.00000000E+00
  2.20000000E+02  3.60000000E+01  0.00000000E+00
  2.20000000E+02  3.40000000E+01  0.00000000E+00
  2.20000000E+02  3.20000000E+01  0.00000000E+00
  2.20000000E+02  3.00000000E+01  0.00000000E+00
  2.20000000E+02  2.80000000E+01  0.00000000E+00
  2.20000000E+02  2.60000000E+01  0.00000000E+00
  2.20000000E+02  2.40000000E+01  0.00000000E+00
  2.20000000E+02  2.20000000E+01  0.00000000E+00
  2.20000000E+02  2.00000000E+01  0.00000000E+00
  2.20000000E+02  1.80000000E+01  0.00000000E+00
  2.20000000E+02  1.60000000E+01  0.00000000E+00
  2.20000000E+02  1.40000000E+01  0.00000000E+00
  2.20000000E+02  1.20000000E+01  0.00000000E+00
  2.20000000E+02  1.00000000E+01  0.00000000E+00
  2.20000000E+02  8.00000000E+00  0.00000000E+00
  2.20000000E+02  6.00000000E+00  0.00000000E+00
  2.20000000E+02  4.00000000E+00  0.00000000E+00
  2.20000000E+02  2.00000000E+00  0.00000000E+00
  2.20000000E+02 -3.33066907E-14  0.00000000E+00
  2.30000000E+02  1.00000000E+02  0.00000000E+00
  2.30000000E+02  9.80000000E+01  0.00000000E+00
  2.30000000E+02  9.60000000E+01  0.00000000E+00
  2.30000000E+02  9.40000000E+01  0.00000000E+00
  2.30000000E+02  9.20000000E+01  0.00000000E+00
  2.30000000E+02  9.00000000E+01  0.00000000E+00
  2.30000000E+02  8.80000000E+01  0.00000000E+00
  2.30000000E+02  8.60000000E+01  0.00000000E+00
  2.30000000E+02  8.40000000E+01  0.00000000E+00
  2.30000000E+02  8.20000000E+01  0.00000000E+00
  2.30000000E+02  8.00000000E+01  0.00000000E+00
  2.30000000E+02  7.80000000E+01  0.00000000E+00
  2.30000000E+02  7.60000000E+01  0.00000000E+00
  2.30000000E+02  7.40000000E+01  0.00000000E+00
  2.30000000E+02  7.20000000E+01  0.00000000E+00
  2.30000000E+02  7.00000000E+01  0.00000000E+00
  2.30000000E+02  6.80000000E+01  0.00000000E+00
  2.30000000E+02  6.60000000E+01  0.00000000E+00
  2.30000000E+02  6.40000000E+01  0.00000000E+00
  2.30000000E+02  6.20000000E+01  0.00000000E+00
  2.30000000E+02  6.00000000E+01  0.00000000E+00
  2.30000000E+02  5.80000000E+01  0.00000000E+00
  2.30000000E+02  5.60000000E+01  0.00000000E+00
  2.30000000E+02  5.40000000E+01  0.00000000E+00
  2.30000000E+02  5.20000000E+01  0.00000000E+00
  2.30000000E+02  5.00000000E+01  0.00000000E+00
  2.30000000E+02  4.80000000E+01  0.00000000E+00
  2.30000000E+02  4.60000000E+01  0.00000000E+00
  2.30000000E+02  4.40000000E+01  0.00000000E+00
  2.30000000E+02  4.20000000E+01  0.00000000E+00
  2.30000000E+02  4.00000000E+01  0.00000000E+00
  2.30000000E+02  3.80000000E+01  0.00000000E+00
  2.30000000E+02  3.60000000E+01  0.00000000E+00
  2.30000000E+02  3.40000000E+01  0.00000000E+00
  2.30000000E+02  3.20000000E+01  0.00000000E+00
  2.30000000E+02  3.00000000E+01  0.00000000E+00
  2.30000000E+02  2.80000000E+01  0.00000000E+00
  2.30000000E+02  2.60000000E+01  0.00000000E+00
  2.30000000E+02  2.40000000E+01  0.00000000E+00
  2.30000000E+02  2.20000000E+01  0.00000000E+00
  2.30000000E+02  2.00000000E+01  0.00000000E+00
  2.30000000E+02  1.80000000E+01  0.00000000E+00
  2.30000000E+02  1.60000000E+01  0.00000000E+00
  2.30000000E+02  1.40000000E+01  0.00000000E+00
  2.30000000E+02  1.20000000E+01  0.00000000E+00
  2.30000000E+02  1.00000000E+01  0.00000000E+00
  2.30000000E+02  8.00000000E+00  0.00000000E+00
  2.30000000E+02  6.00000000E+00  0.00000000E+00
  2.30000000E+02  4.00000000E+00  0.00000000E+00
  2.30000000E+02  2.00000000E+00  0.00000000E+00
  2.30000000E+02 -3.33066907E-14  0.00000000E+00
  2.40000000E+02  1.00000000E+02  0.00000000E+00
  2.40000000E+02  9.80000000E+01  0.00000000E+00
  2.40000000E+02  9.60000000E+01  0.00000000E+00
  2.40000000E+02  9.40000000E+01  0.00000000E+00
  2.40000000E+02  9.20000000E+01  0.00000000E+00
  2.40000000E+02  9.00000000E+01  0.00000000E+00
  2.40000000E+02  8.80000000E+01  0.00000000E+00
  2.40000000E+02  8.60000000E+01  0.00000000E+00
  2.40000000E+02  8.40000000E+01  0.00000000E+00
  2.40000000E+02  8.20000000E+01  0.00000000E+00
  2.40000000E+02  8.00000000E+01  0.00000000E+00
  2.40000000E+02  7.80000000E+01  0.00000000E+00
  2.40000000E+02  7.60000000E+01  0.00000000E+00
  2.40000000E+02  7.40000000E+01  0.00000000E+00
  2.40000000E+02  7.20000000E+01  0.00000000E+00
  2.40000000E+02  7.00000000E+01  0.00000000E+00
  2.40000000E+02  6.80000000E+01  0.00000000E+00
  2.40000000E+02  6.60000000E+01  0.00000000E+00
  2.40000000E+02  6.40000000E+01  0.00000000E+00
  2.40000000E+02  6.20000000E+01  0.00000000E+00
  2.40000000E+02  6.00000000E+01  0.00000000E+00
  2.40000000E+02  5.80000000E+01  0.00000000E+00
  2.40000000E+02  5.60000000E+01  0.00000000E+00
  2.40000000E+02  5.40000000E+01  0.00000000E+00
  2.40000000E+02  5.20000000E+01  0.00000000E+00
  2.40000000E+02  5.00000000E+01  0.00000000E+00
  2.40000000E+02  4.80000000E+01  0.00000000E+00
  2.40000000E+02  4.60000000E+01  0.00000000E+00
  2.40000000E+02  4.40000000E+01  0.00000000E+00
  2.40000000E+02  4.20000000E+01  0.00000000E+00
  2.40000000E+02  4.00000000E+01  0.00000000E+00
  2.40000000E+02  3.80000000E+01  0.00000000E+00
  2.40000000E+02  3.60000000E+01  0.00000000E+00
  2.40000000E+02  3.40000000E+01  0.00000000E+00
  2.40000000E+02  3.20000000E+01  0.00000000E+00
  2.40000000E+02  3.00000000E+01  0.00000000E+00
  2.40000000E+02  2.80000000E+01  0.00000000E+00
  2.40000000E+02  2.60000000E+01  0.00000000E+00
  2.40000000E+02  2.40000000E+01  0.00000000E+00
  2.40000000E+02  2.20000000E+01  0.00000000E+00
  2.40000000E+02  2.00000000E+01  0.00000000E+00
  2.40000000E+02  1.80000000E+01  0.00000000E+00
  2.40000000E+02  1.60000000E+01  0.00000000E+00
  2.40000000E+02  1.40000000E+01  0.00000000E+00
  2.40000000E+02  1.20000000E+01  0.00000000E+00
  2.40000000E+02  1.00000000E+01  0.00000000E+00
  2.40000000E+02  8.00000000E+00  0.00000000E+00
  2.40000000E+02  6.00000000E+00  0.00000000E+00
  2.40000000E+02  4.00000000E+00  0.00000000E+00
  2.40000000E+02  2.00000000E+00  0.00000000E+00
  2.40000000E+02 -3.33066907E-14  0.00000000E+00
  2.50000000E+02  1.00000000E+02  0.00000000E+00
  2.50000000E+02  9.80000000E+01  0.00000000E+00
  2.50000000E+02  9.60000000E+01  0.00000000E+00
  2.50000000E+02  9.40000000E+01  0.00000000E+00
  2.50000000E+02  9.20000000E+01  0.00000000E+00
  2.50000000E+02  9.00000000E+01  0.00000000E+00
  2.50000000E+02  8.80000000E+01  0.00000000E+00
  2.50000000E+02  8.60000000E+01  0.00000000E+00
  2.50000000E+02  8.40000000E+01  0.00000000E+00
  2.50000000E+02  8.20000000E+01  0.00000000E+00
  2.50000000E+02  8.00000000E+01  0.00000000E+00
  2.50000000E+02  7.80000000E+01  0.00000000E+00
  2.50000000E+02  7.60000000E+01  0.00000000E+00
  2.50000000E+02  7.40000000E+01  0.00000000E+00
  2.50000000E+02  7.20000000E+01  0.00000000E+00
  2.50000000E+02  7.00000000E+01  0.00000000E+00
  2.50000000E+02  6.80000000E+01  0.00000000E+00
  2.50000000E+02  6.60000000E+01  0.00000000E+00
  2.50000000E+02  6.40000000E+01  0.00000000E+00
  2.50000000E+02  6.20000000E+01  0.00000000E+00
  2.50000000E+02  6.00000000E+01  0.00000000E+00
  2.50000000E+02  5.80000000E+01  0.00000000E+00
  2.50000000E+02  5.60000000E+01  0.00000000E+00
  2.50000000E+02  5.40000000E+01  0.00000000E+00
  2.50000000E+02  5.20000000E+01  0.00000000E+00
  2.50000000E+02  5.00000000E+01  0.00000000E+00
  2.50000000E+02  4.80000000E+01  0.00000000E+00
  2.50000000E+02  4.60000000E+01  0.00000000E+00
  2.50000000E+02  4.40000000E+01  0.00000000E+00
  2.50000000E+02  4.20000000E+01  0.00000000E+00
  2.50000000E+02  4.00000000E+01  0.00000000E+00
  2.50000000E+02  3.80000000E+01  0.00000000E+00
  2.50000000E+02  3.60000000E+01  0.00000000E+00
  2.50000000E+02  3.40000000E+01  0.00000000E+00
  2.50000000E+02  3.20000000E+01  0.00000000E+00
  2.50000000E+02  3.00000000E+01  0.00000000E+00
  2.50000000E+02  2.80000000E+01  0.00000000E+00
  2.50000000E+02  2.60000000E+01  0.00000000E+00
  2.50000000E+02  2.40000000E+01  0.00000000E+00
  2.50000000E+02  2.20000000E+01  0.00000000E+00
  2.50000000E+02  2.00000000E+01  0.00000000E+00
  2.50000000E+02  1.80000000E+01  0.00000000E+00
  2.50000000E+02  1.60000000E+01  0.00000000E+00
  2.50000000E+02  1.40000000E+01  0.00000000E+00
  2.50000000E+02  1.20000000E+01  0.00000000E+00
  2.50000000E+02  1.00000000E+01  0.00000000E+00
  2.50000000E+02  8.00000000E+00  0.00000000E+00
  2.50000000E+02  6.00000000E+00  0.00000000E+00
  2.50000000E+02  4.00000000E+00  0.00000000E+00
  2.50000000E+02  2.00000000E+00  0.00000000E+00
  2.50000000E+02 -3.33066907E-14  0.00000000E+00
  2.60000000E+02  1.00000000E+02  0.00000000E+00
  2.60000000E+02  9.80000000E+01  0.00000000E+00
  2.60000000E+02  9.60000000E+01  0.00000000E+00
  2.60000000E+02  9.40000000E+01  0.00000000E+00
  2.60000000E+02  9.20000000E+01  0.00000000E+00
  2.60000000E+02  9.00000000E+01  0.00000000E+00
  2.60000000E+02  8.80000000E+01  0.00000000E+00
  2.60000000E+02  8.60000000E+01  0.00000000E+00
  2.60000000E+02  8.40000000E+01  0.00000000E+00
  2.60000000E+02  8.20000000E+01  0.00000000E+00
  2.60000000E+02  8.00000000E+01  0.00000000E+00
  2.60000000E+02  7.80000000E+01  0.00000000E+00
  2.60000000E+02  7.60000000E+01  0.00000000E+00
  2.60000000E+02  7.40000000E+01  0.00000000E+00
  2.60000000E+02  7.20000000E+01  0.00000000E+00
  2.60000000E+02  7.00000000E+01  0.00000000E+00
  2.60000000E+02  6.80000000E+01  0.00000000E+00
  2.60000000E+02  6.60000000E+01  0.00000000E+00
  2.60000000E+02  6.40000000E+01  0.00000000E+00
  2.60000000E+02  6.20000000E+01  0.00000000E+00
  2.60000000E+02  6.00000000E+01  0.00000000E+00
  2.60000000E+02  5.80000000E+01  0.00000000E+00
  2.60000000E+02  5.60000000E+01  0.00000000E+00
  2.60000000E+02  5.40000000E+01  0.00000000E+00
  2.60000000E+02  5.20000000E+01  0.00000000E+00
  2.60000000E+02  5.00000000E+01  0.00000000E+00
  2.60000000E+02  4.80000000E+01  0.00000000E+00
  2.60000000E+02  4.60000000E+01  0.00000000E+00
  2.60000000E+02  4.40000000E+01  0.00000000E+00
  2.60000000E+02  4.20000000E+01  0.00000000E+00
  2.60000000E+02  4.00000000E+01  0.00000000E+00
  2.60000000E+02  3.80000000E+01  0.00000000E+00
  2.60000000E+02  3.60000000E+01  0.00000000E+00
  2.60000000E+02  3.40000000E+01  0.00000000E+00
  2.60000000E+02  3.20000000E+01  0.00000000E+00
  2.60000000E+02  3.00000000E+01  0.00000000E+00
  2.60000000E+02  2.80000000E+01  0.00000000E+00
  2.60000000E+02  2.60000000E+01  0.00000000E+00
  2.60000000E+02  2.40000000E+01  0.00000000E+00
  2.60000000E+02  2.20000000E+01  0.00000000E+00
  2.60000000E+02  2.00000000E+01  0.00000000E+00
  2.60000000E+02  1.80000000E+01  0.00000000E+00
  2.60000000E+02  1.60000000E+01  0.00000000E+00
  2.60000000E+02  1.40000000E+01  0.00000000E+00
  2.60000000E+02  1.20000000E+01  0.00000000E+00
  2.60000000E+02  1.00000000E+01  0.00000000E+00
  2.60000000E+02  8.00000000E+00  0.00000000E+00
  2.60000000E+02  6.00000000E+00  0.00000000E+00
  2.60000000E+02  4.00000000E+00  0.00000000E+00
  2.60000000E+02  2.00000000E+00  0.00000000E+00
  2.60000000E+02 -3.33066907E-14  0.00000000E+00
  2.70000000E+02  1.00000000E+02  0.00000000E+00
  2.70000000E+02  9.80000000E+01  0.00000000E+00
  2.70000000E+02  9.60000000E+01  0.00000000E+00
  2.70000000E+02  9.40000000E+01  0.00000000E+00
  2.70000000E+02  9.20000000E+01  0.00000000E+00
  2.70000000E+02  9.00000000E+01  0.00000000E+00
  2.70000000E+02  8.80000000E+01  0.00000000E+00
  2.70000000E+02  8.60000000E+01  0.00000000E+00
  2.70000000E+02  8.40000000E+01  0.00000000E+00
  2.70000000E+02  8.20000000E+01  0.00000000E+00
  2.70000000E+02  8.00000000E+01  0.00000000E+00
  2.70000000E+02  7.80000000E+01  0.00000000E+00
  2.70000000E+02  7.60000000E+01  0.00000000E+00
  2.70000000E+02  7.40000000E+01  0.00000000E+00
  2.70000000E+02  7.20000000E+01  0.00000000E+00
  2.70000000E+02  7.00000000E+01  0.00000000E+00
  2.70000000E+02  6.80000000E+01  0.00000000E+00
  2.70000000E+02  6.60000000E+01  0.00000000E+00
  2.70000000E+02  6.40000000E+01  0.00000000E+00
  2.70000000E+02  6.20000000E+01  0.00000000E+00
  2.70000000E+02  6.00000000E+01  0.00000000E+00
  2.70000000E+02  5.80000000E+01  0.00000000E+00
  2.70000000E+02  5.60000000E+01  0.00000000E+00
  2.70000000E+02  5.40000000E+01  0.00000000E+00
  2.70000000E+02  5.20000000E+01  0.00000000E+00
  2.70000000E+02  5.00000000E+01  0.00000000E+00
  2.70000000E+02  4.80000000E+01  0.00000000E+00
  2.70000000E+02  4.60000000E+01  0.00000000E+00
  2.70000000E+02  4.40000000E+01  0.00000000E+00
  2.70000000E+02  4.20000000E+01  0.00000000E+00
  2.70000000E+02  4.00000000E+01  0.00000000E+00
  2.70000000E+02  3.80000000E+01  0.00000000E+00
  2.70000000E+02  3.60000000E+01  0.00000000E+00
  2.70000000E+02  3.40000000E+01  0.00000000E+00
  2.70000000E+02  3.20000000E+01  0.00000000E+00
  2.70000000E+02  3.00000000E+01  0.00000000E+00
  2.70000000E+02  2.80000000E+01  0.00000000E+00
  2.70000000E+02  2.60000000E+01  0.00000000E+00
  2.70000000E+02  2.40000000E+01  0.00000000E+00
  2.70000000E+02  2.20000000E+01  0.00000000E+00
  2.70000000E+02  2.00000000E+01  0.00000000E+00
  2.70000000E+02  1.80000000E+01  0.00000000E+00
  2.70000000E+02  1.60000000E+01  0.00000000E+00
  2.70000000E+02  1.40000000E+01  0.00000000E+00
  2.70000000E+02  1.20000000E+01  0.00000000E+00
  2.70000000E+02  1.00000000E+01  0.00000000E+00
  2.70000000E+02  8.00000000E+00  0.00000000E+00
  2.70000000E+02  6.00000000E+00  0.00000000E+00
  2.70000000E+02  4.00000000E+00  0.00000000E+00
  2.70000000E+02  2.00000000E+00  0.00000000E+00
  2.70000000E+02 -3.33066907E-14  0.00000000E+00
  2.80000000E+02  1.00000000E+02  0.00000000E+00
  2.80000000E+02  9.80000000E+01  0.00000000E+00
  2.80000000E+02  9.60000000E+01  0.00000000E+00
  2.80000000E+02  9.40000000E+01  0.00000000E+00
  2.80000000E+02  9.20000000E+01  0.00000000E+00
  2.80000000E+02  9.00000000E+01  0.00000000E+00
  2.80000000E+02  8.80000000E+01  0.00000000E+00
  2.80000000E+02  8.60000000E+01  0.00000000E+00
  2.80000000E+02  8.40000000E+01  0.00000000E+00
  2.80000000E+02  8.20000000E+01  0.00000000E+00
  2.80000000E+02  8.00000000E+01  0.00000000E+00
  2.80000000E+02  7.80000000E+01  0.00000000E+00
  2.80000000E+02  7.60000000E+01  0.00000000E+00
  2.80000000E+02  7.40000000E+01  0.00000000E+00
  2.80000000E+02  7.20000000E+01  0.00000000E+00
  2.80000000E+02  7.00000000E+01  0.00000000E+00
  2.80000000E+02  6.80000000E+01  0.00000000E+00
  2.80000000E+02  6.60000000E+01  0.00000000E+00
  2.80000000E+02  6.40000000E+01  0.00000000E+00
  2.80000000E+02  6.20000000E+01  0.00000000E+00
  2.80000000E+02  6.00000000E+01  0.00000000E+00
  2.80000000E+02  5.80000000E+01  0.00000000E+00
  2.80000000E+02  5.60000000E+01  0.00000000E+00
  2.80000000E+02  5.40000000E+01  0.00000000E+00
  2.80000000E+02  5.20000000E+01  0.00000000E+00
  2.80000000E+02  5.00000000E+01  0.00000000E+00
  2.80000000E+02  4.80000000E+01  0.00000000E+00
  2.80000000E+02  4.60000000E+01  0.00000000E+00
  2.80000000E+02  4.40000000E+01  0.00000000E+00
  2.80000000E+02  4.20000000E+01  0.00000000E+00
  2.80000000E+02  4.00000000E+01  0.00000000E+00
  2.80000000E+02  3.80000000E+01  0.00000000E+00
  2.80000000E+02  3.60000000E+01  0.00000000E+00
  2.80000000E+02  3.40000000E+01  0.00000000E+00
  2.80000000E+02  3.20000000E+01  0.00000000E+00
  2.80000000E+02  3.00000000E+01  0.00000000E+00
  2.80000000E+02  2.80000000E+01  0.00000000E+00
  2.80000000E+02  2.60000000E+01  0.00000000E+00
  2.80000000E+02  2.40000000E+01  0.00000000E+00
  2.80000000E+02  2.20000000E+01  0.00000000E+00
  2.80000000E+02  2.00000000E+01  0.00000000E+00
  2.80000000E+02  1.80000000E+01  0.00000000E+00
  2.80000000E+02  1.60000000E+01  0.00000000E+00
  2.80000000E+02  1.40000000E+01  0.00000000E+00
  2.80000000E+02  1.20000000E+01  0.00000000E+00
  2.80000000E+02  1.00000000E+01  0.00000000E+00
  2.80000000E+02  8.00000000E+00  0.00000000E+00
  2.80000000E+02  6.00000000E+00  0.00000000E+00
  2.80000000E+02  4.00000000E+00  0.00000000E+00
  2.80000000E+02  2.00000000E+00  0.00000000E+00
  2.80000000E+02 -3.33066907E-14  0.00000000E+00
  2.90000000E+02  1.00000000E+02  0.00000000E+00
  2.90000000E+02  9.80000000E+01  0.00000000E+00
  2.90000000E+02  9.60000000E+01  0.00000000E+00
  2.90000000E+02  9.40000000E+01  0.00000000E+00
  2.90000000E+02  9.20000000E+01  0.00000000E+00
  2.90000000E+02  9.00000000E+01  0.00000000E+00
  2.90000000E+02  8.80000000E+01  0.00000000E+00
  2.90000000E+02  8.60000000E+01  0.00000000E+00
  2.90000000E+02  8.40000000E+01  0.00000000E+00
  2.90000000E+02  8.20000000E+01  0.00000000E+00
  2.90000000E+02  8.00000000E+01  0.00000000E+00
  2.90000000E+02  7.80000000E+01  0.00000000E+00
  2.90000000E+02  7.60000000E+01  0.00000000E+00
  2.90000000E+02  7.40000000E+01  0.00000000E+00
  2.90000000E+02  7.20000000E+01  0.00000000E+00
  2.90000000E+02  7.00000000E+01  0.00000000E+00
  2.90000000E+02  6.80000000E+01  0.00000000E+00
  2.90000000E+02  6.60000000E+01  0.00000000E+00
  2.90000000E+02  6.40000000E+01  0.00000000E+00
  2.90000000E+02  6.20000000E+01  0.00000000E+00
  2.90000000E+02  6.00000000E+01  0.00000000E+00
  2.90000000E+02  5.80000000E+01  0.00000000E+00
  2.90000000E+02  5.60000000E+01  0.00000000E+00
  2.90000000E+02  5.40000000E+01  0.00000000E+00
  2.90000000E+02  5.20000000E+01  0.00000000E+00
  2.90000000E+02  5.00000000E+01  0.00000000E+00
  2.90000000E+02  4.80000000E+01  0.00000000E+00
  2.90000000E+02  4.60000000E+01  0.00000000E+00
  2.90000000E+02  4.40000000E+01  0.00000000E+00
  2.90000000E+02  4.20000000E+01  0.00000000E+00
  2.90000000E+02  4.00000000E+01  0.00000000E+00
  2.90000000E+02  3.80000000E+01  0.00000000E+00
  2.90000000E+02  3.60000000E+01  0.00000000E+00
  2.90000000E+02  3.40000000E+01  0.00000000E+00
  2.90000000E+02  3.20000000E+01  0.00000000E+00
  2.90000000E+02  3.00000000E+01  0.00000000E+00
  2.90000000E+02  2.80000000E+01  0.00000000E+00
  2.90000000E+02  2.60000000E+01  0.00000000E+00
  2.90000000E+02  2.40000000E+01  0.00000000E+00
  2.90000000E+02  2.20000000E+01  0.00000000E+00
  2.90000000E+02  2.00000000E+01  0.00000000E+00
  2.90000000E+02  1.80000000E+01  0.00000000E+00
  2.90000000E+02  1.60000000E+01  0.00000000E+00
  2.90000000E+02  1.40000000E+01  0.00000000E+00
  2.90000000E+02  1.20000000E+01  0.00000000E+00
  2.90000000E+02  1.00000000E+01  0.00000000E+00
  2.90000000E+02  8.00000000E+00  0.00000000E+00
  2.90000000E+02  6.00000000E+00  0.00000000E+00
  2.90000000E+02  4.00000000E+00  0.00000000E+00
  2.90000000E+02  2.00000000E+00  0.00000000E+00
  2.90000000E+02 -3.33066907E-14  0.00000000E+00
  3.00000000E+02  1.00000000E+02  0.00000000E+00
  3.00000000E+02  9.80000000E+01  0.00000000E+00
  3.00000000E+02  9.60000000E+01  0.00000000E+00
  3.00000000E+02  9.40000000E+01  0.00000000E+00
  3.00000000E+02  9.20000000E+01  0.00000000E+00
  3.00000000E+02  9.00000000E+01  0.00000000E+00
  3.00000000E+02  8.80000000E+01  0.00000000E+00
  3.00000000E+02  8.60000000E+01  0.00000000E+00
  3.00000000E+02  8.40000000E+01  0.00000000E+00
  3.00000000E+02  8.20000000E+01  0.00000000E+00
  3.00000000E+02  8.00000000E+01  0.00000000E+00
  3.00000000E+02  7.80000000E+01  0.00000000E+00
  3.00000000E+02  7.60000000E+01  0.00000000E+00
  3.00000000E+02  7.40000000E+01  0.00000000E+00
  3.00000000E+02  7.20000000E+01  0.00000000E+00
  3.00000000E+02  7.00000000E+01  0.00000000E+00
  3.00000000E+02  6.80000000E+01  0.00000000E+00
  3.00000000E+02  6.60000000E+01  0.00000000E+00
  3.00000000E+02  6.40000000E+01  0.00000000E+00
  3.00000000E+02  6.20000000E+01  0.00000000E+00
  3.00000000E+02  6.00000000E+01  0.00000000E+00
  3.00000000E+02  5.80000000E+01  0.00000000E+00
  3.00000000E+02  5.60000000E+01  0.00000000E+00
  3.00000000E+02  5.40000000E+01  0.00000000E+00
  3.00000000E+02  5.20000000E+01  0.00000000E+00
  3.00000000E+02  5.00000000E+01  0.00000000E+00
  3.00000000E+02  4.80000000E+01  0.00000000E+00
  3.00000000E+02  4.60000000E+01  0.00000000E+00
  3.00000000E+02  4.40000000E+01  0.00000000E+00
  3.00000000E+02  4.20000000E+01  0.00000000E+00
  3.00000000E+02  4.00000000E+01  0.00000000E+00
  3.00000000E+02  3.80000000E+01  0.00000000E+00
  3.00000000E+02  3.60000000E+01  0.00000000E+00
  3.00000000E+02  3.40000000E+01  0.00000000E+00
  3.00000000E+02  3.20000000E+01  0.00000000E+00
  3.00000000E+02  3.00000000E+01  0.00000000E+00
  3.00000000E+02  2.80000000E+01  0.00000000E+00
  3.00000000E+02  2.60000000E+01  0.00000000E+00
  3.00000000E+02  2.40000000E+01  0.00000000E+00
  3.00000000E+02  2.20000000E+01  0.00000000E+00
  3.00000000E+02  2.00000000E+01  0.00000000E+00
  3.00000000E+02  1.80000000E+01  0.00000000E+00
  3.00000000E+02  1.60000000E+01  0.00000000E+00
  3.00000000E+02  1.40000000E+01  0.00000000E+00
  3.00000000E+02  1.20000000E+01  0.00000000E+00
  3.00000000E+02  1.00000000E+01  0.00000000E+00
  3.00000000E+02  8.00000000E+00  0.00000000E+00
  3.00000000E+02  6.00000000E+00  0.00000000E+00
  3.00000000E+02  4.00000000E+00  0.00000000E+00
  3.00000000E+02  2.00000000E+00  0.00000000E+00
  3.00000000E+02 -3.33066907E-14  0.00000000E+00
  3.10000000E+02  1.00000000E+02  0.00000000E+00
  3.10000000E+02  9.80000000E+01  0.00000000E+00
  3.10000000E+02  9.60000000E+01  0.00000000E+00
  3.10000000E+02  9.40000000E+01  0.00000000E+00
  3.10000000E+02  9.20000000E+01  0.00000000E+00
  3.10000000E+02  9.00000000E+01  0.00000000E+00
  3.10000000E+02  8.80000000E+01  0.00000000E+00
  3.10000000E+02  8.60000000E+01  0.00000000E+00
  3.10000000E+02  8.40000000E+01  0.00000000E+00
  3.10000000E+02  8.20000000E+01  0.00000000E+00
  3.10000000E+02  8.00000000E+01  0.00000000E+00
  3.10000000E+02  7.80000000E+01  0.00000000E+00
  3.10000000E+02  7.60000000E+01  0.00000000E+00
  3.10000000E+02  7.40000000E+01  0.00000000E+00
  3.10000000E+02  7.20000000E+01  0.00000000E+00
  3.10000000E+02  7.00000000E+01  0.00000000E+00
  3.10000000E+02  6.80000000E+01  0.00000000E+00
  3.10000000E+02  6.60000000E+01  0.00000000E+00
  3.10000000E+02  6.40000000E+01  0.00000000E+00
  3.10000000E+02  6.20000000E+01  0.00000000E+00
  3.10000000E+02  6.00000000E+01  0.00000000E+00
  3.10000000E+02  5.80000000E+01  0.00000000E+00
  3.10000000E+02  5.60000000E+01  0.00000000E+00
  3.10000000E+02  5.40000000E+01  0.00000000E+00
  3.10000000E+02  5.20000000E+01  0.00000000E+00
  3.10000000E+02  5.00000000E+01  0.00000000E+00
  3.10000000E+02  4.80000000E+01  0.00000000E+00
  3.10000000E+02  4.60000000E+01  0.00000000E+00
  3.10000000E+02  4.40000000E+01  0.00000000E+00
  3.10000000E+02  4.20000000E+01  0.00000000E+00
  3.10000000E+02  4.00000000E+01  0.00000000E+00
  3.10000000E+02  3.80000000E+01  0.00000000E+00
  3.10000000E+02  3.60000000E+01  0.00000000E+00
  3.10000000E+02  3.40000000E+01  0.00000000E+00
  3.10000000E+02  3.20000000E+01  0.00000000E+00
  3.10000000E+02  3.00000000E+01  0.00000000E+00
  3.10000000E+02  2.80000000E+01  0.00000000E+00
  3.10000000E+02  2.60000000E+01  0.00000000E+00
  3.10000000E+02  2.40000000E+01  0.00000000E+00
  3.10000000E+02  2.20000000E+01  0.00000000E+00
  3.10000000E+02  2.00000000E+01  0.00000000E+00
  3.10000000E+02  1.80000000E+01  0.00000000E+00
  3.10000000E+02  1.60000000E+01  0.00000000E+00
  3.10000000E+02  1.40000000E+01  0.00000000E+00
  3.10000000E+02  1.20000000E+01  0.00000000E+00
  3.10000000E+02  1.00000000E+01  0.00000000E+00
  3.10000000E+02  8.00000000E+00  0.00000000E+00
  3.10000000E+02  6.00000000E+00  0.00000000E+00
  3.10000000E+02  4.00000000E+00  0.00000000E+00
  3.10000000E+02  2.00000000E+00  0.00000000E+00
  3.10000000E+02 -3.33066907E-14  0.00000000E+00
  3.20000000E+02  1.00000000E+02  0.00000000E+00
  3.20000000E+02  9.80000000E+01  0.00000000E+00
  3.20000000E+02  9.60000000E+01  0.00000000E+00
  3.20000000E+02  9.40000000E+01  0.00000000E+00
  3.20000000E+02  9.20000000E+01  0.00000000E+00
  3.20000000E+02  9.00000000E+01  0.00000000E+00
  3.20000000E+02  8.80000000E+01  0.00000000E+00
  3.20000000E+02  8.60000000E+01  0.00000000E+00
  3.20000000E+02  8.40000000E+01  0.00000000E+00
  3.20000000E+02  8.20000000E+01  0.00000000E+00
  3.20000000E+02  8.00000000E+01  0.00000000E+00
  3.20000000E+02  7.80000000E+01  0.00000000E+00
  3.20000000E+02  7.60000000E+01  0.00000000E+00
  3.20000000E+02  7.40000000E+01  0.00000000E+00
  3.20000000E+02  7.20000000E+01  0.00000000E+00
  3.20000000E+02  7.00000000E+01  0.00000000E+00
  3.20000000E+02  6.80000000E+01  0.00000000E+00
  3.20000000E+02  6.60000000E+01  0.00000000E+00
  3.20000000E+02  6.40000000E+01  0.00000000E+00
  3.20000000E+02  6.20000000E+01  0.00000000E+00
  3.20000000E+02  6.00000000E+01  0.00000000E+00
  3.20000000E+02  5.80000000E+01  0.00000000E+00
  3.20000000E+02  5.60000000E+01  0.00000000E+00
  3.20000000E+02  5.40000000E+01  0.00000000E+00
  3.20000000E+02  5.20000000E+01  0.00000000E+00
  3.20000000E+02  5.00000000E+01  0.00000000E+00
  3.20000000E+02  4.80000000E+01  0.00000000E+00
  3.20000000E+02  4.60000000E+01  0.00000000E+00
  3.20000000E+02  4.40000000E+01  0.00000000E+00
  3.20000000E+02  4.20000000E+01  0.00000000E+00
  3.20000000E+02  4.00000000E+01  0.00000000E+00
  3.20000000E+02  3.80000000E+01  0.00000000E+00
  3.20000000E+02  3.60000000E+01  0.00000000E+00
  3.20000000E+02  3.40000000E+01  0.00000000E+00
  3.20000000E+02  3.20000000E+01  0.00000000E+00
  3.20000000E+02  3.00000000E+01  0.00000000E+00
  3.20000000E+02  2.80000000E+01  0.00000000E+00
  3.20000000E+02  2.60000000E+01  0.00000000E+00
  3.20000000E+02  2.40000000E+01  0.00000000E+00
  3.20000000E+02  2.20000000E+01  0.00000000E+00
  3.20000000E+02  2.00000000E+01  0.00000000E+00
  3.20000000E+02  1.80000000E+01  0.00000000E+00
  3.20000000E+02  1.60000000E+01  0.00000000E+00
  3.20000000E+02  1.40000000E+01  0.00000000E+00
  3.20000000E+02  1.20000000E+01  0.00000000E+00
  3.20000000E+02  1.00000000E+01  0.00000000E+00
  3.20000000E+02  8.00000000E+00  0.00000000E+00
  3.20000000E+02  6.00000000E+00  0.00000000E+00
  3.20000000E+02  4.00000000E+00  0.00000000E+00
  3.20000000E+02  2.00000000E+00  0.00000000E+00
  3.20000000E+02 -3.33066907E-14  0.00000000E+00
  3.30000000E+02  1.00000000E+02  0.00000000E+00
  3.30000000E+02  9.80000000E+01  0.00000000E+00
  3.30000000E+02  9.60000000E+01  0.00000000E+00
  3.30000000E+02  9.40000000E+01  0.00000000E+00
  3.30000000E+02  9.20000000E+01  0.00000000E+00
  3.30000000E+02  9.00000000E+01  0.00000000E+00
  3.30000000E+02  8.80000000E+01  0.00000000E+00
  3.30000000E+02  8.60000000E+01  0.00000000E+00
  3.30000000E+02  8.40000000E+01  0.00000000E+00
  3.30000000E+02  8.20000000E+01  0.00000000E+00
  3.30000000E+02  8.00000000E+01  0.00000000E+00
  3.30000000E+02  7.80000000E+01  0.00000000E+00
  3.30000000E+02  7.60000000E+01  0.00000000E+00
  3.30000000E+02  7.40000000E+01  0.00000000E+00
  3.30000000E+02  7.20000000E+01  0.00000000E+00
  3.30000000E+02  7.00000000E+01  0.00000000E+00
  3.30000000E+02  6.80000000E+01  0.00000000E+00
  3.30000000E+02  6.60000000E+01  0.00000000E+00
  3.30000000E+02  6.40000000E+01  0.00000000E+00
  3.30000000E+02  6.20000000E+01  0.00000000E+00
  3.30000000E+02  6.00000000E+01  0.00000000E+00
  3.30000000E+02  5.80000000E+01  0.00000000E+00
  3.30000000E+02  5.60000000E+01  0.00000000E+00
  3.30000000E+02  5.40000000E+01  0.00000000E+00
  3.30000000E+02  5.20000000E+01  0.00000000E+00
  3.30000000E+02  5.00000000E+01  0.00000000E+00
  3.30000000E+02  4.80000000E+01  0.00000000E+00
  3.30000000E+02  4.60000000E+01  0.00000000E+00
  3.30000000E+02  4.40000000E+01  0.00000000E+00
  3.30000000E+02  4.20000000E+01  0.00000000E+00
  3.30000000E+02  4.00000000E+01  0.00000000E+00
  3.30000000E+02  3.80000000E+01  0.00000000E+00
  3.30000000E+02  3.60000000E+01  0.00000000E+00
  3.30000000E+02  3.40000000E+01  0.00000000E+00
  3.30000000E+02  3.20000000E+01  0.00000000E+00
  3.30000000E+02  3.00000000E+01  0.00000000E+00
  3.30000000E+02  2.80000000E+01  0.00000000E+00
  3.30000000E+02  2.60000000E+01  0.00000000E+00
  3.30000000E+02  2.40000000E+01  0.00000000E+00
  3.30000000E+02  2.20000000E+01  0.00000000E+00
  3.30000000E+02  2.00000000E+01  0.00000000E+00
  3.30000000E+02  1.80000000E+01  0.00000000E+00
  3.30000000E+02  1.60000000E+01  0.00000000E+00
  3.30000000E+02  1.40000000E+01  0.00000000E+00
  3.30000000E+02  1.20000000E+01  0.00000000E+00
  3.30000000E+02  1.00000000E+01  0.00000000E+00
  3.30000000E+02  8.00000000E+00  0.00000000E+00
  3.30000000E+02  6.00000000E+00  0.00000000E+00
  3.30000000E+02  4.00000000E+00  0.00000000E+00
  3.30000000E+02  2.00000000E+00  0.00000000E+00
  3.30000000E+02 -3.33066907E-14  0.00000000E+00
  3.40000000E+02  1.00000000E+02  0.00000000E+00
  3.40000000E+02  9.80000000E+01  0.00000000E+00
  3.40000000E+02  9.60000000E+01  0.00000000E+00
  3.40000000E+02  9.40000000E+01  0.00000000E+00
  3.40000000E+02  9.20000000E+01  0.00000000E+00
  3.40000000E+02  9.00000000E+01  0.00000000E+00
  3.40000000E+02  8.80000000E+01  0.00000000E+00
  3.40000000E+02  8.60000000E+01  0.00000000E+00
  3.40000000E+02  8.40000000E+01  0.00000000E+00
  3.40000000E+02  8.20000000E+01  0.00000000E+00
  3.40000000E+02  8.00000000E+01  0.00000000E+00
  3.40000000E+02  7.80000000E+01  0.00000000E+00
  3.40000000E+02  7.60000000E+01  0.00000000E+00
  3.40000000E+02  7.40000000E+01  0.00000000E+00
  3.40000000E+02  7.20000000E+01  0.00000000E+00
  3.40000000E+02  7.00000000E+01  0.00000000E+00
  3.40000000E+02  6.80000000E+01  0.00000000E+00
  3.40000000E+02  6.60000000E+01  0.00000000E+00
  3.40000000E+02  6.40000000E+01  0.00000000E+00
  3.40000000E+02  6.20000000E+01  0.00000000E+00
  3.40000000E+02  6.00000000E+01  0.00000000E+00
  3.40000000E+02  5.80000000E+01  0.00000000E+00
  3.40000000E+02  5.60000000E+01  0.00000000E+00
  3.40000000E+02  5.40000000E+01  0.00000000E+00
  3.40000000E+02  5.20000000E+01  0.00000000E+00
  3.40000000E+02  5.00000000E+01  0.00000000E+00
  3.40000000E+02  4.80000000E+01  0.00000000E+00
  3.40000000E+02  4.60000000E+01  0.00000000E+00
  3.40000000E+02  4.40000000E+01  0.00000000E+00
  3.40000000E+02  4.20000000E+01  0.00000000E+00
  3.40000000E+02  4.00000000E+01  0.00000000E+00
  3.40000000E+02  3.80000000E+01  0.00000000E+00
  3.40000000E+02  3.60000000E+01  0.00000000E+00
  3.40000000E+02  3.40000000E+01  0.00000000E+00
  3.40000000E+02  3.20000000E+01  0.00000000E+00
  3.40000000E+02  3.00000000E+01  0.00000000E+00
  3.40000000E+02  2.80000000E+01  0.00000000E+00
  3.40000000E+02  2.60000000E+01  0.00000000E+00
  3.40000000E+02  2.40000000E+01  0.00000000E+00
  3.40000000E+02  2.20000000E+01  0.00000000E+00
  3.40000000E+02  2.00000000E+01  0.00000000E+00
  3.40000000E+02  1.80000000E+01  0.00000000E+00
  3.40000000E+02  1.60000000E+01  0.00000000E+00
  3.40000000E+02  1.40000000E+01  0.00000000E+00
  3.40000000E+02  1.20000000E+01  0.00000000E+00
  3.40000000E+02  1.00000000E+01  0.00000000E+00
  3.40000000E+02  8.00000000E+00  0.00000000E+00
  3.40000000E+02  6.00000000E+00  0.00000000E+00
  3.40000000E+02  4.00000000E+00  0.00000000E+00
  3.40000000E+02  2.00000000E+00  0.00000000E+00
  3.40000000E+02 -3.33066907E-14  0.00000000E+00
  3.50000000E+02  1.00000000E+02  0.00000000E+00
  3.50000000E+02  9.80000000E+01  0.00000000E+00
  3.50000000E+02  9.60000000E+01  0.00000000E+00
  3.50000000E+02  9.40000000E+01  0.00000000E+00
  3.50000000E+02  9.20000000E+01  0.00000000E+00
  3.50000000E+02  9.00000000E+01  0.00000000E+00
  3.50000000E+02  8.80000000E+01  0.00000000E+00
  3.50000000E+02  8.60000000E+01  0.00000000E+00
  3.50000000E+02  8.40000000E+01  0.00000000E+00
  3.50000000E+02  8.20000000E+01  0.00000000E+00
  3.50000000E+02  8.00000000E+01  0.00000000E+00
  3.50000000E+02  7.80000000E+01  0.00000000E+00
  3.50000000E+02  7.60000000E+01  0.00000000E+00
  3.50000000E+02  7.40000000E+01  0.00000000E+00
  3.50000000E+02  7.20000000E+01  0.00000000E+00
  3.50000000E+02  7.00000000E+01  0.00000000E+00
  3.50000000E+02  6.80000000E+01  0.00000000E+00
  3.50000000E+02  6.60000000E+01  0.00000000E+00
  3.50000000E+02  6.40000000E+01  0.00000000E+00
  3.50000000E+02  6.20000000E+01  0.00000000E+00
  3.50000000E+02  6.00000000E+01  0.00000000E+00
  3.50000000E+02  5.80000000E+01  0.00000000E+00
  3.50000000E+02  5.60000000E+01  0.00000000E+00
  3.50000000E+02  5.40000000E+01  0.00000000E+00
  3.50000000E+02  5.20000000E+01  0.00000000E+00
  3.50000000E+02  5.00000000E+01  0.00000000E+00
  3.50000000E+02  4.80000000E+01  0.00000000E+00
  3.50000000E+02  4.60000000E+01  0.00000000E+00
  3.50000000E+02  4.40000000E+01  0.00000000E+00
  3.50000000E+02  4.20000000E+01  0.00000000E+00
  3.50000000E+02  4.00000000E+01  0.00000000E+00
  3.50000000E+02  3.80000000E+01  0.00000000E+00
  3.50000000E+02  3.60000000E+01  0.00000000E+00
  3.50000000E+02  3.40000000E+01  0.00000000E+00
  3.50000000E+02  3.20000000E+01  0.00000000E+00
  3.50000000E+02  3.00000000E+01  0.00000000E+00
  3.50000000E+02  2.80000000E+01  0.00000000E+00
  3.50000000E+02  2.60000000E+01  0.00000000E+00
  3.50000000E+02  2.40000000E+01  0.00000000E+00
  3.50000000E+02  2.20000000E+01  0.00000000E+00
  3.50000000E+02  2.00000000E+01  0.00000000E+00
  3.50000000E+02  1.80000000E+01  0.00000000E+00
  3.50000000E+02  1.60000000E+01  0.00000000E+00
  3.50000000E+02  1.40000000E+01  0.00000000E+00
  3.50000000E+02  1.20000000E+01  0.00000000E+00
  3.50000000E+02  1.00000000E+01  0.00000000E+00
  3.50000000E+02  8.00000000E+00  0.00000000E+00
  3.50000000E+02  6.00000000E+00  0.00000000E+00
  3.50000000E+02  4.00000000E+00  0.00000000E+00
  3.50000000E+02  2.00000000E+00  0.00000000E+00
  3.50000000E+02 -3.33066907E-14  0.00000000E+00
  3.60000000E+02  1.00000000E+02  0.00000000E+00
  3.60000000E+02  9.80000000E+01  0.00000000E+00
  3.60000000E+02  9.60000000E+01  0.00000000E+00
  3.60000000E+02  9.40000000E+01  0.00000000E+00
  3.60000000E+02  9.20000000E+01  0.00000000E+00
  3.60000000E+02  9.00000000E+01  0.00000000E+00
  3.60000000E+02  8.80000000E+01  0.00000000E+00
  3.60000000E+02  8.60000000E+01  0.00000000E+00
  3.60000000E+02  8.40000000E+01  0.00000000E+00
  3.60000000E+02  8.20000000E+01  0.00000000E+00
  3.60000000E+02  8.00000000E+01  0.00000000E+00
  3.60000000E+02  7.80000000E+01  0.00000000E+00
  3.60000000E+02  7.60000000E+01  0.00000000E+00
  3.60000000E+02  7.40000000E+01  0.00000000E+00
  3.60000000E+02  7.20000000E+01  0.00000000E+00
  3.60000000E+02  7.00000000E+01  0.00000000E+00
  3.60000000E+02  6.80000000E+01  0.00000000E+00
  3.60000000E+02  6.60000000E+01  0.00000000E+00
  3.60000000E+02  6.40000000E+01  0.00000000E+00
  3.60000000E+02  6.20000000E+01  0.00000000E+00
  3.60000000E+02  6.00000000E+01  0.00000000E+00
  3.60000000E+02  5.80000000E+01  0.00000000E+00
  3.60000000E+02  5.60000000E+01  0.00000000E+00
  3.60000000E+02  5.40000000E+01  0.00000000E+00
  3.60000000E+02  5.20000000E+01  0.00000000E+00
  3.60000000E+02  5.00000000E+01  0.00000000E+00
  3.60000000E+02  4.80000000E+01  0.00000000E+00
  3.60000000E+02  4.60000000E+01  0.00000000E+00
  3.60000000E+02  4.40000000E+01  0.00000000E+00
  3.60000000E+02  4.20000000E+01  0.00000000E+00
  3.60000000E+02  4.00000000E+01  0.00000000E+00
  3.60000000E+02  3.80000000E+01  0.00000000E+00
  3.60000000E+02  3.60000000E+01  0.00000000E+00
  3.60000000E+02  3.40000000E+01  0.00000000E+00
  3.60000000E+02  3.20000000E+01  0.00000000E+00
  3.60000000E+02  3.00000000E+01  0.00000000E+00
  3.60000000E+02  2.80000000E+01  0.00000000E+00
  3.60000000E+02  2.60000000E+01  0.00000000E+00
  3.60000000E+02  2.40000000E+01  0.00000000E+00
  3.60000000E+02  2.20000000E+01  0.00000000E+00
  3.60000000E+02  2.00000000E+01  0.00000000E+00
  3.60000000E+02  1.80000000E+01  0.00000000E+00
  3.60000000E+02  1.60000000E+01  0.00000000E+00
  3.60000000E+02  1.40000000E+01  0.00000000E+00
  3.60000000E+02  1.20000000E+01  0.00000000E+00
  3.60000000E+02  1.00000000E+01  0.00000000E+00
  3.60000000E+02  8.00000000E+00  0.00000000E+00
  3.60000000E+02  6.00000000E+00  0.00000000E+00
  3.60000000E+02  4.00000000E+00  0.00000000E+00
  3.60000000E+02  2.00000000E+00  0.00000000E+00
  3.60000000E+02 -3.33066907E-14  0.00000000E+00
  3.70000000E+02  1.00000000E+02  0.00000000E+00
  3.70000000E+02  9.80000000E+01  0.00000000E+00
  3.70000000E+02  9.60000000E+01  0.00000000E+00
  3.70000000E+02  9.40000000E+01  0.00000000E+00
  3.70000000E+02  9.20000000E+01  0.00000000E+00
  3.70000000E+02  9.00000000E+01  0.00000000E+00
  3.70000000E+02  8.80000000E+01  0.00000000E+00
  3.70000000E+02  8.60000000E+01  0.00000000E+00
  3.70000000E+02  8.40000000E+01  0.00000000E+00
  3.70000000E+02  8.20000000E+01  0.00000000E+00
  3.70000000E+02  8.00000000E+01  0.00000000E+00
  3.70000000E+02  7.80000000E+01  0.00000000E+00
  3.70000000E+02  7.60000000E+01  0.00000000E+00
  3.70000000E+02  7.40000000E+01  0.00000000E+00
  3.70000000E+02  7.20000000E+01  0.00000000E+00
  3.70000000E+02  7.00000000E+01  0.00000000E+00
  3.70000000E+02  6.80000000E+01  0.00000000E+00
  3.70000000E+02  6.60000000E+01  0.00000000E+00
  3.70000000E+02  6.40000000E+01  0.00000000E+00
  3.70000000E+02  6.20000000E+01  0.00000000E+00
  3.70000000E+02  6.00000000E+01  0.00000000E+00
  3.70000000E+02  5.80000000E+01  0.00000000E+00
  3.70000000E+02  5.60000000E+01  0.00000000E+00
  3.70000000E+02  5.40000000E+01  0.00000000E+00
  3.70000000E+02  5.20000000E+01  0.00000000E+00
  3.70000000E+02  5.00000000E+01  0.00000000E+00
  3.70000000E+02  4.80000000E+01  0.00000000E+00
  3.70000000E+02  4.60000000E+01  0.00000000E+00
  3.70000000E+02  4.40000000E+01  0.00000000E+00
  3.70000000E+02  4.20000000E+01  0.00000000E+00
  3.70000000E+02  4.00000000E+01  0.00000000E+00
  3.70000000E+02  3.80000000E+01  0.00000000E+00
  3.70000000E+02  3.60000000E+01  0.00000000E+00
  3.70000000E+02  3.40000000E+01  0.00000000E+00
  3.70000000E+02  3.20000000E+01  0.00000000E+00
  3.70000000E+02  3.00000000E+01  0.00000000E+00
  3.70000000E+02  2.80000000E+01  0.00000000E+00
  3.70000000E+02  2.60000000E+01  0.00000000E+00
  3.70000000E+02  2.40000000E+01  0.00000000E+00
  3.70000000E+02  2.20000000E+01  0.00000000E+00
  3.70000000E+02  2.00000000E+01  0.00000000E+00
  3.70000000E+02  1.80000000E+01  0.00000000E+00
  3.70000000E+02  1.60000000E+01  0.00000000E+00
  3.70000000E+02  1.40000000E+01  0.00000000E+00
  3.70000000E+02  1.20000000E+01  0.00000000E+00
  3.70000000E+02  1.00000000E+01  0.00000000E+00
  3.70000000E+02  8.00000000E+00  0.00000000E+00
  3.70000000E+02  6.00000000E+00  0.00000000E+00
  3.70000000E+02  4.00000000E+00  0.00000000E+00
  3.70000000E+02  2.00000000E+00  0.00000000E+00
  3.70000000E+02 -3.33066907E-14  0.00000000E+00
  3.80000000E+02  1.00000000E+02  0.00000000E+00
  3.80000000E+02  9.80000000E+01  0.00000000E+00
  3.80000000E+02  9.60000000E+01  0.00000000E+00
  3.80000000E+02  9.40000000E+01  0.00000000E+00
  3.80000000E+02  9.20000000E+01  0.00000000E+00
  3.80000000E+02  9.00000000E+01  0.00000000E+00
  3.80000000E+02  8.80000000E+01  0.00000000E+00
  3.80000000E+02  8.60000000E+01  0.00000000E+00
  3.80000000E+02  8.40000000E+01  0.00000000E+00
  3.80000000E+02  8.20000000E+01  0.00000000E+00
  3.80000000E+02  8.00000000E+01  0.00000000E+00
  3.80000000E+02  7.80000000E+01  0.00000000E+00
  3.80000000E+02  7.60000000E+01  0.00000000E+00
  3.80000000E+02  7.40000000E+01  0.00000000E+00
  3.80000000E+02  7.20000000E+01  0.00000000E+00
  3.80000000E+02  7.00000000E+01  0.00000000E+00
  3.80000000E+02  6.80000000E+01  0.00000000E+00
  3.80000000E+02  6.60000000E+01  0.00000000E+00
  3.80000000E+02  6.40000000E+01  0.00000000E+00
  3.80000000E+02  6.20000000E+01  0.00000000E+00
  3.80000000E+02  6.00000000E+01  0.00000000E+00
  3.80000000E+02  5.80000000E+01  0.00000000E+00
  3.80000000E+02  5.60000000E+01  0.00000000E+00
  3.80000000E+02  5.40000000E+01  0.00000000E+00
  3.80000000E+02  5.20000000E+01  0.00000000E+00
  3.80000000E+02  5.00000000E+01  0.00000000E+00
  3.80000000E+02  4.80000000E+01  0.00000000E+00
  3.80000000E+02  4.60000000E+01  0.00000000E+00
  3.80000000E+02  4.40000000E+01  0.00000000E+00
  3.80000000E+02  4.20000000E+01  0.00000000E+00
  3.80000000E+02  4.00000000E+01  0.00000000E+00
  3.80000000E+02  3.80000000E+01  0.00000000E+00
  3.80000000E+02  3.60000000E+01  0.00000000E+00
  3.80000000E+02  3.40000000E+01  0.00000000E+00
  3.80000000E+02  3.20000000E+01  0.00000000E+00
  3.80000000E+02  3.00000000E+01  0.00000000E+00
  3.80000000E+02  2.80000000E+01  0.00000000E+00
  3.80000000E+02  2.60000000E+01  0.00000000E+00
  3.80000000E+02  2.40000000E+01  0.00000000E+00
  3.80000000E+02  2.20000000E+01  0.00000000E+00
  3.80000000E+02  2.00000000E+01  0.00000000E+00
  3.80000000E+02  1.80000000E+01  0.00000000E+00
  3.80000000E+02  1.60000000E+01  0.00000000E+00
  3.80000000E+02  1.40000000E+01  0.00000000E+00
  3.80000000E+02  1.20000000E+01  0.00000000E+00
  3.80000000E+02  1.00000000E+01  0.00000000E+00
  3.80000000E+02  8.00000000E+00  0.00000000E+00
  3.80000000E+02  6.00000000E+00  0.00000000E+00
  3.80000000E+02  4.00000000E+00  0.00000000E+00
  3.80000000E+02  2.00000000E+00  0.00000000E+00
  3.80000000E+02 -3.33066907E-14  0.00000000E+00
  3.90000000E+02  1.00000000E+02  0.00000000E+00
  3.90000000E+02  9.80000000E+01  0.00000000E+00
  3.90000000E+02  9.60000000E+01  0.00000000E+00
  3.90000000E+02  9.40000000E+01  0.00000000E+00
  3.90000000E+02  9.20000000E+01  0.00000000E+00
  3.90000000E+02  9.00000000E+01  0.00000000E+00
  3.90000000E+02  8.80000000E+01  0.00000000E+00
  3.90000000E+02  8.60000000E+01  0.00000000E+00
  3.90000000E+02  8.40000000E+01  0.00000000E+00
  3.90000000E+02  8.20000000E+01  0.00000000E+00
  3.90000000E+02  8.00000000E+01  0.00000000E+00
  3.90000000E+02  7.80000000E+01  0.00000000E+00
  3.90000000E+02  7.60000000E+01  0.00000000E+00
  3.90000000E+02  7.40000000E+01  0.00000000E+00
  3.90000000E+02  7.20000000E+01  0.00000000E+00
  3.90000000E+02  7.00000000E+01  0.00000000E+00
  3.90000000E+02  6.80000000E+01  0.00000000E+00
  3.90000000E+02  6.60000000E+01  0.00000000E+00
  3.90000000E+02  6.40000000E+01  0.00000000E+00
  3.90000000E+02  6.20000000E+01  0.00000000E+00
  3.90000000E+02  6.00000000E+01  0.00000000E+00
  3.90000000E+02  5.80000000E+01  0.00000000E+00
  3.90000000E+02  5.60000000E+01  0.00000000E+00
  3.90000000E+02  5.40000000E+01  0.00000000E+00
  3.90000000E+02  5.20000000E+01  0.00000000E+00
  3.90000000E+02  5.00000000E+01  0.00000000E+00
  3.90000000E+02  4.80000000E+01  0.00000000E+00
  3.90000000E+02  4.60000000E+01  0.00000000E+00
  3.90000000E+02  4.40000000E+01  0.00000000E+00
  3.90000000E+02  4.20000000E+01  0.00000000E+00
  3.90000000E+02  4.00000000E+01  0.00000000E+00
  3.90000000E+02  3.80000000E+01  0.00000000E+00
  3.90000000E+02  3.60000000E+01  0.00000000E+00
  3.90000000E+02  3.40000000E+01  0.00000000E+00
  3.90000000E+02  3.20000000E+01  0.00000000E+00
  3.90000000E+02  3.00000000E+01  0.00000000E+00
  3.90000000E+02  2.80000000E+01  0.00000000E+00
  3.90000000E+02  2.60000000E+01  0.00000000E+00
  3.90000000E+02  2.40000000E+01  0.00000000E+00
  3.90000000E+02  2.20000000E+01  0.00000000E+00
  3.90000000E+02  2.00000000E+01  0.00000000E+00
  3.90000000E+02  1.80000000E+01  0.00000000E+00
  3.90000000E+02  1.60000000E+01  0.00000000E+00
  3.90000000E+02  1.40000000E+01  0.00000000E+00
  3.90000000E+02  1.20000000E+01  0.00000000E+00
  3.90000000E+02  1.00000000E+01  0.00000000E+00
  3.90000000E+02  8.00000000E+00  0.00000000E+00
  3.90000000E+02  6.00000000E+00  0.00000000E+00
  3.90000000E+02  4.00000000E+00  0.00000000E+00
  3.90000000E+02  2.00000000E+00  0.00000000E+00
  3.90000000E+02 -3.33066907E-14  0.00000000E+00
  4.00000000E+02  1.00000000E+02  0.00000000E+00
  4.00000000E+02  9.80000000E+01  0.00000000E+00
  4.00000000E+02  9.60000000E+01  0.00000000E+00
  4.00000000E+02  9.40000000E+01  0.00000000E+00
  4.00000000E+02  9.20000000E+01  0.00000000E+00
  4.00000000E+02  9.00000000E+01  0.00000000E+00
  4.00000000E+02  8.80000000E+01  0.00000000E+00
  4.00000000E+02  8.60000000E+01  0.00000000E+00
  4.00000000E+02  8.40000000E+01  0.00000000E+00
  4.00000000E+02  8.20000000E+01  0.00000000E+00
  4.00000000E+02  8.00000000E+01  0.00000000E+00
  4.00000000E+02  7.80000000E+01  0.00000000E+00
  4.00000000E+02  7.60000000E+01  0.00000000E+00
  4.00000000E+02  7.40000000E+01  0.00000000E+00
  4.00000000E+02  7.20000000E+01  0.00000000E+00
  4.00000000E+02  7.00000000E+01  0.00000000E+00
  4.00000000E+02  6.80000000E+01  0.00000000E+00
  4.00000000E+02  6.60000000E+01  0.00000000E+00
  4.00000000E+02  6.40000000E+01  0.00000000E+00
  4.00000000E+02  6.20000000E+01  0.00000000E+00
  4.00000000E+02  6.00000000E+01  0.00000000E+00
  4.00000000E+02  5.80000000E+01  0.00000000E+00
  4.00000000E+02  5.60000000E+01  0.00000000E+00
  4.00000000E+02  5.40000000E+01  0.00000000E+00
  4.00000000E+02  5.20000000E+01  0.00000000E+00
  4.00000000E+02  5.00000000E+01  0.00000000E+00
  4.00000000E+02  4.80000000E+01  0.00000000E+00
  4.00000000E+02  4.60000000E+01  0.00000000E+00
  4.00000000E+02  4.40000000E+01  0.00000000E+00
  4.00000000E+02  4.20000000E+01  0.00000000E+00
  4.00000000E+02  4.00000000E+01  0.00000000E+00
  4.00000000E+02  3.80000000E+01  0.00000000E+00
  4.00000000E+02  3.60000000E+01  0.00000000E+00
  4.00000000E+02  3.40000000E+01  0.00000000E+00
  4.00000000E+02  3.20000000E+01  0.00000000E+00
  4.00000000E+02  3.00000000E+01  0.00000000E+00
  4.00000000E+02  2.80000000E+01  0.00000000E+00
  4.00000000E+02  2.60000000E+01  0.00000000E+00
  4.00000000E+02  2.40000000E+01  0.00000000E+00
  4.00000000E+02  2.20000000E+01  0.00000000E+00
  4.00000000E+02  2.00000000E+01  0.00000000E+00
  4.00000000E+02  1.80000000E+01  0.00000000E+00
  4.00000000E+02  1.60000000E+01  0.00000000E+00
  4.00000000E+02  1.40000000E+01  0.00000000E+00
  4.00000000E+02  1.20000000E+01  0.00000000E+00
  4.00000000E+02  1.00000000E+01  0.00000000E+00
  4.00000000E+02  8.00000000E+00  0.00000000E+00
  4.00000000E+02  6.00000000E+00  0.00000000E+00
  4.00000000E+02  4.00000000E+00  0.00000000E+00
  4.00000000E+02  2.00000000E+00  0.00000000E+00
  4.00000000E+02 -3.33066907E-14  0.00000000E+00
  4.10000000E+02  1.00000000E+02  0.00000000E+00
  4.10000000E+02  9.80000000E+01  0.00000000E+00
  4.10000000E+02  9.60000000E+01  0.00000000E+00
  4.10000000E+02  9.40000000E+01  0.00000000E+00
  4.10000000E+02  9.20000000E+01  0.00000000E+00
  4.10000000E+02  9.00000000E+01  0.00000000E+00
  4.10000000E+02  8.80000000E+01  0.00000000E+00
  4.10000000E+02  8.60000000E+01  0.00000000E+00
  4.10000000E+02  8.40000000E+01  0.00000000E+00
  4.10000000E+02  8.20000000E+01  0.00000000E+00
  4.10000000E+02  8.00000000E+01  0.00000000E+00
  4.10000000E+02  7.80000000E+01  0.00000000E+00
  4.10000000E+02  7.60000000E+01  0.00000000E+00
  4.10000000E+02  7.40000000E+01  0.00000000E+00
  4.10000000E+02  7.20000000E+01  0.00000000E+00
  4.10000000E+02  7.00000000E+01  0.00000000E+00
  4.10000000E+02  6.80000000E+01  0.00000000E+00
  4.10000000E+02  6.60000000E+01  0.00000000E+00
  4.10000000E+02  6.40000000E+01  0.00000000E+00
  4.10000000E+02  6.20000000E+01  0.00000000E+00
  4.10000000E+02  6.00000000E+01  0.00000000E+00
  4.10000000E+02  5.80000000E+01  0.00000000E+00
  4.10000000E+02  5.60000000E+01  0.00000000E+00
  4.10000000E+02  5.40000000E+01  0.00000000E+00
  4.10000000E+02  5.20000000E+01  0.00000000E+00
  4.10000000E+02  5.00000000E+01  0.00000000E+00
  4.10000000E+02  4.80000000E+01  0.00000000E+00
  4.10000000E+02  4.60000000E+01  0.00000000E+00
  4.10000000E+02  4.40000000E+01  0.00000000E+00
  4.10000000E+02  4.20000000E+01  0.00000000E+00
  4.10000000E+02  4.00000000E+01  0.00000000E+00
  4.10000000E+02  3.80000000E+01  0.00000000E+00
  4.10000000E+02  3.60000000E+01  0.00000000E+00
  4.10000000E+02  3.40000000E+01  0.00000000E+00
  4.10000000E+02  3.20000000E+01  0.00000000E+00
  4.10000000E+02  3.00000000E+01  0.00000000E+00
  4.10000000E+02  2.80000000E+01  0.00000000E+00
  4.10000000E+02  2.60000000E+01  0.00000000E+00
  4.10000000E+02  2.40000000E+01  0.00000000E+00
  4.10000000E+02  2.20000000E+01  0.00000000E+00
  4.10000000E+02  2.00000000E+01  0.00000000E+00
  4.10000000E+02  1.80000000E+01  0.00000000E+00
  4.10000000E+02  1.60000000E+01  0.00000000E+00
  4.10000000E+02  1.40000000E+01  0.00000000E+00
  4.10000000E+02  1.20000000E+01  0.00000000E+00
  4.10000000E+02  1.00000000E+01  0.00000000E+00
  4.10000000E+02  8.00000000E+00  0.00000000E+00
  4.10000000E+02  6.00000000E+00  0.00000000E+00
  4.10000000E+02  4.00000000E+00  0.00000000E+00
  4.10000000E+02  2.00000000E+00  0.00000000E+00
  4.10000000E+02 -3.33066907E-14  0.00000000E+00
  4.20000000E+02  1.00000000E+02  0.00000000E+00
  4.20000000E+02  9.80000000E+01  0.00000000E+00
  4.20000000E+02  9.60000000E+01  0.00000000E+00
  4.20000000E+02  9.40000000E+01  0.00000000E+00
  4.20000000E+02  9.20000000E+01  0.00000000E+00
  4.20000000E+02  9.00000000E+01  0.00000000E+00
  4.20000000E+02  8.80000000E+01  0.00000000E+00
  4.20000000E+02  8.60000000E+01  0.00000000E+00
  4.20000000E+02  8.40000000E+01  0.00000000E+00
  4.20000000E+02  8.20000000E+01  0.00000000E+00
  4.20000000E+02  8.00000000E+01  0.00000000E+00
  4.20000000E+02  7.80000000E+01  0.00000000E+00
  4.20000000E+02  7.60000000E+01  0.00000000E+00
  4.20000000E+02  7.40000000E+01  0.00000000E+00
  4.20000000E+02  7.20000000E+01  0.00000000E+00
  4.20000000E+02  7.00000000E+01  0.00000000E+00
  4.20000000E+02  6.80000000E+01  0.00000000E+00
  4.20000000E+02  6.60000000E+01  0.00000000E+00
  4.20000000E+02  6.40000000E+01  0.00000000E+00
  4.20000000E+02  6.20000000E+01  0.00000000E+00
  4.20000000E+02  6.00000000E+01  0.00000000E+00
  4.20000000E+02  5.80000000E+01  0.00000000E+00
  4.20000000E+02  5.60000000E+01  0.00000000E+00
  4.20000000E+02  5.40000000E+01  0.00000000E+00
  4.20000000E+02  5.20000000E+01  0.00000000E+00
  4.20000000E+02  5.00000000E+01  0.00000000E+00
  4.20000000E+02  4.80000000E+01  0.00000000E+00
  4.20000000E+02  4.60000000E+01  0.00000000E+00
  4.20000000E+02  4.40000000E+01  0.00000000E+00
  4.20000000E+02  4.20000000E+01  0.00000000E+00
  4.20000000E+02  4.00000000E+01  0.00000000E+00
  4.20000000E+02  3.80000000E+01  0.00000000E+00
  4.20000000E+02  3.60000000E+01  0.00000000E+00
  4.20000000E+02  3.40000000E+01  0.00000000E+00
  4.20000000E+02  3.20000000E+01  0.00000000E+00
  4.20000000E+02  3.00000000E+01  0.00000000E+00
  4.20000000E+02  2.80000000E+01  0.00000000E+00
  4.20000000E+02  2.60000000E+01  0.00000000E+00
  4.20000000E+02  2.40000000E+01  0.00000000E+00
  4.20000000E+02  2.20000000E+01  0.00000000E+00
  4.20000000E+02  2.00000000E+01  0.00000000E+00
  4.20000000E+02  1.80000000E+01  0.00000000E+00
  4.20000000E+02  1.60000000E+01  0.00000000E+00
  4.20000000E+02  1.40000000E+01  0.00000000E+00
  4.20000000E+02  1.20000000E+01  0.00000000E+00
  4.20000000E+02  1.00000000E+01  0.00000000E+00
  4.20000000E+02  8.00000000E+00  0.00000000E+00
  4.20000000E+02  6.00000000E+00  0.00000000E+00
  4.20000000E+02  4.00000000E+00  0.00000000E+00
  4.20000000E+02  2.00000000E+00  0.00000000E+00
  4.20000000E+02 -3.33066907E-14  0.00000000E+00
  4.30000000E+02  1.00000000E+02  0.00000000E+00
  4.30000000E+02  9.80000000E+01  0.00000000E+00
  4.30000000E+02  9.60000000E+01  0.00000000E+00
  4.30000000E+02  9.40000000E+01  0.00000000E+00
  4.30000000E+02  9.20000000E+01  0.00000000E+00
  4.30000000E+02  9.00000000E+01  0.00000000E+00
  4.30000000E+02  8.80000000E+01  0.00000000E+00
  4.30000000E+02  8.60000000E+01  0.00000000E+00
  4.30000000E+02  8.40000000E+01  0.00000000E+00
  4.30000000E+02  8.20000000E+01  0.00000000E+00
  4.30000000E+02  8.00000000E+01  0.00000000E+00
  4.30000000E+02  7.80000000E+01  0.00000000E+00
  4.30000000E+02  7.60000000E+01  0.00000000E+00
  4.30000000E+02  7.40000000E+01  0.00000000E+00
  4.30000000E+02  7.20000000E+01  0.00000000E+00
  4.30000000E+02  7.00000000E+01  0.00000000E+00
  4.30000000E+02  6.80000000E+01  0.00000000E+00
  4.30000000E+02  6.60000000E+01  0.00000000E+00
  4.30000000E+02  6.40000000E+01  0.00000000E+00
  4.30000000E+02  6.20000000E+01  0.00000000E+00
  4.30000000E+02  6.00000000E+01  0.00000000E+00
  4.30000000E+02  5.80000000E+01  0.00000000E+00
  4.30000000E+02  5.60000000E+01  0.00000000E+00
  4.30000000E+02  5.40000000E+01  0.00000000E+00
  4.30000000E+02  5.20000000E+01  0.00000000E+00
  4.30000000E+02  5.00000000E+01  0.00000000E+00
  4.30000000E+02  4.80000000E+01  0.00000000E+00
  4.30000000E+02  4.60000000E+01  0.00000000E+00
  4.30000000E+02  4.40000000E+01  0.00000000E+00
  4.30000000E+02  4.20000000E+01  0.00000000E+00
  4.30000000E+02  4.00000000E+01  0.00000000E+00
  4.30000000E+02  3.80000000E+01  0.00000000E+00
  4.30000000E+02  3.60000000E+01  0.00000000E+00
  4.30000000E+02  3.40000000E+01  0.00000000E+00
  4.30000000E+02  3.20000000E+01  0.00000000E+00
  4.30000000E+02  3.00000000E+01  0.00000000E+00
  4.30000000E+02  2.80000000E+01  0.00000000E+00
  4.30000000E+02  2.60000000E+01  0.00000000E+00
  4.30000000E+02  2.40000000E+01  0.00000000E+00
  4.30000000E+02  2.20000000E+01  0.00000000E+00
  4.30000000E+02  2.00000000E+01  0.00000000E+00
  4.30000000E+02  1.80000000E+01  0.00000000E+00
  4.30000000E+02  1.60000000E+01  0.00000000E+00
  4.30000000E+02  1.40000000E+01  0.00000000E+00
  4.30000000E+02  1.20000000E+01  0.00000000E+00
  4.30000000E+02  1.00000000E+01  0.00000000E+00
  4.30000000E+02  8.00000000E+00  0.00000000E+00
  4.30000000E+02  6.00000000E+00  0.00000000E+00
  4.30000000E+02  4.00000000E+00  0.00000000E+00
  4.30000000E+02  2.00000000E+00  0.00000000E+00
  4.30000000E+02 -3.33066907E-14  0.00000000E+00
  4.40000000E+02  1.00000000E+02  0.00000000E+00
  4.40000000E+02  9.80000000E+01  0.00000000E+00
  4.40000000E+02  9.60000000E+01  0.00000000E+00
  4.40000000E+02  9.40000000E+01  0.00000000E+00
  4.40000000E+02  9.20000000E+01  0.00000000E+00
  4.40000000E+02  9.00000000E+01  0.00000000E+00
  4.40000000E+02  8.80000000E+01  0.00000000E+00
  4.40000000E+02  8.60000000E+01  0.00000000E+00
  4.40000000E+02  8.40000000E+01  0.00000000E+00
  4.40000000E+02  8.20000000E+01  0.00000000E+00
  4.40000000E+02  8.00000000E+01  0.00000000E+00
  4.40000000E+02  7.80000000E+01  0.00000000E+00
  4.40000000E+02  7.60000000E+01  0.00000000E+00
  4.40000000E+02  7.40000000E+01  0.00000000E+00
  4.40000000E+02  7.20000000E+01  0.00000000E+00
  4.40000000E+02  7.00000000E+01  0.00000000E+00
  4.40000000E+02  6.80000000E+01  0.00000000E+00
  4.40000000E+02  6.60000000E+01  0.00000000E+00
  4.40000000E+02  6.40000000E+01  0.00000000E+00
  4.40000000E+02  6.20000000E+01  0.00000000E+00
  4.40000000E+02  6.00000000E+01  0.00000000E+00
  4.40000000E+02  5.80000000E+01  0.00000000E+00
  4.40000000E+02  5.60000000E+01  0.00000000E+00
  4.40000000E+02  5.40000000E+01  0.00000000E+00
  4.40000000E+02  5.20000000E+01  0.00000000E+00
  4.40000000E+02  5.00000000E+01  0.00000000E+00
  4.40000000E+02  4.80000000E+01  0.00000000E+00
  4.40000000E+02  4.60000000E+01  0.00000000E+00
  4.40000000E+02  4.40000000E+01  0.00000000E+00
  4.40000000E+02  4.20000000E+01  0.00000000E+00
  4.40000000E+02  4.00000000E+01  0.00000000E+00
  4.40000000E+02  3.80000000E+01  0.00000000E+00
  4.40000000E+02  3.60000000E+01  0.00000000E+00
  4.40000000E+02  3.40000000E+01  0.00000000E+00
  4.40000000E+02  3.20000000E+01  0.00000000E+00
  4.40000000E+02  3.00000000E+01  0.00000000E+00
  4.40000000E+02  2.80000000E+01  0.00000000E+00
  4.40000000E+02  2.60000000E+01  0.00000000E+00
  4.40000000E+02  2.40000000E+01  0.00000000E+00
  4.40000000E+02  2.20000000E+01  0.00000000E+00
  4.40000000E+02  2.00000000E+01  0.00000000E+00
  4.40000000E+02  1.80000000E+01  0.00000000E+00
  4.40000000E+02  1.60000000E+01  0.00000000E+00
  4.40000000E+02  1.40000000E+01  0.00000000E+00
  4.40000000E+02  1.20000000E+01  0.00000000E+00
  4.40000000E+02  1.00000000E+01  0.00000000E+00
  4.40000000E+02  8.00000000E+00  0.00000000E+00
  4.40000000E+02  6.00000000E+00  0.00000000E+00
  4.40000000E+02  4.00000000E+00  0.00000000E+00
  4.40000000E+02  2.00000000E+00  0.00000000E+00
  4.40000000E+02 -3.33066907E-14  0.00000000E+00
  4.50000000E+02  1.00000000E+02  0.00000000E+00
  4.50000000E+02  9.80000000E+01  0.00000000E+00
  4.50000000E+02  9.60000000E+01  0.00000000E+00
  4.50000000E+02  9.40000000E+01  0.00000000E+00
  4.50000000E+02  9.20000000E+01  0.00000000E+00
  4.50000000E+02  9.00000000E+01  0.00000000E+00
  4.50000000E+02  8.80000000E+01  0.00000000E+00
  4.50000000E+02  8.60000000E+01  0.00000000E+00
  4.50000000E+02  8.40000000E+01  0.00000000E+00
  4.50000000E+02  8.20000000E+01  0.00000000E+00
  4.50000000E+02  8.00000000E+01  0.00000000E+00
  4.50000000E+02  7.80000000E+01  0.00000000E+00
  4.50000000E+02  7.60000000E+01  0.00000000E+00
  4.50000000E+02  7.40000000E+01  0.00000000E+00
  4.50000000E+02  7.20000000E+01  0.00000000E+00
  4.50000000E+02  7.00000000E+01  0.00000000E+00
  4.50000000E+02  6.80000000E+01  0.00000000E+00
  4.50000000E+02  6.60000000E+01  0.00000000E+00
  4.50000000E+02  6.40000000E+01  0.00000000E+00
  4.50000000E+02  6.20000000E+01  0.00000000E+00
  4.50000000E+02  6.00000000E+01  0.00000000E+00
  4.50000000E+02  5.80000000E+01  0.00000000E+00
  4.50000000E+02  5.60000000E+01  0.00000000E+00
  4.50000000E+02  5.40000000E+01  0.00000000E+00
  4.50000000E+02  5.20000000E+01  0.00000000E+00
  4.50000000E+02  5.00000000E+01  0.00000000E+00
  4.50000000E+02  4.80000000E+01  0.00000000E+00
  4.50000000E+02  4.60000000E+01  0.00000000E+00
  4.50000000E+02  4.40000000E+01  0.00000000E+00
  4.50000000E+02  4.20000000E+01  0.00000000E+00
  4.50000000E+02  4.00000000E+01  0.00000000E+00
  4.50000000E+02  3.80000000E+01  0.00000000E+00
  4.50000000E+02  3.60000000E+01  0.00000000E+00
  4.50000000E+02  3.40000000E+01  0.00000000E+00
  4.50000000E+02  3.20000000E+01  0.00000000E+00
  4.50000000E+02  3.00000000E+01  0.00000000E+00
  4.50000000E+02  2.80000000E+01  0.00000000E+00
  4.50000000E+02  2.60000000E+01  0.00000000E+00
  4.50000000E+02  2.40000000E+01  0.00000000E+00
  4.50000000E+02  2.20000000E+01  0.00000000E+00
  4.50000000E+02  2.00000000E+01  0.00000000E+00
  4.50000000E+02  1.80000000E+01  0.00000000E+00
  4.50000000E+02  1.60000000E+01  0.00000000E+00
  4.50000000E+02  1.40000000E+01  0.00000000E+00
  4.50000000E+02  1.20000000E+01  0.00000000E+00
  4.50000000E+02  1.00000000E+01  0.00000000E+00
  4.50000000E+02  8.00000000E+00  0.00000000E+00
  4.50000000E+02  6.00000000E+00  0.00000000E+00
  4.50000000E+02  4.00000000E+00  0.00000000E+00
  4.50000000E+02  2.00000000E+00  0.00000000E+00
  4.50000000E+02 -3.33066907E-14  0.00000000E+00
  4.60000000E+02  1.00000000E+02  0.00000000E+00
  4.60000000E+02  9.80000000E+01  0.00000000E+00
  4.60000000E+02  9.60000000E+01  0.00000000E+00
  4.60000000E+02  9.40000000E+01  0.00000000E+00
  4.60000000E+02  9.20000000E+01  0.00000000E+00
  4.60000000E+02  9.00000000E+01  0.00000000E+00
  4.60000000E+02  8.80000000E+01  0.00000000E+00
  4.60000000E+02  8.60000000E+01  0.00000000E+00
  4.60000000E+02  8.40000000E+01  0.00000000E+00
  4.60000000E+02  8.20000000E+01  0.00000000E+00
  4.60000000E+02  8.00000000E+01  0.00000000E+00
  4.60000000E+02  7.80000000E+01  0.00000000E+00
  4.60000000E+02  7.60000000E+01  0.00000000E+00
  4.60000000E+02  7.40000000E+01  0.00000000E+00
  4.60000000E+02  7.20000000E+01  0.00000000E+00
  4.60000000E+02  7.00000000E+01  0.00000000E+00
  4.60000000E+02  6.80000000E+01  0.00000000E+00
  4.60000000E+02  6.60000000E+01  0.00000000E+00
  4.60000000E+02  6.40000000E+01  0.00000000E+00
  4.60000000E+02  6.20000000E+01  0.00000000E+00
  4.60000000E+02  6.00000000E+01  0.00000000E+00
  4.60000000E+02  5.80000000E+01  0.00000000E+00
  4.60000000E+02  5.60000000E+01  0.00000000E+00
  4.60000000E+02  5.40000000E+01  0.00000000E+00
  4.60000000E+02  5.20000000E+01  0.00000000E+00
  4.60000000E+02  5.00000000E+01  0.00000000E+00
  4.60000000E+02  4.80000000E+01  0.00000000E+00
  4.60000000E+02  4.60000000E+01  0.00000000E+00
  4.60000000E+02  4.40000000E+01  0.00000000E+00
  4.60000000E+02  4.20000000E+01  0.00000000E+00
  4.60000000E+02  4.00000000E+01  0.00000000E+00
  4.60000000E+02  3.80000000E+01  0.00000000E+00
  4.60000000E+02  3.60000000E+01  0.00000000E+00
  4.60000000E+02  3.40000000E+01  0.00000000E+00
  4.60000000E+02  3.20000000E+01  0.00000000E+00
  4.60000000E+02  3.00000000E+01  0.00000000E+00
  4.60000000E+02  2.80000000E+01  0.00000000E+00
  4.60000000E+02  2.60000000E+01  0.00000000E+00
  4.60000000E+02  2.40000000E+01  0.00000000E+00
  4.60000000E+02  2.20000000E+01  0.00000000E+00
  4.60000000E+02  2.00000000E+01  0.00000000E+00
  4.60000000E+02  1.80000000E+01  0.00000000E+00
  4.60000000E+02  1.60000000E+01  0.00000000E+00
  4.60000000E+02  1.40000000E+01  0.00000000E+00
  4.60000000E+02  1.20000000E+01  0.00000000E+00
  4.60000000E+02  1.00000000E+01  0.00000000E+00
  4.60000000E+02  8.00000000E+00  0.00000000E+00
  4.60000000E+02  6.00000000E+00  0.00000000E+00
  4.60000000E+02  4.00000000E+00  0.00000000E+00
  4.60000000E+02  2.00000000E+00  0.00000000E+00
  4.60000000E+02 -3.33066907E-14  0.00000000E+00
  4.70000000E+02  1.00000000E+02  0.00000000E+00
  4.70000000E+02  9.80000000E+01  0.00000000E+00
  4.70000000E+02  9.60000000E+01  0.00000000E+00
  4.70000000E+02  9.40000000E+01  0.00000000E+00
  4.70000000E+02  9.20000000E+01  0.00000000E+00
  4.70000000E+02  9.00000000E+01  0.00000000E+00
  4.70000000E+02  8.80000000E+01  0.00000000E+00
  4.70000000E+02  8.60000000E+01  0.00000000E+00
  4.70000000E+02  8.40000000E+01  0.00000000E+00
  4.70000000E+02  8.20000000E+01  0.00000000E+00
  4.70000000E+02  8.00000000E+01  0.00000000E+00
  4.70000000E+02  7.80000000E+01  0.00000000E+00
  4.70000000E+02  7.60000000E+01  0.00000000E+00
  4.70000000E+02  7.40000000E+01  0.00000000E+00
  4.70000000E+02  7.20000000E+01  0.00000000E+00
  4.70000000E+02  7.00000000E+01  0.00000000E+00
  4.70000000E+02  6.80000000E+01  0.00000000E+00
  4.70000000E+02  6.60000000E+01  0.00000000E+00
  4.70000000E+02  6.40000000E+01  0.00000000E+00
  4.70000000E+02  6.20000000E+01  0.00000000E+00
  4.70000000E+02  6.00000000E+01  0.00000000E+00
  4.70000000E+02  5.80000000E+01  0.00000000E+00
  4.70000000E+02  5.60000000E+01  0.00000000E+00
  4.70000000E+02  5.40000000E+01  0.00000000E+00
  4.70000000E+02  5.20000000E+01  0.00000000E+00
  4.70000000E+02  5.00000000E+01  0.00000000E+00
  4.70000000E+02  4.80000000E+01  0.00000000E+00
  4.70000000E+02  4.60000000E+01  0.00000000E+00
  4.70000000E+02  4.40000000E+01  0.00000000E+00
  4.70000000E+02  4.20000000E+01  0.00000000E+00
  4.70000000E+02  4.00000000E+01  0.00000000E+00
  4.70000000E+02  3.80000000E+01  0.00000000E+00
  4.70000000E+02  3.60000000E+01  0.00000000E+00
  4.70000000E+02  3.40000000E+01  0.00000000E+00
  4.70000000E+02  3.20000000E+01  0.00000000E+00
  4.70000000E+02  3.00000000E+01  0.00000000E+00
  4.70000000E+02  2.80000000E+01  0.00000000E+00
  4.70000000E+02  2.60000000E+01  0.00000000E+00
  4.70000000E+02  2.40000000E+01  0.00000000E+00
  4.70000000E+02  2.20000000E+01  0.00000000E+00
  4.70000000E+02  2.00000000E+01  0.00000000E+00
  4.70000000E+02  1.80000000E+01  0.00000000E+00
  4.70000000E+02  1.60000000E+01  0.00000000E+00
  4.70000000E+02  1.40000000E+01  0.00000000E+00
  4.70000000E+02  1.20000000E+01  0.00000000E+00
  4.70000000E+02  1.00000000E+01  0.00000000E+00
  4.70000000E+02  8.00000000E+00  0.00000000E+00
  4.70000000E+02  6.00000000E+00  0.00000000E+00
  4.70000000E+02  4.00000000E+00  0.00000000E+00
  4.70000000E+02  2.00000000E+00  0.00000000E+00
  4.70000000E+02 -3.33066907E-14  0.00000000E+00
  4.80000000E+02  1.00000000E+02  0.00000000E+00
  4.80000000E+02  9.80000000E+01  0.00000000E+00
  4.80000000E+02  9.60000000E+01  0.00000000E+00
  4.80000000E+02  9.40000000E+01  0.00000000E+00
  4.80000000E+02  9.20000000E+01  0.00000000E+00
  4.80000000E+02  9.00000000E+01  0.00000000E+00
  4.80000000E+02  8.80000000E+01  0.00000000E+00
  4.80000000E+02  8.60000000E+01  0.00000000E+00
  4.80000000E+02  8.40000000E+01  0.00000000E+00
  4.80000000E+02  8.20000000E+01  0.00000000E+00
  4.80000000E+02  8.00000000E+01  0.00000000E+00
  4.80000000E+02  7.80000000E+01  0.00000000E+00
  4.80000000E+02  7.60000000E+01  0.00000000E+00
  4.80000000E+02  7.40000000E+01  0.00000000E+00
  4.80000000E+02  7.20000000E+01  0.00000000E+00
  4.80000000E+02  7.00000000E+01  0.00000000E+00
  4.80000000E+02  6.80000000E+01  0.00000000E+00
  4.80000000E+02  6.60000000E+01  0.00000000E+00
  4.80000000E+02  6.40000000E+01  0.00000000E+00
  4.80000000E+02  6.20000000E+01  0.00000000E+00
  4.80000000E+02  6.00000000E+01  0.00000000E+00
  4.80000000E+02  5.80000000E+01  0.00000000E+00
  4.80000000E+02  5.60000000E+01  0.00000000E+00
  4.80000000E+02  5.40000000E+01  0.00000000E+00
  4.80000000E+02  5.20000000E+01  0.00000000E+00
  4.80000000E+02  5.00000000E+01  0.00000000E+00
  4.80000000E+02  4.80000000E+01  0.00000000E+00
  4.80000000E+02  4.60000000E+01  0.00000000E+00
  4.80000000E+02  4.40000000E+01  0.00000000E+00
  4.80000000E+02  4.20000000E+01  0.00000000E+00
  4.80000000E+02  4.00000000E+01  0.00000000E+00
  4.80000000E+02  3.80000000E+01  0.00000000E+00
  4.80000000E+02  3.60000000E+01  0.00000000E+00
  4.80000000E+02  3.40000000E+01  0.00000000E+00
  4.80000000E+02  3.20000000E+01  0.00000000E+00
  4.80000000E+02  3.00000000E+01  0.00000000E+00
  4.80000000E+02  2.80000000E+01  0.00000000E+00
  4.80000000E+02  2.60000000E+01  0.00000000E+00
  4.80000000E+02  2.40000000E+01  0.00000000E+00
  4.80000000E+02  2.20000000E+01  0.00000000E+00
  4.80000000E+02  2.00000000E+01  0.00000000E+00
  4.80000000E+02  1.80000000E+01  0.00000000E+00
  4.80000000E+02  1.60000000E+01  0.00000000E+00
  4.80000000E+02  1.40000000E+01  0.00000000E+00
  4.80000000E+02  1.20000000E+01  0.00000000E+00
  4.80000000E+02  1.00000000E+01  0.00000000E+00
  4.80000000E+02  8.00000000E+00  0.00000000E+00
  4.80000000E+02  6.00000000E+00  0.00000000E+00
  4.80000000E+02  4.00000000E+00  0.00000000E+00
  4.80000000E+02  2.00000000E+00  0.00000000E+00
  4.80000000E+02 -3.33066907E-14  0.00000000E+00
  4.90000000E+02  1.00000000E+02  0.00000000E+00
  4.90000000E+02  9.80000000E+01  0.00000000E+00
  4.90000000E+02  9.60000000E+01  0.00000000E+00
  4.90000000E+02  9.40000000E+01  0.00000000E+00
  4.90000000E+02  9.20000000E+01  0.00000000E+00
  4.90000000E+02  9.00000000E+01  0.00000000E+00
  4.90000000E+02  8.80000000E+01  0.00000000E+00
  4.90000000E+02  8.60000000E+01  0.00000000E+00
  4.90000000E+02  8.40000000E+01  0.00000000E+00
  4.90000000E+02  8.20000000E+01  0.00000000E+00
  4.90000000E+02  8.00000000E+01  0.00000000E+00
  4.90000000E+02  7.80000000E+01  0.00000000E+00
  4.90000000E+02  7.60000000E+01  0.00000000E+00
  4.90000000E+02  7.40000000E+01  0.00000000E+00
  4.90000000E+02  7.20000000E+01  0.00000000E+00
  4.90000000E+02  7.00000000E+01  0.00000000E+00
  4.90000000E+02  6.80000000E+01  0.00000000E+00
  4.90000000E+02  6.60000000E+01  0.00000000E+00
  4.90000000E+02  6.40000000E+01  0.00000000E+00
  4.90000000E+02  6.20000000E+01  0.00000000E+00
  4.90000000E+02  6.00000000E+01  0.00000000E+00
  4.90000000E+02  5.80000000E+01  0.00000000E+00
  4.90000000E+02  5.60000000E+01  0.00000000E+00
  4.90000000E+02  5.40000000E+01  0.00000000E+00
  4.90000000E+02  5.20000000E+01  0.00000000E+00
  4.90000000E+02  5.00000000E+01  0.00000000E+00
  4.90000000E+02  4.80000000E+01  0.00000000E+00
  4.90000000E+02  4.60000000E+01  0.00000000E+00
  4.90000000E+02  4.40000000E+01  0.00000000E+00
  4.90000000E+02  4.20000000E+01  0.00000000E+00
  4.90000000E+02  4.00000000E+01  0.00000000E+00
  4.90000000E+02  3.80000000E+01  0.00000000E+00
  4.90000000E+02  3.60000000E+01  0.00000000E+00
  4.90000000E+02  3.40000000E+01  0.00000000E+00
  4.90000000E+02  3.20000000E+01  0.00000000E+00
  4.90000000E+02  3.00000000E+01  0.00000000E+00
  4.90000000E+02  2.80000000E+01  0.00000000E+00
  4.90000000E+02  2.60000000E+01  0.00000000E+00
  4.90000000E+02  2.40000000E+01  0.00000000E+00
  4.90000000E+02  2.20000000E+01  0.00000000E+00
  4.90000000E+02  2.00000000E+01  0.00000000E+00
  4.90000000E+02  1.80000000E+01  0.00000000E+00
  4.90000000E+02  1.60000000E+01  0.00000000E+00
  4.90000000E+02  1.40000000E+01  0.00000000E+00
  4.90000000E+02  1.20000000E+01  0.00000000E+00
  4.90000000E+02  1.00000000E+01  0.00000000E+00
  4.90000000E+02  8.00000000E+00  0.00000000E+00
  4.90000000E+02  6.00000000E+00  0.00000000E+00
  4.90000000E+02  4.00000000E+00  0.00000000E+00
  4.90000000E+02  2.00000000E+00  0.00000000E+00
  4.90000000E+02 -3.33066907E-14  0.00000000E+00
  5.00000000E+02  1.00000000E+02  0.00000000E+00
  5.00000000E+02  9.80000000E+01  0.00000000E+00
  5.00000000E+02  9.60000000E+01  0.00000000E+00
  5.00000000E+02  9.40000000E+01  0.00000000E+00
  5.00000000E+02  9.20000000E+01  0.00000000E+00
  5.00000000E+02  9.00000000E+01  0.00000000E+00
  5.00000000E+02  8.80000000E+01  0.00000000E+00
  5.00000000E+02  8.60000000E+01  0.00000000E+00
  5.00000000E+02  8.40000000E+01  0.00000000E+00
  5.00000000E+02  8.20000000E+01  0.00000000E+00
  5.00000000E+02  8.00000000E+01  0.00000000E+00
  5.00000000E+02  7.80000000E+01  0.00000000E+00
  5.00000000E+02  7.60000000E+01  0.00000000E+00
  5.00000000E+02  7.40000000E+01  0.00000000E+00
  5.00000000E+02  7.20000000E+01  0.00000000E+00
  5.00000000E+02  7.00000000E+01  0.00000000E+00
  5.00000000E+02  6.80000000E+01  0.00000000E+00
  5.00000000E+02  6.60000000E+01  0.00000000E+00
  5.00000000E+02  6.40000000E+01  0.00000000E+00
  5.00000000E+02  6.20000000E+01  0.00000000E+00
  5.00000000E+02  6.00000000E+01  0.00000000E+00
  5.00000000E+02  5.80000000E+01  0.00000000E+00
  5.00000000E+02  5.60000000E+01  0.00000000E+00
  5.00000000E+02  5.40000000E+01  0.00000000E+00
  5.00000000E+02  5.20000000E+01  0.00000000E+00
  5.00000000E+02  5.00000000E+01  0.00000000E+00
  5.00000000E+02  4.80000000E+01  0.00000000E+00
  5.00000000E+02  4.60000000E+01  0.00000000E+00
  5.00000000E+02  4.40000000E+01  0.00000000E+00
  5.00000000E+02  4.20000000E+01  0.00000000E+00
  5.00000000E+02  4.00000000E+01  0.00000000E+00
  5.00000000E+02  3.80000000E+01  0.00000000E+00
  5.00000000E+02  3.60000000E+01  0.00000000E+00
  5.00000000E+02  3.40000000E+01  0.00000000E+00
  5.00000000E+02  3.20000000E+01  0.00000000E+00
  5.00000000E+02  3.00000000E+01  0.00000000E+00
  5.00000000E+02  2.80000000E+01  0.00000000E+00
  5.00000000E+02  2.60000000E+01  0.00000000E+00
  5.00000000E+02  2.40000000E+01  0.00000000E+00
  5.00000000E+02  2.20000000E+01  0.00000000E+00
  5.00000000E+02  2.00000000E+01  0.00000000E+00
  5.00000000E+02  1.80000000E+01  0.00000000E+00
  5.00000000E+02  1.60000000E+01  0.00000000E+00
  5.00000000E+02  1.40000000E+01  0.00000000E+00
  5.00000000E+02  1.20000000E+01  0.00000000E+00
  5.00000000E+02  1.00000000E+01  0.00000000E+00
  5.00000000E+02  8.00000000E+00  0.00000000E+00
  5.00000000E+02  6.00000000E+00  0.00000000E+00
  5.00000000E+02  4.00000000E+00  0.00000000E+00
  5.00000000E+02  2.00000000E+00  0.00000000E+00
  5.00000000E+02 -3.33066907E-14  0.00000000E+00
  5.10000000E+02  1.00000000E+02  0.00000000E+00
  5.10000000E+02  9.80000000E+01  0.00000000E+00
  5.10000000E+02  9.60000000E+01  0.00000000E+00
  5.10000000E+02  9.40000000E+01  0.00000000E+00
  5.10000000E+02  9.20000000E+01  0.00000000E+00
  5.10000000E+02  9.00000000E+01  0.00000000E+00
  5.10000000E+02  8.80000000E+01  0.00000000E+00
  5.10000000E+02  8.60000000E+01  0.00000000E+00
  5.10000000E+02  8.40000000E+01  0.00000000E+00
  5.10000000E+02  8.20000000E+01  0.00000000E+00
  5.10000000E+02  8.00000000E+01  0.00000000E+00
  5.10000000E+02  7.80000000E+01  0.00000000E+00
  5.10000000E+02  7.60000000E+01  0.00000000E+00
  5.10000000E+02  7.40000000E+01  0.00000000E+00
  5.10000000E+02  7.20000000E+01  0.00000000E+00
  5.10000000E+02  7.00000000E+01  0.00000000E+00
  5.10000000E+02  6.80000000E+01  0.00000000E+00
  5.10000000E+02  6.60000000E+01  0.00000000E+00
  5.10000000E+02  6.40000000E+01  0.00000000E+00
  5.10000000E+02  6.20000000E+01  0.00000000E+00
  5.10000000E+02  6.00000000E+01  0.00000000E+00
  5.10000000E+02  5.80000000E+01  0.00000000E+00
  5.10000000E+02  5.60000000E+01  0.00000000E+00
  5.10000000E+02  5.40000000E+01  0.00000000E+00
  5.10000000E+02  5.20000000E+01  0.00000000E+00
  5.10000000E+02  5.00000000E+01  0.00000000E+00
  5.10000000E+02  4.80000000E+01  0.00000000E+00
  5.10000000E+02  4.60000000E+01  0.00000000E+00
  5.10000000E+02  4.40000000E+01  0.00000000E+00
  5.10000000E+02  4.20000000E+01  0.00000000E+00
  5.10000000E+02  4.00000000E+01  0.00000000E+00
  5.10000000E+02  3.80000000E+01  0.00000000E+00
  5.10000000E+02  3.60000000E+01  0.00000000E+00
  5.10000000E+02  3.40000000E+01  0.00000000E+00
  5.10000000E+02  3.20000000E+01  0.00000000E+00
  5.10000000E+02  3.00000000E+01  0.00000000E+00
  5.10000000E+02  2.80000000E+01  0.00000000E+00
  5.10000000E+02  2.60000000E+01  0.00000000E+00
  5.10000000E+02  2.40000000E+01  0.00000000E+00
  5.10000000E+02  2.20000000E+01  0.00000000E+00
  5.10000000E+02  2.00000000E+01  0.00000000E+00
  5.10000000E+02  1.80000000E+01  0.00000000E+00
  5.10000000E+02  1.60000000E+01  0.00000000E+00
  5.10000000E+02  1.40000000E+01  0.00000000E+00
  5.10000000E+02  1.20000000E+01  0.00000000E+00
  5.10000000E+02  1.00000000E+01  0.00000000E+00
  5.10000000E+02  8.00000000E+00  0.00000000E+00
  5.10000000E+02  6.00000000E+00  0.00000000E+00
  5.10000000E+02  4.00000000E+00  0.00000000E+00
  5.10000000E+02  2.00000000E+00  0.00000000E+00
  5.10000000E+02 -3.33066907E-14  0.00000000E+00
  5.20000000E+02  1.00000000E+02  0.00000000E+00
  5.20000000E+02  9.80000000E+01  0.00000000E+00
  5.20000000E+02  9.60000000E+01  0.00000000E+00
  5.20000000E+02  9.40000000E+01  0.00000000E+00
  5.20000000E+02  9.20000000E+01  0.00000000E+00
  5.20000000E+02  9.00000000E+01  0.00000000E+00
  5.20000000E+02  8.80000000E+01  0.00000000E+00
  5.20000000E+02  8.60000000E+01  0.00000000E+00
  5.20000000E+02  8.40000000E+01  0.00000000E+00
  5.20000000E+02  8.20000000E+01  0.00000000E+00
  5.20000000E+02  8.00000000E+01  0.00000000E+00
  5.20000000E+02  7.80000000E+01  0.00000000E+00
  5.20000000E+02  7.60000000E+01  0.00000000E+00
  5.20000000E+02  7.40000000E+01  0.00000000E+00
  5.20000000E+02  7.20000000E+01  0.00000000E+00
  5.20000000E+02  7.00000000E+01  0.00000000E+00
  5.20000000E+02  6.80000000E+01  0.00000000E+00
  5.20000000E+02  6.60000000E+01  0.00000000E+00
  5.20000000E+02  6.40000000E+01  0.00000000E+00
  5.20000000E+02  6.20000000E+01  0.00000000E+00
  5.20000000E+02  6.00000000E+01  0.00000000E+00
  5.20000000E+02  5.80000000E+01  0.00000000E+00
  5.20000000E+02  5.60000000E+01  0.00000000E+00
  5.20000000E+02  5.40000000E+01  0.00000000E+00
  5.20000000E+02  5.20000000E+01  0.00000000E+00
  5.20000000E+02  5.00000000E+01  0.00000000E+00
  5.20000000E+02  4.80000000E+01  0.00000000E+00
  5.20000000E+02  4.60000000E+01  0.00000000E+00
  5.20000000E+02  4.40000000E+01  0.00000000E+00
  5.20000000E+02  4.20000000E+01  0.00000000E+00
  5.20000000E+02  4.00000000E+01  0.00000000E+00
  5.20000000E+02  3.80000000E+01  0.00000000E+00
  5.20000000E+02  3.60000000E+01  0.00000000E+00
  5.20000000E+02  3.40000000E+01  0.00000000E+00
  5.20000000E+02  3.20000000E+01  0.00000000E+00
  5.20000000E+02  3.00000000E+01  0.00000000E+00
  5.20000000E+02  2.80000000E+01  0.00000000E+00
  5.20000000E+02  2.60000000E+01  0.00000000E+00
  5.20000000E+02  2.40000000E+01  0.00000000E+00
  5.20000000E+02  2.20000000E+01  0.00000000E+00
  5.20000000E+02  2.00000000E+01  0.00000000E+00
  5.20000000E+02  1.80000000E+01  0.00000000E+00
  5.20000000E+02  1.60000000E+01  0.00000000E+00
  5.20000000E+02  1.40000000E+01  0.00000000E+00
  5.20000000E+02  1.20000000E+01  0.00000000E+00
  5.20000000E+02  1.00000000E+01  0.00000000E+00
  5.20000000E+02  8.00000000E+00  0.00000000E+00
  5.20000000E+02  6.00000000E+00  0.00000000E+00
  5.20000000E+02  4.00000000E+00  0.00000000E+00
  5.20000000E+02  2.00000000E+00  0.00000000E+00
  5.20000000E+02 -3.33066907E-14  0.00000000E+00
  5.30000000E+02  1.00000000E+02  0.00000000E+00
  5.30000000E+02  9.80000000E+01  0.00000000E+00
  5.30000000E+02  9.60000000E+01  0.00000000E+00
  5.30000000E+02  9.40000000E+01  0.00000000E+00
  5.30000000E+02  9.20000000E+01  0.00000000E+00
  5.30000000E+02  9.00000000E+01  0.00000000E+00
  5.30000000E+02  8.80000000E+01  0.00000000E+00
  5.30000000E+02  8.60000000E+01  0.00000000E+00
  5.30000000E+02  8.40000000E+01  0.00000000E+00
  5.30000000E+02  8.20000000E+01  0.00000000E+00
  5.30000000E+02  8.00000000E+01  0.00000000E+00
  5.30000000E+02  7.80000000E+01  0.00000000E+00
  5.30000000E+02  7.60000000E+01  0.00000000E+00
  5.30000000E+02  7.40000000E+01  0.00000000E+00
  5.30000000E+02  7.20000000E+01  0.00000000E+00
  5.30000000E+02  7.00000000E+01  0.00000000E+00
  5.30000000E+02  6.80000000E+01  0.00000000E+00
  5.30000000E+02  6.60000000E+01  0.00000000E+00
  5.30000000E+02  6.40000000E+01  0.00000000E+00
  5.30000000E+02  6.20000000E+01  0.00000000E+00
  5.30000000E+02  6.00000000E+01  0.00000000E+00
  5.30000000E+02  5.80000000E+01  0.00000000E+00
  5.30000000E+02  5.60000000E+01  0.00000000E+00
  5.30000000E+02  5.40000000E+01  0.00000000E+00
  5.30000000E+02  5.20000000E+01  0.00000000E+00
  5.30000000E+02  5.00000000E+01  0.00000000E+00
  5.30000000E+02  4.80000000E+01  0.00000000E+00
  5.30000000E+02  4.60000000E+01  0.00000000E+00
  5.30000000E+02  4.40000000E+01  0.00000000E+00
  5.30000000E+02  4.20000000E+01  0.00000000E+00
  5.30000000E+02  4.00000000E+01  0.00000000E+00
  5.30000000E+02  3.80000000E+01  0.00000000E+00
  5.30000000E+02  3.60000000E+01  0.00000000E+00
  5.30000000E+02  3.40000000E+01  0.00000000E+00
  5.30000000E+02  3.20000000E+01  0.00000000E+00
  5.30000000E+02  3.00000000E+01  0.00000000E+00
  5.30000000E+02  2.80000000E+01  0.00000000E+00
  5.30000000E+02  2.60000000E+01  0.00000000E+00
  5.30000000E+02  2.40000000E+01  0.00000000E+00
  5.30000000E+02  2.20000000E+01  0.00000000E+00
  5.30000000E+02  2.00000000E+01  0.00000000E+00
  5.30000000E+02  1.80000000E+01  0.00000000E+00
  5.30000000E+02  1.60000000E+01  0.00000000E+00
  5.30000000E+02  1.40000000E+01  0.00000000E+00
  5.30000000E+02  1.20000000E+01  0.00000000E+00
  5.30000000E+02  1.00000000E+01  0.00000000E+00
  5.30000000E+02  8.00000000E+00  0.00000000E+00
  5.30000000E+02  6.00000000E+00  0.00000000E+00
  5.30000000E+02  4.00000000E+00  0.00000000E+00
  5.30000000E+02  2.00000000E+00  0.00000000E+00
  5.30000000E+02 -3.33066907E-14  0.00000000E+00
  5.40000000E+02  1.00000000E+02  0.00000000E+00
  5.40000000E+02  9.80000000E+01  0.00000000E+00
  5.40000000E+02  9.60000000E+01  0.00000000E+00
  5.40000000E+02  9.40000000E+01  0.00000000E+00
  5.40000000E+02  9.20000000E+01  0.00000000E+00
  5.40000000E+02  9.00000000E+01  0.00000000E+00
  5.40000000E+02  8.80000000E+01  0.00000000E+00
  5.40000000E+02  8.60000000E+01  0.00000000E+00
  5.40000000E+02  8.40000000E+01  0.00000000E+00
  5.40000000E+02  8.20000000E+01  0.00000000E+00
  5.40000000E+02  8.00000000E+01  0.00000000E+00
  5.40000000E+02  7.80000000E+01  0.00000000E+00
  5.40000000E+02  7.60000000E+01  0.00000000E+00
  5.40000000E+02  7.40000000E+01  0.00000000E+00
  5.40000000E+02  7.20000000E+01  0.00000000E+00
  5.40000000E+02  7.00000000E+01  0.00000000E+00
  5.40000000E+02  6.80000000E+01  0.00000000E+00
  5.40000000E+02  6.60000000E+01  0.00000000E+00
  5.40000000E+02  6.40000000E+01  0.00000000E+00
  5.40000000E+02  6.20000000E+01  0.00000000E+00
  5.40000000E+02  6.00000000E+01  0.00000000E+00
  5.40000000E+02  5.80000000E+01  0.00000000E+00
  5.40000000E+02  5.60000000E+01  0.00000000E+00
  5.40000000E+02  5.40000000E+01  0.00000000E+00
  5.40000000E+02  5.20000000E+01  0.00000000E+00
  5.40000000E+02  5.00000000E+01  0.00000000E+00
  5.40000000E+02  4.80000000E+01  0.00000000E+00
  5.40000000E+02  4.60000000E+01  0.00000000E+00
  5.40000000E+02  4.40000000E+01  0.00000000E+00
  5.40000000E+02  4.20000000E+01  0.00000000E+00
  5.40000000E+02  4.00000000E+01  0.00000000E+00
  5.40000000E+02  3.80000000E+01  0.00000000E+00
  5.40000000E+02  3.60000000E+01  0.00000000E+00
  5.40000000E+02  3.40000000E+01  0.00000000E+00
  5.40000000E+02  3.20000000E+01  0.00000000E+00
  5.40000000E+02  3.00000000E+01  0.00000000E+00
  5.40000000E+02  2.80000000E+01  0.00000000E+00
  5.40000000E+02  2.60000000E+01  0.00000000E+00
  5.40000000E+02  2.40000000E+01  0.00000000E+00
  5.40000000E+02  2.20000000E+01  0.00000000E+00
  5.40000000E+02  2.00000000E+01  0.00000000E+00
  5.40000000E+02  1.80000000E+01  0.00000000E+00
  5.40000000E+02  1.60000000E+01  0.00000000E+00
  5.40000000E+02  1.40000000E+01  0.00000000E+00
  5.40000000E+02  1.20000000E+01  0.00000000E+00
  5.40000000E+02  1.00000000E+01  0.00000000E+00
  5.40000000E+02  8.00000000E+00  0.00000000E+00
  5.40000000E+02  6.00000000E+00  0.00000000E+00
  5.40000000E+02  4.00000000E+00  0.00000000E+00
  5.40000000E+02  2.00000000E+00  0.00000000E+00
  5.40000000E+02 -3.33066907E-14  0.00000000E+00
  5.50000000E+02  1.00000000E+02  0.00000000E+00
  5.50000000E+02  9.80000000E+01  0.00000000E+00
  5.50000000E+02  9.60000000E+01  0.00000000E+00
  5.50000000E+02  9.40000000E+01  0.00000000E+00
  5.50000000E+02  9.20000000E+01  0.00000000E+00
  5.50000000E+02  9.00000000E+01  0.00000000E+00
  5.50000000E+02  8.80000000E+01  0.00000000E+00
  5.50000000E+02  8.60000000E+01  0.00000000E+00
  5.50000000E+02  8.40000000E+01  0.00000000E+00
  5.50000000E+02  8.20000000E+01  0.00000000E+00
  5.50000000E+02  8.00000000E+01  0.00000000E+00
  5.50000000E+02  7.80000000E+01  0.00000000E+00
  5.50000000E+02  7.60000000E+01  0.00000000E+00
  5.50000000E+02  7.40000000E+01  0.00000000E+00
  5.50000000E+02  7.20000000E+01  0.00000000E+00
  5.50000000E+02  7.00000000E+01  0.00000000E+00
  5.50000000E+02  6.80000000E+01  0.00000000E+00
  5.50000000E+02  6.60000000E+01  0.00000000E+00
  5.50000000E+02  6.40000000E+01  0.00000000E+00
  5.50000000E+02  6.20000000E+01  0.00000000E+00
  5.50000000E+02  6.00000000E+01  0.00000000E+00
  5.50000000E+02  5.80000000E+01  0.00000000E+00
  5.50000000E+02  5.60000000E+01  0.00000000E+00
  5.50000000E+02  5.40000000E+01  0.00000000E+00
  5.50000000E+02  5.20000000E+01  0.00000000E+00
  5.50000000E+02  5.00000000E+01  0.00000000E+00
  5.50000000E+02  4.80000000E+01  0.00000000E+00
  5.50000000E+02  4.60000000E+01  0.00000000E+00
  5.50000000E+02  4.40000000E+01  0.00000000E+00
  5.50000000E+02  4.20000000E+01  0.00000000E+00
  5.50000000E+02  4.00000000E+01  0.00000000E+00
  5.50000000E+02  3.80000000E+01  0.00000000E+00
  5.50000000E+02  3.60000000E+01  0.00000000E+00
  5.50000000E+02  3.40000000E+01  0.00000000E+00
  5.50000000E+02  3.20000000E+01  0.00000000E+00
  5.50000000E+02  3.00000000E+01  0.00000000E+00
  5.50000000E+02  2.80000000E+01  0.00000000E+00
  5.50000000E+02  2.60000000E+01  0.00000000E+00
  5.50000000E+02  2.40000000E+01  0.00000000E+00
  5.50000000E+02  2.20000000E+01  0.00000000E+00
  5.50000000E+02  2.00000000E+01  0.00000000E+00
  5.50000000E+02  1.80000000E+01  0.00000000E+00
  5.50000000E+02  1.60000000E+01  0.00000000E+00
  5.50000000E+02  1.40000000E+01  0.00000000E+00
  5.50000000E+02  1.20000000E+01  0.00000000E+00
  5.50000000E+02  1.00000000E+01  0.00000000E+00
  5.50000000E+02  8.00000000E+00  0.00000000E+00
  5.50000000E+02  6.00000000E+00  0.00000000E+00
  5.50000000E+02  4.00000000E+00  0.00000000E+00
  5.50000000E+02  2.00000000E+00  0.00000000E+00
  5.50000000E+02 -3.33066907E-14  0.00000000E+00
  5.60000000E+02  1.00000000E+02  0.00000000E+00
  5.60000000E+02  9.80000000E+01  0.00000000E+00
  5.60000000E+02  9.60000000E+01  0.00000000E+00
  5.60000000E+02  9.40000000E+01  0.00000000E+00
  5.60000000E+02  9.20000000E+01  0.00000000E+00
  5.60000000E+02  9.00000000E+01  0.00000000E+00
  5.60000000E+02  8.80000000E+01  0.00000000E+00
  5.60000000E+02  8.60000000E+01  0.00000000E+00
  5.60000000E+02  8.40000000E+01  0.00000000E+00
  5.60000000E+02  8.20000000E+01  0.00000000E+00
  5.60000000E+02  8.00000000E+01  0.00000000E+00
  5.60000000E+02  7.80000000E+01  0.00000000E+00
  5.60000000E+02  7.60000000E+01  0.00000000E+00
  5.60000000E+02  7.40000000E+01  0.00000000E+00
  5.60000000E+02  7.20000000E+01  0.00000000E+00
  5.60000000E+02  7.00000000E+01  0.00000000E+00
  5.60000000E+02  6.80000000E+01  0.00000000E+00
  5.60000000E+02  6.60000000E+01  0.00000000E+00
  5.60000000E+02  6.40000000E+01  0.00000000E+00
  5.60000000E+02  6.20000000E+01  0.00000000E+00
  5.60000000E+02  6.00000000E+01  0.00000000E+00
  5.60000000E+02  5.80000000E+01  0.00000000E+00
  5.60000000E+02  5.60000000E+01  0.00000000E+00
  5.60000000E+02  5.40000000E+01  0.00000000E+00
  5.60000000E+02  5.20000000E+01  0.00000000E+00
  5.60000000E+02  5.00000000E+01  0.00000000E+00
  5.60000000E+02  4.80000000E+01  0.00000000E+00
  5.60000000E+02  4.60000000E+01  0.00000000E+00
  5.60000000E+02  4.40000000E+01  0.00000000E+00
  5.60000000E+02  4.20000000E+01  0.00000000E+00
  5.60000000E+02  4.00000000E+01  0.00000000E+00
  5.60000000E+02  3.80000000E+01  0.00000000E+00
  5.60000000E+02  3.60000000E+01  0.00000000E+00
  5.60000000E+02  3.40000000E+01  0.00000000E+00
  5.60000000E+02  3.20000000E+01  0.00000000E+00
  5.60000000E+02  3.00000000E+01  0.00000000E+00
  5.60000000E+02  2.80000000E+01  0.00000000E+00
  5.60000000E+02  2.60000000E+01  0.00000000E+00
  5.60000000E+02  2.40000000E+01  0.00000000E+00
  5.60000000E+02  2.20000000E+01  0.00000000E+00
  5.60000000E+02  2.00000000E+01  0.00000000E+00
  5.60000000E+02  1.80000000E+01  0.00000000E+00
  5.60000000E+02  1.60000000E+01  0.00000000E+00
  5.60000000E+02  1.40000000E+01  0.00000000E+00
  5.60000000E+02  1.20000000E+01  0.00000000E+00
  5.60000000E+02  1.00000000E+01  0.00000000E+00
  5.60000000E+02  8.00000000E+00  0.00000000E+00
  5.60000000E+02  6.00000000E+00  0.00000000E+00
  5.60000000E+02  4.00000000E+00  0.00000000E+00
  5.60000000E+02  2.00000000E+00  0.00000000E+00
  5.60000000E+02 -3.33066907E-14  0.00000000E+00
  5.70000000E+02  1.00000000E+02  0.00000000E+00
  5.70000000E+02  9.80000000E+01  0.00000000E+00
  5.70000000E+02  9.60000000E+01  0.00000000E+00
  5.70000000E+02  9.40000000E+01  0.00000000E+00
  5.70000000E+02  9.20000000E+01  0.00000000E+00
  5.70000000E+02  9.00000000E+01  0.00000000E+00
  5.70000000E+02  8.80000000E+01  0.00000000E+00
  5.70000000E+02  8.60000000E+01  0.00000000E+00
  5.70000000E+02  8.40000000E+01  0.00000000E+00
  5.70000000E+02  8.20000000E+01  0.00000000E+00
  5.70000000E+02  8.00000000E+01  0.00000000E+00
  5.70000000E+02  7.80000000E+01  0.00000000E+00
  5.70000000E+02  7.60000000E+01  0.00000000E+00
  5.70000000E+02  7.40000000E+01  0.00000000E+00
  5.70000000E+02  7.20000000E+01  0.00000000E+00
  5.70000000E+02  7.00000000E+01  0.00000000E+00
  5.70000000E+02  6.80000000E+01  0.00000000E+00
  5.70000000E+02  6.60000000E+01  0.00000000E+00
  5.70000000E+02  6.40000000E+01  0.00000000E+00
  5.70000000E+02  6.20000000E+01  0.00000000E+00
  5.70000000E+02  6.00000000E+01  0.00000000E+00
  5.70000000E+02  5.80000000E+01  0.00000000E+00
  5.70000000E+02  5.60000000E+01  0.00000000E+00
  5.70000000E+02  5.40000000E+01  0.00000000E+00
  5.70000000E+02  5.20000000E+01  0.00000000E+00
  5.70000000E+02  5.00000000E+01  0.00000000E+00
  5.70000000E+02  4.80000000E+01  0.00000000E+00
  5.70000000E+02  4.60000000E+01  0.00000000E+00
  5.70000000E+02  4.40000000E+01  0.00000000E+00
  5.70000000E+02  4.20000000E+01  0.00000000E+00
  5.70000000E+02  4.00000000E+01  0.00000000E+00
  5.70000000E+02  3.80000000E+01  0.00000000E+00
  5.70000000E+02  3.60000000E+01  0.00000000E+00
  5.70000000E+02  3.40000000E+01  0.00000000E+00
  5.70000000E+02  3.20000000E+01  0.00000000E+00
  5.70000000E+02  3.00000000E+01  0.00000000E+00
  5.70000000E+02  2.80000000E+01  0.00000000E+00
  5.70000000E+02  2.60000000E+01  0.00000000E+00
  5.70000000E+02  2.40000000E+01  0.00000000E+00
  5.70000000E+02  2.20000000E+01  0.00000000E+00
  5.70000000E+02  2.00000000E+01  0.00000000E+00
  5.70000000E+02  1.80000000E+01  0.00000000E+00
  5.70000000E+02  1.60000000E+01  0.00000000E+00
  5.70000000E+02  1.40000000E+01  0.00000000E+00
  5.70000000E+02  1.20000000E+01  0.00000000E+00
  5.70000000E+02  1.00000000E+01  0.00000000E+00
  5.70000000E+02  8.00000000E+00  0.00000000E+00
  5.70000000E+02  6.00000000E+00  0.00000000E+00
  5.70000000E+02  4.00000000E+00  0.00000000E+00
  5.70000000E+02  2.00000000E+00  0.00000000E+00
  5.70000000E+02 -3.33066907E-14  0.00000000E+00
  5.80000000E+02  1.00000000E+02  0.00000000E+00
  5.80000000E+02  9.80000000E+01  0.00000000E+00
  5.80000000E+02  9.60000000E+01  0.00000000E+00
  5.80000000E+02  9.40000000E+01  0.00000000E+00
  5.80000000E+02  9.20000000E+01  0.00000000E+00
  5.80000000E+02  9.00000000E+01  0.00000000E+00
  5.80000000E+02  8.80000000E+01  0.00000000E+00
  5.80000000E+02  8.60000000E+01  0.00000000E+00
  5.80000000E+02  8.40000000E+01  0.00000000E+00
  5.80000000E+02  8.20000000E+01  0.00000000E+00
  5.80000000E+02  8.00000000E+01  0.00000000E+00
  5.80000000E+02  7.80000000E+01  0.00000000E+00
  5.80000000E+02  7.60000000E+01  0.00000000E+00
  5.80000000E+02  7.40000000E+01  0.00000000E+00
  5.80000000E+02  7.20000000E+01  0.00000000E+00
  5.80000000E+02  7.00000000E+01  0.00000000E+00
  5.80000000E+02  6.80000000E+01  0.00000000E+00
  5.80000000E+02  6.60000000E+01  0.00000000E+00
  5.80000000E+02  6.40000000E+01  0.00000000E+00
  5.80000000E+02  6.20000000E+01  0.00000000E+00
  5.80000000E+02  6.00000000E+01  0.00000000E+00
  5.80000000E+02  5.80000000E+01  0.00000000E+00
  5.80000000E+02  5.60000000E+01  0.00000000E+00
  5.80000000E+02  5.40000000E+01  0.00000000E+00
  5.80000000E+02  5.20000000E+01  0.00000000E+00
  5.80000000E+02  5.00000000E+01  0.00000000E+00
  5.80000000E+02  4.80000000E+01  0.00000000E+00
  5.80000000E+02  4.60000000E+01  0.00000000E+00
  5.80000000E+02  4.40000000E+01  0.00000000E+00
  5.80000000E+02  4.20000000E+01  0.00000000E+00
  5.80000000E+02  4.00000000E+01  0.00000000E+00
  5.80000000E+02  3.80000000E+01  0.00000000E+00
  5.80000000E+02  3.60000000E+01  0.00000000E+00
  5.80000000E+02  3.40000000E+01  0.00000000E+00
  5.80000000E+02  3.20000000E+01  0.00000000E+00
  5.80000000E+02  3.00000000E+01  0.00000000E+00
  5.80000000E+02  2.80000000E+01  0.00000000E+00
  5.80000000E+02  2.60000000E+01  0.00000000E+00
  5.80000000E+02  2.40000000E+01  0.00000000E+00
  5.80000000E+02  2.20000000E+01  0.00000000E+00
  5.80000000E+02  2.00000000E+01  0.00000000E+00
  5.80000000E+02  1.80000000E+01  0.00000000E+00
  5.80000000E+02  1.60000000E+01  0.00000000E+00
  5.80000000E+02  1.40000000E+01  0.00000000E+00
  5.80000000E+02  1.20000000E+01  0.00000000E+00
  5.80000000E+02  1.00000000E+01  0.00000000E+00
  5.80000000E+02  8.00000000E+00  0.00000000E+00
  5.80000000E+02  6.00000000E+00  0.00000000E+00
  5.80000000E+02  4.00000000E+00  0.00000000E+00
  5.80000000E+02  2.00000000E+00  0.00000000E+00
  5.80000000E+02 -3.33066907E-14  0.00000000E+00
  5.90000000E+02  1.00000000E+02  0.00000000E+00
  5.90000000E+02  9.80000000E+01  0.00000000E+00
  5.90000000E+02  9.60000000E+01  0.00000000E+00
  5.90000000E+02  9.40000000E+01  0.00000000E+00
  5.90000000E+02  9.20000000E+01  0.00000000E+00
  5.90000000E+02  9.00000000E+01  0.00000000E+00
  5.90000000E+02  8.80000000E+01  0.00000000E+00
  5.90000000E+02  8.60000000E+01  0.00000000E+00
  5.90000000E+02  8.40000000E+01  0.00000000E+00
  5.90000000E+02  8.20000000E+01  0.00000000E+00
  5.90000000E+02  8.00000000E+01  0.00000000E+00
  5.90000000E+02  7.80000000E+01  0.00000000E+00
  5.90000000E+02  7.60000000E+01  0.00000000E+00
  5.90000000E+02  7.40000000E+01  0.00000000E+00
  5.90000000E+02  7.20000000E+01  0.00000000E+00
  5.90000000E+02  7.00000000E+01  0.00000000E+00
  5.90000000E+02  6.80000000E+01  0.00000000E+00
  5.90000000E+02  6.60000000E+01  0.00000000E+00
  5.90000000E+02  6.40000000E+01  0.00000000E+00
  5.90000000E+02  6.20000000E+01  0.00000000E+00
  5.90000000E+02  6.00000000E+01  0.00000000E+00
  5.90000000E+02  5.80000000E+01  0.00000000E+00
  5.90000000E+02  5.60000000E+01  0.00000000E+00
  5.90000000E+02  5.40000000E+01  0.00000000E+00
  5.90000000E+02  5.20000000E+01  0.00000000E+00
  5.90000000E+02  5.00000000E+01  0.00000000E+00
  5.90000000E+02  4.80000000E+01  0.00000000E+00
  5.90000000E+02  4.60000000E+01  0.00000000E+00
  5.90000000E+02  4.40000000E+01  0.00000000E+00
  5.90000000E+02  4.20000000E+01  0.00000000E+00
  5.90000000E+02  4.00000000E+01  0.00000000E+00
  5.90000000E+02  3.80000000E+01  0.00000000E+00
  5.90000000E+02  3.60000000E+01  0.00000000E+00
  5.90000000E+02  3.40000000E+01  0.00000000E+00
  5.90000000E+02  3.20000000E+01  0.00000000E+00
  5.90000000E+02  3.00000000E+01  0.00000000E+00
  5.90000000E+02  2.80000000E+01  0.00000000E+00
  5.90000000E+02  2.60000000E+01  0.00000000E+00
  5.90000000E+02  2.40000000E+01  0.00000000E+00
  5.90000000E+02  2.20000000E+01  0.00000000E+00
  5.90000000E+02  2.00000000E+01  0.00000000E+00
  5.90000000E+02  1.80000000E+01  0.00000000E+00
  5.90000000E+02  1.60000000E+01  0.00000000E+00
  5.90000000E+02  1.40000000E+01  0.00000000E+00
  5.90000000E+02  1.20000000E+01  0.00000000E+00
  5.90000000E+02  1.00000000E+01  0.00000000E+00
  5.90000000E+02  8.00000000E+00  0.00000000E+00
  5.90000000E+02  6.00000000E+00  0.00000000E+00
  5.90000000E+02  4.00000000E+00  0.00000000E+00
  5.90000000E+02  2.00000000E+00  0.00000000E+00
  5.90000000E+02 -3.33066907E-14  0.00000000E+00
  6.00000000E+02  1.00000000E+02  0.00000000E+00
  6.00000000E+02  9.80000000E+01  0.00000000E+00
  6.00000000E+02  9.60000000E+01  0.00000000E+00
  6.00000000E+02  9.40000000E+01  0.00000000E+00
  6.00000000E+02  9.20000000E+01  0.00000000E+00
  6.00000000E+02  9.00000000E+01  0.00000000E+00
  6.00000000E+02  8.80000000E+01  0.00000000E+00
  6.00000000E+02  8.60000000E+01  0.00000000E+00
  6.00000000E+02  8.40000000E+01  0.00000000E+00
  6.00000000E+02  8.20000000E+01  0.00000000E+00
  6.00000000E+02  8.00000000E+01  0.00000000E+00
  6.00000000E+02  7.80000000E+01  0.00000000E+00
  6.00000000E+02  7.60000000E+01  0.00000000E+00
  6.00000000E+02  7.40000000E+01  0.00000000E+00
  6.00000000E+02  7.20000000E+01  0.00000000E+00
  6.00000000E+02  7.00000000E+01  0.00000000E+00
  6.00000000E+02  6.80000000E+01  0.00000000E+00
  6.00000000E+02  6.60000000E+01  0.00000000E+00
  6.00000000E+02  6.40000000E+01  0.00000000E+00
  6.00000000E+02  6.20000000E+01  0.00000000E+00
  6.00000000E+02  6.00000000E+01  0.00000000E+00
  6.00000000E+02  5.80000000E+01  0.00000000E+00
  6.00000000E+02  5.60000000E+01  0.00000000E+00
  6.00000000E+02  5.40000000E+01  0.00000000E+00
  6.00000000E+02  5.20000000E+01  0.00000000E+00
  6.00000000E+02  5.00000000E+01  0.00000000E+00
  6.00000000E+02  4.80000000E+01  0.00000000E+00
  6.00000000E+02  4.60000000E+01  0.00000000E+00
  6.00000000E+02  4.40000000E+01  0.00000000E+00
  6.00000000E+02  4.20000000E+01  0.00000000E+00
  6.00000000E+02  4.00000000E+01  0.00000000E+00
  6.00000000E+02  3.80000000E+01  0.00000000E+00
  6.00000000E+02  3.60000000E+01  0.00000000E+00
  6.00000000E+02  3.40000000E+01  0.00000000E+00
  6.00000000E+02  3.20000000E+01  0.00000000E+00
  6.00000000E+02  3.00000000E+01  0.00000000E+00
  6.00000000E+02  2.80000000E+01  0.00000000E+00
  6.00000000E+02  2.60000000E+01  0.00000000E+00
  6.00000000E+02  2.40000000E+01  0.00000000E+00
  6.00000000E+02  2.20000000E+01  0.00000000E+00
  6.00000000E+02  2.00000000E+01  0.00000000E+00
  6.00000000E+02  1.80000000E+01  0.00000000E+00
  6.00000000E+02  1.60000000E+01  0.00000000E+00
  6.00000000E+02  1.40000000E+01  0.00000000E+00
  6.00000000E+02  1.20000000E+01  0.00000000E+00
  6.00000000E+02  1.00000000E+01  0.00000000E+00
  6.00000000E+02  8.00000000E+00  0.00000000E+00
  6.00000000E+02  6.00000000E+00  0.00000000E+00
  6.00000000E+02  4.00000000E+00  0.00000000E+00
  6.00000000E+02  2.00000000E+00  0.00000000E+00
  6.00000000E+02 -3.33066907E-14  0.00000000E+00
  6.10000000E+02  1.00000000E+02  0.00000000E+00
  6.10000000E+02  9.80000000E+01  0.00000000E+00
  6.10000000E+02  9.60000000E+01  0.00000000E+00
  6.10000000E+02  9.40000000E+01  0.00000000E+00
  6.10000000E+02  9.20000000E+01  0.00000000E+00
  6.10000000E+02  9.00000000E+01  0.00000000E+00
  6.10000000E+02  8.80000000E+01  0.00000000E+00
  6.10000000E+02  8.60000000E+01  0.00000000E+00
  6.10000000E+02  8.40000000E+01  0.00000000E+00
  6.10000000E+02  8.20000000E+01  0.00000000E+00
  6.10000000E+02  8.00000000E+01  0.00000000E+00
  6.10000000E+02  7.80000000E+01  0.00000000E+00
  6.10000000E+02  7.60000000E+01  0.00000000E+00
  6.10000000E+02  7.40000000E+01  0.00000000E+00
  6.10000000E+02  7.20000000E+01  0.00000000E+00
  6.10000000E+02  7.00000000E+01  0.00000000E+00
  6.10000000E+02  6.80000000E+01  0.00000000E+00
  6.10000000E+02  6.60000000E+01  0.00000000E+00
  6.10000000E+02  6.40000000E+01  0.00000000E+00
  6.10000000E+02  6.20000000E+01  0.00000000E+00
  6.10000000E+02  6.00000000E+01  0.00000000E+00
  6.10000000E+02  5.80000000E+01  0.00000000E+00
  6.10000000E+02  5.60000000E+01  0.00000000E+00
  6.10000000E+02  5.40000000E+01  0.00000000E+00
  6.10000000E+02  5.20000000E+01  0.00000000E+00
  6.10000000E+02  5.00000000E+01  0.00000000E+00
  6.10000000E+02  4.80000000E+01  0.00000000E+00
  6.10000000E+02  4.60000000E+01  0.00000000E+00
  6.10000000E+02  4.40000000E+01  0.00000000E+00
  6.10000000E+02  4.20000000E+01  0.00000000E+00
  6.10000000E+02  4.00000000E+01  0.00000000E+00
  6.10000000E+02  3.80000000E+01  0.00000000E+00
  6.10000000E+02  3.60000000E+01  0.00000000E+00
  6.10000000E+02  3.40000000E+01  0.00000000E+00
  6.10000000E+02  3.20000000E+01  0.00000000E+00
  6.10000000E+02  3.00000000E+01  0.00000000E+00
  6.10000000E+02  2.80000000E+01  0.00000000E+00
  6.10000000E+02  2.60000000E+01  0.00000000E+00
  6.10000000E+02  2.40000000E+01  0.00000000E+00
  6.10000000E+02  2.20000000E+01  0.00000000E+00
  6.10000000E+02  2.00000000E+01  0.00000000E+00
  6.10000000E+02  1.80000000E+01  0.00000000E+00
  6.10000000E+02  1.60000000E+01  0.00000000E+00
  6.10000000E+02  1.40000000E+01  0.00000000E+00
  6.10000000E+02  1.20000000E+01  0.00000000E+00
  6.10000000E+02  1.00000000E+01  0.00000000E+00
  6.10000000E+02  8.00000000E+00  0.00000000E+00
  6.10000000E+02  6.00000000E+00  0.00000000E+00
  6.10000000E+02  4.00000000E+00  0.00000000E+00
  6.10000000E+02  2.00000000E+00  0.00000000E+00
  6.10000000E+02 -3.33066907E-14  0.00000000E+00
  6.20000000E+02  1.00000000E+02  0.00000000E+00
  6.20000000E+02  9.80000000E+01  0.00000000E+00
  6.20000000E+02  9.60000000E+01  0.00000000E+00
  6.20000000E+02  9.40000000E+01  0.00000000E+00
  6.20000000E+02  9.20000000E+01  0.00000000E+00
  6.20000000E+02  9.00000000E+01  0.00000000E+00
  6.20000000E+02  8.80000000E+01  0.00000000E+00
  6.20000000E+02  8.60000000E+01  0.00000000E+00
  6.20000000E+02  8.40000000E+01  0.00000000E+00
  6.20000000E+02  8.20000000E+01  0.00000000E+00
  6.20000000E+02  8.00000000E+01  0.00000000E+00
  6.20000000E+02  7.80000000E+01  0.00000000E+00
  6.20000000E+02  7.60000000E+01  0.00000000E+00
  6.20000000E+02  7.40000000E+01  0.00000000E+00
  6.20000000E+02  7.20000000E+01  0.00000000E+00
  6.20000000E+02  7.00000000E+01  0.00000000E+00
  6.20000000E+02  6.80000000E+01  0.00000000E+00
  6.20000000E+02  6.60000000E+01  0.00000000E+00
  6.20000000E+02  6.40000000E+01  0.00000000E+00
  6.20000000E+02  6.20000000E+01  0.00000000E+00
  6.20000000E+02  6.00000000E+01  0.00000000E+00
  6.20000000E+02  5.80000000E+01  0.00000000E+00
  6.20000000E+02  5.60000000E+01  0.00000000E+00
  6.20000000E+02  5.40000000E+01  0.00000000E+00
  6.20000000E+02  5.20000000E+01  0.00000000E+00
  6.20000000E+02  5.00000000E+01  0.00000000E+00
  6.20000000E+02  4.80000000E+01  0.00000000E+00
  6.20000000E+02  4.60000000E+01  0.00000000E+00
  6.20000000E+02  4.40000000E+01  0.00000000E+00
  6.20000000E+02  4.20000000E+01  0.00000000E+00
  6.20000000E+02  4.00000000E+01  0.00000000E+00
  6.20000000E+02  3.80000000E+01  0.00000000E+00
  6.20000000E+02  3.60000000E+01  0.00000000E+00
  6.20000000E+02  3.40000000E+01  0.00000000E+00
  6.20000000E+02  3.20000000E+01  0.00000000E+00
  6.20000000E+02  3.00000000E+01  0.00000000E+00
  6.20000000E+02  2.80000000E+01  0.00000000E+00
  6.20000000E+02  2.60000000E+01  0.00000000E+00
  6.20000000E+02  2.40000000E+01  0.00000000E+00
  6.20000000E+02  2.20000000E+01  0.00000000E+00
  6.20000000E+02  2.00000000E+01  0.00000000E+00
  6.20000000E+02  1.80000000E+01  0.00000000E+00
  6.20000000E+02  1.60000000E+01  0.00000000E+00
  6.20000000E+02  1.40000000E+01  0.00000000E+00
  6.20000000E+02  1.20000000E+01  0.00000000E+00
  6.20000000E+02  1.00000000E+01  0.00000000E+00
  6.20000000E+02  8.00000000E+00  0.00000000E+00
  6.20000000E+02  6.00000000E+00  0.00000000E+00
  6.20000000E+02  4.00000000E+00  0.00000000E+00
  6.20000000E+02  2.00000000E+00  0.00000000E+00
  6.20000000E+02 -3.33066907E-14  0.00000000E+00
  6.30000000E+02  1.00000000E+02  0.00000000E+00
  6.30000000E+02  9.80000000E+01  0.00000000E+00
  6.30000000E+02  9.60000000E+01  0.00000000E+00
  6.30000000E+02  9.40000000E+01  0.00000000E+00
  6.30000000E+02  9.20000000E+01  0.00000000E+00
  6.30000000E+02  9.00000000E+01  0.00000000E+00
  6.30000000E+02  8.80000000E+01  0.00000000E+00
  6.30000000E+02  8.60000000E+01  0.00000000E+00
  6.30000000E+02  8.40000000E+01  0.00000000E+00
  6.30000000E+02  8.20000000E+01  0.00000000E+00
  6.30000000E+02  8.00000000E+01  0.00000000E+00
  6.30000000E+02  7.80000000E+01  0.00000000E+00
  6.30000000E+02  7.60000000E+01  0.00000000E+00
  6.30000000E+02  7.40000000E+01  0.00000000E+00
  6.30000000E+02  7.20000000E+01  0.00000000E+00
  6.30000000E+02  7.00000000E+01  0.00000000E+00
  6.30000000E+02  6.80000000E+01  0.00000000E+00
  6.30000000E+02  6.60000000E+01  0.00000000E+00
  6.30000000E+02  6.40000000E+01  0.00000000E+00
  6.30000000E+02  6.20000000E+01  0.00000000E+00
  6.30000000E+02  6.00000000E+01  0.00000000E+00
  6.30000000E+02  5.80000000E+01  0.00000000E+00
  6.30000000E+02  5.60000000E+01  0.00000000E+00
  6.30000000E+02  5.40000000E+01  0.00000000E+00
  6.30000000E+02  5.20000000E+01  0.00000000E+00
  6.30000000E+02  5.00000000E+01  0.00000000E+00
  6.30000000E+02  4.80000000E+01  0.00000000E+00
  6.30000000E+02  4.60000000E+01  0.00000000E+00
  6.30000000E+02  4.40000000E+01  0.00000000E+00
  6.30000000E+02  4.20000000E+01  0.00000000E+00
  6.30000000E+02  4.00000000E+01  0.00000000E+00
  6.30000000E+02  3.80000000E+01  0.00000000E+00
  6.30000000E+02  3.60000000E+01  0.00000000E+00
  6.30000000E+02  3.40000000E+01  0.00000000E+00
  6.30000000E+02  3.20000000E+01  0.00000000E+00
  6.30000000E+02  3.00000000E+01  0.00000000E+00
  6.30000000E+02  2.80000000E+01  0.00000000E+00
  6.30000000E+02  2.60000000E+01  0.00000000E+00
  6.30000000E+02  2.40000000E+01  0.00000000E+00
  6.30000000E+02  2.20000000E+01  0.00000000E+00
  6.30000000E+02  2.00000000E+01  0.00000000E+00
  6.30000000E+02  1.80000000E+01  0.00000000E+00
  6.30000000E+02  1.60000000E+01  0.00000000E+00
  6.30000000E+02  1.40000000E+01  0.00000000E+00
  6.30000000E+02  1.20000000E+01  0.00000000E+00
  6.30000000E+02  1.00000000E+01  0.00000000E+00
  6.30000000E+02  8.00000000E+00  0.00000000E+00
  6.30000000E+02  6.00000000E+00  0.00000000E+00
  6.30000000E+02  4.00000000E+00  0.00000000E+00
  6.30000000E+02  2.00000000E+00  0.00000000E+00
  6.30000000E+02 -3.33066907E-14  0.00000000E+00
  6.40000000E+02  1.00000000E+02  0.00000000E+00
  6.40000000E+02  9.80000000E+01  0.00000000E+00
  6.40000000E+02  9.60000000E+01  0.00000000E+00
  6.40000000E+02  9.40000000E+01  0.00000000E+00
  6.40000000E+02  9.20000000E+01  0.00000000E+00
  6.40000000E+02  9.00000000E+01  0.00000000E+00
  6.40000000E+02  8.80000000E+01  0.00000000E+00
  6.40000000E+02  8.60000000E+01  0.00000000E+00
  6.40000000E+02  8.40000000E+01  0.00000000E+00
  6.40000000E+02  8.20000000E+01  0.00000000E+00
  6.40000000E+02  8.00000000E+01  0.00000000E+00
  6.40000000E+02  7.80000000E+01  0.00000000E+00
  6.40000000E+02  7.60000000E+01  0.00000000E+00
  6.40000000E+02  7.40000000E+01  0.00000000E+00
  6.40000000E+02  7.20000000E+01  0.00000000E+00
  6.40000000E+02  7.00000000E+01  0.00000000E+00
  6.40000000E+02  6.80000000E+01  0.00000000E+00
  6.40000000E+02  6.60000000E+01  0.00000000E+00
  6.40000000E+02  6.40000000E+01  0.00000000E+00
  6.40000000E+02  6.20000000E+01  0.00000000E+00
  6.40000000E+02  6.00000000E+01  0.00000000E+00
  6.40000000E+02  5.80000000E+01  0.00000000E+00
  6.40000000E+02  5.60000000E+01  0.00000000E+00
  6.40000000E+02  5.40000000E+01  0.00000000E+00
  6.40000000E+02  5.20000000E+01  0.00000000E+00
  6.40000000E+02  5.00000000E+01  0.00000000E+00
  6.40000000E+02  4.80000000E+01  0.00000000E+00
  6.40000000E+02  4.60000000E+01  0.00000000E+00
  6.40000000E+02  4.40000000E+01  0.00000000E+00
  6.40000000E+02  4.20000000E+01  0.00000000E+00
  6.40000000E+02  4.00000000E+01  0.00000000E+00
  6.40000000E+02  3.80000000E+01  0.00000000E+00
  6.40000000E+02  3.60000000E+01  0.00000000E+00
  6.40000000E+02  3.40000000E+01  0.00000000E+00
  6.40000000E+02  3.20000000E+01  0.00000000E+00
  6.40000000E+02  3.00000000E+01  0.00000000E+00
  6.40000000E+02  2.80000000E+01  0.00000000E+00
  6.40000000E+02  2.60000000E+01  0.00000000E+00
  6.40000000E+02  2.40000000E+01  0.00000000E+00
  6.40000000E+02  2.20000000E+01  0.00000000E+00
  6.40000000E+02  2.00000000E+01  0.00000000E+00
  6.40000000E+02  1.80000000E+01  0.00000000E+00
  6.40000000E+02  1.60000000E+01  0.00000000E+00
  6.40000000E+02  1.40000000E+01  0.00000000E+00
  6.40000000E+02  1.20000000E+01  0.00000000E+00
  6.40000000E+02  1.00000000E+01  0.00000000E+00
  6.40000000E+02  8.00000000E+00  0.00000000E+00
  6.40000000E+02  6.00000000E+00  0.00000000E+00
  6.40000000E+02  4.00000000E+00  0.00000000E+00
  6.40000000E+02  2.00000000E+00  0.00000000E+00
  6.40000000E+02 -3.33066907E-14  0.00000000E+00
  6.50000000E+02  1.00000000E+02  0.00000000E+00
  6.50000000E+02  9.80000000E+01  0.00000000E+00
  6.50000000E+02  9.60000000E+01  0.00000000E+00
  6.50000000E+02  9.40000000E+01  0.00000000E+00
  6.50000000E+02  9.20000000E+01  0.00000000E+00
  6.50000000E+02  9.00000000E+01  0.00000000E+00
  6.50000000E+02  8.80000000E+01  0.00000000E+00
  6.50000000E+02  8.60000000E+01  0.00000000E+00
  6.50000000E+02  8.40000000E+01  0.00000000E+00
  6.50000000E+02  8.20000000E+01  0.00000000E+00
  6.50000000E+02  8.00000000E+01  0.00000000E+00
  6.50000000E+02  7.80000000E+01  0.00000000E+00
  6.50000000E+02  7.60000000E+01  0.00000000E+00
  6.50000000E+02  7.40000000E+01  0.00000000E+00
  6.50000000E+02  7.20000000E+01  0.00000000E+00
  6.50000000E+02  7.00000000E+01  0.00000000E+00
  6.50000000E+02  6.80000000E+01  0.00000000E+00
  6.50000000E+02  6.60000000E+01  0.00000000E+00
  6.50000000E+02  6.40000000E+01  0.00000000E+00
  6.50000000E+02  6.20000000E+01  0.00000000E+00
  6.50000000E+02  6.00000000E+01  0.00000000E+00
  6.50000000E+02  5.80000000E+01  0.00000000E+00
  6.50000000E+02  5.60000000E+01  0.00000000E+00
  6.50000000E+02  5.40000000E+01  0.00000000E+00
  6.50000000E+02  5.20000000E+01  0.00000000E+00
  6.50000000E+02  5.00000000E+01  0.00000000E+00
  6.50000000E+02  4.80000000E+01  0.00000000E+00
  6.50000000E+02  4.60000000E+01  0.00000000E+00
  6.50000000E+02  4.40000000E+01  0.00000000E+00
  6.50000000E+02  4.20000000E+01  0.00000000E+00
  6.50000000E+02  4.00000000E+01  0.00000000E+00
  6.50000000E+02  3.80000000E+01  0.00000000E+00
  6.50000000E+02  3.60000000E+01  0.00000000E+00
  6.50000000E+02  3.40000000E+01  0.00000000E+00
  6.50000000E+02  3.20000000E+01  0.00000000E+00
  6.50000000E+02  3.00000000E+01  0.00000000E+00
  6.50000000E+02  2.80000000E+01  0.00000000E+00
  6.50000000E+02  2.60000000E+01  0.00000000E+00
  6.50000000E+02  2.40000000E+01  0.00000000E+00
  6.50000000E+02  2.20000000E+01  0.00000000E+00
  6.50000000E+02  2.00000000E+01  0.00000000E+00
  6.50000000E+02  1.80000000E+01  0.00000000E+00
  6.50000000E+02  1.60000000E+01  0.00000000E+00
  6.50000000E+02  1.40000000E+01  0.00000000E+00
  6.50000000E+02  1.20000000E+01  0.00000000E+00
  6.50000000E+02  1.00000000E+01  0.00000000E+00
  6.50000000E+02  8.00000000E+00  0.00000000E+00
  6.50000000E+02  6.00000000E+00  0.00000000E+00
  6.50000000E+02  4.00000000E+00  0.00000000E+00
  6.50000000E+02  2.00000000E+00  0.00000000E+00
  6.50000000E+02 -3.33066907E-14  0.00000000E+00
  6.60000000E+02  1.00000000E+02  0.00000000E+00
  6.60000000E+02  9.80000000E+01  0.00000000E+00
  6.60000000E+02  9.60000000E+01  0.00000000E+00
  6.60000000E+02  9.40000000E+01  0.00000000E+00
  6.60000000E+02  9.20000000E+01  0.00000000E+00
  6.60000000E+02  9.00000000E+01  0.00000000E+00
  6.60000000E+02  8.80000000E+01  0.00000000E+00
  6.60000000E+02  8.60000000E+01  0.00000000E+00
  6.60000000E+02  8.40000000E+01  0.00000000E+00
  6.60000000E+02  8.20000000E+01  0.00000000E+00
  6.60000000E+02  8.00000000E+01  0.00000000E+00
  6.60000000E+02  7.80000000E+01  0.00000000E+00
  6.60000000E+02  7.60000000E+01  0.00000000E+00
  6.60000000E+02  7.40000000E+01  0.00000000E+00
  6.60000000E+02  7.20000000E+01  0.00000000E+00
  6.60000000E+02  7.00000000E+01  0.00000000E+00
  6.60000000E+02  6.80000000E+01  0.00000000E+00
  6.60000000E+02  6.60000000E+01  0.00000000E+00
  6.60000000E+02  6.40000000E+01  0.00000000E+00
  6.60000000E+02  6.20000000E+01  0.00000000E+00
  6.60000000E+02  6.00000000E+01  0.00000000E+00
  6.60000000E+02  5.80000000E+01  0.00000000E+00
  6.60000000E+02  5.60000000E+01  0.00000000E+00
  6.60000000E+02  5.40000000E+01  0.00000000E+00
  6.60000000E+02  5.20000000E+01  0.00000000E+00
  6.60000000E+02  5.00000000E+01  0.00000000E+00
  6.60000000E+02  4.80000000E+01  0.00000000E+00
  6.60000000E+02  4.60000000E+01  0.00000000E+00
  6.60000000E+02  4.40000000E+01  0.00000000E+00
  6.60000000E+02  4.20000000E+01  0.00000000E+00
  6.60000000E+02  4.00000000E+01  0.00000000E+00
  6.60000000E+02  3.80000000E+01  0.00000000E+00
  6.60000000E+02  3.60000000E+01  0.00000000E+00
  6.60000000E+02  3.40000000E+01  0.00000000E+00
  6.60000000E+02  3.20000000E+01  0.00000000E+00
  6.60000000E+02  3.00000000E+01  0.00000000E+00
  6.60000000E+02  2.80000000E+01  0.00000000E+00
  6.60000000E+02  2.60000000E+01  0.00000000E+00
  6.60000000E+02  2.40000000E+01  0.00000000E+00
  6.60000000E+02  2.20000000E+01  0.00000000E+00
  6.60000000E+02  2.00000000E+01  0.00000000E+00
  6.60000000E+02  1.80000000E+01  0.00000000E+00
  6.60000000E+02  1.60000000E+01  0.00000000E+00
  6.60000000E+02  1.40000000E+01  0.00000000E+00
  6.60000000E+02  1.20000000E+01  0.00000000E+00
  6.60000000E+02  1.00000000E+01  0.00000000E+00
  6.60000000E+02  8.00000000E+00  0.00000000E+00
  6.60000000E+02  6.00000000E+00  0.00000000E+00
  6.60000000E+02  4.00000000E+00  0.00000000E+00
  6.60000000E+02  2.00000000E+00  0.00000000E+00
  6.60000000E+02 -3.33066907E-14  0.00000000E+00
  6.70000000E+02  1.00000000E+02  0.00000000E+00
  6.70000000E+02  9.80000000E+01  0.00000000E+00
  6.70000000E+02  9.60000000E+01  0.00000000E+00
  6.70000000E+02  9.40000000E+01  0.00000000E+00
  6.70000000E+02  9.20000000E+01  0.00000000E+00
  6.70000000E+02  9.00000000E+01  0.00000000E+00
  6.70000000E+02  8.80000000E+01  0.00000000E+00
  6.70000000E+02  8.60000000E+01  0.00000000E+00
  6.70000000E+02  8.40000000E+01  0.00000000E+00
  6.70000000E+02  8.20000000E+01  0.00000000E+00
  6.70000000E+02  8.00000000E+01  0.00000000E+00
  6.70000000E+02  7.80000000E+01  0.00000000E+00
  6.70000000E+02  7.60000000E+01  0.00000000E+00
  6.70000000E+02  7.40000000E+01  0.00000000E+00
  6.70000000E+02  7.20000000E+01  0.00000000E+00
  6.70000000E+02  7.00000000E+01  0.00000000E+00
  6.70000000E+02  6.80000000E+01  0.00000000E+00
  6.70000000E+02  6.60000000E+01  0.00000000E+00
  6.70000000E+02  6.40000000E+01  0.00000000E+00
  6.70000000E+02  6.20000000E+01  0.00000000E+00
  6.70000000E+02  6.00000000E+01  0.00000000E+00
  6.70000000E+02  5.80000000E+01  0.00000000E+00
  6.70000000E+02  5.60000000E+01  0.00000000E+00
  6.70000000E+02  5.40000000E+01  0.00000000E+00
  6.70000000E+02  5.20000000E+01  0.00000000E+00
  6.70000000E+02  5.00000000E+01  0.00000000E+00
  6.70000000E+02  4.80000000E+01  0.00000000E+00
  6.70000000E+02  4.60000000E+01  0.00000000E+00
  6.70000000E+02  4.40000000E+01  0.00000000E+00
  6.70000000E+02  4.20000000E+01  0.00000000E+00
  6.70000000E+02  4.00000000E+01  0.00000000E+00
  6.70000000E+02  3.80000000E+01  0.00000000E+00
  6.70000000E+02  3.60000000E+01  0.00000000E+00
  6.70000000E+02  3.40000000E+01  0.00000000E+00
  6.70000000E+02  3.20000000E+01  0.00000000E+00
  6.70000000E+02  3.00000000E+01  0.00000000E+00
  6.70000000E+02  2.80000000E+01  0.00000000E+00
  6.70000000E+02  2.60000000E+01  0.00000000E+00
  6.70000000E+02  2.40000000E+01  0.00000000E+00
  6.70000000E+02  2.20000000E+01  0.00000000E+00
  6.70000000E+02  2.00000000E+01  0.00000000E+00
  6.70000000E+02  1.80000000E+01  0.00000000E+00
  6.70000000E+02  1.60000000E+01  0.00000000E+00
  6.70000000E+02  1.40000000E+01  0.00000000E+00
  6.70000000E+02  1.20000000E+01  0.00000000E+00
  6.70000000E+02  1.00000000E+01  0.00000000E+00
  6.70000000E+02  8.00000000E+00  0.00000000E+00
  6.70000000E+02  6.00000000E+00  0.00000000E+00
  6.70000000E+02  4.00000000E+00  0.00000000E+00
  6.70000000E+02  2.00000000E+00  0.00000000E+00
  6.70000000E+02 -3.33066907E-14  0.00000000E+00
  6.80000000E+02  1.00000000E+02  0.00000000E+00
  6.80000000E+02  9.80000000E+01  0.00000000E+00
  6.80000000E+02  9.60000000E+01  0.00000000E+00
  6.80000000E+02  9.40000000E+01  0.00000000E+00
  6.80000000E+02  9.20000000E+01  0.00000000E+00
  6.80000000E+02  9.00000000E+01  0.00000000E+00
  6.80000000E+02  8.80000000E+01  0.00000000E+00
  6.80000000E+02  8.60000000E+01  0.00000000E+00
  6.80000000E+02  8.40000000E+01  0.00000000E+00
  6.80000000E+02  8.20000000E+01  0.00000000E+00
  6.80000000E+02  8.00000000E+01  0.00000000E+00
  6.80000000E+02  7.80000000E+01  0.00000000E+00
  6.80000000E+02  7.60000000E+01  0.00000000E+00
  6.80000000E+02  7.40000000E+01  0.00000000E+00
  6.80000000E+02  7.20000000E+01  0.00000000E+00
  6.80000000E+02  7.00000000E+01  0.00000000E+00
  6.80000000E+02  6.80000000E+01  0.00000000E+00
  6.80000000E+02  6.60000000E+01  0.00000000E+00
  6.80000000E+02  6.40000000E+01  0.00000000E+00
  6.80000000E+02  6.20000000E+01  0.00000000E+00
  6.80000000E+02  6.00000000E+01  0.00000000E+00
  6.80000000E+02  5.80000000E+01  0.00000000E+00
  6.80000000E+02  5.60000000E+01  0.00000000E+00
  6.80000000E+02  5.40000000E+01  0.00000000E+00
  6.80000000E+02  5.20000000E+01  0.00000000E+00
  6.80000000E+02  5.00000000E+01  0.00000000E+00
  6.80000000E+02  4.80000000E+01  0.00000000E+00
  6.80000000E+02  4.60000000E+01  0.00000000E+00
  6.80000000E+02  4.40000000E+01  0.00000000E+00
  6.80000000E+02  4.20000000E+01  0.00000000E+00
  6.80000000E+02  4.00000000E+01  0.00000000E+00
  6.80000000E+02  3.80000000E+01  0.00000000E+00
  6.80000000E+02  3.60000000E+01  0.00000000E+00
  6.80000000E+02  3.40000000E+01  0.00000000E+00
  6.80000000E+02  3.20000000E+01  0.00000000E+00
  6.80000000E+02  3.00000000E+01  0.00000000E+00
  6.80000000E+02  2.80000000E+01  0.00000000E+00
  6.80000000E+02  2.60000000E+01  0.00000000E+00
  6.80000000E+02  2.40000000E+01  0.00000000E+00
  6.80000000E+02  2.20000000E+01  0.00000000E+00
  6.80000000E+02  2.00000000E+01  0.00000000E+00
  6.80000000E+02  1.80000000E+01  0.00000000E+00
  6.80000000E+02  1.60000000E+01  0.00000000E+00
  6.80000000E+02  1.40000000E+01  0.00000000E+00
  6.80000000E+02  1.20000000E+01  0.00000000E+00
  6.80000000E+02  1.00000000E+01  0.00000000E+00
  6.80000000E+02  8.00000000E+00  0.00000000E+00
  6.80000000E+02  6.00000000E+00  0.00000000E+00
  6.80000000E+02  4.00000000E+00  0.00000000E+00
  6.80000000E+02  2.00000000E+00  0.00000000E+00
  6.80000000E+02 -3.33066907E-14  0.00000000E+00
  6.90000000E+02  1.00000000E+02  0.00000000E+00
  6.90000000E+02  9.80000000E+01  0.00000000E+00
  6.90000000E+02  9.60000000E+01  0.00000000E+00
  6.90000000E+02  9.40000000E+01  0.00000000E+00
  6.90000000E+02  9.20000000E+01  0.00000000E+00
  6.90000000E+02  9.00000000E+01  0.00000000E+00
  6.90000000E+02  8.80000000E+01  0.00000000E+00
  6.90000000E+02  8.60000000E+01  0.00000000E+00
  6.90000000E+02  8.40000000E+01  0.00000000E+00
  6.90000000E+02  8.20000000E+01  0.00000000E+00
  6.90000000E+02  8.00000000E+01  0.00000000E+00
  6.90000000E+02  7.80000000E+01  0.00000000E+00
  6.90000000E+02  7.60000000E+01  0.00000000E+00
  6.90000000E+02  7.40000000E+01  0.00000000E+00
  6.90000000E+02  7.20000000E+01  0.00000000E+00
  6.90000000E+02  7.00000000E+01  0.00000000E+00
  6.90000000E+02  6.80000000E+01  0.00000000E+00
  6.90000000E+02  6.60000000E+01  0.00000000E+00
  6.90000000E+02  6.40000000E+01  0.00000000E+00
  6.90000000E+02  6.20000000E+01  0.00000000E+00
  6.90000000E+02  6.00000000E+01  0.00000000E+00
  6.90000000E+02  5.80000000E+01  0.00000000E+00
  6.90000000E+02  5.60000000E+01  0.00000000E+00
  6.90000000E+02  5.40000000E+01  0.00000000E+00
  6.90000000E+02  5.20000000E+01  0.00000000E+00
  6.90000000E+02  5.00000000E+01  0.00000000E+00
  6.90000000E+02  4.80000000E+01  0.00000000E+00
  6.90000000E+02  4.60000000E+01  0.00000000E+00
  6.90000000E+02  4.40000000E+01  0.00000000E+00
  6.90000000E+02  4.20000000E+01  0.00000000E+00
  6.90000000E+02  4.00000000E+01  0.00000000E+00
  6.90000000E+02  3.80000000E+01  0.00000000E+00
  6.90000000E+02  3.60000000E+01  0.00000000E+00
  6.90000000E+02  3.40000000E+01  0.00000000E+00
  6.90000000E+02  3.20000000E+01  0.00000000E+00
  6.90000000E+02  3.00000000E+01  0.00000000E+00
  6.90000000E+02  2.80000000E+01  0.00000000E+00
  6.90000000E+02  2.60000000E+01  0.00000000E+00
  6.90000000E+02  2.40000000E+01  0.00000000E+00
  6.90000000E+02  2.20000000E+01  0.00000000E+00
  6.90000000E+02  2.00000000E+01  0.00000000E+00
  6.90000000E+02  1.80000000E+01  0.00000000E+00
  6.90000000E+02  1.60000000E+01  0.00000000E+00
  6.90000000E+02  1.40000000E+01  0.00000000E+00
  6.90000000E+02  1.20000000E+01  0.00000000E+00
  6.90000000E+02  1.00000000E+01  0.00000000E+00
  6.90000000E+02  8.00000000E+00  0.00000000E+00
  6.90000000E+02  6.00000000E+00  0.00000000E+00
  6.90000000E+02  4.00000000E+00  0.00000000E+00
  6.90000000E+02  2.00000000E+00  0.00000000E+00
  6.90000000E+02 -3.33066907E-14  0.00000000E+00
  7.00000000E+02  1.00000000E+02  0.00000000E+00
  7.00000000E+02  9.80000000E+01  0.00000000E+00
  7.00000000E+02  9.60000000E+01  0.00000000E+00
  7.00000000E+02  9.40000000E+01  0.00000000E+00
  7.00000000E+02  9.20000000E+01  0.00000000E+00
  7.00000000E+02  9.00000000E+01  0.00000000E+00
  7.00000000E+02  8.80000000E+01  0.00000000E+00
  7.00000000E+02  8.60000000E+01  0.00000000E+00
  7.00000000E+02  8.40000000E+01  0.00000000E+00
  7.00000000E+02  8.20000000E+01  0.00000000E+00
  7.00000000E+02  8.00000000E+01  0.00000000E+00
  7.00000000E+02  7.80000000E+01  0.00000000E+00
  7.00000000E+02  7.60000000E+01  0.00000000E+00
  7.00000000E+02  7.40000000E+01  0.00000000E+00
  7.00000000E+02  7.20000000E+01  0.00000000E+00
  7.00000000E+02  7.00000000E+01  0.00000000E+00
  7.00000000E+02  6.80000000E+01  0.00000000E+00
  7.00000000E+02  6.60000000E+01  0.00000000E+00
  7.00000000E+02  6.40000000E+01  0.00000000E+00
  7.00000000E+02  6.20000000E+01  0.00000000E+00
  7.00000000E+02  6.00000000E+01  0.00000000E+00
  7.00000000E+02  5.80000000E+01  0.00000000E+00
  7.00000000E+02  5.60000000E+01  0.00000000E+00
  7.00000000E+02  5.40000000E+01  0.00000000E+00
  7.00000000E+02  5.20000000E+01  0.00000000E+00
  7.00000000E+02  5.00000000E+01  0.00000000E+00
  7.00000000E+02  4.80000000E+01  0.00000000E+00
  7.00000000E+02  4.60000000E+01  0.00000000E+00
  7.00000000E+02  4.40000000E+01  0.00000000E+00
  7.00000000E+02  4.20000000E+01  0.00000000E+00
  7.00000000E+02  4.00000000E+01  0.00000000E+00
  7.00000000E+02  3.80000000E+01  0.00000000E+00
  7.00000000E+02  3.60000000E+01  0.00000000E+00
  7.00000000E+02  3.40000000E+01  0.00000000E+00
  7.00000000E+02  3.20000000E+01  0.00000000E+00
  7.00000000E+02  3.00000000E+01  0.00000000E+00
  7.00000000E+02  2.80000000E+01  0.00000000E+00
  7.00000000E+02  2.60000000E+01  0.00000000E+00
  7.00000000E+02  2.40000000E+01  0.00000000E+00
  7.00000000E+02  2.20000000E+01  0.00000000E+00
  7.00000000E+02  2.00000000E+01  0.00000000E+00
  7.00000000E+02  1.80000000E+01  0.00000000E+00
  7.00000000E+02  1.60000000E+01  0.00000000E+00
  7.00000000E+02  1.40000000E+01  0.00000000E+00
  7.00000000E+02  1.20000000E+01  0.00000000E+00
  7.00000000E+02  1.00000000E+01  0.00000000E+00
  7.00000000E+02  8.00000000E+00  0.00000000E+00
  7.00000000E+02  6.00000000E+00  0.00000000E+00
  7.00000000E+02  4.00000000E+00  0.00000000E+00
  7.00000000E+02  2.00000000E+00  0.00000000E+00
  7.00000000E+02 -3.33066907E-14  0.00000000E+00
  7.10000000E+02  1.00000000E+02  0.00000000E+00
  7.10000000E+02  9.80000000E+01  0.00000000E+00
  7.10000000E+02  9.60000000E+01  0.00000000E+00
  7.10000000E+02  9.40000000E+01  0.00000000E+00
  7.10000000E+02  9.20000000E+01  0.00000000E+00
  7.10000000E+02  9.00000000E+01  0.00000000E+00
  7.10000000E+02  8.80000000E+01  0.00000000E+00
  7.10000000E+02  8.60000000E+01  0.00000000E+00
  7.10000000E+02  8.40000000E+01  0.00000000E+00
  7.10000000E+02  8.20000000E+01  0.00000000E+00
  7.10000000E+02  8.00000000E+01  0.00000000E+00
  7.10000000E+02  7.80000000E+01  0.00000000E+00
  7.10000000E+02  7.60000000E+01  0.00000000E+00
  7.10000000E+02  7.40000000E+01  0.00000000E+00
  7.10000000E+02  7.20000000E+01  0.00000000E+00
  7.10000000E+02  7.00000000E+01  0.00000000E+00
  7.10000000E+02  6.80000000E+01  0.00000000E+00
  7.10000000E+02  6.60000000E+01  0.00000000E+00
  7.10000000E+02  6.40000000E+01  0.00000000E+00
  7.10000000E+02  6.20000000E+01  0.00000000E+00
  7.10000000E+02  6.00000000E+01  0.00000000E+00
  7.10000000E+02  5.80000000E+01  0.00000000E+00
  7.10000000E+02  5.60000000E+01  0.00000000E+00
  7.10000000E+02  5.40000000E+01  0.00000000E+00
  7.10000000E+02  5.20000000E+01  0.00000000E+00
  7.10000000E+02  5.00000000E+01  0.00000000E+00
  7.10000000E+02  4.80000000E+01  0.00000000E+00
  7.10000000E+02  4.60000000E+01  0.00000000E+00
  7.10000000E+02  4.40000000E+01  0.00000000E+00
  7.10000000E+02  4.20000000E+01  0.00000000E+00
  7.10000000E+02  4.00000000E+01  0.00000000E+00
  7.10000000E+02  3.80000000E+01  0.00000000E+00
  7.10000000E+02  3.60000000E+01  0.00000000E+00
  7.10000000E+02  3.40000000E+01  0.00000000E+00
  7.10000000E+02  3.20000000E+01  0.00000000E+00
  7.10000000E+02  3.00000000E+01  0.00000000E+00
  7.10000000E+02  2.80000000E+01  0.00000000E+00
  7.10000000E+02  2.60000000E+01  0.00000000E+00
  7.10000000E+02  2.40000000E+01  0.00000000E+00
  7.10000000E+02  2.20000000E+01  0.00000000E+00
  7.10000000E+02  2.00000000E+01  0.00000000E+00
  7.10000000E+02  1.80000000E+01  0.00000000E+00
  7.10000000E+02  1.60000000E+01  0.00000000E+00
  7.10000000E+02  1.40000000E+01  0.00000000E+00
  7.10000000E+02  1.20000000E+01  0.00000000E+00
  7.10000000E+02  1.00000000E+01  0.00000000E+00
  7.10000000E+02  8.00000000E+00  0.00000000E+00
  7.10000000E+02  6.00000000E+00  0.00000000E+00
  7.10000000E+02  4.00000000E+00  0.00000000E+00
  7.10000000E+02  2.00000000E+00  0.00000000E+00
  7.10000000E+02 -3.33066907E-14  0.00000000E+00
  7.20000000E+02  1.00000000E+02  0.00000000E+00
  7.20000000E+02  9.80000000E+01  0.00000000E+00
  7.20000000E+02  9.60000000E+01  0.00000000E+00
  7.20000000E+02  9.40000000E+01  0.00000000E+00
  7.20000000E+02  9.20000000E+01  0.00000000E+00
  7.20000000E+02  9.00000000E+01  0.00000000E+00
  7.20000000E+02  8.80000000E+01  0.00000000E+00
  7.20000000E+02  8.60000000E+01  0.00000000E+00
  7.20000000E+02  8.40000000E+01  0.00000000E+00
  7.20000000E+02  8.20000000E+01  0.00000000E+00
  7.20000000E+02  8.00000000E+01  0.00000000E+00
  7.20000000E+02  7.80000000E+01  0.00000000E+00
  7.20000000E+02  7.60000000E+01  0.00000000E+00
  7.20000000E+02  7.40000000E+01  0.00000000E+00
  7.20000000E+02  7.20000000E+01  0.00000000E+00
  7.20000000E+02  7.00000000E+01  0.00000000E+00
  7.20000000E+02  6.80000000E+01  0.00000000E+00
  7.20000000E+02  6.60000000E+01  0.00000000E+00
  7.20000000E+02  6.40000000E+01  0.00000000E+00
  7.20000000E+02  6.20000000E+01  0.00000000E+00
  7.20000000E+02  6.00000000E+01  0.00000000E+00
  7.20000000E+02  5.80000000E+01  0.00000000E+00
  7.20000000E+02  5.60000000E+01  0.00000000E+00
  7.20000000E+02  5.40000000E+01  0.00000000E+00
  7.20000000E+02  5.20000000E+01  0.00000000E+00
  7.20000000E+02  5.00000000E+01  0.00000000E+00
  7.20000000E+02  4.80000000E+01  0.00000000E+00
  7.20000000E+02  4.60000000E+01  0.00000000E+00
  7.20000000E+02  4.40000000E+01  0.00000000E+00
  7.20000000E+02  4.20000000E+01  0.00000000E+00
  7.20000000E+02  4.00000000E+01  0.00000000E+00
  7.20000000E+02  3.80000000E+01  0.00000000E+00
  7.20000000E+02  3.60000000E+01  0.00000000E+00
  7.20000000E+02  3.40000000E+01  0.00000000E+00
  7.20000000E+02  3.20000000E+01  0.00000000E+00
  7.20000000E+02  3.00000000E+01  0.00000000E+00
  7.20000000E+02  2.80000000E+01  0.00000000E+00
  7.20000000E+02  2.60000000E+01  0.00000000E+00
  7.20000000E+02  2.40000000E+01  0.00000000E+00
  7.20000000E+02  2.20000000E+01  0.00000000E+00
  7.20000000E+02  2.00000000E+01  0.00000000E+00
  7.20000000E+02  1.80000000E+01  0.00000000E+00
  7.20000000E+02  1.60000000E+01  0.00000000E+00
  7.20000000E+02  1.40000000E+01  0.00000000E+00
  7.20000000E+02  1.20000000E+01  0.00000000E+00
  7.20000000E+02  1.00000000E+01  0.00000000E+00
  7.20000000E+02  8.00000000E+00  0.00000000E+00
  7.20000000E+02  6.00000000E+00  0.00000000E+00
  7.20000000E+02  4.00000000E+00  0.00000000E+00
  7.20000000E+02  2.00000000E+00  0.00000000E+00
  7.20000000E+02 -3.33066907E-14  0.00000000E+00
  7.30000000E+02  1.00000000E+02  0.00000000E+00
  7.30000000E+02  9.80000000E+01  0.00000000E+00
  7.30000000E+02  9.60000000E+01  0.00000000E+00
  7.30000000E+02  9.40000000E+01  0.00000000E+00
  7.30000000E+02  9.20000000E+01  0.00000000E+00
  7.30000000E+02  9.00000000E+01  0.00000000E+00
  7.30000000E+02  8.80000000E+01  0.00000000E+00
  7.30000000E+02  8.60000000E+01  0.00000000E+00
  7.30000000E+02  8.40000000E+01  0.00000000E+00
  7.30000000E+02  8.20000000E+01  0.00000000E+00
  7.30000000E+02  8.00000000E+01  0.00000000E+00
  7.30000000E+02  7.80000000E+01  0.00000000E+00
  7.30000000E+02  7.60000000E+01  0.00000000E+00
  7.30000000E+02  7.40000000E+01  0.00000000E+00
  7.30000000E+02  7.20000000E+01  0.00000000E+00
  7.30000000E+02  7.00000000E+01  0.00000000E+00
  7.30000000E+02  6.80000000E+01  0.00000000E+00
  7.30000000E+02  6.60000000E+01  0.00000000E+00
  7.30000000E+02  6.40000000E+01  0.00000000E+00
  7.30000000E+02  6.20000000E+01  0.00000000E+00
  7.30000000E+02  6.00000000E+01  0.00000000E+00
  7.30000000E+02  5.80000000E+01  0.00000000E+00
  7.30000000E+02  5.60000000E+01  0.00000000E+00
  7.30000000E+02  5.40000000E+01  0.00000000E+00
  7.30000000E+02  5.20000000E+01  0.00000000E+00
  7.30000000E+02  5.00000000E+01  0.00000000E+00
  7.30000000E+02  4.80000000E+01  0.00000000E+00
  7.30000000E+02  4.60000000E+01  0.00000000E+00
  7.30000000E+02  4.40000000E+01  0.00000000E+00
  7.30000000E+02  4.20000000E+01  0.00000000E+00
  7.30000000E+02  4.00000000E+01  0.00000000E+00
  7.30000000E+02  3.80000000E+01  0.00000000E+00
  7.30000000E+02  3.60000000E+01  0.00000000E+00
  7.30000000E+02  3.40000000E+01  0.00000000E+00
  7.30000000E+02  3.20000000E+01  0.00000000E+00
  7.30000000E+02  3.00000000E+01  0.00000000E+00
  7.30000000E+02  2.80000000E+01  0.00000000E+00
  7.30000000E+02  2.60000000E+01  0.00000000E+00
  7.30000000E+02  2.40000000E+01  0.00000000E+00
  7.30000000E+02  2.20000000E+01  0.00000000E+00
  7.30000000E+02  2.00000000E+01  0.00000000E+00
  7.30000000E+02  1.80000000E+01  0.00000000E+00
  7.30000000E+02  1.60000000E+01  0.00000000E+00
  7.30000000E+02  1.40000000E+01  0.00000000E+00
  7.30000000E+02  1.20000000E+01  0.00000000E+00
  7.30000000E+02  1.00000000E+01  0.00000000E+00
  7.30000000E+02  8.00000000E+00  0.00000000E+00
  7.30000000E+02  6.00000000E+00  0.00000000E+00
  7.30000000E+02  4.00000000E+00  0.00000000E+00
  7.30000000E+02  2.00000000E+00  0.00000000E+00
  7.30000000E+02 -3.33066907E-14  0.00000000E+00
  7.40000000E+02  1.00000000E+02  0.00000000E+00
  7.40000000E+02  9.80000000E+01  0.00000000E+00
  7.40000000E+02  9.60000000E+01  0.00000000E+00
  7.40000000E+02  9.40000000E+01  0.00000000E+00
  7.40000000E+02  9.20000000E+01  0.00000000E+00
  7.40000000E+02  9.00000000E+01  0.00000000E+00
  7.40000000E+02  8.80000000E+01  0.00000000E+00
  7.40000000E+02  8.60000000E+01  0.00000000E+00
  7.40000000E+02  8.40000000E+01  0.00000000E+00
  7.40000000E+02  8.20000000E+01  0.00000000E+00
  7.40000000E+02  8.00000000E+01  0.00000000E+00
  7.40000000E+02  7.80000000E+01  0.00000000E+00
  7.40000000E+02  7.60000000E+01  0.00000000E+00
  7.40000000E+02  7.40000000E+01  0.00000000E+00
  7.40000000E+02  7.20000000E+01  0.00000000E+00
  7.40000000E+02  7.00000000E+01  0.00000000E+00
  7.40000000E+02  6.80000000E+01  0.00000000E+00
  7.40000000E+02  6.60000000E+01  0.00000000E+00
  7.40000000E+02  6.40000000E+01  0.00000000E+00
  7.40000000E+02  6.20000000E+01  0.00000000E+00
  7.40000000E+02  6.00000000E+01  0.00000000E+00
  7.40000000E+02  5.80000000E+01  0.00000000E+00
  7.40000000E+02  5.60000000E+01  0.00000000E+00
  7.40000000E+02  5.40000000E+01  0.00000000E+00
  7.40000000E+02  5.20000000E+01  0.00000000E+00
  7.40000000E+02  5.00000000E+01  0.00000000E+00
  7.40000000E+02  4.80000000E+01  0.00000000E+00
  7.40000000E+02  4.60000000E+01  0.00000000E+00
  7.40000000E+02  4.40000000E+01  0.00000000E+00
  7.40000000E+02  4.20000000E+01  0.00000000E+00
  7.40000000E+02  4.00000000E+01  0.00000000E+00
  7.40000000E+02  3.80000000E+01  0.00000000E+00
  7.40000000E+02  3.60000000E+01  0.00000000E+00
  7.40000000E+02  3.40000000E+01  0.00000000E+00
  7.40000000E+02  3.20000000E+01  0.00000000E+00
  7.40000000E+02  3.00000000E+01  0.00000000E+00
  7.40000000E+02  2.80000000E+01  0.00000000E+00
  7.40000000E+02  2.60000000E+01  0.00000000E+00
  7.40000000E+02  2.40000000E+01  0.00000000E+00
  7.40000000E+02  2.20000000E+01  0.00000000E+00
  7.40000000E+02  2.00000000E+01  0.00000000E+00
  7.40000000E+02  1.80000000E+01  0.00000000E+00
  7.40000000E+02  1.60000000E+01  0.00000000E+00
  7.40000000E+02  1.40000000E+01  0.00000000E+00
  7.40000000E+02  1.20000000E+01  0.00000000E+00
  7.40000000E+02  1.00000000E+01  0.00000000E+00
  7.40000000E+02  8.00000000E+00  0.00000000E+00
  7.40000000E+02  6.00000000E+00  0.00000000E+00
  7.40000000E+02  4.00000000E+00  0.00000000E+00
  7.40000000E+02  2.00000000E+00  0.00000000E+00
  7.40000000E+02 -3.33066907E-14  0.00000000E+00
  7.50000000E+02  1.00000000E+02  0.00000000E+00
  7.50000000E+02  9.80000000E+01  0.00000000E+00
  7.50000000E+02  9.60000000E+01  0.00000000E+00
  7.50000000E+02  9.40000000E+01  0.00000000E+00
  7.50000000E+02  9.20000000E+01  0.00000000E+00
  7.50000000E+02  9.00000000E+01  0.00000000E+00
  7.50000000E+02  8.80000000E+01  0.00000000E+00
  7.50000000E+02  8.60000000E+01  0.00000000E+00
  7.50000000E+02  8.40000000E+01  0.00000000E+00
  7.50000000E+02  8.20000000E+01  0.00000000E+00
  7.50000000E+02  8.00000000E+01  0.00000000E+00
  7.50000000E+02  7.80000000E+01  0.00000000E+00
  7.50000000E+02  7.60000000E+01  0.00000000E+00
  7.50000000E+02  7.40000000E+01  0.00000000E+00
  7.50000000E+02  7.20000000E+01  0.00000000E+00
  7.50000000E+02  7.00000000E+01  0.00000000E+00
  7.50000000E+02  6.80000000E+01  0.00000000E+00
  7.50000000E+02  6.60000000E+01  0.00000000E+00
  7.50000000E+02  6.40000000E+01  0.00000000E+00
  7.50000000E+02  6.20000000E+01  0.00000000E+00
  7.50000000E+02  6.00000000E+01  0.00000000E+00
  7.50000000E+02  5.80000000E+01  0.00000000E+00
  7.50000000E+02  5.60000000E+01  0.00000000E+00
  7.50000000E+02  5.40000000E+01  0.00000000E+00
  7.50000000E+02  5.20000000E+01  0.00000000E+00
  7.50000000E+02  5.00000000E+01  0.00000000E+00
  7.50000000E+02  4.80000000E+01  0.00000000E+00
  7.50000000E+02  4.60000000E+01  0.00000000E+00
  7.50000000E+02  4.40000000E+01  0.00000000E+00
  7.50000000E+02  4.20000000E+01  0.00000000E+00
  7.50000000E+02  4.00000000E+01  0.00000000E+00
  7.50000000E+02  3.80000000E+01  0.00000000E+00
  7.50000000E+02  3.60000000E+01  0.00000000E+00
  7.50000000E+02  3.40000000E+01  0.00000000E+00
  7.50000000E+02  3.20000000E+01  0.00000000E+00
  7.50000000E+02  3.00000000E+01  0.00000000E+00
  7.50000000E+02  2.80000000E+01  0.00000000E+00
  7.50000000E+02  2.60000000E+01  0.00000000E+00
  7.50000000E+02  2.40000000E+01  0.00000000E+00
  7.50000000E+02  2.20000000E+01  0.00000000E+00
  7.50000000E+02  2.00000000E+01  0.00000000E+00
  7.50000000E+02  1.80000000E+01  0.00000000E+00
  7.50000000E+02  1.60000000E+01  0.00000000E+00
  7.50000000E+02  1.40000000E+01  0.00000000E+00
  7.50000000E+02  1.20000000E+01  0.00000000E+00
  7.50000000E+02  1.00000000E+01  0.00000000E+00
  7.50000000E+02  8.00000000E+00  0.00000000E+00
  7.50000000E+02  6.00000000E+00  0.00000000E+00
  7.50000000E+02  4.00000000E+00  0.00000000E+00
  7.50000000E+02  2.00000000E+00  0.00000000E+00
  7.50000000E+02 -3.33066907E-14  0.00000000E+00
  7.60000000E+02  1.00000000E+02  0.00000000E+00
  7.60000000E+02  9.80000000E+01  0.00000000E+00
  7.60000000E+02  9.60000000E+01  0.00000000E+00
  7.60000000E+02  9.40000000E+01  0.00000000E+00
  7.60000000E+02  9.20000000E+01  0.00000000E+00
  7.60000000E+02  9.00000000E+01  0.00000000E+00
  7.60000000E+02  8.80000000E+01  0.00000000E+00
  7.60000000E+02  8.60000000E+01  0.00000000E+00
  7.60000000E+02  8.40000000E+01  0.00000000E+00
  7.60000000E+02  8.20000000E+01  0.00000000E+00
  7.60000000E+02  8.00000000E+01  0.00000000E+00
  7.60000000E+02  7.80000000E+01  0.00000000E+00
  7.60000000E+02  7.60000000E+01  0.00000000E+00
  7.60000000E+02  7.40000000E+01  0.00000000E+00
  7.60000000E+02  7.20000000E+01  0.00000000E+00
  7.60000000E+02  7.00000000E+01  0.00000000E+00
  7.60000000E+02  6.80000000E+01  0.00000000E+00
  7.60000000E+02  6.60000000E+01  0.00000000E+00
  7.60000000E+02  6.40000000E+01  0.00000000E+00
  7.60000000E+02  6.20000000E+01  0.00000000E+00
  7.60000000E+02  6.00000000E+01  0.00000000E+00
  7.60000000E+02  5.80000000E+01  0.00000000E+00
  7.60000000E+02  5.60000000E+01  0.00000000E+00
  7.60000000E+02  5.40000000E+01  0.00000000E+00
  7.60000000E+02  5.20000000E+01  0.00000000E+00
  7.60000000E+02  5.00000000E+01  0.00000000E+00
  7.60000000E+02  4.80000000E+01  0.00000000E+00
  7.60000000E+02  4.60000000E+01  0.00000000E+00
  7.60000000E+02  4.40000000E+01  0.00000000E+00
  7.60000000E+02  4.20000000E+01  0.00000000E+00
  7.60000000E+02  4.00000000E+01  0.00000000E+00
  7.60000000E+02  3.80000000E+01  0.00000000E+00
  7.60000000E+02  3.60000000E+01  0.00000000E+00
  7.60000000E+02  3.40000000E+01  0.00000000E+00
  7.60000000E+02  3.20000000E+01  0.00000000E+00
  7.60000000E+02  3.00000000E+01  0.00000000E+00
  7.60000000E+02  2.80000000E+01  0.00000000E+00
  7.60000000E+02  2.60000000E+01  0.00000000E+00
  7.60000000E+02  2.40000000E+01  0.00000000E+00
  7.60000000E+02  2.20000000E+01  0.00000000E+00
  7.60000000E+02  2.00000000E+01  0.00000000E+00
  7.60000000E+02  1.80000000E+01  0.00000000E+00
  7.60000000E+02  1.60000000E+01  0.00000000E+00
  7.60000000E+02  1.40000000E+01  0.00000000E+00
  7.60000000E+02  1.20000000E+01  0.00000000E+00
  7.60000000E+02  1.00000000E+01  0.00000000E+00
  7.60000000E+02  8.00000000E+00  0.00000000E+00
  7.60000000E+02  6.00000000E+00  0.00000000E+00
  7.60000000E+02  4.00000000E+00  0.00000000E+00
  7.60000000E+02  2.00000000E+00  0.00000000E+00
  7.60000000E+02 -3.33066907E-14  0.00000000E+00
  7.70000000E+02  1.00000000E+02  0.00000000E+00
  7.70000000E+02  9.80000000E+01  0.00000000E+00
  7.70000000E+02  9.60000000E+01  0.00000000E+00
  7.70000000E+02  9.40000000E+01  0.00000000E+00
  7.70000000E+02  9.20000000E+01  0.00000000E+00
  7.70000000E+02  9.00000000E+01  0.00000000E+00
  7.70000000E+02  8.80000000E+01  0.00000000E+00
  7.70000000E+02  8.60000000E+01  0.00000000E+00
  7.70000000E+02  8.40000000E+01  0.00000000E+00
  7.70000000E+02  8.20000000E+01  0.00000000E+00
  7.70000000E+02  8.00000000E+01  0.00000000E+00
  7.70000000E+02  7.80000000E+01  0.00000000E+00
  7.70000000E+02  7.60000000E+01  0.00000000E+00
  7.70000000E+02  7.40000000E+01  0.00000000E+00
  7.70000000E+02  7.20000000E+01  0.00000000E+00
  7.70000000E+02  7.00000000E+01  0.00000000E+00
  7.70000000E+02  6.80000000E+01  0.00000000E+00
  7.70000000E+02  6.60000000E+01  0.00000000E+00
  7.70000000E+02  6.40000000E+01  0.00000000E+00
  7.70000000E+02  6.20000000E+01  0.00000000E+00
  7.70000000E+02  6.00000000E+01  0.00000000E+00
  7.70000000E+02  5.80000000E+01  0.00000000E+00
  7.70000000E+02  5.60000000E+01  0.00000000E+00
  7.70000000E+02  5.40000000E+01  0.00000000E+00
  7.70000000E+02  5.20000000E+01  0.00000000E+00
  7.70000000E+02  5.00000000E+01  0.00000000E+00
  7.70000000E+02  4.80000000E+01  0.00000000E+00
  7.70000000E+02  4.60000000E+01  0.00000000E+00
  7.70000000E+02  4.40000000E+01  0.00000000E+00
  7.70000000E+02  4.20000000E+01  0.00000000E+00
  7.70000000E+02  4.00000000E+01  0.00000000E+00
  7.70000000E+02  3.80000000E+01  0.00000000E+00
  7.70000000E+02  3.60000000E+01  0.00000000E+00
  7.70000000E+02  3.40000000E+01  0.00000000E+00
  7.70000000E+02  3.20000000E+01  0.00000000E+00
  7.70000000E+02  3.00000000E+01  0.00000000E+00
  7.70000000E+02  2.80000000E+01  0.00000000E+00
  7.70000000E+02  2.60000000E+01  0.00000000E+00
  7.70000000E+02  2.40000000E+01  0.00000000E+00
  7.70000000E+02  2.20000000E+01  0.00000000E+00
  7.70000000E+02  2.00000000E+01  0.00000000E+00
  7.70000000E+02  1.80000000E+01  0.00000000E+00
  7.70000000E+02  1.60000000E+01  0.00000000E+00
  7.70000000E+02  1.40000000E+01  0.00000000E+00
  7.70000000E+02  1.20000000E+01  0.00000000E+00
  7.70000000E+02  1.00000000E+01  0.00000000E+00
  7.70000000E+02  8.00000000E+00  0.00000000E+00
  7.70000000E+02  6.00000000E+00  0.00000000E+00
  7.70000000E+02  4.00000000E+00  0.00000000E+00
  7.70000000E+02  2.00000000E+00  0.00000000E+00
  7.70000000E+02 -3.33066907E-14  0.00000000E+00
  7.80000000E+02  1.00000000E+02  0.00000000E+00
  7.80000000E+02  9.80000000E+01  0.00000000E+00
  7.80000000E+02  9.60000000E+01  0.00000000E+00
  7.80000000E+02  9.40000000E+01  0.00000000E+00
  7.80000000E+02  9.20000000E+01  0.00000000E+00
  7.80000000E+02  9.00000000E+01  0.00000000E+00
  7.80000000E+02  8.80000000E+01  0.00000000E+00
  7.80000000E+02  8.60000000E+01  0.00000000E+00
  7.80000000E+02  8.40000000E+01  0.00000000E+00
  7.80000000E+02  8.20000000E+01  0.00000000E+00
  7.80000000E+02  8.00000000E+01  0.00000000E+00
  7.80000000E+02  7.80000000E+01  0.00000000E+00
  7.80000000E+02  7.60000000E+01  0.00000000E+00
  7.80000000E+02  7.40000000E+01  0.00000000E+00
  7.80000000E+02  7.20000000E+01  0.00000000E+00
  7.80000000E+02  7.00000000E+01  0.00000000E+00
  7.80000000E+02  6.80000000E+01  0.00000000E+00
  7.80000000E+02  6.60000000E+01  0.00000000E+00
  7.80000000E+02  6.40000000E+01  0.00000000E+00
  7.80000000E+02  6.20000000E+01  0.00000000E+00
  7.80000000E+02  6.00000000E+01  0.00000000E+00
  7.80000000E+02  5.80000000E+01  0.00000000E+00
  7.80000000E+02  5.60000000E+01  0.00000000E+00
  7.80000000E+02  5.40000000E+01  0.00000000E+00
  7.80000000E+02  5.20000000E+01  0.00000000E+00
  7.80000000E+02  5.00000000E+01  0.00000000E+00
  7.80000000E+02  4.80000000E+01  0.00000000E+00
  7.80000000E+02  4.60000000E+01  0.00000000E+00
  7.80000000E+02  4.40000000E+01  0.00000000E+00
  7.80000000E+02  4.20000000E+01  0.00000000E+00
  7.80000000E+02  4.00000000E+01  0.00000000E+00
  7.80000000E+02  3.80000000E+01  0.00000000E+00
  7.80000000E+02  3.60000000E+01  0.00000000E+00
  7.80000000E+02  3.40000000E+01  0.00000000E+00
  7.80000000E+02  3.20000000E+01  0.00000000E+00
  7.80000000E+02  3.00000000E+01  0.00000000E+00
  7.80000000E+02  2.80000000E+01  0.00000000E+00
  7.80000000E+02  2.60000000E+01  0.00000000E+00
  7.80000000E+02  2.40000000E+01  0.00000000E+00
  7.80000000E+02  2.20000000E+01  0.00000000E+00
  7.80000000E+02  2.00000000E+01  0.00000000E+00
  7.80000000E+02  1.80000000E+01  0.00000000E+00
  7.80000000E+02  1.60000000E+01  0.00000000E+00
  7.80000000E+02  1.40000000E+01  0.00000000E+00
  7.80000000E+02  1.20000000E+01  0.00000000E+00
  7.80000000E+02  1.00000000E+01  0.00000000E+00
  7.80000000E+02  8.00000000E+00  0.00000000E+00
  7.80000000E+02  6.00000000E+00  0.00000000E+00
  7.80000000E+02  4.00000000E+00  0.00000000E+00
  7.80000000E+02  2.00000000E+00  0.00000000E+00
  7.80000000E+02 -3.33066907E-14  0.00000000E+00
  7.90000000E+02  1.00000000E+02  0.00000000E+00
  7.90000000E+02  9.80000000E+01  0.00000000E+00
  7.90000000E+02  9.60000000E+01  0.00000000E+00
  7.90000000E+02  9.40000000E+01  0.00000000E+00
  7.90000000E+02  9.20000000E+01  0.00000000E+00
  7.90000000E+02  9.00000000E+01  0.00000000E+00
  7.90000000E+02  8.80000000E+01  0.00000000E+00
  7.90000000E+02  8.60000000E+01  0.00000000E+00
  7.90000000E+02  8.40000000E+01  0.00000000E+00
  7.90000000E+02  8.20000000E+01  0.00000000E+00
  7.90000000E+02  8.00000000E+01  0.00000000E+00
  7.90000000E+02  7.80000000E+01  0.00000000E+00
  7.90000000E+02  7.60000000E+01  0.00000000E+00
  7.90000000E+02  7.40000000E+01  0.00000000E+00
  7.90000000E+02  7.20000000E+01  0.00000000E+00
  7.90000000E+02  7.00000000E+01  0.00000000E+00
  7.90000000E+02  6.80000000E+01  0.00000000E+00
  7.90000000E+02  6.60000000E+01  0.00000000E+00
  7.90000000E+02  6.40000000E+01  0.00000000E+00
  7.90000000E+02  6.20000000E+01  0.00000000E+00
  7.90000000E+02  6.00000000E+01  0.00000000E+00
  7.90000000E+02  5.80000000E+01  0.00000000E+00
  7.90000000E+02  5.60000000E+01  0.00000000E+00
  7.90000000E+02  5.40000000E+01  0.00000000E+00
  7.90000000E+02  5.20000000E+01  0.00000000E+00
  7.90000000E+02  5.00000000E+01  0.00000000E+00
  7.90000000E+02  4.80000000E+01  0.00000000E+00
  7.90000000E+02  4.60000000E+01  0.00000000E+00
  7.90000000E+02  4.40000000E+01  0.00000000E+00
  7.90000000E+02  4.20000000E+01  0.00000000E+00
  7.90000000E+02  4.00000000E+01  0.00000000E+00
  7.90000000E+02  3.80000000E+01  0.00000000E+00
  7.90000000E+02  3.60000000E+01  0.00000000E+00
  7.90000000E+02  3.40000000E+01  0.00000000E+00
  7.90000000E+02  3.20000000E+01  0.00000000E+00
  7.90000000E+02  3.00000000E+01  0.00000000E+00
  7.90000000E+02  2.80000000E+01  0.00000000E+00
  7.90000000E+02  2.60000000E+01  0.00000000E+00
  7.90000000E+02  2.40000000E+01  0.00000000E+00
  7.90000000E+02  2.20000000E+01  0.00000000E+00
  7.90000000E+02  2.00000000E+01  0.00000000E+00
  7.90000000E+02  1.80000000E+01  0.00000000E+00
  7.90000000E+02  1.60000000E+01  0.00000000E+00
  7.90000000E+02  1.40000000E+01  0.00000000E+00
  7.90000000E+02  1.20000000E+01  0.00000000E+00
  7.90000000E+02  1.00000000E+01  0.00000000E+00
  7.90000000E+02  8.00000000E+00  0.00000000E+00
  7.90000000E+02  6.00000000E+00  0.00000000E+00
  7.90000000E+02  4.00000000E+00  0.00000000E+00
  7.90000000E+02  2.00000000E+00  0.00000000E+00
  7.90000000E+02 -3.33066907E-14  0.00000000E+00
  8.00000000E+02  1.00000000E+02  0.00000000E+00
  8.00000000E+02  9.80000000E+01  0.00000000E+00
  8.00000000E+02  9.60000000E+01  0.00000000E+00
  8.00000000E+02  9.40000000E+01  0.00000000E+00
  8.00000000E+02  9.20000000E+01  0.00000000E+00
  8.00000000E+02  9.00000000E+01  0.00000000E+00
  8.00000000E+02  8.80000000E+01  0.00000000E+00
  8.00000000E+02  8.60000000E+01  0.00000000E+00
  8.00000000E+02  8.40000000E+01  0.00000000E+00
  8.00000000E+02  8.20000000E+01  0.00000000E+00
  8.00000000E+02  8.00000000E+01  0.00000000E+00
  8.00000000E+02  7.80000000E+01  0.00000000E+00
  8.00000000E+02  7.60000000E+01  0.00000000E+00
  8.00000000E+02  7.40000000E+01  0.00000000E+00
  8.00000000E+02  7.20000000E+01  0.00000000E+00
  8.00000000E+02  7.00000000E+01  0.00000000E+00
  8.00000000E+02  6.80000000E+01  0.00000000E+00
  8.00000000E+02  6.60000000E+01  0.00000000E+00
  8.00000000E+02  6.40000000E+01  0.00000000E+00
  8.00000000E+02  6.20000000E+01  0.00000000E+00
  8.00000000E+02  6.00000000E+01  0.00000000E+00
  8.00000000E+02  5.80000000E+01  0.00000000E+00
  8.00000000E+02  5.60000000E+01  0.00000000E+00
  8.00000000E+02  5.40000000E+01  0.00000000E+00
  8.00000000E+02  5.20000000E+01  0.00000000E+00
  8.00000000E+02  5.00000000E+01  0.00000000E+00
  8.00000000E+02  4.80000000E+01  0.00000000E+00
  8.00000000E+02  4.60000000E+01  0.00000000E+00
  8.00000000E+02  4.40000000E+01  0.00000000E+00
  8.00000000E+02  4.20000000E+01  0.00000000E+00
  8.00000000E+02  4.00000000E+01  0.00000000E+00
  8.00000000E+02  3.80000000E+01  0.00000000E+00
  8.00000000E+02  3.60000000E+01  0.00000000E+00
  8.00000000E+02  3.40000000E+01  0.00000000E+00
  8.00000000E+02  3.20000000E+01  0.00000000E+00
  8.00000000E+02  3.00000000E+01  0.00000000E+00
  8.00000000E+02  2.80000000E+01  0.00000000E+00
  8.00000000E+02  2.60000000E+01  0.00000000E+00
  8.00000000E+02  2.40000000E+01  0.00000000E+00
  8.00000000E+02  2.20000000E+01  0.00000000E+00
  8.00000000E+02  2.00000000E+01  0.00000000E+00
  8.00000000E+02  1.80000000E+01  0.00000000E+00
  8.00000000E+02  1.60000000E+01  0.00000000E+00
  8.00000000E+02  1.40000000E+01  0.00000000E+00
  8.00000000E+02  1.20000000E+01  0.00000000E+00
  8.00000000E+02  1.00000000E+01  0.00000000E+00
  8.00000000E+02  8.00000000E+00  0.00000000E+00
  8.00000000E+02  6.00000000E+00  0.00000000E+00
  8.00000000E+02  4.00000000E+00  0.00000000E+00
  8.00000000E+02  2.00000000E+00  0.00000000E+00
  8.00000000E+02 -3.33066907E-14  0.00000000E+00
  8.10000000E+02  1.00000000E+02  0.00000000E+00
  8.10000000E+02  9.80000000E+01  0.00000000E+00
  8.10000000E+02  9.60000000E+01  0.00000000E+00
  8.10000000E+02  9.40000000E+01  0.00000000E+00
  8.10000000E+02  9.20000000E+01  0.00000000E+00
  8.10000000E+02  9.00000000E+01  0.00000000E+00
  8.10000000E+02  8.80000000E+01  0.00000000E+00
  8.10000000E+02  8.60000000E+01  0.00000000E+00
  8.10000000E+02  8.40000000E+01  0.00000000E+00
  8.10000000E+02  8.20000000E+01  0.00000000E+00
  8.10000000E+02  8.00000000E+01  0.00000000E+00
  8.10000000E+02  7.80000000E+01  0.00000000E+00
  8.10000000E+02  7.60000000E+01  0.00000000E+00
  8.10000000E+02  7.40000000E+01  0.00000000E+00
  8.10000000E+02  7.20000000E+01  0.00000000E+00
  8.10000000E+02  7.00000000E+01  0.00000000E+00
  8.10000000E+02  6.80000000E+01  0.00000000E+00
  8.10000000E+02  6.60000000E+01  0.00000000E+00
  8.10000000E+02  6.40000000E+01  0.00000000E+00
  8.10000000E+02  6.20000000E+01  0.00000000E+00
  8.10000000E+02  6.00000000E+01  0.00000000E+00
  8.10000000E+02  5.80000000E+01  0.00000000E+00
  8.10000000E+02  5.60000000E+01  0.00000000E+00
  8.10000000E+02  5.40000000E+01  0.00000000E+00
  8.10000000E+02  5.20000000E+01  0.00000000E+00
  8.10000000E+02  5.00000000E+01  0.00000000E+00
  8.10000000E+02  4.80000000E+01  0.00000000E+00
  8.10000000E+02  4.60000000E+01  0.00000000E+00
  8.10000000E+02  4.40000000E+01  0.00000000E+00
  8.10000000E+02  4.20000000E+01  0.00000000E+00
  8.10000000E+02  4.00000000E+01  0.00000000E+00
  8.10000000E+02  3.80000000E+01  0.00000000E+00
  8.10000000E+02  3.60000000E+01  0.00000000E+00
  8.10000000E+02  3.40000000E+01  0.00000000E+00
  8.10000000E+02  3.20000000E+01  0.00000000E+00
  8.10000000E+02  3.00000000E+01  0.00000000E+00
  8.10000000E+02  2.80000000E+01  0.00000000E+00
  8.10000000E+02  2.60000000E+01  0.00000000E+00
  8.10000000E+02  2.40000000E+01  0.00000000E+00
  8.10000000E+02  2.20000000E+01  0.00000000E+00
  8.10000000E+02  2.00000000E+01  0.00000000E+00
  8.10000000E+02  1.80000000E+01  0.00000000E+00
  8.10000000E+02  1.60000000E+01  0.00000000E+00
  8.10000000E+02  1.40000000E+01  0.00000000E+00
  8.10000000E+02  1.20000000E+01  0.00000000E+00
  8.10000000E+02  1.00000000E+01  0.00000000E+00
  8.10000000E+02  8.00000000E+00  0.00000000E+00
  8.10000000E+02  6.00000000E+00  0.00000000E+00
  8.10000000E+02  4.00000000E+00  0.00000000E+00
  8.10000000E+02  2.00000000E+00  0.00000000E+00
  8.10000000E+02 -3.33066907E-14  0.00000000E+00
  8.20000000E+02  1.00000000E+02  0.00000000E+00
  8.20000000E+02  9.80000000E+01  0.00000000E+00
  8.20000000E+02  9.60000000E+01  0.00000000E+00
  8.20000000E+02  9.40000000E+01  0.00000000E+00
  8.20000000E+02  9.20000000E+01  0.00000000E+00
  8.20000000E+02  9.00000000E+01  0.00000000E+00
  8.20000000E+02  8.80000000E+01  0.00000000E+00
  8.20000000E+02  8.60000000E+01  0.00000000E+00
  8.20000000E+02  8.40000000E+01  0.00000000E+00
  8.20000000E+02  8.20000000E+01  0.00000000E+00
  8.20000000E+02  8.00000000E+01  0.00000000E+00
  8.20000000E+02  7.80000000E+01  0.00000000E+00
  8.20000000E+02  7.60000000E+01  0.00000000E+00
  8.20000000E+02  7.40000000E+01  0.00000000E+00
  8.20000000E+02  7.20000000E+01  0.00000000E+00
  8.20000000E+02  7.00000000E+01  0.00000000E+00
  8.20000000E+02  6.80000000E+01  0.00000000E+00
  8.20000000E+02  6.60000000E+01  0.00000000E+00
  8.20000000E+02  6.40000000E+01  0.00000000E+00
  8.20000000E+02  6.20000000E+01  0.00000000E+00
  8.20000000E+02  6.00000000E+01  0.00000000E+00
  8.20000000E+02  5.80000000E+01  0.00000000E+00
  8.20000000E+02  5.60000000E+01  0.00000000E+00
  8.20000000E+02  5.40000000E+01  0.00000000E+00
  8.20000000E+02  5.20000000E+01  0.00000000E+00
  8.20000000E+02  5.00000000E+01  0.00000000E+00
  8.20000000E+02  4.80000000E+01  0.00000000E+00
  8.20000000E+02  4.60000000E+01  0.00000000E+00
  8.20000000E+02  4.40000000E+01  0.00000000E+00
  8.20000000E+02  4.20000000E+01  0.00000000E+00
  8.20000000E+02  4.00000000E+01  0.00000000E+00
  8.20000000E+02  3.80000000E+01  0.00000000E+00
  8.20000000E+02  3.60000000E+01  0.00000000E+00
  8.20000000E+02  3.40000000E+01  0.00000000E+00
  8.20000000E+02  3.20000000E+01  0.00000000E+00
  8.20000000E+02  3.00000000E+01  0.00000000E+00
  8.20000000E+02  2.80000000E+01  0.00000000E+00
  8.20000000E+02  2.60000000E+01  0.00000000E+00
  8.20000000E+02  2.40000000E+01  0.00000000E+00
  8.20000000E+02  2.20000000E+01  0.00000000E+00
  8.20000000E+02  2.00000000E+01  0.00000000E+00
  8.20000000E+02  1.80000000E+01  0.00000000E+00
  8.20000000E+02  1.60000000E+01  0.00000000E+00
  8.20000000E+02  1.40000000E+01  0.00000000E+00
  8.20000000E+02  1.20000000E+01  0.00000000E+00
  8.20000000E+02  1.00000000E+01  0.00000000E+00
  8.20000000E+02  8.00000000E+00  0.00000000E+00
  8.20000000E+02  6.00000000E+00  0.00000000E+00
  8.20000000E+02  4.00000000E+00  0.00000000E+00
  8.20000000E+02  2.00000000E+00  0.00000000E+00
  8.20000000E+02 -3.33066907E-14  0.00000000E+00
  8.30000000E+02  1.00000000E+02  0.00000000E+00
  8.30000000E+02  9.80000000E+01  0.00000000E+00
  8.30000000E+02  9.60000000E+01  0.00000000E+00
  8.30000000E+02  9.40000000E+01  0.00000000E+00
  8.30000000E+02  9.20000000E+01  0.00000000E+00
  8.30000000E+02  9.00000000E+01  0.00000000E+00
  8.30000000E+02  8.80000000E+01  0.00000000E+00
  8.30000000E+02  8.60000000E+01  0.00000000E+00
  8.30000000E+02  8.40000000E+01  0.00000000E+00
  8.30000000E+02  8.20000000E+01  0.00000000E+00
  8.30000000E+02  8.00000000E+01  0.00000000E+00
  8.30000000E+02  7.80000000E+01  0.00000000E+00
  8.30000000E+02  7.60000000E+01  0.00000000E+00
  8.30000000E+02  7.40000000E+01  0.00000000E+00
  8.30000000E+02  7.20000000E+01  0.00000000E+00
  8.30000000E+02  7.00000000E+01  0.00000000E+00
  8.30000000E+02  6.80000000E+01  0.00000000E+00
  8.30000000E+02  6.60000000E+01  0.00000000E+00
  8.30000000E+02  6.40000000E+01  0.00000000E+00
  8.30000000E+02  6.20000000E+01  0.00000000E+00
  8.30000000E+02  6.00000000E+01  0.00000000E+00
  8.30000000E+02  5.80000000E+01  0.00000000E+00
  8.30000000E+02  5.60000000E+01  0.00000000E+00
  8.30000000E+02  5.40000000E+01  0.00000000E+00
  8.30000000E+02  5.20000000E+01  0.00000000E+00
  8.30000000E+02  5.00000000E+01  0.00000000E+00
  8.30000000E+02  4.80000000E+01  0.00000000E+00
  8.30000000E+02  4.60000000E+01  0.00000000E+00
  8.30000000E+02  4.40000000E+01  0.00000000E+00
  8.30000000E+02  4.20000000E+01  0.00000000E+00
  8.30000000E+02  4.00000000E+01  0.00000000E+00
  8.30000000E+02  3.80000000E+01  0.00000000E+00
  8.30000000E+02  3.60000000E+01  0.00000000E+00
  8.30000000E+02  3.40000000E+01  0.00000000E+00
  8.30000000E+02  3.20000000E+01  0.00000000E+00
  8.30000000E+02  3.00000000E+01  0.00000000E+00
  8.30000000E+02  2.80000000E+01  0.00000000E+00
  8.30000000E+02  2.60000000E+01  0.00000000E+00
  8.30000000E+02  2.40000000E+01  0.00000000E+00
  8.30000000E+02  2.20000000E+01  0.00000000E+00
  8.30000000E+02  2.00000000E+01  0.00000000E+00
  8.30000000E+02  1.80000000E+01  0.00000000E+00
  8.30000000E+02  1.60000000E+01  0.00000000E+00
  8.30000000E+02  1.40000000E+01  0.00000000E+00
  8.30000000E+02  1.20000000E+01  0.00000000E+00
  8.30000000E+02  1.00000000E+01  0.00000000E+00
  8.30000000E+02  8.00000000E+00  0.00000000E+00
  8.30000000E+02  6.00000000E+00  0.00000000E+00
  8.30000000E+02  4.00000000E+00  0.00000000E+00
  8.30000000E+02  2.00000000E+00  0.00000000E+00
  8.30000000E+02 -3.33066907E-14  0.00000000E+00
  8.40000000E+02  1.00000000E+02  0.00000000E+00
  8.40000000E+02  9.80000000E+01  0.00000000E+00
  8.40000000E+02  9.60000000E+01  0.00000000E+00
  8.40000000E+02  9.40000000E+01  0.00000000E+00
  8.40000000E+02  9.20000000E+01  0.00000000E+00
  8.40000000E+02  9.00000000E+01  0.00000000E+00
  8.40000000E+02  8.80000000E+01  0.00000000E+00
  8.40000000E+02  8.60000000E+01  0.00000000E+00
  8.40000000E+02  8.40000000E+01  0.00000000E+00
  8.40000000E+02  8.20000000E+01  0.00000000E+00
  8.40000000E+02  8.00000000E+01  0.00000000E+00
  8.40000000E+02  7.80000000E+01  0.00000000E+00
  8.40000000E+02  7.60000000E+01  0.00000000E+00
  8.40000000E+02  7.40000000E+01  0.00000000E+00
  8.40000000E+02  7.20000000E+01  0.00000000E+00
  8.40000000E+02  7.00000000E+01  0.00000000E+00
  8.40000000E+02  6.80000000E+01  0.00000000E+00
  8.40000000E+02  6.60000000E+01  0.00000000E+00
  8.40000000E+02  6.40000000E+01  0.00000000E+00
  8.40000000E+02  6.20000000E+01  0.00000000E+00
  8.40000000E+02  6.00000000E+01  0.00000000E+00
  8.40000000E+02  5.80000000E+01  0.00000000E+00
  8.40000000E+02  5.60000000E+01  0.00000000E+00
  8.40000000E+02  5.40000000E+01  0.00000000E+00
  8.40000000E+02  5.20000000E+01  0.00000000E+00
  8.40000000E+02  5.00000000E+01  0.00000000E+00
  8.40000000E+02  4.80000000E+01  0.00000000E+00
  8.40000000E+02  4.60000000E+01  0.00000000E+00
  8.40000000E+02  4.40000000E+01  0.00000000E+00
  8.40000000E+02  4.20000000E+01  0.00000000E+00
  8.40000000E+02  4.00000000E+01  0.00000000E+00
  8.40000000E+02  3.80000000E+01  0.00000000E+00
  8.40000000E+02  3.60000000E+01  0.00000000E+00
  8.40000000E+02  3.40000000E+01  0.00000000E+00
  8.40000000E+02  3.20000000E+01  0.00000000E+00
  8.40000000E+02  3.00000000E+01  0.00000000E+00
  8.40000000E+02  2.80000000E+01  0.00000000E+00
  8.40000000E+02  2.60000000E+01  0.00000000E+00
  8.40000000E+02  2.40000000E+01  0.00000000E+00
  8.40000000E+02  2.20000000E+01  0.00000000E+00
  8.40000000E+02  2.00000000E+01  0.00000000E+00
  8.40000000E+02  1.80000000E+01  0.00000000E+00
  8.40000000E+02  1.60000000E+01  0.00000000E+00
  8.40000000E+02  1.40000000E+01  0.00000000E+00
  8.40000000E+02  1.20000000E+01  0.00000000E+00
  8.40000000E+02  1.00000000E+01  0.00000000E+00
  8.40000000E+02  8.00000000E+00  0.00000000E+00
  8.40000000E+02  6.00000000E+00  0.00000000E+00
  8.40000000E+02  4.00000000E+00  0.00000000E+00
  8.40000000E+02  2.00000000E+00  0.00000000E+00
  8.40000000E+02 -3.33066907E-14  0.00000000E+00
  8.50000000E+02  1.00000000E+02  0.00000000E+00
  8.50000000E+02  9.80000000E+01  0.00000000E+00
  8.50000000E+02  9.60000000E+01  0.00000000E+00
  8.50000000E+02  9.40000000E+01  0.00000000E+00
  8.50000000E+02  9.20000000E+01  0.00000000E+00
  8.50000000E+02  9.00000000E+01  0.00000000E+00
  8.50000000E+02  8.80000000E+01  0.00000000E+00
  8.50000000E+02  8.60000000E+01  0.00000000E+00
  8.50000000E+02  8.40000000E+01  0.00000000E+00
  8.50000000E+02  8.20000000E+01  0.00000000E+00
  8.50000000E+02  8.00000000E+01  0.00000000E+00
  8.50000000E+02  7.80000000E+01  0.00000000E+00
  8.50000000E+02  7.60000000E+01  0.00000000E+00
  8.50000000E+02  7.40000000E+01  0.00000000E+00
  8.50000000E+02  7.20000000E+01  0.00000000E+00
  8.50000000E+02  7.00000000E+01  0.00000000E+00
  8.50000000E+02  6.80000000E+01  0.00000000E+00
  8.50000000E+02  6.60000000E+01  0.00000000E+00
  8.50000000E+02  6.40000000E+01  0.00000000E+00
  8.50000000E+02  6.20000000E+01  0.00000000E+00
  8.50000000E+02  6.00000000E+01  0.00000000E+00
  8.50000000E+02  5.80000000E+01  0.00000000E+00
  8.50000000E+02  5.60000000E+01  0.00000000E+00
  8.50000000E+02  5.40000000E+01  0.00000000E+00
  8.50000000E+02  5.20000000E+01  0.00000000E+00
  8.50000000E+02  5.00000000E+01  0.00000000E+00
  8.50000000E+02  4.80000000E+01  0.00000000E+00
  8.50000000E+02  4.60000000E+01  0.00000000E+00
  8.50000000E+02  4.40000000E+01  0.00000000E+00
  8.50000000E+02  4.20000000E+01  0.00000000E+00
  8.50000000E+02  4.00000000E+01  0.00000000E+00
  8.50000000E+02  3.80000000E+01  0.00000000E+00
  8.50000000E+02  3.60000000E+01  0.00000000E+00
  8.50000000E+02  3.40000000E+01  0.00000000E+00
  8.50000000E+02  3.20000000E+01  0.00000000E+00
  8.50000000E+02  3.00000000E+01  0.00000000E+00
  8.50000000E+02  2.80000000E+01  0.00000000E+00
  8.50000000E+02  2.60000000E+01  0.00000000E+00
  8.50000000E+02  2.40000000E+01  0.00000000E+00
  8.50000000E+02  2.20000000E+01  0.00000000E+00
  8.50000000E+02  2.00000000E+01  0.00000000E+00
  8.50000000E+02  1.80000000E+01  0.00000000E+00
  8.50000000E+02  1.60000000E+01  0.00000000E+00
  8.50000000E+02  1.40000000E+01  0.00000000E+00
  8.50000000E+02  1.20000000E+01  0.00000000E+00
  8.50000000E+02  1.00000000E+01  0.00000000E+00
  8.50000000E+02  8.00000000E+00  0.00000000E+00
  8.50000000E+02  6.00000000E+00  0.00000000E+00
  8.50000000E+02  4.00000000E+00  0.00000000E+00
  8.50000000E+02  2.00000000E+00  0.00000000E+00
  8.50000000E+02 -3.33066907E-14  0.00000000E+00
  8.60000000E+02  1.00000000E+02  0.00000000E+00
  8.60000000E+02  9.80000000E+01  0.00000000E+00
  8.60000000E+02  9.60000000E+01  0.00000000E+00
  8.60000000E+02  9.40000000E+01  0.00000000E+00
  8.60000000E+02  9.20000000E+01  0.00000000E+00
  8.60000000E+02  9.00000000E+01  0.00000000E+00
  8.60000000E+02  8.80000000E+01  0.00000000E+00
  8.60000000E+02  8.60000000E+01  0.00000000E+00
  8.60000000E+02  8.40000000E+01  0.00000000E+00
  8.60000000E+02  8.20000000E+01  0.00000000E+00
  8.60000000E+02  8.00000000E+01  0.00000000E+00
  8.60000000E+02  7.80000000E+01  0.00000000E+00
  8.60000000E+02  7.60000000E+01  0.00000000E+00
  8.60000000E+02  7.40000000E+01  0.00000000E+00
  8.60000000E+02  7.20000000E+01  0.00000000E+00
  8.60000000E+02  7.00000000E+01  0.00000000E+00
  8.60000000E+02  6.80000000E+01  0.00000000E+00
  8.60000000E+02  6.60000000E+01  0.00000000E+00
  8.60000000E+02  6.40000000E+01  0.00000000E+00
  8.60000000E+02  6.20000000E+01  0.00000000E+00
  8.60000000E+02  6.00000000E+01  0.00000000E+00
  8.60000000E+02  5.80000000E+01  0.00000000E+00
  8.60000000E+02  5.60000000E+01  0.00000000E+00
  8.60000000E+02  5.40000000E+01  0.00000000E+00
  8.60000000E+02  5.20000000E+01  0.00000000E+00
  8.60000000E+02  5.00000000E+01  0.00000000E+00
  8.60000000E+02  4.80000000E+01  0.00000000E+00
  8.60000000E+02  4.60000000E+01  0.00000000E+00
  8.60000000E+02  4.40000000E+01  0.00000000E+00
  8.60000000E+02  4.20000000E+01  0.00000000E+00
  8.60000000E+02  4.00000000E+01  0.00000000E+00
  8.60000000E+02  3.80000000E+01  0.00000000E+00
  8.60000000E+02  3.60000000E+01  0.00000000E+00
  8.60000000E+02  3.40000000E+01  0.00000000E+00
  8.60000000E+02  3.20000000E+01  0.00000000E+00
  8.60000000E+02  3.00000000E+01  0.00000000E+00
  8.60000000E+02  2.80000000E+01  0.00000000E+00
  8.60000000E+02  2.60000000E+01  0.00000000E+00
  8.60000000E+02  2.40000000E+01  0.00000000E+00
  8.60000000E+02  2.20000000E+01  0.00000000E+00
  8.60000000E+02  2.00000000E+01  0.00000000E+00
  8.60000000E+02  1.80000000E+01  0.00000000E+00
  8.60000000E+02  1.60000000E+01  0.00000000E+00
  8.60000000E+02  1.40000000E+01  0.00000000E+00
  8.60000000E+02  1.20000000E+01  0.00000000E+00
  8.60000000E+02  1.00000000E+01  0.00000000E+00
  8.60000000E+02  8.00000000E+00  0.00000000E+00
  8.60000000E+02  6.00000000E+00  0.00000000E+00
  8.60000000E+02  4.00000000E+00  0.00000000E+00
  8.60000000E+02  2.00000000E+00  0.00000000E+00
  8.60000000E+02 -3.33066907E-14  0.00000000E+00
  8.70000000E+02  1.00000000E+02  0.00000000E+00
  8.70000000E+02  9.80000000E+01  0.00000000E+00
  8.70000000E+02  9.60000000E+01  0.00000000E+00
  8.70000000E+02  9.40000000E+01  0.00000000E+00
  8.70000000E+02  9.20000000E+01  0.00000000E+00
  8.70000000E+02  9.00000000E+01  0.00000000E+00
  8.70000000E+02  8.80000000E+01  0.00000000E+00
  8.70000000E+02  8.60000000E+01  0.00000000E+00
  8.70000000E+02  8.40000000E+01  0.00000000E+00
  8.70000000E+02  8.20000000E+01  0.00000000E+00
  8.70000000E+02  8.00000000E+01  0.00000000E+00
  8.70000000E+02  7.80000000E+01  0.00000000E+00
  8.70000000E+02  7.60000000E+01  0.00000000E+00
  8.70000000E+02  7.40000000E+01  0.00000000E+00
  8.70000000E+02  7.20000000E+01  0.00000000E+00
  8.70000000E+02  7.00000000E+01  0.00000000E+00
  8.70000000E+02  6.80000000E+01  0.00000000E+00
  8.70000000E+02  6.60000000E+01  0.00000000E+00
  8.70000000E+02  6.40000000E+01  0.00000000E+00
  8.70000000E+02  6.20000000E+01  0.00000000E+00
  8.70000000E+02  6.00000000E+01  0.00000000E+00
  8.70000000E+02  5.80000000E+01  0.00000000E+00
  8.70000000E+02  5.60000000E+01  0.00000000E+00
  8.70000000E+02  5.40000000E+01  0.00000000E+00
  8.70000000E+02  5.20000000E+01  0.00000000E+00
  8.70000000E+02  5.00000000E+01  0.00000000E+00
  8.70000000E+02  4.80000000E+01  0.00000000E+00
  8.70000000E+02  4.60000000E+01  0.00000000E+00
  8.70000000E+02  4.40000000E+01  0.00000000E+00
  8.70000000E+02  4.20000000E+01  0.00000000E+00
  8.70000000E+02  4.00000000E+01  0.00000000E+00
  8.70000000E+02  3.80000000E+01  0.00000000E+00
  8.70000000E+02  3.60000000E+01  0.00000000E+00
  8.70000000E+02  3.40000000E+01  0.00000000E+00
  8.70000000E+02  3.20000000E+01  0.00000000E+00
  8.70000000E+02  3.00000000E+01  0.00000000E+00
  8.70000000E+02  2.80000000E+01  0.00000000E+00
  8.70000000E+02  2.60000000E+01  0.00000000E+00
  8.70000000E+02  2.40000000E+01  0.00000000E+00
  8.70000000E+02  2.20000000E+01  0.00000000E+00
  8.70000000E+02  2.00000000E+01  0.00000000E+00
  8.70000000E+02  1.80000000E+01  0.00000000E+00
  8.70000000E+02  1.60000000E+01  0.00000000E+00
  8.70000000E+02  1.40000000E+01  0.00000000E+00
  8.70000000E+02  1.20000000E+01  0.00000000E+00
  8.70000000E+02  1.00000000E+01  0.00000000E+00
  8.70000000E+02  8.00000000E+00  0.00000000E+00
  8.70000000E+02  6.00000000E+00  0.00000000E+00
  8.70000000E+02  4.00000000E+00  0.00000000E+00
  8.70000000E+02  2.00000000E+00  0.00000000E+00
  8.70000000E+02 -3.33066907E-14  0.00000000E+00
  8.80000000E+02  1.00000000E+02  0.00000000E+00
  8.80000000E+02  9.80000000E+01  0.00000000E+00
  8.80000000E+02  9.60000000E+01  0.00000000E+00
  8.80000000E+02  9.40000000E+01  0.00000000E+00
  8.80000000E+02  9.20000000E+01  0.00000000E+00
  8.80000000E+02  9.00000000E+01  0.00000000E+00
  8.80000000E+02  8.80000000E+01  0.00000000E+00
  8.80000000E+02  8.60000000E+01  0.00000000E+00
  8.80000000E+02  8.40000000E+01  0.00000000E+00
  8.80000000E+02  8.20000000E+01  0.00000000E+00
  8.80000000E+02  8.00000000E+01  0.00000000E+00
  8.80000000E+02  7.80000000E+01  0.00000000E+00
  8.80000000E+02  7.60000000E+01  0.00000000E+00
  8.80000000E+02  7.40000000E+01  0.00000000E+00
  8.80000000E+02  7.20000000E+01  0.00000000E+00
  8.80000000E+02  7.00000000E+01  0.00000000E+00
  8.80000000E+02  6.80000000E+01  0.00000000E+00
  8.80000000E+02  6.60000000E+01  0.00000000E+00
  8.80000000E+02  6.40000000E+01  0.00000000E+00
  8.80000000E+02  6.20000000E+01  0.00000000E+00
  8.80000000E+02  6.00000000E+01  0.00000000E+00
  8.80000000E+02  5.80000000E+01  0.00000000E+00
  8.80000000E+02  5.60000000E+01  0.00000000E+00
  8.80000000E+02  5.40000000E+01  0.00000000E+00
  8.80000000E+02  5.20000000E+01  0.00000000E+00
  8.80000000E+02  5.00000000E+01  0.00000000E+00
  8.80000000E+02  4.80000000E+01  0.00000000E+00
  8.80000000E+02  4.60000000E+01  0.00000000E+00
  8.80000000E+02  4.40000000E+01  0.00000000E+00
  8.80000000E+02  4.20000000E+01  0.00000000E+00
  8.80000000E+02  4.00000000E+01  0.00000000E+00
  8.80000000E+02  3.80000000E+01  0.00000000E+00
  8.80000000E+02  3.60000000E+01  0.00000000E+00
  8.80000000E+02  3.40000000E+01  0.00000000E+00
  8.80000000E+02  3.20000000E+01  0.00000000E+00
  8.80000000E+02  3.00000000E+01  0.00000000E+00
  8.80000000E+02  2.80000000E+01  0.00000000E+00
  8.80000000E+02  2.60000000E+01  0.00000000E+00
  8.80000000E+02  2.40000000E+01  0.00000000E+00
  8.80000000E+02  2.20000000E+01  0.00000000E+00
  8.80000000E+02  2.00000000E+01  0.00000000E+00
  8.80000000E+02  1.80000000E+01  0.00000000E+00
  8.80000000E+02  1.60000000E+01  0.00000000E+00
  8.80000000E+02  1.40000000E+01  0.00000000E+00
  8.80000000E+02  1.20000000E+01  0.00000000E+00
  8.80000000E+02  1.00000000E+01  0.00000000E+00
  8.80000000E+02  8.00000000E+00  0.00000000E+00
  8.80000000E+02  6.00000000E+00  0.00000000E+00
  8.80000000E+02  4.00000000E+00  0.00000000E+00
  8.80000000E+02  2.00000000E+00  0.00000000E+00
  8.80000000E+02 -3.33066907E-14  0.00000000E+00
  8.90000000E+02  1.00000000E+02  0.00000000E+00
  8.90000000E+02  9.80000000E+01  0.00000000E+00
  8.90000000E+02  9.60000000E+01  0.00000000E+00
  8.90000000E+02  9.40000000E+01  0.00000000E+00
  8.90000000E+02  9.20000000E+01  0.00000000E+00
  8.90000000E+02  9.00000000E+01  0.00000000E+00
  8.90000000E+02  8.80000000E+01  0.00000000E+00
  8.90000000E+02  8.60000000E+01  0.00000000E+00
  8.90000000E+02  8.40000000E+01  0.00000000E+00
  8.90000000E+02  8.20000000E+01  0.00000000E+00
  8.90000000E+02  8.00000000E+01  0.00000000E+00
  8.90000000E+02  7.80000000E+01  0.00000000E+00
  8.90000000E+02  7.60000000E+01  0.00000000E+00
  8.90000000E+02  7.40000000E+01  0.00000000E+00
  8.90000000E+02  7.20000000E+01  0.00000000E+00
  8.90000000E+02  7.00000000E+01  0.00000000E+00
  8.90000000E+02  6.80000000E+01  0.00000000E+00
  8.90000000E+02  6.60000000E+01  0.00000000E+00
  8.90000000E+02  6.40000000E+01  0.00000000E+00
  8.90000000E+02  6.20000000E+01  0.00000000E+00
  8.90000000E+02  6.00000000E+01  0.00000000E+00
  8.90000000E+02  5.80000000E+01  0.00000000E+00
  8.90000000E+02  5.60000000E+01  0.00000000E+00
  8.90000000E+02  5.40000000E+01  0.00000000E+00
  8.90000000E+02  5.20000000E+01  0.00000000E+00
  8.90000000E+02  5.00000000E+01  0.00000000E+00
  8.90000000E+02  4.80000000E+01  0.00000000E+00
  8.90000000E+02  4.60000000E+01  0.00000000E+00
  8.90000000E+02  4.40000000E+01  0.00000000E+00
  8.90000000E+02  4.20000000E+01  0.00000000E+00
  8.90000000E+02  4.00000000E+01  0.00000000E+00
  8.90000000E+02  3.80000000E+01  0.00000000E+00
  8.90000000E+02  3.60000000E+01  0.00000000E+00
  8.90000000E+02  3.40000000E+01  0.00000000E+00
  8.90000000E+02  3.20000000E+01  0.00000000E+00
  8.90000000E+02  3.00000000E+01  0.00000000E+00
  8.90000000E+02  2.80000000E+01  0.00000000E+00
  8.90000000E+02  2.60000000E+01  0.00000000E+00
  8.90000000E+02  2.40000000E+01  0.00000000E+00
  8.90000000E+02  2.20000000E+01  0.00000000E+00
  8.90000000E+02  2.00000000E+01  0.00000000E+00
  8.90000000E+02  1.80000000E+01  0.00000000E+00
  8.90000000E+02  1.60000000E+01  0.00000000E+00
  8.90000000E+02  1.40000000E+01  0.00000000E+00
  8.90000000E+02  1.20000000E+01  0.00000000E+00
  8.90000000E+02  1.00000000E+01  0.00000000E+00
  8.90000000E+02  8.00000000E+00  0.00000000E+00
  8.90000000E+02  6.00000000E+00  0.00000000E+00
  8.90000000E+02  4.00000000E+00  0.00000000E+00
  8.90000000E+02  2.00000000E+00  0.00000000E+00
  8.90000000E+02 -3.33066907E-14  0.00000000E+00
  9.00000000E+02  1.00000000E+02  0.00000000E+00
  9.00000000E+02  9.80000000E+01  0.00000000E+00
  9.00000000E+02  9.60000000E+01  0.00000000E+00
  9.00000000E+02  9.40000000E+01  0.00000000E+00
  9.00000000E+02  9.20000000E+01  0.00000000E+00
  9.00000000E+02  9.00000000E+01  0.00000000E+00
  9.00000000E+02  8.80000000E+01  0.00000000E+00
  9.00000000E+02  8.60000000E+01  0.00000000E+00
  9.00000000E+02  8.40000000E+01  0.00000000E+00
  9.00000000E+02  8.20000000E+01  0.00000000E+00
  9.00000000E+02  8.00000000E+01  0.00000000E+00
  9.00000000E+02  7.80000000E+01  0.00000000E+00
  9.00000000E+02  7.60000000E+01  0.00000000E+00
  9.00000000E+02  7.40000000E+01  0.00000000E+00
  9.00000000E+02  7.20000000E+01  0.00000000E+00
  9.00000000E+02  7.00000000E+01  0.00000000E+00
  9.00000000E+02  6.80000000E+01  0.00000000E+00
  9.00000000E+02  6.60000000E+01  0.00000000E+00
  9.00000000E+02  6.40000000E+01  0.00000000E+00
  9.00000000E+02  6.20000000E+01  0.00000000E+00
  9.00000000E+02  6.00000000E+01  0.00000000E+00
  9.00000000E+02  5.80000000E+01  0.00000000E+00
  9.00000000E+02  5.60000000E+01  0.00000000E+00
  9.00000000E+02  5.40000000E+01  0.00000000E+00
  9.00000000E+02  5.20000000E+01  0.00000000E+00
  9.00000000E+02  5.00000000E+01  0.00000000E+00
  9.00000000E+02  4.80000000E+01  0.00000000E+00
  9.00000000E+02  4.60000000E+01  0.00000000E+00
  9.00000000E+02  4.40000000E+01  0.00000000E+00
  9.00000000E+02  4.20000000E+01  0.00000000E+00
  9.00000000E+02  4.00000000E+01  0.00000000E+00
  9.00000000E+02  3.80000000E+01  0.00000000E+00
  9.00000000E+02  3.60000000E+01  0.00000000E+00
  9.00000000E+02  3.40000000E+01  0.00000000E+00
  9.00000000E+02  3.20000000E+01  0.00000000E+00
  9.00000000E+02  3.00000000E+01  0.00000000E+00
  9.00000000E+02  2.80000000E+01  0.00000000E+00
  9.00000000E+02  2.60000000E+01  0.00000000E+00
  9.00000000E+02  2.40000000E+01  0.00000000E+00
  9.00000000E+02  2.20000000E+01  0.00000000E+00
  9.00000000E+02  2.00000000E+01  0.00000000E+00
  9.00000000E+02  1.80000000E+01  0.00000000E+00
  9.00000000E+02  1.60000000E+01  0.00000000E+00
  9.00000000E+02  1.40000000E+01  0.00000000E+00
  9.00000000E+02  1.20000000E+01  0.00000000E+00
  9.00000000E+02  1.00000000E+01  0.00000000E+00
  9.00000000E+02  8.00000000E+00  0.00000000E+00
  9.00000000E+02  6.00000000E+00  0.00000000E+00
  9.00000000E+02  4.00000000E+00  0.00000000E+00
  9.00000000E+02  2.00000000E+00  0.00000000E+00
  9.00000000E+02 -3.33066907E-14  0.00000000E+00
  9.10000000E+02  1.00000000E+02  0.00000000E+00
  9.10000000E+02  9.80000000E+01  0.00000000E+00
  9.10000000E+02  9.60000000E+01  0.00000000E+00
  9.10000000E+02  9.40000000E+01  0.00000000E+00
  9.10000000E+02  9.20000000E+01  0.00000000E+00
  9.10000000E+02  9.00000000E+01  0.00000000E+00
  9.10000000E+02  8.80000000E+01  0.00000000E+00
  9.10000000E+02  8.60000000E+01  0.00000000E+00
  9.10000000E+02  8.40000000E+01  0.00000000E+00
  9.10000000E+02  8.20000000E+01  0.00000000E+00
  9.10000000E+02  8.00000000E+01  0.00000000E+00
  9.10000000E+02  7.80000000E+01  0.00000000E+00
  9.10000000E+02  7.60000000E+01  0.00000000E+00
  9.10000000E+02  7.40000000E+01  0.00000000E+00
  9.10000000E+02  7.20000000E+01  0.00000000E+00
  9.10000000E+02  7.00000000E+01  0.00000000E+00
  9.10000000E+02  6.80000000E+01  0.00000000E+00
  9.10000000E+02  6.60000000E+01  0.00000000E+00
  9.10000000E+02  6.40000000E+01  0.00000000E+00
  9.10000000E+02  6.20000000E+01  0.00000000E+00
  9.10000000E+02  6.00000000E+01  0.00000000E+00
  9.10000000E+02  5.80000000E+01  0.00000000E+00
  9.10000000E+02  5.60000000E+01  0.00000000E+00
  9.10000000E+02  5.40000000E+01  0.00000000E+00
  9.10000000E+02  5.20000000E+01  0.00000000E+00
  9.10000000E+02  5.00000000E+01  0.00000000E+00
  9.10000000E+02  4.80000000E+01  0.00000000E+00
  9.10000000E+02  4.60000000E+01  0.00000000E+00
  9.10000000E+02  4.40000000E+01  0.00000000E+00
  9.10000000E+02  4.20000000E+01  0.00000000E+00
  9.10000000E+02  4.00000000E+01  0.00000000E+00
  9.10000000E+02  3.80000000E+01  0.00000000E+00
  9.10000000E+02  3.60000000E+01  0.00000000E+00
  9.10000000E+02  3.40000000E+01  0.00000000E+00
  9.10000000E+02  3.20000000E+01  0.00000000E+00
  9.10000000E+02  3.00000000E+01  0.00000000E+00
  9.10000000E+02  2.80000000E+01  0.00000000E+00
  9.10000000E+02  2.60000000E+01  0.00000000E+00
  9.10000000E+02  2.40000000E+01  0.00000000E+00
  9.10000000E+02  2.20000000E+01  0.00000000E+00
  9.10000000E+02  2.00000000E+01  0.00000000E+00
  9.10000000E+02  1.80000000E+01  0.00000000E+00
  9.10000000E+02  1.60000000E+01  0.00000000E+00
  9.10000000E+02  1.40000000E+01  0.00000000E+00
  9.10000000E+02  1.20000000E+01  0.00000000E+00
  9.10000000E+02  1.00000000E+01  0.00000000E+00
  9.10000000E+02  8.00000000E+00  0.00000000E+00
  9.10000000E+02  6.00000000E+00  0.00000000E+00
  9.10000000E+02  4.00000000E+00  0.00000000E+00
  9.10000000E+02  2.00000000E+00  0.00000000E+00
  9.10000000E+02 -3.33066907E-14  0.00000000E+00
  9.20000000E+02  1.00000000E+02  0.00000000E+00
  9.20000000E+02  9.80000000E+01  0.00000000E+00
  9.20000000E+02  9.60000000E+01  0.00000000E+00
  9.20000000E+02  9.40000000E+01  0.00000000E+00
  9.20000000E+02  9.20000000E+01  0.00000000E+00
  9.20000000E+02  9.00000000E+01  0.00000000E+00
  9.20000000E+02  8.80000000E+01  0.00000000E+00
  9.20000000E+02  8.60000000E+01  0.00000000E+00
  9.20000000E+02  8.40000000E+01  0.00000000E+00
  9.20000000E+02  8.20000000E+01  0.00000000E+00
  9.20000000E+02  8.00000000E+01  0.00000000E+00
  9.20000000E+02  7.80000000E+01  0.00000000E+00
  9.20000000E+02  7.60000000E+01  0.00000000E+00
  9.20000000E+02  7.40000000E+01  0.00000000E+00
  9.20000000E+02  7.20000000E+01  0.00000000E+00
  9.20000000E+02  7.00000000E+01  0.00000000E+00
  9.20000000E+02  6.80000000E+01  0.00000000E+00
  9.20000000E+02  6.60000000E+01  0.00000000E+00
  9.20000000E+02  6.40000000E+01  0.00000000E+00
  9.20000000E+02  6.20000000E+01  0.00000000E+00
  9.20000000E+02  6.00000000E+01  0.00000000E+00
  9.20000000E+02  5.80000000E+01  0.00000000E+00
  9.20000000E+02  5.60000000E+01  0.00000000E+00
  9.20000000E+02  5.40000000E+01  0.00000000E+00
  9.20000000E+02  5.20000000E+01  0.00000000E+00
  9.20000000E+02  5.00000000E+01  0.00000000E+00
  9.20000000E+02  4.80000000E+01  0.00000000E+00
  9.20000000E+02  4.60000000E+01  0.00000000E+00
  9.20000000E+02  4.40000000E+01  0.00000000E+00
  9.20000000E+02  4.20000000E+01  0.00000000E+00
  9.20000000E+02  4.00000000E+01  0.00000000E+00
  9.20000000E+02  3.80000000E+01  0.00000000E+00
  9.20000000E+02  3.60000000E+01  0.00000000E+00
  9.20000000E+02  3.40000000E+01  0.00000000E+00
  9.20000000E+02  3.20000000E+01  0.00000000E+00
  9.20000000E+02  3.00000000E+01  0.00000000E+00
  9.20000000E+02  2.80000000E+01  0.00000000E+00
  9.20000000E+02  2.60000000E+01  0.00000000E+00
  9.20000000E+02  2.40000000E+01  0.00000000E+00
  9.20000000E+02  2.20000000E+01  0.00000000E+00
  9.20000000E+02  2.00000000E+01  0.00000000E+00
  9.20000000E+02  1.80000000E+01  0.00000000E+00
  9.20000000E+02  1.60000000E+01  0.00000000E+00
  9.20000000E+02  1.40000000E+01  0.00000000E+00
  9.20000000E+02  1.20000000E+01  0.00000000E+00
  9.20000000E+02  1.00000000E+01  0.00000000E+00
  9.20000000E+02  8.00000000E+00  0.00000000E+00
  9.20000000E+02  6.00000000E+00  0.00000000E+00
  9.20000000E+02  4.00000000E+00  0.00000000E+00
  9.20000000E+02  2.00000000E+00  0.00000000E+00
  9.20000000E+02 -3.33066907E-14  0.00000000E+00
  9.30000000E+02  1.00000000E+02  0.00000000E+00
  9.30000000E+02  9.80000000E+01  0.00000000E+00
  9.30000000E+02  9.60000000E+01  0.00000000E+00
  9.30000000E+02  9.40000000E+01  0.00000000E+00
  9.30000000E+02  9.20000000E+01  0.00000000E+00
  9.30000000E+02  9.00000000E+01  0.00000000E+00
  9.30000000E+02  8.80000000E+01  0.00000000E+00
  9.30000000E+02  8.60000000E+01  0.00000000E+00
  9.30000000E+02  8.40000000E+01  0.00000000E+00
  9.30000000E+02  8.20000000E+01  0.00000000E+00
  9.30000000E+02  8.00000000E+01  0.00000000E+00
  9.30000000E+02  7.80000000E+01  0.00000000E+00
  9.30000000E+02  7.60000000E+01  0.00000000E+00
  9.30000000E+02  7.40000000E+01  0.00000000E+00
  9.30000000E+02  7.20000000E+01  0.00000000E+00
  9.30000000E+02  7.00000000E+01  0.00000000E+00
  9.30000000E+02  6.80000000E+01  0.00000000E+00
  9.30000000E+02  6.60000000E+01  0.00000000E+00
  9.30000000E+02  6.40000000E+01  0.00000000E+00
  9.30000000E+02  6.20000000E+01  0.00000000E+00
  9.30000000E+02  6.00000000E+01  0.00000000E+00
  9.30000000E+02  5.80000000E+01  0.00000000E+00
  9.30000000E+02  5.60000000E+01  0.00000000E+00
  9.30000000E+02  5.40000000E+01  0.00000000E+00
  9.30000000E+02  5.20000000E+01  0.00000000E+00
  9.30000000E+02  5.00000000E+01  0.00000000E+00
  9.30000000E+02  4.80000000E+01  0.00000000E+00
  9.30000000E+02  4.60000000E+01  0.00000000E+00
  9.30000000E+02  4.40000000E+01  0.00000000E+00
  9.30000000E+02  4.20000000E+01  0.00000000E+00
  9.30000000E+02  4.00000000E+01  0.00000000E+00
  9.30000000E+02  3.80000000E+01  0.00000000E+00
  9.30000000E+02  3.60000000E+01  0.00000000E+00
  9.30000000E+02  3.40000000E+01  0.00000000E+00
  9.30000000E+02  3.20000000E+01  0.00000000E+00
  9.30000000E+02  3.00000000E+01  0.00000000E+00
  9.30000000E+02  2.80000000E+01  0.00000000E+00
  9.30000000E+02  2.60000000E+01  0.00000000E+00
  9.30000000E+02  2.40000000E+01  0.00000000E+00
  9.30000000E+02  2.20000000E+01  0.00000000E+00
  9.30000000E+02  2.00000000E+01  0.00000000E+00
  9.30000000E+02  1.80000000E+01  0.00000000E+00
  9.30000000E+02  1.60000000E+01  0.00000000E+00
  9.30000000E+02  1.40000000E+01  0.00000000E+00
  9.30000000E+02  1.20000000E+01  0.00000000E+00
  9.30000000E+02  1.00000000E+01  0.00000000E+00
  9.30000000E+02  8.00000000E+00  0.00000000E+00
  9.30000000E+02  6.00000000E+00  0.00000000E+00
  9.30000000E+02  4.00000000E+00  0.00000000E+00
  9.30000000E+02  2.00000000E+00  0.00000000E+00
  9.30000000E+02 -3.33066907E-14  0.00000000E+00
  9.40000000E+02  1.00000000E+02  0.00000000E+00
  9.40000000E+02  9.80000000E+01  0.00000000E+00
  9.40000000E+02  9.60000000E+01  0.00000000E+00
  9.40000000E+02  9.40000000E+01  0.00000000E+00
  9.40000000E+02  9.20000000E+01  0.00000000E+00
  9.40000000E+02  9.00000000E+01  0.00000000E+00
  9.40000000E+02  8.80000000E+01  0.00000000E+00
  9.40000000E+02  8.60000000E+01  0.00000000E+00
  9.40000000E+02  8.40000000E+01  0.00000000E+00
  9.40000000E+02  8.20000000E+01  0.00000000E+00
  9.40000000E+02  8.00000000E+01  0.00000000E+00
  9.40000000E+02  7.80000000E+01  0.00000000E+00
  9.40000000E+02  7.60000000E+01  0.00000000E+00
  9.40000000E+02  7.40000000E+01  0.00000000E+00
  9.40000000E+02  7.20000000E+01  0.00000000E+00
  9.40000000E+02  7.00000000E+01  0.00000000E+00
  9.40000000E+02  6.80000000E+01  0.00000000E+00
  9.40000000E+02  6.60000000E+01  0.00000000E+00
  9.40000000E+02  6.40000000E+01  0.00000000E+00
  9.40000000E+02  6.20000000E+01  0.00000000E+00
  9.40000000E+02  6.00000000E+01  0.00000000E+00
  9.40000000E+02  5.80000000E+01  0.00000000E+00
  9.40000000E+02  5.60000000E+01  0.00000000E+00
  9.40000000E+02  5.40000000E+01  0.00000000E+00
  9.40000000E+02  5.20000000E+01  0.00000000E+00
  9.40000000E+02  5.00000000E+01  0.00000000E+00
  9.40000000E+02  4.80000000E+01  0.00000000E+00
  9.40000000E+02  4.60000000E+01  0.00000000E+00
  9.40000000E+02  4.40000000E+01  0.00000000E+00
  9.40000000E+02  4.20000000E+01  0.00000000E+00
  9.40000000E+02  4.00000000E+01  0.00000000E+00
  9.40000000E+02  3.80000000E+01  0.00000000E+00
  9.40000000E+02  3.60000000E+01  0.00000000E+00
  9.40000000E+02  3.40000000E+01  0.00000000E+00
  9.40000000E+02  3.20000000E+01  0.00000000E+00
  9.40000000E+02  3.00000000E+01  0.00000000E+00
  9.40000000E+02  2.80000000E+01  0.00000000E+00
  9.40000000E+02  2.60000000E+01  0.00000000E+00
  9.40000000E+02  2.40000000E+01  0.00000000E+00
  9.40000000E+02  2.20000000E+01  0.00000000E+00
  9.40000000E+02  2.00000000E+01  0.00000000E+00
  9.40000000E+02  1.80000000E+01  0.00000000E+00
  9.40000000E+02  1.60000000E+01  0.00000000E+00
  9.40000000E+02  1.40000000E+01  0.00000000E+00
  9.40000000E+02  1.20000000E+01  0.00000000E+00
  9.40000000E+02  1.00000000E+01  0.00000000E+00
  9.40000000E+02  8.00000000E+00  0.00000000E+00
  9.40000000E+02  6.00000000E+00  0.00000000E+00
  9.40000000E+02  4.00000000E+00  0.00000000E+00
  9.40000000E+02  2.00000000E+00  0.00000000E+00
  9.40000000E+02 -3.33066907E-14  0.00000000E+00
  9.50000000E+02  1.00000000E+02  0.00000000E+00
  9.50000000E+02  9.80000000E+01  0.00000000E+00
  9.50000000E+02  9.60000000E+01  0.00000000E+00
  9.50000000E+02  9.40000000E+01  0.00000000E+00
  9.50000000E+02  9.20000000E+01  0.00000000E+00
  9.50000000E+02  9.00000000E+01  0.00000000E+00
  9.50000000E+02  8.80000000E+01  0.00000000E+00
  9.50000000E+02  8.60000000E+01  0.00000000E+00
  9.50000000E+02  8.40000000E+01  0.00000000E+00
  9.50000000E+02  8.20000000E+01  0.00000000E+00
  9.50000000E+02  8.00000000E+01  0.00000000E+00
  9.50000000E+02  7.80000000E+01  0.00000000E+00
  9.50000000E+02  7.60000000E+01  0.00000000E+00
  9.50000000E+02  7.40000000E+01  0.00000000E+00
  9.50000000E+02  7.20000000E+01  0.00000000E+00
  9.50000000E+02  7.00000000E+01  0.00000000E+00
  9.50000000E+02  6.80000000E+01  0.00000000E+00
  9.50000000E+02  6.60000000E+01  0.00000000E+00
  9.50000000E+02  6.40000000E+01  0.00000000E+00
  9.50000000E+02  6.20000000E+01  0.00000000E+00
  9.50000000E+02  6.00000000E+01  0.00000000E+00
  9.50000000E+02  5.80000000E+01  0.00000000E+00
  9.50000000E+02  5.60000000E+01  0.00000000E+00
  9.50000000E+02  5.40000000E+01  0.00000000E+00
  9.50000000E+02  5.20000000E+01  0.00000000E+00
  9.50000000E+02  5.00000000E+01  0.00000000E+00
  9.50000000E+02  4.80000000E+01  0.00000000E+00
  9.50000000E+02  4.60000000E+01  0.00000000E+00
  9.50000000E+02  4.40000000E+01  0.00000000E+00
  9.50000000E+02  4.20000000E+01  0.00000000E+00
  9.50000000E+02  4.00000000E+01  0.00000000E+00
  9.50000000E+02  3.80000000E+01  0.00000000E+00
  9.50000000E+02  3.60000000E+01  0.00000000E+00
  9.50000000E+02  3.40000000E+01  0.00000000E+00
  9.50000000E+02  3.20000000E+01  0.00000000E+00
  9.50000000E+02  3.00000000E+01  0.00000000E+00
  9.50000000E+02  2.80000000E+01  0.00000000E+00
  9.50000000E+02  2.60000000E+01  0.00000000E+00
  9.50000000E+02  2.40000000E+01  0.00000000E+00
  9.50000000E+02  2.20000000E+01  0.00000000E+00
  9.50000000E+02  2.00000000E+01  0.00000000E+00
  9.50000000E+02  1.80000000E+01  0.00000000E+00
  9.50000000E+02  1.60000000E+01  0.00000000E+00
  9.50000000E+02  1.40000000E+01  0.00000000E+00
  9.50000000E+02  1.20000000E+01  0.00000000E+00
  9.50000000E+02  1.00000000E+01  0.00000000E+00
  9.50000000E+02  8.00000000E+00  0.00000000E+00
  9.50000000E+02  6.00000000E+00  0.00000000E+00
  9.50000000E+02  4.00000000E+00  0.00000000E+00
  9.50000000E+02  2.00000000E+00  0.00000000E+00
  9.50000000E+02 -3.33066907E-14  0.00000000E+00
  9.60000000E+02  1.00000000E+02  0.00000000E+00
  9.60000000E+02  9.80000000E+01  0.00000000E+00
  9.60000000E+02  9.60000000E+01  0.00000000E+00
  9.60000000E+02  9.40000000E+01  0.00000000E+00
  9.60000000E+02  9.20000000E+01  0.00000000E+00
  9.60000000E+02  9.00000000E+01  0.00000000E+00
  9.60000000E+02  8.80000000E+01  0.00000000E+00
  9.60000000E+02  8.60000000E+01  0.00000000E+00
  9.60000000E+02  8.40000000E+01  0.00000000E+00
  9.60000000E+02  8.20000000E+01  0.00000000E+00
  9.60000000E+02  8.00000000E+01  0.00000000E+00
  9.60000000E+02  7.80000000E+01  0.00000000E+00
  9.60000000E+02  7.60000000E+01  0.00000000E+00
  9.60000000E+02  7.40000000E+01  0.00000000E+00
  9.60000000E+02  7.20000000E+01  0.00000000E+00
  9.60000000E+02  7.00000000E+01  0.00000000E+00
  9.60000000E+02  6.80000000E+01  0.00000000E+00
  9.60000000E+02  6.60000000E+01  0.00000000E+00
  9.60000000E+02  6.40000000E+01  0.00000000E+00
  9.60000000E+02  6.20000000E+01  0.00000000E+00
  9.60000000E+02  6.00000000E+01  0.00000000E+00
  9.60000000E+02  5.80000000E+01  0.00000000E+00
  9.60000000E+02  5.60000000E+01  0.00000000E+00
  9.60000000E+02  5.40000000E+01  0.00000000E+00
  9.60000000E+02  5.20000000E+01  0.00000000E+00
  9.60000000E+02  5.00000000E+01  0.00000000E+00
  9.60000000E+02  4.80000000E+01  0.00000000E+00
  9.60000000E+02  4.60000000E+01  0.00000000E+00
  9.60000000E+02  4.40000000E+01  0.00000000E+00
  9.60000000E+02  4.20000000E+01  0.00000000E+00
  9.60000000E+02  4.00000000E+01  0.00000000E+00
  9.60000000E+02  3.80000000E+01  0.00000000E+00
  9.60000000E+02  3.60000000E+01  0.00000000E+00
  9.60000000E+02  3.40000000E+01  0.00000000E+00
  9.60000000E+02  3.20000000E+01  0.00000000E+00
  9.60000000E+02  3.00000000E+01  0.00000000E+00
  9.60000000E+02  2.80000000E+01  0.00000000E+00
  9.60000000E+02  2.60000000E+01  0.00000000E+00
  9.60000000E+02  2.40000000E+01  0.00000000E+00
  9.60000000E+02  2.20000000E+01  0.00000000E+00
  9.60000000E+02  2.00000000E+01  0.00000000E+00
  9.60000000E+02  1.80000000E+01  0.00000000E+00
  9.60000000E+02  1.60000000E+01  0.00000000E+00
  9.60000000E+02  1.40000000E+01  0.00000000E+00
  9.60000000E+02  1.20000000E+01  0.00000000E+00
  9.60000000E+02  1.00000000E+01  0.00000000E+00
  9.60000000E+02  8.00000000E+00  0.00000000E+00
  9.60000000E+02  6.00000000E+00  0.00000000E+00
  9.60000000E+02  4.00000000E+00  0.00000000E+00
  9.60000000E+02  2.00000000E+00  0.00000000E+00
  9.60000000E+02 -3.33066907E-14  0.00000000E+00
  9.70000000E+02  1.00000000E+02  0.00000000E+00
  9.70000000E+02  9.80000000E+01  0.00000000E+00
  9.70000000E+02  9.60000000E+01  0.00000000E+00
  9.70000000E+02  9.40000000E+01  0.00000000E+00
  9.70000000E+02  9.20000000E+01  0.00000000E+00
  9.70000000E+02  9.00000000E+01  0.00000000E+00
  9.70000000E+02  8.80000000E+01  0.00000000E+00
  9.70000000E+02  8.60000000E+01  0.00000000E+00
  9.70000000E+02  8.40000000E+01  0.00000000E+00
  9.70000000E+02  8.20000000E+01  0.00000000E+00
  9.70000000E+02  8.00000000E+01  0.00000000E+00
  9.70000000E+02  7.80000000E+01  0.00000000E+00
  9.70000000E+02  7.60000000E+01  0.00000000E+00
  9.70000000E+02  7.40000000E+01  0.00000000E+00
  9.70000000E+02  7.20000000E+01  0.00000000E+00
  9.70000000E+02  7.00000000E+01  0.00000000E+00
  9.70000000E+02  6.80000000E+01  0.00000000E+00
  9.70000000E+02  6.60000000E+01  0.00000000E+00
  9.70000000E+02  6.40000000E+01  0.00000000E+00
  9.70000000E+02  6.20000000E+01  0.00000000E+00
  9.70000000E+02  6.00000000E+01  0.00000000E+00
  9.70000000E+02  5.80000000E+01  0.00000000E+00
  9.70000000E+02  5.60000000E+01  0.00000000E+00
  9.70000000E+02  5.40000000E+01  0.00000000E+00
  9.70000000E+02  5.20000000E+01  0.00000000E+00
  9.70000000E+02  5.00000000E+01  0.00000000E+00
  9.70000000E+02  4.80000000E+01  0.00000000E+00
  9.70000000E+02  4.60000000E+01  0.00000000E+00
  9.70000000E+02  4.40000000E+01  0.00000000E+00
  9.70000000E+02  4.20000000E+01  0.00000000E+00
  9.70000000E+02  4.00000000E+01  0.00000000E+00
  9.70000000E+02  3.80000000E+01  0.00000000E+00
  9.70000000E+02  3.60000000E+01  0.00000000E+00
  9.70000000E+02  3.40000000E+01  0.00000000E+00
  9.70000000E+02  3.20000000E+01  0.00000000E+00
  9.70000000E+02  3.00000000E+01  0.00000000E+00
  9.70000000E+02  2.80000000E+01  0.00000000E+00
  9.70000000E+02  2.60000000E+01  0.00000000E+00
  9.70000000E+02  2.40000000E+01  0.00000000E+00
  9.70000000E+02  2.20000000E+01  0.00000000E+00
  9.70000000E+02  2.00000000E+01  0.00000000E+00
  9.70000000E+02  1.80000000E+01  0.00000000E+00
  9.70000000E+02  1.60000000E+01  0.00000000E+00
  9.70000000E+02  1.40000000E+01  0.00000000E+00
  9.70000000E+02  1.20000000E+01  0.00000000E+00
  9.70000000E+02  1.00000000E+01  0.00000000E+00
  9.70000000E+02  8.00000000E+00  0.00000000E+00
  9.70000000E+02  6.00000000E+00  0.00000000E+00
  9.70000000E+02  4.00000000E+00  0.00000000E+00
  9.70000000E+02  2.00000000E+00  0.00000000E+00
  9.70000000E+02 -3.33066907E-14  0.00000000E+00
  9.80000000E+02  1.00000000E+02  0.00000000E+00
  9.80000000E+02  9.80000000E+01  0.00000000E+00
  9.80000000E+02  9.60000000E+01  0.00000000E+00
  9.80000000E+02  9.40000000E+01  0.00000000E+00
  9.80000000E+02  9.20000000E+01  0.00000000E+00
  9.80000000E+02  9.00000000E+01  0.00000000E+00
  9.80000000E+02  8.80000000E+01  0.00000000E+00
  9.80000000E+02  8.60000000E+01  0.00000000E+00
  9.80000000E+02  8.40000000E+01  0.00000000E+00
  9.80000000E+02  8.20000000E+01  0.00000000E+00
  9.80000000E+02  8.00000000E+01  0.00000000E+00
  9.80000000E+02  7.80000000E+01  0.00000000E+00
  9.80000000E+02  7.60000000E+01  0.00000000E+00
  9.80000000E+02  7.40000000E+01  0.00000000E+00
  9.80000000E+02  7.20000000E+01  0.00000000E+00
  9.80000000E+02  7.00000000E+01  0.00000000E+00
  9.80000000E+02  6.80000000E+01  0.00000000E+00
  9.80000000E+02  6.60000000E+01  0.00000000E+00
  9.80000000E+02  6.40000000E+01  0.00000000E+00
  9.80000000E+02  6.20000000E+01  0.00000000E+00
  9.80000000E+02  6.00000000E+01  0.00000000E+00
  9.80000000E+02  5.80000000E+01  0.00000000E+00
  9.80000000E+02  5.60000000E+01  0.00000000E+00
  9.80000000E+02  5.40000000E+01  0.00000000E+00
  9.80000000E+02  5.20000000E+01  0.00000000E+00
  9.80000000E+02  5.00000000E+01  0.00000000E+00
  9.80000000E+02  4.80000000E+01  0.00000000E+00
  9.80000000E+02  4.60000000E+01  0.00000000E+00
  9.80000000E+02  4.40000000E+01  0.00000000E+00
  9.80000000E+02  4.20000000E+01  0.00000000E+00
  9.80000000E+02  4.00000000E+01  0.00000000E+00
  9.80000000E+02  3.80000000E+01  0.00000000E+00
  9.80000000E+02  3.60000000E+01  0.00000000E+00
  9.80000000E+02  3.40000000E+01  0.00000000E+00
  9.80000000E+02  3.20000000E+01  0.00000000E+00
  9.80000000E+02  3.00000000E+01  0.00000000E+00
  9.80000000E+02  2.80000000E+01  0.00000000E+00
  9.80000000E+02  2.60000000E+01  0.00000000E+00
  9.80000000E+02  2.40000000E+01  0.00000000E+00
  9.80000000E+02  2.20000000E+01  0.00000000E+00
  9.80000000E+02  2.00000000E+01  0.00000000E+00
  9.80000000E+02  1.80000000E+01  0.00000000E+00
  9.80000000E+02  1.60000000E+01  0.00000000E+00
  9.80000000E+02  1.40000000E+01  0.00000000E+00
  9.80000000E+02  1.20000000E+01  0.00000000E+00
  9.80000000E+02  1.00000000E+01  0.00000000E+00
  9.80000000E+02  8.00000000E+00  0.00000000E+00
  9.80000000E+02  6.00000000E+00  0.00000000E+00
  9.80000000E+02  4.00000000E+00  0.00000000E+00
  9.80000000E+02  2.00000000E+00  0.00000000E+00
  9.80000000E+02 -3.33066907E-14  0.00000000E+00
  9.90000000E+02  1.00000000E+02  0.00000000E+00
  9.90000000E+02  9.80000000E+01  0.00000000E+00
  9.90000000E+02  9.60000000E+01  0.00000000E+00
  9.90000000E+02  9.40000000E+01  0.00000000E+00
  9.90000000E+02  9.20000000E+01  0.00000000E+00
  9.90000000E+02  9.00000000E+01  0.00000000E+00
  9.90000000E+02  8.80000000E+01  0.00000000E+00
  9.90000000E+02  8.60000000E+01  0.00000000E+00
  9.90000000E+02  8.40000000E+01  0.00000000E+00
  9.90000000E+02  8.20000000E+01  0.00000000E+00
  9.90000000E+02  8.00000000E+01  0.00000000E+00
  9.90000000E+02  7.80000000E+01  0.00000000E+00
  9.90000000E+02  7.60000000E+01  0.00000000E+00
  9.90000000E+02  7.40000000E+01  0.00000000E+00
  9.90000000E+02  7.20000000E+01  0.00000000E+00
  9.90000000E+02  7.00000000E+01  0.00000000E+00
  9.90000000E+02  6.80000000E+01  0.00000000E+00
  9.90000000E+02  6.60000000E+01  0.00000000E+00
  9.90000000E+02  6.40000000E+01  0.00000000E+00
  9.90000000E+02  6.20000000E+01  0.00000000E+00
  9.90000000E+02  6.00000000E+01  0.00000000E+00
  9.90000000E+02  5.80000000E+01  0.00000000E+00
  9.90000000E+02  5.60000000E+01  0.00000000E+00
  9.90000000E+02  5.40000000E+01  0.00000000E+00
  9.90000000E+02  5.20000000E+01  0.00000000E+00
  9.90000000E+02  5.00000000E+01  0.00000000E+00
  9.90000000E+02  4.80000000E+01  0.00000000E+00
  9.90000000E+02  4.60000000E+01  0.00000000E+00
  9.90000000E+02  4.40000000E+01  0.00000000E+00
  9.90000000E+02  4.20000000E+01  0.00000000E+00
  9.90000000E+02  4.00000000E+01  0.00000000E+00
  9.90000000E+02  3.80000000E+01  0.00000000E+00
  9.90000000E+02  3.60000000E+01  0.00000000E+00
  9.90000000E+02  3.40000000E+01  0.00000000E+00
  9.90000000E+02  3.20000000E+01  0.00000000E+00
  9.90000000E+02  3.00000000E+01  0.00000000E+00
  9.90000000E+02  2.80000000E+01  0.00000000E+00
  9.90000000E+02  2.60000000E+01  0.00000000E+00
  9.90000000E+02  2.40000000E+01  0.00000000E+00
  9.90000000E+02  2.20000000E+01  0.00000000E+00
  9.90000000E+02  2.00000000E+01  0.00000000E+00
  9.90000000E+02  1.80000000E+01  0.00000000E+00
  9.90000000E+02  1.60000000E+01  0.00000000E+00
  9.90000000E+02  1.40000000E+01  0.00000000E+00
  9.90000000E+02  1.20000000E+01  0.00000000E+00
  9.90000000E+02  1.00000000E+01  0.00000000E+00
  9.90000000E+02  8.00000000E+00  0.00000000E+00
  9.90000000E+02  6.00000000E+00  0.00000000E+00
  9.90000000E+02  4.00000000E+00  0.00000000E+00
  9.90000000E+02  2.00000000E+00  0.00000000E+00
  9.90000000E+02 -3.33066907E-14  0.00000000E+00
  1.00000000E+03  1.00000000E+02  0.00000000E+00
  1.00000000E+03  9.80000000E+01  0.00000000E+00
  1.00000000E+03  9.60000000E+01  0.00000000E+00
  1.00000000E+03  9.40000000E+01  0.00000000E+00
  1.00000000E+03  9.20000000E+01  0.00000000E+00
  1.00000000E+03  9.00000000E+01  0.00000000E+00
  1.00000000E+03  8.80000000E+01  0.00000000E+00
  1.00000000E+03  8.60000000E+01  0.00000000E+00
  1.00000000E+03  8.40000000E+01  0.00000000E+00
  1.00000000E+03  8.20000000E+01  0.00000000E+00
  1.00000000E+03  8.00000000E+01  0.00000000E+00
  1.00000000E+03  7.80000000E+01  0.00000000E+00
  1.00000000E+03  7.60000000E+01  0.00000000E+00
  1.00000000E+03  7.40000000E+01  0.00000000E+00
  1.00000000E+03  7.20000000E+01  0.00000000E+00
  1.00000000E+03  7.00000000E+01  0.00000000E+00
  1.00000000E+03  6.80000000E+01  0.00000000E+00
  1.00000000E+03  6.60000000E+01  0.00000000E+00
  1.00000000E+03  6.40000000E+01  0.00000000E+00
  1.00000000E+03  6.20000000E+01  0.00000000E+00
  1.00000000E+03  6.00000000E+01  0.00000000E+00
  1.00000000E+03  5.80000000E+01  0.00000000E+00
  1.00000000E+03  5.60000000E+01  0.00000000E+00
  1.00000000E+03  5.40000000E+01  0.00000000E+00
  1.00000000E+03  5.20000000E+01  0.00000000E+00
  1.00000000E+03  5.00000000E+01  0.00000000E+00
  1.00000000E+03  4.80000000E+01  0.00000000E+00
  1.00000000E+03  4.60000000E+01  0.00000000E+00
  1.00000000E+03  4.40000000E+01  0.00000000E+00
  1.00000000E+03  4.20000000E+01  0.00000000E+00
  1.00000000E+03  4.00000000E+01  0.00000000E+00
  1.00000000E+03  3.80000000E+01  0.00000000E+00
  1.00000000E+03  3.60000000E+01  0.00000000E+00
  1.00000000E+03  3.40000000E+01  0.00000000E+00
  1.00000000E+03  3.20000000E+01  0.00000000E+00
  1.00000000E+03  3.00000000E+01  0.00000000E+00
  1.00000000E+03  2.80000000E+01  0.00000000E+00
  1.00000000E+03  2.60000000E+01  0.00000000E+00
  1.00000000E+03  2.40000000E+01  0.00000000E+00
  1.00000000E+03  2.20000000E+01  0.00000000E+00
  1.00000000E+03  2.00000000E+01  0.00000000E+00
  1.00000000E+03  1.80000000E+01  0.00000000E+00
  1.00000000E+03  1.60000000E+01  0.00000000E+00
  1.00000000E+03  1.40000000E+01  0.00000000E+00
  1.00000000E+03  1.20000000E+01  0.00000000E+00
  1.00000000E+03  1.00000000E+01  0.00000000E+00
  1.00000000E+03  8.00000000E+00  0.00000000E+00
  1.00000000E+03  6.00000000E+00  0.00000000E+00
  1.00000000E+03  4.00000000E+00  0.00000000E+00
  1.00000000E+03  2.00000000E+00  0.00000000E+00
  1.00000000E+03 -3.33066907E-14  0.00000000E+00
CELLS      5000     25000
         4           0           1          52          51
         4           1           2          53          52
         4           2           3          54          53
         4           3           4          55          54
         4           4           5          56          55
         4           5           6          57          56
         4           6           7          58          57
         4           7           8          59          58
         4           8           9          60          59
         4           9          10          61          60
         4          10          11          62          61
         4          11          12          63          62
         4          12          13          64          63
         4          13          14          65          64
         4          14          15          66          65
         4          15          16          67          66
         4          16          17          68          67
         4          17          18          69          68
         4          18          19          70          69
         4          19          20          71          70
         4          20          21          72          71
         4          21          22          73          72
         4          22          23          74          73
         4          23          24          75          74
         4          24          25          76          75
         4          25          26          77          76
         4          26          27          78          77
         4          27          28          79          78
         4          28          29          80          79
         4          29          30          81          80
         4          30          31          82          81
         4          31          32          83          82
         4          32          33          84          83
         4          33          34          85          84
         4          34          35          86          85
         4          35          36          87          86
         4          36          37          88          87
         4          37          38          89          88
         4          38          39          90          89
         4          39          40          91          90
         4          40          41          92          91
         4          41          42          93          92
         4          42          43          94          93
         4          43          44          95          94
         4          44          45          96          95
         4          45          46          97          96
         4          46          47          98          97
         4          47          48          99          98
         4          48          49         100          99
         4          49          50         101         100
         4          51          52         103         102
         4          52          53         104         103
         4          53          54         105         104
         4          54          55         106         105
         4          55          56         107         106
         4          56          57         108         107
         4          57          58         109         108
         4          58          59         110         109
         4          59          60         111         110
         4          60          61         112         111
         4          61          62         113         112
         4          62          63         114         113
         4          63          64         115         114
         4          64          65         116         115
         4          65          66         117         116
         4          66          67         118         117
         4          67          68         119         118
         4          68          69         120         119
         4          69          70         121         120
         4          70          71         122         121
         4          71          72         123         122
         4          72          73         124         123
         4          73          74         125         124
         4          74          75         126         125
         4          75          76         127         126
         4          76          77         128         127
         4          77          78         129         128
         4          78          79         130         129
         4          79          80         131         130
         4          80          81         132         131
         4          81          82         133         132
         4          82          83         134         133
         4          83          84         135         134
         4          84          85         136         135
         4          85          86         137         136
         4          86          87         138         137
         4          87          88         139         138
         4          88          89         140         139
         4          89          90         141         140
         4          90          91         142         141
         4          91          92         143         142
         4          92          93         144         143
         4          93          94         145         144
         4          94          95         146         145
         4          95          96         147         146
         4          96          97         148         147
         4          97          98         149         148
         4          98          99         150         149
         4          99         100         151         150
         4         100         101         152         151
         4         102         103         154         153
         4         103         104         155         154
         4         104         105         156         155
         4         105         106         157         156
         4         106         107         158         157
         4         107         108         159         158
         4         108         109         160         159
         4         109         110         161         160
         4         110         111         162         161
         4         111         112         163         162
         4         112         113         164         163
         4         113         114         165         164
         4         114         115         166         165
         4         115         116         167         166
         4         116         117         168         167
         4         117         118         169         168
         4         118         119         170         169
         4         119         120         171         170
         4         120         121         172         171
         4         121         122         173         172
         4         122         123         174         173
         4         123         124         175         174
         4         124         125         176         175
         4         125         126         177         176
         4         126         127         178         177
         4         127         128         179         178
         4         128         129         180         179
         4         129         130         181         180
         4         130         131         182         181
         4         131         132         183         182
         4         132         133         184         183
         4         133         134         185         184
         4         134         135         186         185
         4         135         136         187         186
         4         136         137         188         187
         4         137         138         189         188
         4         138         139         190         189
         4         139         140         191         190
         4         140         141         192         191
         4         141         142         193         192
         4         142         143         194         193
         4         143         144         195         194
         4         144         145         196         195
         4         145         146         197         196
         4         146         147         198         197
         4         147         148         199         198
         4         148         149         200         199
         4         149         150         201         200
         4         150         151         202         201
         4         151         152         203         202
         4         153         154         205         204
         4         154         155         206         205
         4         155         156         207         206
         4         156         157         208         207
         4         157         158         209         208
         4         158         159         210         209
         4         159         160         211         210
         4         160         161         212         211
         4         161         162         213         212
         4         162         163         214         213
         4         163         164         215         214
         4         164         165         216         215
         4         165         166         217         216
         4         166         167         218         217
         4         167         168         219         218
         4         168         169         220         219
         4         169         170         221         220
         4         170         171         222         221
         4         171         172         223         222
         4         172         173         224         223
         4         173         174         225         224
         4         174         175         226         225
         4         175         176         227         226
         4         176         177         228         227
         4         177         178         229         228
         4         178         179         230         229
         4         179         180         231         230
         4         180         181         232         231
         4         181         182         233         232
         4         182         183         234         233
         4         183         184         235         234
         4         184         185         236         235
         4         185         186         237         236
         4         186         187         238         237
         4         187         188         239         238
         4         188         189         240         239
         4         189         190         241         240
         4         190         191         242         241
         4         191         192         243         242
         4         192         193         244         243
         4         193         194         245         244
         4         194         195         246         245
         4         195         196         247         246
         4         196         197         248         247
         4         197         198         249         248
         4         198         199         250         249
         4         199         200         251         250
         4         200         201         252         251
         4         201         202         253         252
         4         202         203         254         253
         4         204         205         256         255
         4         205         206         257         256
         4         206         207         258         257
         4         207         208         259         258
         4         208         209         260         259
         4         209         210         261         260
         4         210         211         262         261
         4         211         212         263         262
         4         212         213         264         263
         4         213         214         265         264
         4         214         215         266         265
         4         215         216         267         266
         4         216         217         268         267
         4         217         218         269         268
         4         218         219         270         269
         4         219         220         271         270
         4         220         221         272         271
         4         221         222         273         272
         4         222         223         274         273
         4         223         224         275         274
         4         224         225         276         275
         4         225         226         277         276
         4         226         227         278         277
         4         227         228         279         278
         4         228         229         280         279
         4         229         230         281         280
         4         230         231         282         281
         4         231         232         283         282
         4         232         233         284         283
         4         233         234         285         284
         4         234         235         286         285
         4         235         236         287         286
         4         236         237         288         287
         4         237         238         289         288
         4         238         239         290         289
         4         239         240         291         290
         4         240         241         292         291
         4         241         242         293         292
         4         242         243         294         293
         4         243         244         295         294
         4         244         245         296         295
         4         245         246         297         296
         4         246         247         298         297
         4         247         248         299         298
         4         248         249         300         299
         4         249         250         301         300
         4         250         251         302         301
         4         251         252         303         302
         4         252         253         304         303
         4         253         254         305         304
         4         255         256         307         306
         4         256         257         308         307
         4         257         258         309         308
         4         258         259         310         309
         4         259         260         311         310
         4         260         261         312         311
         4         261         262         313         312
         4         262         263         314         313
         4         263         264         315         314
         4         264         265         316         315
         4         265         266         317         316
         4         266         267         318         317
         4         267         268         319         318
         4         268         269         320         319
         4         269         270         321         320
         4         270         271         322         321
         4         271         272         323         322
         4         272         273         324         323
         4         273         274         325         324
         4         274         275         326         325
         4         275         276         327         326
         4         276         277         328         327
         4         277         278         329         328
         4         278         279         330         329
         4         279         280         331         330
         4         280         281         332         331
         4         281         282         333         332
         4         282         283         334         333
         4         283         284         335         334
         4         284         285         336         335
         4         285         286         337         336
         4         286         287         338         337
         4         287         288         339         338
         4         288         289         340         339
         4         289         290         341         340
         4         290         291         342         341
         4         291         292         343         342
         4         292         293         344         343
         4         293         294         345         344
         4         294         295         346         345
         4         295         296         347         346
         4         296         297         348         347
         4         297         298         349         348
         4         298         299         350         349
         4         299         300         351         350
         4         300         301         352         351
         4         301         302         353         352
         4         302         303         354         353
         4         303         304         355         354
         4         304         305         356         355
         4         306         307         358         357
         4         307         308         359         358
         4         308         309         360         359
         4         309         310         361         360
         4         310         311         362         361
         4         311         312         363         362
         4         312         313         364         363
         4         313         314         365         364
         4         314         315         366         365
         4         315         316         367         366
         4         316         317         368         367
         4         317         318         369         368
         4         318         319         370         369
         4         319         320         371         370
         4         320         321         372         371
         4         321         322         373         372
         4         322         323         374         373
         4         323         324         375         374
         4         324         325         376         375
         4         325         326         377         376
         4         326         327         378         377
         4         327         328         379         378
         4         328         329         380         379
         4         329         330         381         380
         4         330         331         382         381
         4         331         332         383         382
         4         332         333         384         383
         4         333         334         385         384
         4         334         335         386         385
         4         335         336         387         386
         4         336         337         388         387
         4         337         338         389         388
         4         338         339         390         389
         4         339         340         391         390
         4         340         341         392         391
         4         341         342         393         392
         4         342         343         394         393
         4         343         344         395         394
         4         344         345         396         395
         4         345         346         397         396
         4         346         347         398         397
         4         347         348         399         398
         4         348         349         400         399
         4         349         350         401         400
         4         350         351         402         401
         4         351         352         403         402
         4         352         353         404         403
         4         353         354         405         404
         4         354         355         406         405
         4         355         356         407         406
         4         357         358         409         408
         4         358         359         410         409
         4         359         360         411         410
         4         360         361         412         411
         4         361         362         413         412
         4         362         363         414         413
         4         363         364         415         414
         4         364         365         416         415
         4         365         366         417         416
         4         366         367         418         417
         4         367         368         419         418
         4         368         369         420         419
         4         369         370         421         420
         4         370         371         422         421
         4         371         372         423         422
         4         372         373         424         423
         4         373         374         425         424
         4         374         375         426         425
         4         375         376         427         426
         4         376         377         428         427
         4         377         378         429         428
         4         378         379         430         429
         4         379         380         431         430
         4         380         381         432         431
         4         381         382         433         432
         4         382         383         434         433
         4         383         384         435         434
         4         384         385         436         435
         4         385         386         437         436
         4         386         387         438         437
         4         387         388         439         438
         4         388         389         440         439
         4         389         390         441         440
         4         390         391         442         441
         4         391         392         443         442
         4         392         393         444         443
         4         393         394         445         444
         4         394         395         446         445
         4         395         396         447         446
         4         396         397         448         447
         4         397         398         449         448
         4         398         399         450         449
         4         399         400         451         450
         4         400         401         452         451
         4         401         402         453         452
         4         402         403         454         453
         4         403         404         455         454
         4         404         405         456         455
         4         405         406         457         456
         4         406         407         458         457
         4         408         409         460         459
         4         409         410         461         460
         4         410         411         462         461
         4         411         412         463         462
         4         412         413         464         463
         4         413         414         465         464
         4         414         415         466         465
         4         415         416         467         466
         4         416         417         468         467
         4         417         418         469         468
         4         418         419         470         469
         4         419         420         471         470
         4         420         421         472         471
         4         421         422         473         472
         4         422         423         474         473
         4         423         424         475         474
         4         424         425         476         475
         4         425         426         477         476
         4         426         427         478         477
         4         427         428         479         478
         4         428         429         480         479
         4         429         430         481         480
         4         430         431         482         481
         4         431         432         483         482
         4         432         433         484         483
         4         433         434         485         484
         4         434         435         486         485
         4         435         436         487         486
         4         436         437         488         487
         4         437         438         489         488
         4         438         439         490         489
         4         439         440         491         490
         4         440         441         492         491
         4         441         442         493         492
         4         442         443         494         493
         4         443         444         495         494
         4         444         445         496         495
         4         445         446         497         496
         4         446         447         498         497
         4         447         448         499         498
         4         448         449         500         499
         4         449         450         501         500
         4         450         451         502         501
         4         451         452         503         502
         4         452         453         504         503
         4         453         454         505         504
         4         454         455         506         505
         4         455         456         507         506
         4         456         457         508         507
         4         457         458         509         508
         4         459         460         511         510
         4         460         461         512         511
         4         461         462         513         512
         4         462         463         514         513
         4         463         464         515         514
         4         464         465         516         515
         4         465         466         517         516
         4         466         467         518         517
         4         467         468         519         518
         4         468         469         520         519
         4         469         470         521         520
         4         470         471         522         521
         4         471         472         523         522
         4         472         473         524         523
         4         473         474         525         524
         4         474         475         526         525
         4         475         476         527         526
         4         476         477         528         527
         4         477         478         529         528
         4         478         479         530         529
         4         479         480         531         530
         4         480         481         532         531
         4         481         482         533         532
         4         482         483         534         533
         4         483         484         535         534
         4         484         485         536         535
         4         485         486         537         536
         4         486         487         538         537
         4         487         488         539         538
         4         488         489         540         539
         4         489         490         541         540
         4         490         491         542         541
         4         491         492         543         542
         4         492         493         544         543
         4         493         494         545         544
         4         494         495         546         545
         4         495         496         547         546
         4         496         497         548         547
         4         497         498         549         548
         4         498         499         550         549
         4         499         500         551         550
         4         500         501         552         551
         4         501         502         553         552
         4         502         503         554         553
         4         503         504         555         554
         4         504         505         556         555
         4         505         506         557         556
         4         506         507         558         557
         4         507         508         559         558
         4         508         509         560         559
         4         510         511         562         561
         4         511         512         563         562
         4         512         513         564         563
         4         513         514         565         564
         4         514         515         566         565
         4         515         516         567         566
         4         516         517         568         567
         4         517         518         569         568
         4         518         519         570         569
         4         519         520         571         570
         4         520         521         572         571
         4         521         522         573         572
         4         522         523         574         573
         4         523         524         575         574
         4         524         525         576         575
         4         525         526         577         576
         4         526         527         578         577
         4         527         528         579         578
         4         528         529         580         579
         4         529         530         581         580
         4         530         531         582         581
         4         531         532         583         582
         4         532         533         584         583
         4         533         534         585         584
         4         534         535         586         585
         4         535         536         587         586
         4         536         537         588         587
         4         537         538         589         588
         4         538         539         590         589
         4         539         540         591         590
         4         540         541         592         591
         4         541         542         593         592
         4         542         543         594         593
         4         543         544         595         594
         4         544         545         596         595
         4         545         546         597         596
         4         546         547         598         597
         4         547         548         599         598
         4         548         549         600         599
         4         549         550         601         600
         4         550         551         602         601
         4         551         552         603         602
         4         552         553         604         603
         4         553         554         605         604
         4         554         555         606         605
         4         555         556         607         606
         4         556         557         608         607
         4         557         558         609         608
         4         558         559         610         609
         4         559         560         611         610
         4         561         562         613         612
         4         562         563         614         613
         4         563         564         615         614
         4         564         565         616         615
         4         565         566         617         616
         4         566         567         618         617
         4         567         568         619         618
         4         568         569         620         619
         4         569         570         621         620
         4         570         571         622         621
         4         571         572         623         622
         4         572         573         624         623
         4         573         574         625         624
         4         574         575         626         625
         4         575         576         627         626
         4         576         577         628         627
         4         577         578         629         628
         4         578         579         630         629
         4         579         580         631         630
         4         580         581         632         631
         4         581         582         633         632
         4         582         583         634         633
         4         583         584         635         634
         4         584         585         636         635
         4         585         586         637         636
         4         586         587         638         637
         4         587         588         639         638
         4         588         589         640         639
         4         589         590         641         640
         4         590         591         642         641
         4         591         592         643         642
         4         592         593         644         643
         4         593         594         645         644
         4         594         595         646         645
         4         595         596         647         646
         4         596         597         648         647
         4         597         598         649         648
         4         598         599         650         649
         4         599         600         651         650
         4         600         601         652         651
         4         601         602         653         652
         4         602         603         654         653
         4         603         604         655         654
         4         604         605         656         655
         4         605         606         657         656
         4         606         607         658         657
         4         607         608         659         658
         4         608         609         660         659
         4         609         610         661         660
         4         610         611         662         661
         4         612         613         664         663
         4         613         614         665         664
         4         614         615         666         665
         4         615         616         667         666
         4         616         617         668         667
         4         617         618         669         668
         4         618         619         670         669
         4         619         620         671         670
         4         620         621         672         671
         4         621         622         673         672
         4         622         623         674         673
         4         623         624         675         674
         4         624         625         676         675
         4         625         626         677         676
         4         626         627         678         677
         4         627         628         679         678
         4         628         629         680         679
         4         629         630         681         680
         4         630         631         682         681
         4         631         632         683         682
         4         632         633         684         683
         4         633         634         685         684
         4         634         635         686         685
         4         635         636         687         686
         4         636         637         688         687
         4         637         638         689         688
         4         638         639         690         689
         4         639         640         691         690
         4         640         641         692         691
         4         641         642         693         692
         4         642         643         694         693
         4         643         644         695         694
         4         644         645         696         695
         4         645         646         697         696
         4         646         647         698         697
         4         647         648         699         698
         4         648         649         700         699
         4         649         650         701         700
         4         650         651         702         701
         4         651         652         703         702
         4         652         653         704         703
         4         653         654         705         704
         4         654         655         706         705
         4         655         656         707         706
         4         656         657         708         707
         4         657         658         709         708
         4         658         659         710         709
         4         659         660         711         710
         4         660         661         712         711
         4         661         662         713         712
         4         663         664         715         714
         4         664         665         716         715
         4         665         666         717         716
         4         666         667         718         717
         4         667         668         719         718
         4         668         669         720         719
         4         669         670         721         720
         4         670         671         722         721
         4         671         672         723         722
         4         672         673         724         723
         4         673         674         725         724
         4         674         675         726         725
         4         675         676         727         726
         4         676         677         728         727
         4         677         678         729         728
         4         678         679         730         729
         4         679         680         731         730
         4         680         681         732         731
         4         681         682         733         732
         4         682         683         734         733
         4         683         684         735         734
         4         684         685         736         735
         4         685         686         737         736
         4         686         687         738         737
         4         687         688         739         738
         4         688         689         740         739
         4         689         690         741         740
         4         690         691         742         741
         4         691         692         743         742
         4         692         693         744         743
         4         693         694         745         744
         4         694         695         746         745
         4         695         696         747         746
         4         696         697         748         747
         4         697         698         749         748
         4         698         699         750         749
         4         699         700         751         750
         4         700         701         752         751
         4         701         702         753         752
         4         702         703         754         753
         4         703         704         755         754
         4         704         705         756         755
         4         705         706         757         756
         4         706         707         758         757
         4         707         708         759         758
         4         708         709         760         759
         4         709         710         761         760
         4         710         711         762         761
         4         711         712         763         762
         4         712         713         764         763
         4         714         715         766         765
         4         715         716         767         766
         4         716         717         768         767
         4         717         718         769         768
         4         718         719         770         769
         4         719         720         771         770
         4         720         721         772         771
         4         721         722         773         772
         4         722         723         774         773
         4         723         724         775         774
         4         724         725         776         775
         4         725         726         777         776
         4         726         727         778         777
         4         727         728         779         778
         4         728         729         780         779
         4         729         730         781         780
         4         730         731         782         781
         4         731         732         783         782
         4         732         733         784         783
         4         733         734         785         784
         4         734         735         786         785
         4         735         736         787         786
         4         736         737         788         787
         4         737         738         789         788
         4         738         739         790         789
         4         739         740         791         790
         4         740         741         792         791
         4         741         742         793         792
         4         742         743         794         793
         4         743         744         795         794
         4         744         745         796         795
         4         745         746         797         796
         4         746         747         798         797
         4         747         748         799         798
         4         748         749         800         799
         4         749         750         801         800
         4         750         751         802         801
         4         751         752         803         802
         4         752         753         804         803
         4         753         754         805         804
         4         754         755         806         805
         4         755         756         807         806
         4         756         757         808         807
         4         757         758         809         808
         4         758         759         810         809
         4         759         760         811         810
         4         760         761         812         811
         4         761         762         813         812
         4         762         763         814         813
         4         763         764         815         814
         4         765         766         817         816
         4         766         767         818         817
         4         767         768         819         818
         4         768         769         820         819
         4         769         770         821         820
         4         770         771         822         821
         4         771         772         823         822
         4         772         773         824         823
         4         773         774         825         824
         4         774         775         826         825
         4         775         776         827         826
         4         776         777         828         827
         4         777         778         829         828
         4         778         779         830         829
         4         779         780         831         830
         4         780         781         832         831
         4         781         782         833         832
         4         782         783         834         833
         4         783         784         835         834
         4         784         785         836         835
         4         785         786         837         836
         4         786         787         838         837
         4         787         788         839         838
         4         788         789         840         839
         4         789         790         841         840
         4         790         791         842         841
         4         791         792         843         842
         4         792         793         844         843
         4         793         794         845         844
         4         794         795         846         845
         4         795         796         847         846
         4         796         797         848         847
         4         797         798         849         848
         4         798         799         850         849
         4         799         800         851         850
         4         800         801         852         851
         4         801         802         853         852
         4         802         803         854         853
         4         803         804         855         854
         4         804         805         856         855
         4         805         806         857         856
         4         806         807         858         857
         4         807         808         859         858
         4         808         809         860         859
         4         809         810         861         860
         4         810         811         862         861
         4         811         812         863         862
         4         812         813         864         863
         4         813         814         865         864
         4         814         815         866         865
         4         816         817         868         867
         4         817         818         869         868
         4         818         819         870         869
         4         819         820         871         870
         4         820         821         872         871
         4         821         822         873         872
         4         822         823         874         873
         4         823         824         875         874
         4         824         825         876         875
         4         825         826         877         876
         4         826         827         878         877
         4         827         828         879         878
         4         828         829         880         879
         4         829         830         881         880
         4         830         831         882         881
         4         831         832         883         882
         4         832         833         884         883
         4         833         834         885         884
         4         834         835         886         885
         4         835         836         887         886
         4         836         837         888         887
         4         837         838         889         888
         4         838         839         890         889
         4         839         840         891         890
         4         840         841         892         891
         4         841         842         893         892
         4         842         843         894         893
         4         843         844         895         894
         4         844         845         896         895
         4         845         846         897         896
         4         846         847         898         897
         4         847         848         899         898
         4         848         849         900         899
         4         849         850         901         900
         4         850         851         902         901
         4         851         852         903         902
         4         852         853         904         903
         4         853         854         905         904
         4         854         855         906         905
         4         855         856         907         906
         4         856         857         908         907
         4         857         858         909         908
         4         858         859         910         909
         4         859         860         911         910
         4         860         861         912         911
         4         861         862         913         912
         4         862         863         914         913
         4         863         864         915         914
         4         864         865         916         915
         4         865         866         917         916
         4         867         868         919         918
         4         868         869         920         919
         4         869         870         921         920
         4         870         871         922         921
         4         871         872         923         922
         4         872         873         924         923
         4         873         874         925         924
         4         874         875         926         925
         4         875         876         927         926
         4         876         877         928         927
         4         877         878         929         928
         4         878         879         930         929
         4         879         880         931         930
         4         880         881         932         931
         4         881         882         933         932
         4         882         883         934         933
         4         883         884         935         934
         4         884         885         936         935
         4         885         886         937         936
         4         886         887         938         937
         4         887         888         939         938
         4         888         889         940         939
         4         889         890         941         940
         4         890         891         942         941
         4         891         892         943         942
         4         892         893         944         943
         4         893         894         945         944
         4         894         895         946         945
         4         895         896         947         946
         4         896         897         948         947
         4         897         898         949         948
         4         898         899         950         949
         4         899         900         951         950
         4         900         901         952         951
         4         901         902         953         952
         4         902         903         954         953
         4         903         904         955         954
         4         904         905         956         955
         4         905         906         957         956
         4         906         907         958         957
         4         907         908         959         958
         4         908         909         960         959
         4         909         910         961         960
         4         910         911         962         961
         4         911         912         963         962
         4         912         913         964         963
         4         913         914         965         964
         4         914         915         966         965
         4         915         916         967         966
         4         916         917         968         967
         4         918         919         970         969
         4         919         920         971         970
         4         920         921         972         971
         4         921         922         973         972
         4         922         923         974         973
         4         923         924         975         974
         4         924         925         976         975
         4         925         926         977         976
         4         926         927         978         977
         4         927         928         979         978
         4         928         929         980         979
         4         929         930         981         980
         4         930         931         982         981
         4         931         932         983         982
         4         932         933         984         983
         4         933         934         985         984
         4         934         935         986         985
         4         935         936         987         986
         4         936         937         988         987
         4         937         938         989         988
         4         938         939         990         989
         4         939         940         991         990
         4         940         941         992         991
         4         941         942         993         992
         4         942         943         994         993
         4         943         944         995         994
         4         944         945         996         995
         4         945         946         997         996
         4         946         947         998         997
         4         947         948         999         998
         4         948         949        1000         999
         4         949         950        1001        1000
         4         950         951        1002        1001
         4         951         952        1003        1002
         4         952         953        1004        1003
         4         953         954        1005        1004
         4         954         955        1006        1005
         4         955         956        1007        1006
         4         956         957        1008        1007
         4         957         958        1009        1008
         4         958         959        1010        1009
         4         959         960        1011        1010
         4         960         961        1012        1011
         4         961         962        1013        1012
         4         962         963        1014        1013
         4         963         964        1015        1014
         4         964         965        1016        1015
         4         965         966        1017        1016
         4         966         967        1018        1017
         4         967         968        1019        1018
         4         969         970        1021        1020
         4         970         971        1022        1021
         4         971         972        1023        1022
         4         972         973        1024        1023
         4         973         974        1025        1024
         4         974         975        1026        1025
         4         975         976        1027        1026
         4         976         977        1028        1027
         4         977         978        1029        1028
         4         978         979        1030        1029
         4         979         980        1031        1030
         4         980         981        1032        1031
         4         981         982        1033        1032
         4         982         983        1034        1033
         4         983         984        1035        1034
         4         984         985        1036        1035
         4         985         986        1037        1036
         4         986         987        1038        1037
         4         987         988        1039        1038
         4         988         989        1040        1039
         4         989         990        1041        1040
         4         990         991        1042        1041
         4         991         992        1043        1042
         4         992         993        1044        1043
         4         993         994        1045        1044
         4         994         995        1046        1045
         4         995         996        1047        1046
         4         996         997        1048        1047
         4         997         998        1049        1048
         4         998         999        1050        1049
         4         999        1000        1051        1050
         4        1000        1001        1052        1051
         4        1001        1002        1053        1052
         4        1002        1003        1054        1053
         4        1003        1004        1055        1054
         4        1004        1005        1056        1055
         4        1005        1006        1057        1056
         4        1006        1007        1058        1057
         4        1007        1008        1059        1058
         4        1008        1009        1060        1059
         4        1009        1010        1061        1060
         4        1010        1011        1062        1061
         4        1011        1012        1063        1062
         4        1012        1013        1064        1063
         4        1013        1014        1065        1064
         4        1014        1015        1066        1065
         4        1015        1016        1067        1066
         4        1016        1017        1068        1067
         4        1017        1018        1069        1068
         4        1018        1019        1070        1069
         4        1020        1021        1072        1071
         4        1021        1022        1073        1072
         4        1022        1023        1074        1073
         4        1023        1024        1075        1074
         4        1024        1025        1076        1075
         4        1025        1026        1077        1076
         4        1026        1027        1078        1077
         4        1027        1028        1079        1078
         4        1028        1029        1080        1079
         4        1029        1030        1081        1080
         4        1030        1031        1082        1081
         4        1031        1032        1083        1082
         4        1032        1033        1084        1083
         4        1033        1034        1085        1084
         4        1034        1035        1086        1085
         4        1035        1036        1087        1086
         4        1036        1037        1088        1087
         4        1037        1038        1089        1088
         4        1038        1039        1090        1089
         4        1039        1040        1091        1090
         4        1040        1041        1092        1091
         4        1041        1042        1093        1092
         4        1042        1043        1094        1093
         4        1043        1044        1095        1094
         4        1044        1045        1096        1095
         4        1045        1046        1097        1096
         4        1046        1047        1098        1097
         4        1047        1048        1099        1098
         4        1048        1049        1100        1099
         4        1049        1050        1101        1100
         4        1050        1051        1102        1101
         4        1051        1052        1103        1102
         4        1052        1053        1104        1103
         4        1053        1054        1105        1104
         4        1054        1055        1106        1105
         4        1055        1056        1107        1106
         4        1056        1057        1108        1107
         4        1057        1058        1109        1108
         4        1058        1059        1110        1109
         4        1059        1060        1111        1110
         4        1060        1061        1112        1111
         4        1061        1062        1113        1112
         4        1062        1063        1114        1113
         4        1063        1064        1115        1114
         4        1064        1065        1116        1115
         4        1065        1066        1117        1116
         4        1066        1067        1118        1117
         4        1067        1068        1119        1118
         4        1068        1069        1120        1119
         4        1069        1070        1121        1120
         4        1071        1072        1123        1122
         4        1072        1073        1124        1123
         4        1073        1074        1125        1124
         4        1074        1075        1126        1125
         4        1075        1076        1127        1126
         4        1076        1077        1128        1127
         4        1077        1078        1129        1128
         4        1078        1079        1130        1129
         4        1079        1080        1131        1130
         4        1080        1081        1132        1131
         4        1081        1082        1133        1132
         4        1082        1083        1134        1133
         4        1083        1084        1135        1134
         4        1084        1085        1136        1135
         4        1085        1086        1137        1136
         4        1086        1087        1138        1137
         4        1087        1088        1139        1138
         4        1088        1089        1140        1139
         4        1089        1090        1141        1140
         4        1090        1091        1142        1141
         4        1091        1092        1143        1142
         4        1092        1093        1144        1143
         4        1093        1094        1145        1144
         4        1094        1095        1146        1145
         4        1095        1096        1147        1146
         4        1096        1097        1148        1147
         4        1097        1098        1149        1148
         4        1098        1099        1150        1149
         4        1099        1100        1151        1150
         4        1100        1101        1152        1151
         4        1101        1102        1153        1152
         4        1102        1103        1154        1153
         4        1103        1104        1155        1154
         4        1104        1105        1156        1155
         4        1105        1106        1157        1156
         4        1106        1107        1158        1157
         4        1107        1108        1159        1158
         4        1108        1109        1160        1159
         4        1109        1110        1161        1160
         4        1110        1111        1162        1161
         4        1111        1112        1163        1162
         4        1112        1113        1164        1163
         4        1113        1114        1165        1164
         4        1114        1115        1166        1165
         4        1115        1116        1167        1166
         4        1116        1117        1168        1167
         4        1117        1118        1169        1168
         4        1118        1119        1170        1169
         4        1119        1120        1171        1170
         4        1120        1121        1172        1171
         4        1122        1123        1174        1173
         4        1123        1124        1175        1174
         4        1124        1125        1176        1175
         4        1125        1126        1177        1176
         4        1126        1127        1178        1177
         4        1127        1128        1179        1178
         4        1128        1129        1180        1179
         4        1129        1130        1181        1180
         4        1130        1131        1182        1181
         4        1131        1132        1183        1182
         4        1132        1133        1184        1183
         4        1133        1134        1185        1184
         4        1134        1135        1186        1185
         4        1135        1136        1187        1186
         4        1136        1137        1188        1187
         4        1137        1138        1189        1188
         4        1138        1139        1190        1189
         4        1139        1140        1191        1190
         4        1140        1141        1192        1191
         4        1141        1142        1193        1192
         4        1142        1143        1194        1193
         4        1143        1144        1195        1194
         4        1144        1145        1196        1195
         4        1145        1146        1197        1196
         4        1146        1147        1198        1197
         4        1147        1148        1199        1198
         4        1148        1149        1200        1199
         4        1149        1150        1201        1200
         4        1150        1151        1202        1201
         4        1151        1152        1203        1202
         4        1152        1153        1204        1203
         4        1153        1154        1205        1204
         4        1154        1155        1206        1205
         4        1155        1156        1207        1206
         4        1156        1157        1208        1207
         4        1157        1158        1209        1208
         4        1158        1159        1210        1209
         4        1159        1160        1211        1210
         4        1160        1161        1212        1211
         4        1161        1162        1213        1212
         4        1162        1163        1214        1213
         4        1163        1164        1215        1214
         4        1164        1165        1216        1215
         4        1165        1166        1217        1216
         4        1166        1167        1218        1217
         4        1167        1168        1219        1218
         4        1168        1169        1220        1219
         4        1169        1170        1221        1220
         4        1170        1171        1222        1221
         4        1171        1172        1223        1222
         4        1173        1174        1225        1224
         4        1174        1175        1226        1225
         4        1175        1176        1227        1226
         4        1176        1177        1228        1227
         4        1177        1178        1229        1228
         4        1178        1179        1230        1229
         4        1179        1180        1231        1230
         4        1180        1181        1232        1231
         4        1181        1182        1233        1232
         4        1182        1183        1234        1233
         4        1183        1184        1235        1234
         4        1184        1185        1236        1235
         4        1185        1186        1237        1236
         4        1186        1187        1238        1237
         4        1187        1188        1239        1238
         4        1188        1189        1240        1239
         4        1189        1190        1241        1240
         4        1190        1191        1242        1241
         4        1191        1192        1243        1242
         4        1192        1193        1244        1243
         4        1193        1194        1245        1244
         4        1194        1195        1246        1245
         4        1195        1196        1247        1246
         4        1196        1197        1248        1247
         4        1197        1198        1249        1248
         4        1198        1199        1250        1249
         4        1199        1200        1251        1250
         4        1200        1201        1252        1251
         4        1201        1202        1253        1252
         4        1202        1203        1254        1253
         4        1203        1204        1255        1254
         4        1204        1205        1256        1255
         4        1205        1206        1257        1256
         4        1206        1207        1258        1257
         4        1207        1208        1259        1258
         4        1208        1209        1260        1259
         4        1209        1210        1261        1260
         4        1210        1211        1262        1261
         4        1211        1212        1263        1262
         4        1212        1213        1264        1263
         4        1213        1214        1265        1264
         4        1214        1215        1266        1265
         4        1215        1216        1267        1266
         4        1216        1217        1268        1267
         4        1217        1218        1269        1268
         4        1218        1219        1270        1269
         4        1219        1220        1271        1270
         4        1220        1221        1272        1271
         4        1221        1222        1273        1272
         4        1222        1223        1274        1273
         4        1224        1225        1276        1275
         4        1225        1226        1277        1276
         4        1226        1227        1278        1277
         4        1227        1228        1279        1278
         4        1228        1229        1280        1279
         4        1229        1230        1281        1280
         4        1230        1231        1282        1281
         4        1231        1232        1283        1282
         4        1232        1233        1284        1283
         4        1233        1234        1285        1284
         4        1234        1235        1286        1285
         4        1235        1236        1287        1286
         4        1236        1237        1288        1287
         4        1237        1238        1289        1288
         4        1238        1239        1290        1289
         4        1239        1240        1291        1290
         4        1240        1241        1292        1291
         4        1241        1242        1293        1292
         4        1242        1243        1294        1293
         4        1243        1244        1295        1294
         4        1244        1245        1296        1295
         4        1245        1246        1297        1296
         4        1246        1247        1298        1297
         4        1247        1248        1299        1298
         4        1248        1249        1300        1299
         4        1249        1250        1301        1300
         4        1250        1251        1302        1301
         4        1251        1252        1303        1302
         4        1252        1253        1304        1303
         4        1253        1254        1305        1304
         4        1254        1255        1306        1305
         4        1255        1256        1307        1306
         4        1256        1257        1308        1307
         4        1257        1258        1309        1308
         4        1258        1259        1310        1309
         4        1259        1260        1311        1310
         4        1260        1261        1312        1311
         4        1261        1262        1313        1312
         4        1262        1263        1314        1313
         4        1263        1264        1315        1314
         4        1264        1265        1316        1315
         4        1265        1266        1317        1316
         4        1266        1267        1318        1317
         4        1267        1268        1319        1318
         4        1268        1269        1320        1319
         4        1269        1270        1321        1320
         4        1270        1271        1322        1321
         4        1271        1272        1323        1322
         4        1272        1273        1324        1323
         4        1273        1274        1325        1324
         4        1275        1276        1327        1326
         4        1276        1277        1328        1327
         4        1277        1278        1329        1328
         4        1278        1279        1330        1329
         4        1279        1280        1331        1330
         4        1280        1281        1332        1331
         4        1281        1282        1333        1332
         4        1282        1283        1334        1333
         4        1283        1284        1335        1334
         4        1284        1285        1336        1335
         4        1285        1286        1337        1336
         4        1286        1287        1338        1337
         4        1287        1288        1339        1338
         4        1288        1289        1340        1339
         4        1289        1290        1341        1340
         4        1290        1291        1342        1341
         4        1291        1292        1343        1342
         4        1292        1293        1344        1343
         4        1293        1294        1345        1344
         4        1294        1295        1346        1345
         4        1295        1296        1347        1346
         4        1296        1297        1348        1347
         4        1297        1298        1349        1348
         4        1298        1299        1350        1349
         4        1299        1300        1351        1350
         4        1300        1301        1352        1351
         4        1301        1302        1353        1352
         4        1302        1303        1354        1353
         4        1303        1304        1355        1354
         4        1304        1305        1356        1355
         4        1305        1306        1357        1356
         4        1306        1307        1358        1357
         4        1307        1308        1359        1358
         4        1308        1309        1360        1359
         4        1309        1310        1361        1360
         4        1310        1311        1362        1361
         4        1311        1312        1363        1362
         4        1312        1313        1364        1363
         4        1313        1314        1365        1364
         4        1314        1315        1366        1365
         4        1315        1316        1367        1366
         4        1316        1317        1368        1367
         4        1317        1318        1369        1368
         4        1318        1319        1370        1369
         4        1319        1320        1371        1370
         4        1320        1321        1372        1371
         4        1321        1322        1373        1372
         4        1322        1323        1374        1373
         4        1323        1324        1375        1374
         4        1324        1325        1376        1375
         4        1326        1327        1378        1377
         4        1327        1328        1379        1378
         4        1328        1329        1380        1379
         4        1329        1330        1381        1380
         4        1330        1331        1382        1381
         4        1331        1332        1383        1382
         4        1332        1333        1384        1383
         4        1333        1334        1385        1384
         4        1334        1335        1386        1385
         4        1335        1336        1387        1386
         4        1336        1337        1388        1387
         4        1337        1338        1389        1388
         4        1338        1339        1390        1389
         4        1339        1340        1391        1390
         4        1340        1341        1392        1391
         4        1341        1342        1393        1392
         4        1342        1343        1394        1393
         4        1343        1344        1395        1394
         4        1344        1345        1396        1395
         4        1345        1346        1397        1396
         4        1346        1347        1398        1397
         4        1347        1348        1399        1398
         4        1348        1349        1400        1399
         4        1349        1350        1401        1400
         4        1350        1351        1402        1401
         4        1351        1352        1403        1402
         4        1352        1353        1404        1403
         4        1353        1354        1405        1404
         4        1354        1355        1406        1405
         4        1355        1356        1407        1406
         4        1356        1357        1408        1407
         4        1357        1358        1409        1408
         4        1358        1359        1410        1409
         4        1359        1360        1411        1410
         4        1360        1361        1412        1411
         4        1361        1362        1413        1412
         4        1362        1363        1414        1413
         4        1363        1364        1415        1414
         4        1364        1365        1416        1415
         4        1365        1366        1417        1416
         4        1366        1367        1418        1417
         4        1367        1368        1419        1418
         4        1368        1369        1420        1419
         4        1369        1370        1421        1420
         4        1370        1371        1422        1421
         4        1371        1372        1423        1422
         4        1372        1373        1424        1423
         4        1373        1374        1425        1424
         4        1374        1375        1426        1425
         4        1375        1376        1427        1426
         4        1377        1378        1429        1428
         4        1378        1379        1430        1429
         4        1379        1380        1431        1430
         4        1380        1381        1432        1431
         4        1381        1382        1433        1432
         4        1382        1383        1434        1433
         4        1383        1384        1435        1434
         4        1384        1385        1436        1435
         4        1385        1386        1437        1436
         4        1386        1387        1438        1437
         4        1387        1388        1439        1438
         4        1388        1389        1440        1439
         4        1389        1390        1441        1440
         4        1390        1391        1442        1441
         4        1391        1392        1443        1442
         4        1392        1393        1444        1443
         4        1393        1394        1445        1444
         4        1394        1395        1446        1445
         4        1395        1396        1447        1446
         4        1396        1397        1448        1447
         4        1397        1398        1449        1448
         4        1398        1399        1450        1449
         4        1399        1400        1451        1450
         4        1400        1401        1452        1451
         4        1401        1402        1453        1452
         4        1402        1403        1454        1453
         4        1403        1404        1455        1454
         4        1404        1405        1456        1455
         4        1405        1406        1457        1456
         4        1406        1407        1458        1457
         4        1407        1408        1459        1458
         4        1408        1409        1460        1459
         4        1409        1410        1461        1460
         4        1410        1411        1462        1461
         4        1411        1412        1463        1462
         4        1412        1413        1464        1463
         4        1413        1414        1465        1464
         4        1414        1415        1466        1465
         4        1415        1416        1467        1466
         4        1416        1417        1468        1467
         4        1417        1418        1469        1468
         4        1418        1419        1470        1469
         4        1419        1420        1471        1470
         4        1420        1421        1472        1471
         4        1421        1422        1473        1472
         4        1422        1423        1474        1473
         4        1423        1424        1475        1474
         4        1424        1425        1476        1475
         4        1425        1426        1477        1476
         4        1426        1427        1478        1477
         4        1428        1429        1480        1479
         4        1429        1430        1481        1480
         4        1430        1431        1482        1481
         4        1431        1432        1483        1482
         4        1432        1433        1484        1483
         4        1433        1434        1485        1484
         4        1434        1435        1486        1485
         4        1435        1436        1487        1486
         4        1436        1437        1488        1487
         4        1437        1438        1489        1488
         4        1438        1439        1490        1489
         4        1439        1440        1491        1490
         4        1440        1441        1492        1491
         4        1441        1442        1493        1492
         4        1442        1443        1494        1493
         4        1443        1444        1495        1494
         4        1444        1445        1496        1495
         4        1445        1446        1497        1496
         4        1446        1447        1498        1497
         4        1447        1448        1499        1498
         4        1448        1449        1500        1499
         4        1449        1450        1501        1500
         4        1450        1451        1502        1501
         4        1451        1452        1503        1502
         4        1452        1453        1504        1503
         4        1453        1454        1505        1504
         4        1454        1455        1506        1505
         4        1455        1456        1507        1506
         4        1456        1457        1508        1507
         4        1457        1458        1509        1508
         4        1458        1459        1510        1509
         4        1459        1460        1511        1510
         4        1460        1461        1512        1511
         4        1461        1462        1513        1512
         4        1462        1463        1514        1513
         4        1463        1464        1515        1514
         4        1464        1465        1516        1515
         4        1465        1466        1517        1516
         4        1466        1467        1518        1517
         4        1467        1468        1519        1518
         4        1468        1469        1520        1519
         4        1469        1470        1521        1520
         4        1470        1471        1522        1521
         4        1471        1472        1523        1522
         4        1472        1473        1524        1523
         4        1473        1474        1525        1524
         4        1474        1475        1526        1525
         4        1475        1476        1527        1526
         4        1476        1477        1528        1527
         4        1477        1478        1529        1528
         4        1479        1480        1531        1530
         4        1480        1481        1532        1531
         4        1481        1482        1533        1532
         4        1482        1483        1534        1533
         4        1483        1484        1535        1534
         4        1484        1485        1536        1535
         4        1485        1486        1537        1536
         4        1486        1487        1538        1537
         4        1487        1488        1539        1538
         4        1488        1489        1540        1539
         4        1489        1490        1541        1540
         4        1490        1491        1542        1541
         4        1491        1492        1543        1542
         4        1492        1493        1544        1543
         4        1493        1494        1545        1544
         4        1494        1495        1546        1545
         4        1495        1496        1547        1546
         4        1496        1497        1548        1547
         4        1497        1498        1549        1548
         4        1498        1499        1550        1549
         4        1499        1500        1551        1550
         4        1500        1501        1552        1551
         4        1501        1502        1553        1552
         4        1502        1503        1554        1553
         4        1503        1504        1555        1554
         4        1504        1505        1556        1555
         4        1505        1506        1557        1556
         4        1506        1507        1558        1557
         4        1507        1508        1559        1558
         4        1508        1509        1560        1559
         4        1509        1510        1561        1560
         4        1510        1511        1562        1561
         4        1511        1512        1563        1562
         4        1512        1513        1564        1563
         4        1513        1514        1565        1564
         4        1514        1515        1566        1565
         4        1515        1516        1567        1566
         4        1516        1517        1568        1567
         4        1517        1518        1569        1568
         4        1518        1519        1570        1569
         4        1519        1520        1571        1570
         4        1520        1521        1572        1571
         4        1521        1522        1573        1572
         4        1522        1523        1574        1573
         4        1523        1524        1575        1574
         4        1524        1525        1576        1575
         4        1525        1526        1577        1576
         4        1526        1527        1578        1577
         4        1527        1528        1579        1578
         4        1528        1529        1580        1579
         4        1530        1531        1582        1581
         4        1531        1532        1583        1582
         4        1532        1533        1584        1583
         4        1533        1534        1585        1584
         4        1534        1535        1586        1585
         4        1535        1536        1587        1586
         4        1536        1537        1588        1587
         4        1537        1538        1589        1588
         4        1538        1539        1590        1589
         4        1539        1540        1591        1590
         4        1540        1541        1592        1591
         4        1541        1542        1593        1592
         4        1542        1543        1594        1593
         4        1543        1544        1595        1594
         4        1544        1545        1596        1595
         4        1545        1546        1597        1596
         4        1546        1547        1598        1597
         4        1547        1548        1599        1598
         4        1548        1549        1600        1599
         4        1549        1550        1601        1600
         4        1550        1551        1602        1601
         4        1551        1552        1603        1602
         4        1552        1553        1604        1603
         4        1553        1554        1605        1604
         4        1554        1555        1606        1605
         4        1555        1556        1607        1606
         4        1556        1557        1608        1607
         4        1557        1558        1609        1608
         4        1558        1559        1610        1609
         4        1559        1560        1611        1610
         4        1560        1561        1612        1611
         4        1561        1562        1613        1612
         4        1562        1563        1614        1613
         4        1563        1564        1615        1614
         4        1564        1565        1616        1615
         4        1565        1566        1617        1616
         4        1566        1567        1618        1617
         4        1567        1568        1619        1618
         4        1568        1569        1620        1619
         4        1569        1570        1621        1620
         4        1570        1571        1622        1621
         4        1571        1572        1623        1622
         4        1572        1573        1624        1623
         4        1573        1574        1625        1624
         4        1574        1575        1626        1625
         4        1575        1576        1627        1626
         4        1576        1577        1628        1627
         4        1577        1578        1629        1628
         4        1578        1579        1630        1629
         4        1579        1580        1631        1630
         4        1581        1582        1633        1632
         4        1582        1583        1634        1633
         4        1583        1584        1635        1634
         4        1584        1585        1636        1635
         4        1585        1586        1637        1636
         4        1586        1587        1638        1637
         4        1587        1588        1639        1638
         4        1588        1589        1640        1639
         4        1589        1590        1641        1640
         4        1590        1591        1642        1641
         4        1591        1592        1643        1642
         4        1592        1593        1644        1643
         4        1593        1594        1645        1644
         4        1594        1595        1646        1645
         4        1595        1596        1647        1646
         4        1596        1597        1648        1647
         4        1597        1598        1649        1648
         4        1598        1599        1650        1649
         4        1599        1600        1651        1650
         4        1600        1601        1652        1651
         4        1601        1602        1653        1652
         4        1602        1603        1654        1653
         4        1603        1604        1655        1654
         4        1604        1605        1656        1655
         4        1605        1606        1657        1656
         4        1606        1607        1658        1657
         4        1607        1608        1659        1658
         4        1608        1609        1660        1659
         4        1609        1610        1661        1660
         4        1610        1611        1662        1661
         4        1611        1612        1663        1662
         4        1612        1613        1664        1663
         4        1613        1614        1665        1664
         4        1614        1615        1666        1665
         4        1615        1616        1667        1666
         4        1616        1617        1668        1667
         4        1617        1618        1669        1668
         4        1618        1619        1670        1669
         4        1619        1620        1671        1670
         4        1620        1621        1672        1671
         4        1621        1622        1673        1672
         4        1622        1623        1674        1673
         4        1623        1624        1675        1674
         4        1624        1625        1676        1675
         4        1625        1626        1677        1676
         4        1626        1627        1678        1677
         4        1627        1628        1679        1678
         4        1628        1629        1680        1679
         4        1629        1630        1681        1680
         4        1630        1631        1682        1681
         4        1632        1633        1684        1683
         4        1633        1634        1685        1684
         4        1634        1635        1686        1685
         4        1635        1636        1687        1686
         4        1636        1637        1688        1687
         4        1637        1638        1689        1688
         4        1638        1639        1690        1689
         4        1639        1640        1691        1690
         4        1640        1641        1692        1691
         4        1641        1642        1693        1692
         4        1642        1643        1694        1693
         4        1643        1644        1695        1694
         4        1644        1645        1696        1695
         4        1645        1646        1697        1696
         4        1646        1647        1698        1697
         4        1647        1648        1699        1698
         4        1648        1649        1700        1699
         4        1649        1650        1701        1700
         4        1650        1651        1702        1701
         4        1651        1652        1703        1702
         4        1652        1653        1704        1703
         4        1653        1654        1705        1704
         4        1654        1655        1706        1705
         4        1655        1656        1707        1706
         4        1656        1657        1708        1707
         4        1657        1658        1709        1708
         4        1658        1659        1710        1709
         4        1659        1660        1711        1710
         4        1660        1661        1712        1711
         4        1661        1662        1713        1712
         4        1662        1663        1714        1713
         4        1663        1664        1715        1714
         4        1664        1665        1716        1715
         4        1665        1666        1717        1716
         4        1666        1667        1718        1717
         4        1667        1668        1719        1718
         4        1668        1669        1720        1719
         4        1669        1670        1721        1720
         4        1670        1671        1722        1721
         4        1671        1672        1723        1722
         4        1672        1673        1724        1723
         4        1673        1674        1725        1724
         4        1674        1675        1726        1725
         4        1675        1676        1727        1726
         4        1676        1677        1728        1727
         4        1677        1678        1729        1728
         4        1678        1679        1730        1729
         4        1679        1680        1731        1730
         4        1680        1681        1732        1731
         4        1681        1682        1733        1732
         4        1683        1684        1735        1734
         4        1684        1685        1736        1735
         4        1685        1686        1737        1736
         4        1686        1687        1738        1737
         4        1687        1688        1739        1738
         4        1688        1689        1740        1739
         4        1689        1690        1741        1740
         4        1690        1691        1742        1741
         4        1691        1692        1743        1742
         4        1692        1693        1744        1743
         4        1693        1694        1745        1744
         4        1694        1695        1746        1745
         4        1695        1696        1747        1746
         4        1696        1697        1748        1747
         4        1697        1698        1749        1748
         4        1698        1699        1750        1749
         4        1699        1700        1751        1750
         4        1700        1701        1752        1751
         4        1701        1702        1753        1752
         4        1702        1703        1754        1753
         4        1703        1704        1755        1754
         4        1704        1705        1756        1755
         4        1705        1706        1757        1756
         4        1706        1707        1758        1757
         4        1707        1708        1759        1758
         4        1708        1709        1760        1759
         4        1709        1710        1761        1760
         4        1710        1711        1762        1761
         4        1711        1712        1763        1762
         4        1712        1713        1764        1763
         4        1713        1714        1765        1764
         4        1714        1715        1766        1765
         4        1715        1716        1767        1766
         4        1716        1717        1768        1767
         4        1717        1718        1769        1768
         4        1718        1719        1770        1769
         4        1719        1720        1771        1770
         4        1720        1721        1772        1771
         4        1721        1722        1773        1772
         4        1722        1723        1774        1773
         4        1723        1724        1775        1774
         4        1724        1725        1776        1775
         4        1725        1726        1777        1776
         4        1726        1727        1778        1777
         4        1727        1728        1779        1778
         4        1728        1729        1780        1779
         4        1729        1730        1781        1780
         4        1730        1731        1782        1781
         4        1731        1732        1783        1782
         4        1732        1733        1784        1783
         4        1734        1735        1786        1785
         4        1735        1736        1787        1786
         4        1736        1737        1788        1787
         4        1737        1738        1789        1788
         4        1738        1739        1790        1789
         4        1739        1740        1791        1790
         4        1740        1741        1792        1791
         4        1741        1742        1793        1792
         4        1742        1743        1794        1793
         4        1743        1744        1795        1794
         4        1744        1745        1796        1795
         4        1745        1746        1797        1796
         4        1746        1747        1798        1797
         4        1747        1748        1799        1798
         4        1748        1749        1800        1799
         4        1749        1750        1801        1800
         4        1750        1751        1802        1801
         4        1751        1752        1803        1802
         4        1752        1753        1804        1803
         4        1753        1754        1805        1804
         4        1754        1755        1806        1805
         4        1755        1756        1807        1806
         4        1756        1757        1808        1807
         4        1757        1758        1809        1808
         4        1758        1759        1810        1809
         4        1759        1760        1811        1810
         4        1760        1761        1812        1811
         4        1761        1762        1813        1812
         4        1762        1763        1814        1813
         4        1763        1764        1815        1814
         4        1764        1765        1816        1815
         4        1765        1766        1817        1816
         4        1766        1767        1818        1817
         4        1767        1768        1819        1818
         4        1768        1769        1820        1819
         4        1769        1770        1821        1820
         4        1770        1771        1822        1821
         4        1771        1772        1823        1822
         4        1772        1773        1824        1823
         4        1773        1774        1825        1824
         4        1774        1775        1826        1825
         4        1775        1776        1827        1826
         4        1776        1777        1828        1827
         4        1777        1778        1829        1828
         4        1778        1779        1830        1829
         4        1779        1780        1831        1830
         4        1780        1781        1832        1831
         4        1781        1782        1833        1832
         4        1782        1783        1834        1833
         4        1783        1784        1835        1834
         4        1785        1786        1837        1836
         4        1786        1787        1838        1837
         4        1787        1788        1839        1838
         4        1788        1789        1840        1839
         4        1789        1790        1841        1840
         4        1790        1791        1842        1841
         4        1791        1792        1843        1842
         4        1792        1793        1844        1843
         4        1793        1794        1845        1844
         4        1794        1795        1846        1845
         4        1795        1796        1847        1846
         4        1796        1797        1848        1847
         4        1797        1798        1849        1848
         4        1798        1799        1850        1849
         4        1799        1800        1851        1850
         4        1800        1801        1852        1851
         4        1801        1802        1853        1852
         4        1802        1803        1854        1853
         4        1803        1804        1855        1854
         4        1804        1805        1856        1855
         4        1805        1806        1857        1856
         4        1806        1807        1858        1857
         4        1807        1808        1859        1858
         4        1808        1809        1860        1859
         4        1809        1810        1861        1860
         4        1810        1811        1862        1861
         4        1811        1812        1863        1862
         4        1812        1813        1864        1863
         4        1813        1814        1865        1864
         4        1814        1815        1866        1865
         4        1815        1816        1867        1866
         4        1816        1817        1868        1867
         4        1817        1818        1869        1868
         4        1818        1819        1870        1869
         4        1819        1820        1871        1870
         4        1820        1821        1872        1871
         4        1821        1822        1873        1872
         4        1822        1823        1874        1873
         4        1823        1824        1875        1874
         4        1824        1825        1876        1875
         4        1825        1826        1877        1876
         4        1826        1827        1878        1877
         4        1827        1828        1879        1878
         4        1828        1829        1880        1879
         4        1829        1830        1881        1880
         4        1830        1831        1882        1881
         4        1831        1832        1883        1882
         4        1832        1833        1884        1883
         4        1833        1834        1885        1884
         4        1834        1835        1886        1885
         4        1836        1837        1888        1887
         4        1837        1838        1889        1888
         4        1838        1839        1890        1889
         4        1839        1840        1891        1890
         4        1840        1841        1892        1891
         4        1841        1842        1893        1892
         4        1842        1843        1894        1893
         4        1843        1844        1895        1894
         4        1844        1845        1896        1895
         4        1845        1846        1897        1896
         4        1846        1847        1898        1897
         4        1847        1848        1899        1898
         4        1848        1849        1900        1899
         4        1849        1850        1901        1900
         4        1850        1851        1902        1901
         4        1851        1852        1903        1902
         4        1852        1853        1904        1903
         4        1853        1854        1905        1904
         4        1854        1855        1906        1905
         4        1855        1856        1907        1906
         4        1856        1857        1908        1907
         4        1857        1858        1909        1908
         4        1858        1859        1910        1909
         4        1859        1860        1911        1910
         4        1860        1861        1912        1911
         4        1861        1862        1913        1912
         4        1862        1863        1914        1913
         4        1863        1864        1915        1914
         4        1864        1865        1916        1915
         4        1865        1866        1917        1916
         4        1866        1867        1918        1917
         4        1867        1868        1919        1918
         4        1868        1869        1920        1919
         4        1869        1870        1921        1920
         4        1870        1871        1922        1921
         4        1871        1872        1923        1922
         4        1872        1873        1924        1923
         4        1873        1874        1925        1924
         4        1874        1875        1926        1925
         4        1875        1876        1927        1926
         4        1876        1877        1928        1927
         4        1877        1878        1929        1928
         4        1878        1879        1930        1929
         4        1879        1880        1931        1930
         4        1880        1881        1932        1931
         4        1881        1882        1933        1932
         4        1882        1883        1934        1933
         4        1883        1884        1935        1934
         4        1884        1885        1936        1935
         4        1885        1886        1937        1936
         4        1887        1888        1939        1938
         4        1888        1889        1940        1939
         4        1889        1890        1941        1940
         4        1890        1891        1942        1941
         4        1891        1892        1943        1942
         4        1892        1893        1944        1943
         4        1893        1894        1945        1944
         4        1894        1895        1946        1945
         4        1895        1896        1947        1946
         4        1896        1897        1948        1947
         4        1897        1898        1949        1948
         4        1898        1899        1950        1949
         4        1899        1900        1951        1950
         4        1900        1901        1952        1951
         4        1901        1902        1953        1952
         4        1902        1903        1954        1953
         4        1903        1904        1955        1954
         4        1904        1905        1956        1955
         4        1905        1906        1957        1956
         4        1906        1907        1958        1957
         4        1907        1908        1959        1958
         4        1908        1909        1960        1959
         4        1909        1910        1961        1960
         4        1910        1911        1962        1961
         4        1911        1912        1963        1962
         4        1912        1913        1964        1963
         4        1913        1914        1965        1964
         4        1914        1915        1966        1965
         4        1915        1916        1967        1966
         4        1916        1917        1968        1967
         4        1917        1918        1969        1968
         4        1918        1919        1970        1969
         4        1919        1920        1971        1970
         4        1920        1921        1972        1971
         4        1921        1922        1973        1972
         4        1922        1923        1974        1973
         4        1923        1924        1975        1974
         4        1924        1925        1976        1975
         4        1925        1926        1977        1976
         4        1926        1927        1978        1977
         4        1927        1928        1979        1978
         4        1928        1929        1980        1979
         4        1929        1930        1981        1980
         4        1930        1931        1982        1981
         4        1931        1932        1983        1982
         4        1932        1933        1984        1983
         4        1933        1934        1985        1984
         4        1934        1935        1986        1985
         4        1935        1936        1987        1986
         4        1936        1937        1988        1987
         4        1938        1939        1990        1989
         4        1939        1940        1991        1990
         4        1940        1941        1992        1991
         4        1941        1942        1993        1992
         4        1942        1943        1994        1993
         4        1943        1944        1995        1994
         4        1944        1945        1996        1995
         4        1945        1946        1997        1996
         4        1946        1947        1998        1997
         4        1947        1948        1999        1998
         4        1948        1949        2000        1999
         4        1949        1950        2001        2000
         4        1950        1951        2002        2001
         4        1951        1952        2003        2002
         4        1952        1953        2004        2003
         4        1953        1954        2005        2004
         4        1954        1955        2006        2005
         4        1955        1956        2007        2006
         4        1956        1957        2008        2007
         4        1957        1958        2009        2008
         4        1958        1959        2010        2009
         4        1959        1960        2011        2010
         4        1960        1961        2012        2011
         4        1961        1962        2013        2012
         4        1962        1963        2014        2013
         4        1963        1964        2015        2014
         4        1964        1965        2016        2015
         4        1965        1966        2017        2016
         4        1966        1967        2018        2017
         4        1967        1968        2019        2018
         4        1968        1969        2020        2019
         4        1969        1970        2021        2020
         4        1970        1971        2022        2021
         4        1971        1972        2023        2022
         4        1972        1973        2024        2023
         4        1973        1974        2025        2024
         4        1974        1975        2026        2025
         4        1975        1976        2027        2026
         4        1976        1977        2028        2027
         4        1977        1978        2029        2028
         4        1978        1979        2030        2029
         4        1979        1980        2031        2030
         4        1980        1981        2032        2031
         4        1981        1982        2033        2032
         4        1982        1983        2034        2033
         4        1983        1984        2035        2034
         4        1984        1985        2036        2035
         4        1985        1986        2037        2036
         4        1986        1987        2038        2037
         4        1987        1988        2039        2038
         4        1989        1990        2041        2040
         4        1990        1991        2042        2041
         4        1991        1992        2043        2042
         4        1992        1993        2044        2043
         4        1993        1994        2045        2044
         4        1994        1995        2046        2045
         4        1995        1996        2047        2046
         4        1996        1997        2048        2047
         4        1997        1998        2049        2048
         4        1998        1999        2050        2049
         4        1999        2000        2051        2050
         4        2000        2001        2052        2051
         4        2001        2002        2053        2052
         4        2002        2003        2054        2053
         4        2003        2004        2055        2054
         4        2004        2005        2056        2055
         4        2005        2006        2057        2056
         4        2006        2007        2058        2057
         4        2007        2008        2059        2058
         4        2008        2009        2060        2059
         4        2009        2010        2061        2060
         4        2010        2011        2062        2061
         4        2011        2012        2063        2062
         4        2012        2013        2064        2063
         4        2013        2014        2065        2064
         4        2014        2015        2066        2065
         4        2015        2016        2067        2066
         4        2016        2017        2068        2067
         4        2017        2018        2069        2068
         4        2018        2019        2070        2069
         4        2019        2020        2071        2070
         4        2020        2021        2072        2071
         4        2021        2022        2073        2072
         4        2022        2023        2074        2073
         4        2023        2024        2075        2074
         4        2024        2025        2076        2075
         4        2025        2026        2077        2076
         4        2026        2027        2078        2077
         4        2027        2028        2079        2078
         4        2028        2029        2080        2079
         4        2029        2030        2081        2080
         4        2030        2031        2082        2081
         4        2031        2032        2083        2082
         4        2032        2033        2084        2083
         4        2033        2034        2085        2084
         4        2034        2035        2086        2085
         4        2035        2036        2087        2086
         4        2036        2037        2088        2087
         4        2037        2038        2089        2088
         4        2038        2039        2090        2089
         4        2040        2041        2092        2091
         4        2041        2042        2093        2092
         4        2042        2043        2094        2093
         4        2043        2044        2095        2094
         4        2044        2045        2096        2095
         4        2045        2046        2097        2096
         4        2046        2047        2098        2097
         4        2047        2048        2099        2098
         4        2048        2049        2100        2099
         4        2049        2050        2101        2100
         4        2050        2051        2102        2101
         4        2051        2052        2103        2102
         4        2052        2053        2104        2103
         4        2053        2054        2105        2104
         4        2054        2055        2106        2105
         4        2055        2056        2107        2106
         4        2056        2057        2108        2107
         4        2057        2058        2109        2108
         4        2058        2059        2110        2109
         4        2059        2060        2111        2110
         4        2060        2061        2112        2111
         4        2061        2062        2113        2112
         4        2062        2063        2114        2113
         4        2063        2064        2115        2114
         4        2064        2065        2116        2115
         4        2065        2066        2117        2116
         4        2066        2067        2118        2117
         4        2067        2068        2119        2118
         4        2068        2069        2120        2119
         4        2069        2070        2121        2120
         4        2070        2071        2122        2121
         4        2071        2072        2123        2122
         4        2072        2073        2124        2123
         4        2073        2074        2125        2124
         4        2074        2075        2126        2125
         4        2075        2076        2127        2126
         4        2076        2077        2128        2127
         4        2077        2078        2129        2128
         4        2078        2079        2130        2129
         4        2079        2080        2131        2130
         4        2080        2081        2132        2131
         4        2081        2082        2133        2132
         4        2082        2083        2134        2133
         4        2083        2084        2135        2134
         4        2084        2085        2136        2135
         4        2085        2086        2137        2136
         4        2086        2087        2138        2137
         4        2087        2088        2139        2138
         4        2088        2089        2140        2139
         4        2089        2090        2141        2140
         4        2091        2092        2143        2142
         4        2092        2093        2144        2143
         4        2093        2094        2145        2144
         4        2094        2095        2146        2145
         4        2095        2096        2147        2146
         4        2096        2097        2148        2147
         4        2097        2098        2149        2148
         4        2098        2099        2150        2149
         4        2099        2100        2151        2150
         4        2100        2101        2152        2151
         4        2101        2102        2153        2152
         4        2102        2103        2154        2153
         4        2103        2104        2155        2154
         4        2104        2105        2156        2155
         4        2105        2106        2157        2156
         4        2106        2107        2158        2157
         4        2107        2108        2159        2158
         4        2108        2109        2160        2159
         4        2109        2110        2161        2160
         4        2110        2111        2162        2161
         4        2111        2112        2163        2162
         4        2112        2113        2164        2163
         4        2113        2114        2165        2164
         4        2114        2115        2166        2165
         4        2115        2116        2167        2166
         4        2116        2117        2168        2167
         4        2117        2118        2169        2168
         4        2118        2119        2170        2169
         4        2119        2120        2171        2170
         4        2120        2121        2172        2171
         4        2121        2122        2173        2172
         4        2122        2123        2174        2173
         4        2123        2124        2175        2174
         4        2124        2125        2176        2175
         4        2125        2126        2177        2176
         4        2126        2127        2178        2177
         4        2127        2128        2179        2178
         4        2128        2129        2180        2179
         4        2129        2130        2181        2180
         4        2130        2131        2182        2181
         4        2131        2132        2183        2182
         4        2132        2133        2184        2183
         4        2133        2134        2185        2184
         4        2134        2135        2186        2185
         4        2135        2136        2187        2186
         4        2136        2137        2188        2187
         4        2137        2138        2189        2188
         4        2138        2139        2190        2189
         4        2139        2140        2191        2190
         4        2140        2141        2192        2191
         4        2142        2143        2194        2193
         4        2143        2144        2195        2194
         4        2144        2145        2196        2195
         4        2145        2146        2197        2196
         4        2146        2147        2198        2197
         4        2147        2148        2199        2198
         4        2148        2149        2200        2199
         4        2149        2150        2201        2200
         4        2150        2151        2202        2201
         4        2151        2152        2203        2202
         4        2152        2153        2204        2203
         4        2153        2154        2205        2204
         4        2154        2155        2206        2205
         4        2155        2156        2207        2206
         4        2156        2157        2208        2207
         4        2157        2158        2209        2208
         4        2158        2159        2210        2209
         4        2159        2160        2211        2210
         4        2160        2161        2212        2211
         4        2161        2162        2213        2212
         4        2162        2163        2214        2213
         4        2163        2164        2215        2214
         4        2164        2165        2216        2215
         4        2165        2166        2217        2216
         4        2166        2167        2218        2217
         4        2167        2168        2219        2218
         4        2168        2169        2220        2219
         4        2169        2170        2221        2220
         4        2170        2171        2222        2221
         4        2171        2172        2223        2222
         4        2172        2173        2224        2223
         4        2173        2174        2225        2224
         4        2174        2175        2226        2225
         4        2175        2176        2227        2226
         4        2176        2177        2228        2227
         4        2177        2178        2229        2228
         4        2178        2179        2230        2229
         4        2179        2180        2231        2230
         4        2180        2181        2232        2231
         4        2181        2182        2233        2232
         4        2182        2183        2234        2233
         4        2183        2184        2235        2234
         4        2184        2185        2236        2235
         4        2185        2186        2237        2236
         4        2186        2187        2238        2237
         4        2187        2188        2239        2238
         4        2188        2189        2240        2239
         4        2189        2190        2241        2240
         4        2190        2191        2242        2241
         4        2191        2192        2243        2242
         4        2193        2194        2245        2244
         4        2194        2195        2246        2245
         4        2195        2196        2247        2246
         4        2196        2197        2248        2247
         4        2197        2198        2249        2248
         4        2198        2199        2250        2249
         4        2199        2200        2251        2250
         4        2200        2201        2252        2251
         4        2201        2202        2253        2252
         4        2202        2203        2254        2253
         4        2203        2204        2255        2254
         4        2204        2205        2256        2255
         4        2205        2206        2257        2256
         4        2206        2207        2258        2257
         4        2207        2208        2259        2258
         4        2208        2209        2260        2259
         4        2209        2210        2261        2260
         4        2210        2211        2262        2261
         4        2211        2212        2263        2262
         4        2212        2213        2264        2263
         4        2213        2214        2265        2264
         4        2214        2215        2266        2265
         4        2215        2216        2267        2266
         4        2216        2217        2268        2267
         4        2217        2218        2269        2268
         4        2218        2219        2270        2269
         4        2219        2220        2271        2270
         4        2220        2221        2272        2271
         4        2221        2222        2273        2272
         4        2222        2223        2274        2273
         4        2223        2224        2275        2274
         4        2224        2225        2276        2275
         4        2225        2226        2277        2276
         4        2226        2227        2278        2277
         4        2227        2228        2279        2278
         4        2228        2229        2280        2279
         4        2229        2230        2281        2280
         4        2230        2231        2282        2281
         4        2231        2232        2283        2282
         4        2232        2233        2284        2283
         4        2233        2234        2285        2284
         4        2234        2235        2286        2285
         4        2235        2236        2287        2286
         4        2236        2237        2288        2287
         4        2237        2238        2289        2288
         4        2238        2239        2290        2289
         4        2239        2240        2291        2290
         4        2240        2241        2292        2291
         4        2241        2242        2293        2292
         4        2242        2243        2294        2293
         4        2244        2245        2296        2295
         4        2245        2246        2297        2296
         4        2246        2247        2298        2297
         4        2247        2248        2299        2298
         4        2248        2249        2300        2299
         4        2249        2250        2301        2300
         4        2250        2251        2302        2301
         4        2251        2252        2303        2302
         4        2252        2253        2304        2303
         4        2253        2254        2305        2304
         4        2254        2255        2306        2305
         4        2255        2256        2307        2306
         4        2256        2257        2308        2307
         4        2257        2258        2309        2308
         4        2258        2259        2310        2309
         4        2259        2260        2311        2310
         4        2260        2261        2312        2311
         4        2261        2262        2313        2312
         4        2262        2263        2314        2313
         4        2263        2264        2315        2314
         4        2264        2265        2316        2315
         4        2265        2266        2317        2316
         4        2266        2267        2318        2317
         4        2267        2268        2319        2318
         4        2268        2269        2320        2319
         4        2269        2270        2321        2320
         4        2270        2271        2322        2321
         4        2271        2272        2323        2322
         4        2272        2273        2324        2323
         4        2273        2274        2325        2324
         4        2274        2275        2326        2325
         4        2275        2276        2327        2326
         4        2276        2277        2328        2327
         4        2277        2278        2329        2328
         4        2278        2279        2330        2329
         4        2279        2280        2331        2330
         4        2280        2281        2332        2331
         4        2281        2282        2333        2332
         4        2282        2283        2334        2333
         4        2283        2284        2335        2334
         4        2284        2285        2336        2335
         4        2285        2286        2337        2336
         4        2286        2287        2338        2337
         4        2287        2288        2339        2338
         4        2288        2289        2340        2339
         4        2289        2290        2341        2340
         4        2290        2291        2342        2341
         4        2291        2292        2343        2342
         4        2292        2293        2344        2343
         4        2293        2294        2345        2344
         4        2295        2296        2347        2346
         4        2296        2297        2348        2347
         4        2297        2298        2349        2348
         4        2298        2299        2350        2349
         4        2299        2300        2351        2350
         4        2300        2301        2352        2351
         4        2301        2302        2353        2352
         4        2302        2303        2354        2353
         4        2303        2304        2355        2354
         4        2304        2305        2356        2355
         4        2305        2306        2357        2356
         4        2306        2307        2358        2357
         4        2307        2308        2359        2358
         4        2308        2309        2360        2359
         4        2309        2310        2361        2360
         4        2310        2311        2362        2361
         4        2311        2312        2363        2362
         4        2312        2313        2364        2363
         4        2313        2314        2365        2364
         4        2314        2315        2366        2365
         4        2315        2316        2367        2366
         4        2316        2317        2368        2367
         4        2317        2318        2369        2368
         4        2318        2319        2370        2369
         4        2319        2320        2371        2370
         4        2320        2321        2372        2371
         4        2321        2322        2373        2372
         4        2322        2323        2374        2373
         4        2323        2324        2375        2374
         4        2324        2325        2376        2375
         4        2325        2326        2377        2376
         4        2326        2327        2378        2377
         4        2327        2328        2379        2378
         4        2328        2329        2380        2379
         4        2329        2330        2381        2380
         4        2330        2331        2382        2381
         4        2331        2332        2383        2382
         4        2332        2333        2384        2383
         4        2333        2334        2385        2384
         4        2334        2335        2386        2385
         4        2335        2336        2387        2386
         4        2336        2337        2388        2387
         4        2337        2338        2389        2388
         4        2338        2339        2390        2389
         4        2339        2340        2391        2390
         4        2340        2341        2392        2391
         4        2341        2342        2393        2392
         4        2342        2343        2394        2393
         4        2343        2344        2395        2394
         4        2344        2345        2396        2395
         4        2346        2347        2398        2397
         4        2347        2348        2399        2398
         4        2348        2349        2400        2399
         4        2349        2350        2401        2400
         4        2350        2351        2402        2401
         4        2351        2352        2403        2402
         4        2352        2353        2404        2403
         4        2353        2354        2405        2404
         4        2354        2355        2406        2405
         4        2355        2356        2407        2406
         4        2356        2357        2408        2407
         4        2357        2358        2409        2408
         4        2358        2359        2410        2409
         4        2359        2360        2411        2410
         4        2360        2361        2412        2411
         4        2361        2362        2413        2412
         4        2362        2363        2414        2413
         4        2363        2364        2415        2414
         4        2364        2365        2416        2415
         4        2365        2366        2417        2416
         4        2366        2367        2418        2417
         4        2367        2368        2419        2418
         4        2368        2369        2420        2419
         4        2369        2370        2421        2420
         4        2370        2371        2422        2421
         4        2371        2372        2423        2422
         4        2372        2373        2424        2423
         4        2373        2374        2425        2424
         4        2374        2375        2426        2425
         4        2375        2376        2427        2426
         4        2376        2377        2428        2427
         4        2377        2378        2429        2428
         4        2378        2379        2430        2429
         4        2379        2380        2431        2430
         4        2380        2381        2432        2431
         4        2381        2382        2433        2432
         4        2382        2383        2434        2433
         4        2383        2384        2435        2434
         4        2384        2385        2436        2435
         4        2385        2386        2437        2436
         4        2386        2387        2438        2437
         4        2387        2388        2439        2438
         4        2388        2389        2440        2439
         4        2389        2390        2441        2440
         4        2390        2391        2442        2441
         4        2391        2392        2443        2442
         4        2392        2393        2444        2443
         4        2393        2394        2445        2444
         4        2394        2395        2446        2445
         4        2395        2396        2447        2446
         4        2397        2398        2449        2448
         4        2398        2399        2450        2449
         4        2399        2400        2451        2450
         4        2400        2401        2452        2451
         4        2401        2402        2453        2452
         4        2402        2403        2454        2453
         4        2403        2404        2455        2454
         4        2404        2405        2456        2455
         4        2405        2406        2457        2456
         4        2406        2407        2458        2457
         4        2407        2408        2459        2458
         4        2408        2409        2460        2459
         4        2409        2410        2461        2460
         4        2410        2411        2462        2461
         4        2411        2412        2463        2462
         4        2412        2413        2464        2463
         4        2413        2414        2465        2464
         4        2414        2415        2466        2465
         4        2415        2416        2467        2466
         4        2416        2417        2468        2467
         4        2417        2418        2469        2468
         4        2418        2419        2470        2469
         4        2419        2420        2471        2470
         4        2420        2421        2472        2471
         4        2421        2422        2473        2472
         4        2422        2423        2474        2473
         4        2423        2424        2475        2474
         4        2424        2425        2476        2475
         4        2425        2426        2477        2476
         4        2426        2427        2478        2477
         4        2427        2428        2479        2478
         4        2428        2429        2480        2479
         4        2429        2430        2481        2480
         4        2430        2431        2482        2481
         4        2431        2432        2483        2482
         4        2432        2433        2484        2483
         4        2433        2434        2485        2484
         4        2434        2435        2486        2485
         4        2435        2436        2487        2486
         4        2436        2437        2488        2487
         4        2437        2438        2489        2488
         4        2438        2439        2490        2489
         4        2439        2440        2491        2490
         4        2440        2441        2492        2491
         4        2441        2442        2493        2492
         4        2442        2443        2494        2493
         4        2443        2444        2495        2494
         4        2444        2445        2496        2495
         4        2445        2446        2497        2496
         4        2446        2447        2498        2497
         4        2448        2449        2500        2499
         4        2449        2450        2501        2500
         4        2450        2451        2502        2501
         4        2451        2452        2503        2502
         4        2452        2453        2504        2503
         4        2453        2454        2505        2504
         4        2454        2455        2506        2505
         4        2455        2456        2507        2506
         4        2456        2457        2508        2507
         4        2457        2458        2509        2508
         4        2458        2459        2510        2509
         4        2459        2460        2511        2510
         4        2460        2461        2512        2511
         4        2461        2462        2513        2512
         4        2462        2463        2514        2513
         4        2463        2464        2515        2514
         4        2464        2465        2516        2515
         4        2465        2466        2517        2516
         4        2466        2467        2518        2517
         4        2467        2468        2519        2518
         4        2468        2469        2520        2519
         4        2469        2470        2521        2520
         4        2470        2471        2522        2521
         4        2471        2472        2523        2522
         4        2472        2473        2524        2523
         4        2473        2474        2525        2524
         4        2474        2475        2526        2525
         4        2475        2476        2527        2526
         4        2476        2477        2528        2527
         4        2477        2478        2529        2528
         4        2478        2479        2530        2529
         4        2479        2480        2531        2530
         4        2480        2481        2532        2531
         4        2481        2482        2533        2532
         4        2482        2483        2534        2533
         4        2483        2484        2535        2534
         4        2484        2485        2536        2535
         4        2485        2486        2537        2536
         4        2486        2487        2538        2537
         4        2487        2488        2539        2538
         4        2488        2489        2540        2539
         4        2489        2490        2541        2540
         4        2490        2491        2542        2541
         4        2491        2492        2543        2542
         4        2492        2493        2544        2543
         4        2493        2494        2545        2544
         4        2494        2495        2546        2545
         4        2495        2496        2547        2546
         4        2496        2497        2548        2547
         4        2497        2498        2549        2548
         4        2499        2500        2551        2550
         4        2500        2501        2552        2551
         4        2501        2502        2553        2552
         4        2502        2503        2554        2553
         4        2503        2504        2555        2554
         4        2504        2505        2556        2555
         4        2505        2506        2557        2556
         4        2506        2507        2558        2557
         4        2507        2508        2559        2558
         4        2508        2509        2560        2559
         4        2509        2510        2561        2560
         4        2510        2511        2562        2561
         4        2511        2512        2563        2562
         4        2512        2513        2564        2563
         4        2513        2514        2565        2564
         4        2514        2515        2566        2565
         4        2515        2516        2567        2566
         4        2516        2517        2568        2567
         4        2517        2518        2569        2568
         4        2518        2519        2570        2569
         4        2519        2520        2571        2570
         4        2520        2521        2572        2571
         4        2521        2522        2573        2572
         4        2522        2523        2574        2573
         4        2523        2524        2575        2574
         4        2524        2525        2576        2575
         4        2525        2526        2577        2576
         4        2526        2527        2578        2577
         4        2527        2528        2579        2578
         4        2528        2529        2580        2579
         4        2529        2530        2581        2580
         4        2530        2531        2582        2581
         4        2531        2532        2583        2582
         4        2532        2533        2584        2583
         4        2533        2534        2585        2584
         4        2534        2535        2586        2585
         4        2535        2536        2587        2586
         4        2536        2537        2588        2587
         4        2537        2538        2589        2588
         4        2538        2539        2590        2589
         4        2539        2540        2591        2590
         4        2540        2541        2592        2591
         4        2541        2542        2593        2592
         4        2542        2543        2594        2593
         4        2543        2544        2595        2594
         4        2544        2545        2596        2595
         4        2545        2546        2597        2596
         4        2546        2547        2598        2597
         4        2547        2548        2599        2598
         4        2548        2549        2600        2599
         4        2550        2551        2602        2601
         4        2551        2552        2603        2602
         4        2552        2553        2604        2603
         4        2553        2554        2605        2604
         4        2554        2555        2606        2605
         4        2555        2556        2607        2606
         4        2556        2557        2608        2607
         4        2557        2558        2609        2608
         4        2558        2559        2610        2609
         4        2559        2560        2611        2610
         4        2560        2561        2612        2611
         4        2561        2562        2613        2612
         4        2562        2563        2614        2613
         4        2563        2564        2615        2614
         4        2564        2565        2616        2615
         4        2565        2566        2617        2616
         4        2566        2567        2618        2617
         4        2567        2568        2619        2618
         4        2568        2569        2620        2619
         4        2569        2570        2621        2620
         4        2570        2571        2622        2621
         4        2571        2572        2623        2622
         4        2572        2573        2624        2623
         4        2573        2574        2625        2624
         4        2574        2575        2626        2625
         4        2575        2576        2627        2626
         4        2576        2577        2628        2627
         4        2577        2578        2629        2628
         4        2578        2579        2630        2629
         4        2579        2580        2631        2630
         4        2580        2581        2632        2631
         4        2581        2582        2633        2632
         4        2582        2583        2634        2633
         4        2583        2584        2635        2634
         4        2584        2585        2636        2635
         4        2585        2586        2637        2636
         4        2586        2587        2638        2637
         4        2587        2588        2639        2638
         4        2588        2589        2640        2639
         4        2589        2590        2641        2640
         4        2590        2591        2642        2641
         4        2591        2592        2643        2642
         4        2592        2593        2644        2643
         4        2593        2594        2645        2644
         4        2594        2595        2646        2645
         4        2595        2596        2647        2646
         4        2596        2597        2648        2647
         4        2597        2598        2649        2648
         4        2598        2599        2650        2649
         4        2599        2600        2651        2650
         4        2601        2602        2653        2652
         4        2602        2603        2654        2653
         4        2603        2604        2655        2654
         4        2604        2605        2656        2655
         4        2605        2606        2657        2656
         4        2606        2607        2658        2657
         4        2607        2608        2659        2658
         4        2608        2609        2660        2659
         4        2609        2610        2661        2660
         4        2610        2611        2662        2661
         4        2611        2612        2663        2662
         4        2612        2613        2664        2663
         4        2613        2614        2665        2664
         4        2614        2615        2666        2665
         4        2615        2616        2667        2666
         4        2616        2617        2668        2667
         4        2617        2618        2669        2668
         4        2618        2619        2670        2669
         4        2619        2620        2671        2670
         4        2620        2621        2672        2671
         4        2621        2622        2673        2672
         4        2622        2623        2674        2673
         4        2623        2624        2675        2674
         4        2624        2625        2676        2675
         4        2625        2626        2677        2676
         4        2626        2627        2678        2677
         4        2627        2628        2679        2678
         4        2628        2629        2680        2679
         4        2629        2630        2681        2680
         4        2630        2631        2682        2681
         4        2631        2632        2683        2682
         4        2632        2633        2684        2683
         4        2633        2634        2685        2684
         4        2634        2635        2686        2685
         4        2635        2636        2687        2686
         4        2636        2637        2688        2687
         4        2637        2638        2689        2688
         4        2638        2639        2690        2689
         4        2639        2640        2691        2690
         4        2640        2641        2692        2691
         4        2641        2642        2693        2692
         4        2642        2643        2694        2693
         4        2643        2644        2695        2694
         4        2644        2645        2696        2695
         4        2645        2646        2697        2696
         4        2646        2647        2698        2697
         4        2647        2648        2699        2698
         4        2648        2649        2700        2699
         4        2649        2650        2701        2700
         4        2650        2651        2702        2701
         4        2652        2653        2704        2703
         4        2653        2654        2705        2704
         4        2654        2655        2706        2705
         4        2655        2656        2707        2706
         4        2656        2657        2708        2707
         4        2657        2658        2709        2708
         4        2658        2659        2710        2709
         4        2659        2660        2711        2710
         4        2660        2661        2712        2711
         4        2661        2662        2713        2712
         4        2662        2663        2714        2713
         4        2663        2664        2715        2714
         4        2664        2665        2716        2715
         4        2665        2666        2717        2716
         4        2666        2667        2718        2717
         4        2667        2668        2719        2718
         4        2668        2669        2720        2719
         4        2669        2670        2721        2720
         4        2670        2671        2722        2721
         4        2671        2672        2723        2722
         4        2672        2673        2724        2723
         4        2673        2674        2725        2724
         4        2674        2675        2726        2725
         4        2675        2676        2727        2726
         4        2676        2677        2728        2727
         4        2677        2678        2729        2728
         4        2678        2679        2730        2729
         4        2679        2680        2731        2730
         4        2680        2681        2732        2731
         4        2681        2682        2733        2732
         4        2682        2683        2734        2733
         4        2683        2684        2735        2734
         4        2684        2685        2736        2735
         4        2685        2686        2737        2736
         4        2686        2687        2738        2737
         4        2687        2688        2739        2738
         4        2688        2689        2740        2739
         4        2689        2690        2741        2740
         4        2690        2691        2742        2741
         4        2691        2692        2743        2742
         4        2692        2693        2744        2743
         4        2693        2694        2745        2744
         4        2694        2695        2746        2745
         4        2695        2696        2747        2746
         4        2696        2697        2748        2747
         4        2697        2698        2749        2748
         4        2698        2699        2750        2749
         4        2699        2700        2751        2750
         4        2700        2701        2752        2751
         4        2701        2702        2753        2752
         4        2703        2704        2755        2754
         4        2704        2705        2756        2755
         4        2705        2706        2757        2756
         4        2706        2707        2758        2757
         4        2707        2708        2759        2758
         4        2708        2709        2760        2759
         4        2709        2710        2761        2760
         4        2710        2711        2762        2761
         4        2711        2712        2763        2762
         4        2712        2713        2764        2763
         4        2713        2714        2765        2764
         4        2714        2715        2766        2765
         4        2715        2716        2767        2766
         4        2716        2717        2768        2767
         4        2717        2718        2769        2768
         4        2718        2719        2770        2769
         4        2719        2720        2771        2770
         4        2720        2721        2772        2771
         4        2721        2722        2773        2772
         4        2722        2723        2774        2773
         4        2723        2724        2775        2774
         4        2724        2725        2776        2775
         4        2725        2726        2777        2776
         4        2726        2727        2778        2777
         4        2727        2728        2779        2778
         4        2728        2729        2780        2779
         4        2729        2730        2781        2780
         4        2730        2731        2782        2781
         4        2731        2732        2783        2782
         4        2732        2733        2784        2783
         4        2733        2734        2785        2784
         4        2734        2735        2786        2785
         4        2735        2736        2787        2786
         4        2736        2737        2788        2787
         4        2737        2738        2789        2788
         4        2738        2739        2790        2789
         4        2739        2740        2791        2790
         4        2740        2741        2792        2791
         4        2741        2742        2793        2792
         4        2742        2743        2794        2793
         4        2743        2744        2795        2794
         4        2744        2745        2796        2795
         4        2745        2746        2797        2796
         4        2746        2747        2798        2797
         4        2747        2748        2799        2798
         4        2748        2749        2800        2799
         4        2749        2750        2801        2800
         4        2750        2751        2802        2801
         4        2751        2752        2803        2802
         4        2752        2753        2804        2803
         4        2754        2755        2806        2805
         4        2755        2756        2807        2806
         4        2756        2757        2808        2807
         4        2757        2758        2809        2808
         4        2758        2759        2810        2809
         4        2759        2760        2811        2810
         4        2760        2761        2812        2811
         4        2761        2762        2813        2812
         4        2762        2763        2814        2813
         4        2763        2764        2815        2814
         4        2764        2765        2816        2815
         4        2765        2766        2817        2816
         4        2766        2767        2818        2817
         4        2767        2768        2819        2818
         4        2768        2769        2820        2819
         4        2769        2770        2821        2820
         4        2770        2771        2822        2821
         4        2771        2772        2823        2822
         4        2772        2773        2824        2823
         4        2773        2774        2825        2824
         4        2774        2775        2826        2825
         4        2775        2776        2827        2826
         4        2776        2777        2828        2827
         4        2777        2778        2829        2828
         4        2778        2779        2830        2829
         4        2779        2780        2831        2830
         4        2780        2781        2832        2831
         4        2781        2782        2833        2832
         4        2782        2783        2834        2833
         4        2783        2784        2835        2834
         4        2784        2785        2836        2835
         4        2785        2786        2837        2836
         4        2786        2787        2838        2837
         4        2787        2788        2839        2838
         4        2788        2789        2840        2839
         4        2789        2790        2841        2840
         4        2790        2791        2842        2841
         4        2791        2792        2843        2842
         4        2792        2793        2844        2843
         4        2793        2794        2845        2844
         4        2794        2795        2846        2845
         4        2795        2796        2847        2846
         4        2796        2797        2848        2847
         4        2797        2798        2849        2848
         4        2798        2799        2850        2849
         4        2799        2800        2851        2850
         4        2800        2801        2852        2851
         4        2801        2802        2853        2852
         4        2802        2803        2854        2853
         4        2803        2804        2855        2854
         4        2805        2806        2857        2856
         4        2806        2807        2858        2857
         4        2807        2808        2859        2858
         4        2808        2809        2860        2859
         4        2809        2810        2861        2860
         4        2810        2811        2862        2861
         4        2811        2812        2863        2862
         4        2812        2813        2864        2863
         4        2813        2814        2865        2864
         4        2814        2815        2866        2865
         4        2815        2816        2867        2866
         4        2816        2817        2868        2867
         4        2817        2818        2869        2868
         4        2818        2819        2870        2869
         4        2819        2820        2871        2870
         4        2820        2821        2872        2871
         4        2821        2822        2873        2872
         4        2822        2823        2874        2873
         4        2823        2824        2875        2874
         4        2824        2825        2876        2875
         4        2825        2826        2877        2876
         4        2826        2827        2878        2877
         4        2827        2828        2879        2878
         4        2828        2829        2880        2879
         4        2829        2830        2881        2880
         4        2830        2831        2882        2881
         4        2831        2832        2883        2882
         4        2832        2833        2884        2883
         4        2833        2834        2885        2884
         4        2834        2835        2886        2885
         4        2835        2836        2887        2886
         4        2836        2837        2888        2887
         4        2837        2838        2889        2888
         4        2838        2839        2890        2889
         4        2839        2840        2891        2890
         4        2840        2841        2892        2891
         4        2841        2842        2893        2892
         4        2842        2843        2894        2893
         4        2843        2844        2895        2894
         4        2844        2845        2896        2895
         4        2845        2846        2897        2896
         4        2846        2847        2898        2897
         4        2847        2848        2899        2898
         4        2848        2849        2900        2899
         4        2849        2850        2901        2900
         4        2850        2851        2902        2901
         4        2851        2852        2903        2902
         4        2852        2853        2904        2903
         4        2853        2854        2905        2904
         4        2854        2855        2906        2905
         4        2856        2857        2908        2907
         4        2857        2858        2909        2908
         4        2858        2859        2910        2909
         4        2859        2860        2911        2910
         4        2860        2861        2912        2911
         4        2861        2862        2913        2912
         4        2862        2863        2914        2913
         4        2863        2864        2915        2914
         4        2864        2865        2916        2915
         4        2865        2866        2917        2916
         4        2866        2867        2918        2917
         4        2867        2868        2919        2918
         4        2868        2869        2920        2919
         4        2869        2870        2921        2920
         4        2870        2871        2922        2921
         4        2871        2872        2923        2922
         4        2872        2873        2924        2923
         4        2873        2874        2925        2924
         4        2874        2875        2926        2925
         4        2875        2876        2927        2926
         4        2876        2877        2928        2927
         4        2877        2878        2929        2928
         4        2878        2879        2930        2929
         4        2879        2880        2931        2930
         4        2880        2881        2932        2931
         4        2881        2882        2933        2932
         4        2882        2883        2934        2933
         4        2883        2884        2935        2934
         4        2884        2885        2936        2935
         4        2885        2886        2937        2936
         4        2886        2887        2938        2937
         4        2887        2888        2939        2938
         4        2888        2889        2940        2939
         4        2889        2890        2941        2940
         4        2890        2891        2942        2941
         4        2891        2892        2943        2942
         4        2892        2893        2944        2943
         4        2893        2894        2945        2944
         4        2894        2895        2946        2945
         4        2895        2896        2947        2946
         4        2896        2897        2948        2947
         4        2897        2898        2949        2948
         4        2898        2899        2950        2949
         4        2899        2900        2951        2950
         4        2900        2901        2952        2951
         4        2901        2902        2953        2952
         4        2902        2903        2954        2953
         4        2903        2904        2955        2954
         4        2904        2905        2956        2955
         4        2905        2906        2957        2956
         4        2907        2908        2959        2958
         4        2908        2909        2960        2959
         4        2909        2910        2961        2960
         4        2910        2911        2962        2961
         4        2911        2912        2963        2962
         4        2912        2913        2964        2963
         4        2913        2914        2965        2964
         4        2914        2915        2966        2965
         4        2915        2916        2967        2966
         4        2916        2917        2968        2967
         4        2917        2918        2969        2968
         4        2918        2919        2970        2969
         4        2919        2920        2971        2970
         4        2920        2921        2972        2971
         4        2921        2922        2973        2972
         4        2922        2923        2974        2973
         4        2923        2924        2975        2974
         4        2924        2925        2976        2975
         4        2925        2926        2977        2976
         4        2926        2927        2978        2977
         4        2927        2928        2979        2978
         4        2928        2929        2980        2979
         4        2929        2930        2981        2980
         4        2930        2931        2982        2981
         4        2931        2932        2983        2982
         4        2932        2933        2984        2983
         4        2933        2934        2985        2984
         4        2934        2935        2986        2985
         4        2935        2936        2987        2986
         4        2936        2937        2988        2987
         4        2937        2938        2989        2988
         4        2938        2939        2990        2989
         4        2939        2940        2991        2990
         4        2940        2941        2992        2991
         4        2941        2942        2993        2992
         4        2942        2943        2994        2993
         4        2943        2944        2995        2994
         4        2944        2945        2996        2995
         4        2945        2946        2997        2996
         4        2946        2947        2998        2997
         4        2947        2948        2999        2998
         4        2948        2949        3000        2999
         4        2949        2950        3001        3000
         4        2950        2951        3002        3001
         4        2951        2952        3003        3002
         4        2952        2953        3004        3003
         4        2953        2954        3005        3004
         4        2954        2955        3006        3005
         4        2955        2956        3007        3006
         4        2956        2957        3008        3007
         4        2958        2959        3010        3009
         4        2959        2960        3011        3010
         4        2960        2961        3012        3011
         4        2961        2962        3013        3012
         4        2962        2963        3014        3013
         4        2963        2964        3015        3014
         4        2964        2965        3016        3015
         4        2965        2966        3017        3016
         4        2966        2967        3018        3017
         4        2967        2968        3019        3018
         4        2968        2969        3020        3019
         4        2969        2970        3021        3020
         4        2970        2971        3022        3021
         4        2971        2972        3023        3022
         4        2972        2973        3024        3023
         4        2973        2974        3025        3024
         4        2974        2975        3026        3025
         4        2975        2976        3027        3026
         4        2976        2977        3028        3027
         4        2977        2978        3029        3028
         4        2978        2979        3030        3029
         4        2979        2980        3031        3030
         4        2980        2981        3032        3031
         4        2981        2982        3033        3032
         4        2982        2983        3034        3033
         4        2983        2984        3035        3034
         4        2984        2985        3036        3035
         4        2985        2986        3037        3036
         4        2986        2987        3038        3037
         4        2987        2988        3039        3038
         4        2988        2989        3040        3039
         4        2989        2990        3041        3040
         4        2990        2991        3042        3041
         4        2991        2992        3043        3042
         4        2992        2993        3044        3043
         4        2993        2994        3045        3044
         4        2994        2995        3046        3045
         4        2995        2996        3047        3046
         4        2996        2997        3048        3047
         4        2997        2998        3049        3048
         4        2998        2999        3050        3049
         4        2999        3000        3051        3050
         4        3000        3001        3052        3051
         4        3001        3002        3053        3052
         4        3002        3003        3054        3053
         4        3003        3004        3055        3054
         4        3004        3005        3056        3055
         4        3005        3006        3057        3056
         4        3006        3007        3058        3057
         4        3007        3008        3059        3058
         4        3009        3010        3061        3060
         4        3010        3011        3062        3061
         4        3011        3012        3063        3062
         4        3012        3013        3064        3063
         4        3013        3014        3065        3064
         4        3014        3015        3066        3065
         4        3015        3016        3067        3066
         4        3016        3017        3068        3067
         4        3017        3018        3069        3068
         4        3018        3019        3070        3069
         4        3019        3020        3071        3070
         4        3020        3021        3072        3071
         4        3021        3022        3073        3072
         4        3022        3023        3074        3073
         4        3023        3024        3075        3074
         4        3024        3025        3076        3075
         4        3025        3026        3077        3076
         4        3026        3027        3078        3077
         4        3027        3028        3079        3078
         4        3028        3029        3080        3079
         4        3029        3030        3081        3080
         4        3030        3031        3082        3081
         4        3031        3032        3083        3082
         4        3032        3033        3084        3083
         4        3033        3034        3085        3084
         4        3034        3035        3086        3085
         4        3035        3036        3087        3086
         4        3036        3037        3088        3087
         4        3037        3038        3089        3088
         4        3038        3039        3090        3089
         4        3039        3040        3091        3090
         4        3040        3041        3092        3091
         4        3041        3042        3093        3092
         4        3042        3043        3094        3093
         4        3043        3044        3095        3094
         4        3044        3045        3096        3095
         4        3045        3046        3097        3096
         4        3046        3047        3098        3097
         4        3047        3048        3099        3098
         4        3048        3049        3100        3099
         4        3049        3050        3101        3100
         4        3050        3051        3102        3101
         4        3051        3052        3103        3102
         4        3052        3053        3104        3103
         4        3053        3054        3105        3104
         4        3054        3055        3106        3105
         4        3055        3056        3107        3106
         4        3056        3057        3108        3107
         4        3057        3058        3109        3108
         4        3058        3059        3110        3109
         4        3060        3061        3112        3111
         4        3061        3062        3113        3112
         4        3062        3063        3114        3113
         4        3063        3064        3115        3114
         4        3064        3065        3116        3115
         4        3065        3066        3117        3116
         4        3066        3067        3118        3117
         4        3067        3068        3119        3118
         4        3068        3069        3120        3119
         4        3069        3070        3121        3120
         4        3070        3071        3122        3121
         4        3071        3072        3123        3122
         4        3072        3073        3124        3123
         4        3073        3074        3125        3124
         4        3074        3075        3126        3125
         4        3075        3076        3127        3126
         4        3076        3077        3128        3127
         4        3077        3078        3129        3128
         4        3078        3079        3130        3129
         4        3079        3080        3131        3130
         4        3080        3081        3132        3131
         4        3081        3082        3133        3132
         4        3082        3083        3134        3133
         4        3083        3084        3135        3134
         4        3084        3085        3136        3135
         4        3085        3086        3137        3136
         4        3086        3087        3138        3137
         4        3087        3088        3139        3138
         4        3088        3089        3140        3139
         4        3089        3090        3141        3140
         4        3090        3091        3142        3141
         4        3091        3092        3143        3142
         4        3092        3093        3144        3143
         4        3093        3094        3145        3144
         4        3094        3095        3146        3145
         4        3095        3096        3147        3146
         4        3096        3097        3148        3147
         4        3097        3098        3149        3148
         4        3098        3099        3150        3149
         4        3099        3100        3151        3150
         4        3100        3101        3152        3151
         4        3101        3102        3153        3152
         4        3102        3103        3154        3153
         4        3103        3104        3155        3154
         4        3104        3105        3156        3155
         4        3105        3106        3157        3156
         4        3106        3107        3158        3157
         4        3107        3108        3159        3158
         4        3108        3109        3160        3159
         4        3109        3110        3161        3160
         4        3111        3112        3163        3162
         4        3112        3113        3164        3163
         4        3113        3114        3165        3164
         4        3114        3115        3166        3165
         4        3115        3116        3167        3166
         4        3116        3117        3168        3167
         4        3117        3118        3169        3168
         4        3118        3119        3170        3169
         4        3119        3120        3171        3170
         4        3120        3121        3172        3171
         4        3121        3122        3173        3172
         4        3122        3123        3174        3173
         4        3123        3124        3175        3174
         4        3124        3125        3176        3175
         4        3125        3126        3177        3176
         4        3126        3127        3178        3177
         4        3127        3128        3179        3178
         4        3128        3129        3180        3179
         4        3129        3130        3181        3180
         4        3130        3131        3182        3181
         4        3131        3132        3183        3182
         4        3132        3133        3184        3183
         4        3133        3134        3185        3184
         4        3134        3135        3186        3185
         4        3135        3136        3187        3186
         4        3136        3137        3188        3187
         4        3137        3138        3189        3188
         4        3138        3139        3190        3189
         4        3139        3140        3191        3190
         4        3140        3141        3192        3191
         4        3141        3142        3193        3192
         4        3142        3143        3194        3193
         4        3143        3144        3195        3194
         4        3144        3145        3196        3195
         4        3145        3146        3197        3196
         4        3146        3147        3198        3197
         4        3147        3148        3199        3198
         4        3148        3149        3200        3199
         4        3149        3150        3201        3200
         4        3150        3151        3202        3201
         4        3151        3152        3203        3202
         4        3152        3153        3204        3203
         4        3153        3154        3205        3204
         4        3154        3155        3206        3205
         4        3155        3156        3207        3206
         4        3156        3157        3208        3207
         4        3157        3158        3209        3208
         4        3158        3159        3210        3209
         4        3159        3160        3211        3210
         4        3160        3161        3212        3211
         4        3162        3163        3214        3213
         4        3163        3164        3215        3214
         4        3164        3165        3216        3215
         4        3165        3166        3217        3216
         4        3166        3167        3218        3217
         4        3167        3168        3219        3218
         4        3168        3169        3220        3219
         4        3169        3170        3221        3220
         4        3170        3171        3222        3221
         4        3171        3172        3223        3222
         4        3172        3173        3224        3223
         4        3173        3174        3225        3224
         4        3174        3175        3226        3225
         4        3175        3176        3227        3226
         4        3176        3177        3228        3227
         4        3177        3178        3229        3228
         4        3178        3179        3230        3229
         4        3179        3180        3231        3230
         4        3180        3181        3232        3231
         4        3181        3182        3233        3232
         4        3182        3183        3234        3233
         4        3183        3184        3235        3234
         4        3184        3185        3236        3235
         4        3185        3186        3237        3236
         4        3186        3187        3238        3237
         4        3187        3188        3239        3238
         4        3188        3189        3240        3239
         4        3189        3190        3241        3240
         4        3190        3191        3242        3241
         4        3191        3192        3243        3242
         4        3192        3193        3244        3243
         4        3193        3194        3245        3244
         4        3194        3195        3246        3245
         4        3195        3196        3247        3246
         4        3196        3197        3248        3247
         4        3197        3198        3249        3248
         4        3198        3199        3250        3249
         4        3199        3200        3251        3250
         4        3200        3201        3252        3251
         4        3201        3202        3253        3252
         4        3202        3203        3254        3253
         4        3203        3204        3255        3254
         4        3204        3205        3256        3255
         4        3205        3206        3257        3256
         4        3206        3207        3258        3257
         4        3207        3208        3259        3258
         4        3208        3209        3260        3259
         4        3209        3210        3261        3260
         4        3210        3211        3262        3261
         4        3211        3212        3263        3262
         4        3213        3214        3265        3264
         4        3214        3215        3266        3265
         4        3215        3216        3267        3266
         4        3216        3217        3268        3267
         4        3217        3218        3269        3268
         4        3218        3219        3270        3269
         4        3219        3220        3271        3270
         4        3220        3221        3272        3271
         4        3221        3222        3273        3272
         4        3222        3223        3274        3273
         4        3223        3224        3275        3274
         4        3224        3225        3276        3275
         4        3225        3226        3277        3276
         4        3226        3227        3278        3277
         4        3227        3228        3279        3278
         4        3228        3229        3280        3279
         4        3229        3230        3281        3280
         4        3230        3231        3282        3281
         4        3231        3232        3283        3282
         4        3232        3233        3284        3283
         4        3233        3234        3285        3284
         4        3234        3235        3286        3285
         4        3235        3236        3287        3286
         4        3236        3237        3288        3287
         4        3237        3238        3289        3288
         4        3238        3239        3290        3289
         4        3239        3240        3291        3290
         4        3240        3241        3292        3291
         4        3241        3242        3293        3292
         4        3242        3243        3294        3293
         4        3243        3244        3295        3294
         4        3244        3245        3296        3295
         4        3245        3246        3297        3296
         4        3246        3247        3298        3297
         4        3247        3248        3299        3298
         4        3248        3249        3300        3299
         4        3249        3250        3301        3300
         4        3250        3251        3302        3301
         4        3251        3252        3303        3302
         4        3252        3253        3304        3303
         4        3253        3254        3305        3304
         4        3254        3255        3306        3305
         4        3255        3256        3307        3306
         4        3256        3257        3308        3307
         4        3257        3258        3309        3308
         4        3258        3259        3310        3309
         4        3259        3260        3311        3310
         4        3260        3261        3312        3311
         4        3261        3262        3313        3312
         4        3262        3263        3314        3313
         4        3264        3265        3316        3315
         4        3265        3266        3317        3316
         4        3266        3267        3318        3317
         4        3267        3268        3319        3318
         4        3268        3269        3320        3319
         4        3269        3270        3321        3320
         4        3270        3271        3322        3321
         4        3271        3272        3323        3322
         4        3272        3273        3324        3323
         4        3273        3274        3325        3324
         4        3274        3275        3326        3325
         4        3275        3276        3327        3326
         4        3276        3277        3328        3327
         4        3277        3278        3329        3328
         4        3278        3279        3330        3329
         4        3279        3280        3331        3330
         4        3280        3281        3332        3331
         4        3281        3282        3333        3332
         4        3282        3283        3334        3333
         4        3283        3284        3335        3334
         4        3284        3285        3336        3335
         4        3285        3286        3337        3336
         4        3286        3287        3338        3337
         4        3287        3288        3339        3338
         4        3288        3289        3340        3339
         4        3289        3290        3341        3340
         4        3290        3291        3342        3341
         4        3291        3292        3343        3342
         4        3292        3293        3344        3343
         4        3293        3294        3345        3344
         4        3294        3295        3346        3345
         4        3295        3296        3347        3346
         4        3296        3297        3348        3347
         4        3297        3298        3349        3348
         4        3298        3299        3350        3349
         4        3299        3300        3351        3350
         4        3300        3301        3352        3351
         4        3301        3302        3353        3352
         4        3302        3303        3354        3353
         4        3303        3304        3355        3354
         4        3304        3305        3356        3355
         4        3305        3306        3357        3356
         4        3306        3307        3358        3357
         4        3307        3308        3359        3358
         4        3308        3309        3360        3359
         4        3309        3310        3361        3360
         4        3310        3311        3362        3361
         4        3311        3312        3363        3362
         4        3312        3313        3364        3363
         4        3313        3314        3365        3364
         4        3315        3316        3367        3366
         4        3316        3317        3368        3367
         4        3317        3318        3369        3368
         4        3318        3319        3370        3369
         4        3319        3320        3371        3370
         4        3320        3321        3372        3371
         4        3321        3322        3373        3372
         4        3322        3323        3374        3373
         4        3323        3324        3375        3374
         4        3324        3325        3376        3375
         4        3325        3326        3377        3376
         4        3326        3327        3378        3377
         4        3327        3328        3379        3378
         4        3328        3329        3380        3379
         4        3329        3330        3381        3380
         4        3330        3331        3382        3381
         4        3331        3332        3383        3382
         4        3332        3333        3384        3383
         4        3333        3334        3385        3384
         4        3334        3335        3386        3385
         4        3335        3336        3387        3386
         4        3336        3337        3388        3387
         4        3337        3338        3389        3388
         4        3338        3339        3390        3389
         4        3339        3340        3391        3390
         4        3340        3341        3392        3391
         4        3341        3342        3393        3392
         4        3342        3343        3394        3393
         4        3343        3344        3395        3394
         4        3344        3345        3396        3395
         4        3345        3346        3397        3396
         4        3346        3347        3398        3397
         4        3347        3348        3399        3398
         4        3348        3349        3400        3399
         4        3349        3350        3401        3400
         4        3350        3351        3402        3401
         4        3351        3352        3403        3402
         4        3352        3353        3404        3403
         4        3353        3354        3405        3404
         4        3354        3355        3406        3405
         4        3355        3356        3407        3406
         4        3356        3357        3408        3407
         4        3357        3358        3409        3408
         4        3358        3359        3410        3409
         4        3359        3360        3411        3410
         4        3360        3361        3412        3411
         4        3361        3362        3413        3412
         4        3362        3363        3414        3413
         4        3363        3364        3415        3414
         4        3364        3365        3416        3415
         4        3366        3367        3418        3417
         4        3367        3368        3419        3418
         4        3368        3369        3420        3419
         4        3369        3370        3421        3420
         4        3370        3371        3422        3421
         4        3371        3372        3423        3422
         4        3372        3373        3424        3423
         4        3373        3374        3425        3424
         4        3374        3375        3426        3425
         4        3375        3376        3427        3426
         4        3376        3377        3428        3427
         4        3377        3378        3429        3428
         4        3378        3379        3430        3429
         4        3379        3380        3431        3430
         4        3380        3381        3432        3431
         4        3381        3382        3433        3432
         4        3382        3383        3434        3433
         4        3383        3384        3435        3434
         4        3384        3385        3436        3435
         4        3385        3386        3437        3436
         4        3386        3387        3438        3437
         4        3387        3388        3439        3438
         4        3388        3389        3440        3439
         4        3389        3390        3441        3440
         4        3390        3391        3442        3441
         4        3391        3392        3443        3442
         4        3392        3393        3444        3443
         4        3393        3394        3445        3444
         4        3394        3395        3446        3445
         4        3395        3396        3447        3446
         4        3396        3397        3448        3447
         4        3397        3398        3449        3448
         4        3398        3399        3450        3449
         4        3399        3400        3451        3450
         4        3400        3401        3452        3451
         4        3401        3402        3453        3452
         4        3402        3403        3454        3453
         4        3403        3404        3455        3454
         4        3404        3405        3456        3455
         4        3405        3406        3457        3456
         4        3406        3407        3458        3457
         4        3407        3408        3459        3458
         4        3408        3409        3460        3459
         4        3409        3410        3461        3460
         4        3410        3411        3462        3461
         4        3411        3412        3463        3462
         4        3412        3413        3464        3463
         4        3413        3414        3465        3464
         4        3414        3415        3466        3465
         4        3415        3416        3467        3466
         4        3417        3418        3469        3468
         4        3418        3419        3470        3469
         4        3419        3420        3471        3470
         4        3420        3421        3472        3471
         4        3421        3422        3473        3472
         4        3422        3423        3474        3473
         4        3423        3424        3475        3474
         4        3424        3425        3476        3475
         4        3425        3426        3477        3476
         4        3426        3427        3478        3477
         4        3427        3428        3479        3478
         4        3428        3429        3480        3479
         4        3429        3430        3481        3480
         4        3430        3431        3482        3481
         4        3431        3432        3483        3482
         4        3432        3433        3484        3483
         4        3433        3434        3485        3484
         4        3434        3435        3486        3485
         4        3435        3436        3487        3486
         4        3436        3437        3488        3487
         4        3437        3438        3489        3488
         4        3438        3439        3490        3489
         4        3439        3440        3491        3490
         4        3440        3441        3492        3491
         4        3441        3442        3493        3492
         4        3442        3443        3494        3493
         4        3443        3444        3495        3494
         4        3444        3445        3496        3495
         4        3445        3446        3497        3496
         4        3446        3447        3498        3497
         4        3447        3448        3499        3498
         4        3448        3449        3500        3499
         4        3449        3450        3501        3500
         4        3450        3451        3502        3501
         4        3451        3452        3503        3502
         4        3452        3453        3504        3503
         4        3453        3454        3505        3504
         4        3454        3455        3506        3505
         4        3455        3456        3507        3506
         4        3456        3457        3508        3507
         4        3457        3458        3509        3508
         4        3458        3459        3510        3509
         4        3459        3460        3511        3510
         4        3460        3461        3512        3511
         4        3461        3462        3513        3512
         4        3462        3463        3514        3513
         4        3463        3464        3515        3514
         4        3464        3465        3516        3515
         4        3465        3466        3517        3516
         4        3466        3467        3518        3517
         4        3468        3469        3520        3519
         4        3469        3470        3521        3520
         4        3470        3471        3522        3521
         4        3471        3472        3523        3522
         4        3472        3473        3524        3523
         4        3473        3474        3525        3524
         4        3474        3475        3526        3525
         4        3475        3476        3527        3526
         4        3476        3477        3528        3527
         4        3477        3478        3529        3528
         4        3478        3479        3530        3529
         4        3479        3480        3531        3530
         4        3480        3481        3532        3531
         4        3481        3482        3533        3532
         4        3482        3483        3534        3533
         4        3483        3484        3535        3534
         4        3484        3485        3536        3535
         4        3485        3486        3537        3536
         4        3486        3487        3538        3537
         4        3487        3488        3539        3538
         4        3488        3489        3540        3539
         4        3489        3490        3541        3540
         4        3490        3491        3542        3541
         4        3491        3492        3543        3542
         4        3492        3493        3544        3543
         4        3493        3494        3545        3544
         4        3494        3495        3546        3545
         4        3495        3496        3547        3546
         4        3496        3497        3548        3547
         4        3497        3498        3549        3548
         4        3498        3499        3550        3549
         4        3499        3500        3551        3550
         4        3500        3501        3552        3551
         4        3501        3502        3553        3552
         4        3502        3503        3554        3553
         4        3503        3504        3555        3554
         4        3504        3505        3556        3555
         4        3505        3506        3557        3556
         4        3506        3507        3558        3557
         4        3507        3508        3559        3558
         4        3508        3509        3560        3559
         4        3509        3510        3561        3560
         4        3510        3511        3562        3561
         4        3511        3512        3563        3562
         4        3512        3513        3564        3563
         4        3513        3514        3565        3564
         4        3514        3515        3566        3565
         4        3515        3516        3567        3566
         4        3516        3517        3568        3567
         4        3517        3518        3569        3568
         4        3519        3520        3571        3570
         4        3520        3521        3572        3571
         4        3521        3522        3573        3572
         4        3522        3523        3574        3573
         4        3523        3524        3575        3574
         4        3524        3525        3576        3575
         4        3525        3526        3577        3576
         4        3526        3527        3578        3577
         4        3527        3528        3579        3578
         4        3528        3529        3580        3579
         4        3529        3530        3581        3580
         4        3530        3531        3582        3581
         4        3531        3532        3583        3582
         4        3532        3533        3584        3583
         4        3533        3534        3585        3584
         4        3534        3535        3586        3585
         4        3535        3536        3587        3586
         4        3536        3537        3588        3587
         4        3537        3538        3589        3588
         4        3538        3539        3590        3589
         4        3539        3540        3591        3590
         4        3540        3541        3592        3591
         4        3541        3542        3593        3592
         4        3542        3543        3594        3593
         4        3543        3544        3595        3594
         4        3544        3545        3596        3595
         4        3545        3546        3597        3596
         4        3546        3547        3598        3597
         4        3547        3548        3599        3598
         4        3548        3549        3600        3599
         4        3549        3550        3601        3600
         4        3550        3551        3602        3601
         4        3551        3552        3603        3602
         4        3552        3553        3604        3603
         4        3553        3554        3605        3604
         4        3554        3555        3606        3605
         4        3555        3556        3607        3606
         4        3556        3557        3608        3607
         4        3557        3558        3609        3608
         4        3558        3559        3610        3609
         4        3559        3560        3611        3610
         4        3560        3561        3612        3611
         4        3561        3562        3613        3612
         4        3562        3563        3614        3613
         4        3563        3564        3615        3614
         4        3564        3565        3616        3615
         4        3565        3566        3617        3616
         4        3566        3567        3618        3617
         4        3567        3568        3619        3618
         4        3568        3569        3620        3619
         4        3570        3571        3622        3621
         4        3571        3572        3623        3622
         4        3572        3573        3624        3623
         4        3573        3574        3625        3624
         4        3574        3575        3626        3625
         4        3575        3576        3627        3626
         4        3576        3577        3628        3627
         4        3577        3578        3629        3628
         4        3578        3579        3630        3629
         4        3579        3580        3631        3630
         4        3580        3581        3632        3631
         4        3581        3582        3633        3632
         4        3582        3583        3634        3633
         4        3583        3584        3635        3634
         4        3584        3585        3636        3635
         4        3585        3586        3637        3636
         4        3586        3587        3638        3637
         4        3587        3588        3639        3638
         4        3588        3589        3640        3639
         4        3589        3590        3641        3640
         4        3590        3591        3642        3641
         4        3591        3592        3643        3642
         4        3592        3593        3644        3643
         4        3593        3594        3645        3644
         4        3594        3595        3646        3645
         4        3595        3596        3647        3646
         4        3596        3597        3648        3647
         4        3597        3598        3649        3648
         4        3598        3599        3650        3649
         4        3599        3600        3651        3650
         4        3600        3601        3652        3651
         4        3601        3602        3653        3652
         4        3602        3603        3654        3653
         4        3603        3604        3655        3654
         4        3604        3605        3656        3655
         4        3605        3606        3657        3656
         4        3606        3607        3658        3657
         4        3607        3608        3659        3658
         4        3608        3609        3660        3659
         4        3609        3610        3661        3660
         4        3610        3611        3662        3661
         4        3611        3612        3663        3662
         4        3612        3613        3664        3663
         4        3613        3614        3665        3664
         4        3614        3615        3666        3665
         4        3615        3616        3667        3666
         4        3616        3617        3668        3667
         4        3617        3618        3669        3668
         4        3618        3619        3670        3669
         4        3619        3620        3671        3670
         4        3621        3622        3673        3672
         4        3622        3623        3674        3673
         4        3623        3624        3675        3674
         4        3624        3625        3676        3675
         4        3625        3626        3677        3676
         4        3626        3627        3678        3677
         4        3627        3628        3679        3678
         4        3628        3629        3680        3679
         4        3629        3630        3681        3680
         4        3630        3631        3682        3681
         4        3631        3632        3683        3682
         4        3632        3633        3684        3683
         4        3633        3634        3685        3684
         4        3634        3635        3686        3685
         4        3635        3636        3687        3686
         4        3636        3637        3688        3687
         4        3637        3638        3689        3688
         4        3638        3639        3690        3689
         4        3639        3640        3691        3690
         4        3640        3641        3692        3691
         4        3641        3642        3693        3692
         4        3642        3643        3694        3693
         4        3643        3644        3695        3694
         4        3644        3645        3696        3695
         4        3645        3646        3697        3696
         4        3646        3647        3698        3697
         4        3647        3648        3699        3698
         4        3648        3649        3700        3699
         4        3649        3650        3701        3700
         4        3650        3651        3702        3701
         4        3651        3652        3703        3702
         4        3652        3653        3704        3703
         4        3653        3654        3705        3704
         4        3654        3655        3706        3705
         4        3655        3656        3707        3706
         4        3656        3657        3708        3707
         4        3657        3658        3709        3708
         4        3658        3659        3710        3709
         4        3659        3660        3711        3710
         4        3660        3661        3712        3711
         4        3661        3662        3713        3712
         4        3662        3663        3714        3713
         4        3663        3664        3715        3714
         4        3664        3665        3716        3715
         4        3665        3666        3717        3716
         4        3666        3667        3718        3717
         4        3667        3668        3719        3718
         4        3668        3669        3720        3719
         4        3669        3670        3721        3720
         4        3670        3671        3722        3721
         4        3672        3673        3724        3723
         4        3673        3674        3725        3724
         4        3674        3675        3726        3725
         4        3675        3676        3727        3726
         4        3676        3677        3728        3727
         4        3677        3678        3729        3728
         4        3678        3679        3730        3729
         4        3679        3680        3731        3730
         4        3680        3681        3732        3731
         4        3681        3682        3733        3732
         4        3682        3683        3734        3733
         4        3683        3684        3735        3734
         4        3684        3685        3736        3735
         4        3685        3686        3737        3736
         4        3686        3687        3738        3737
         4        3687        3688        3739        3738
         4        3688        3689        3740        3739
         4        3689        3690        3741        3740
         4        3690        3691        3742        3741
         4        3691        3692        3743        3742
         4        3692        3693        3744        3743
         4        3693        3694        3745        3744
         4        3694        3695        3746        3745
         4        3695        3696        3747        3746
         4        3696        3697        3748        3747
         4        3697        3698        3749        3748
         4        3698        3699        3750        3749
         4        3699        3700        3751        3750
         4        3700        3701        3752        3751
         4        3701        3702        3753        3752
         4        3702        3703        3754        3753
         4        3703        3704        3755        3754
         4        3704        3705        3756        3755
         4        3705        3706        3757        3756
         4        3706        3707        3758        3757
         4        3707        3708        3759        3758
         4        3708        3709        3760        3759
         4        3709        3710        3761        3760
         4        3710        3711        3762        3761
         4        3711        3712        3763        3762
         4        3712        3713        3764        3763
         4        3713        3714        3765        3764
         4        3714        3715        3766        3765
         4        3715        3716        3767        3766
         4        3716        3717        3768        3767
         4        3717        3718        3769        3768
         4        3718        3719        3770        3769
         4        3719        3720        3771        3770
         4        3720        3721        3772        3771
         4        3721        3722        3773        3772
         4        3723        3724        3775        3774
         4        3724        3725        3776        3775
         4        3725        3726        3777        3776
         4        3726        3727        3778        3777
         4        3727        3728        3779        3778
         4        3728        3729        3780        3779
         4        3729        3730        3781        3780
         4        3730        3731        3782        3781
         4        3731        3732        3783        3782
         4        3732        3733        3784        3783
         4        3733        3734        3785        3784
         4        3734        3735        3786        3785
         4        3735        3736        3787        3786
         4        3736        3737        3788        3787
         4        3737        3738        3789        3788
         4        3738        3739        3790        3789
         4        3739        3740        3791        3790
         4        3740        3741        3792        3791
         4        3741        3742        3793        3792
         4        3742        3743        3794        3793
         4        3743        3744        3795        3794
         4        3744        3745        3796        3795
         4        3745        3746        3797        3796
         4        3746        3747        3798        3797
         4        3747        3748        3799        3798
         4        3748        3749        3800        3799
         4        3749        3750        3801        3800
         4        3750        3751        3802        3801
         4        3751        3752        3803        3802
         4        3752        3753        3804        3803
         4        3753        3754        3805        3804
         4        3754        3755        3806        3805
         4        3755        3756        3807        3806
         4        3756        3757        3808        3807
         4        3757        3758        3809        3808
         4        3758        3759        3810        3809
         4        3759        3760        3811        3810
         4        3760        3761        3812        3811
         4        3761        3762        3813        3812
         4        3762        3763        3814        3813
         4        3763        3764        3815        3814
         4        3764        3765        3816        3815
         4        3765        3766        3817        3816
         4        3766        3767        3818        3817
         4        3767        3768        3819        3818
         4        3768        3769        3820        3819
         4        3769        3770        3821        3820
         4        3770        3771        3822        3821
         4        3771        3772        3823        3822
         4        3772        3773        3824        3823
         4        3774        3775        3826        3825
         4        3775        3776        3827        3826
         4        3776        3777        3828        3827
         4        3777        3778        3829        3828
         4        3778        3779        3830        3829
         4        3779        3780        3831        3830
         4        3780        3781        3832        3831
         4        3781        3782        3833        3832
         4        3782        3783        3834        3833
         4        3783        3784        3835        3834
         4        3784        3785        3836        3835
         4        3785        3786        3837        3836
         4        3786        3787        3838        3837
         4        3787        3788        3839        3838
         4        3788        3789        3840        3839
         4        3789        3790        3841        3840
         4        3790        3791        3842        3841
         4        3791        3792        3843        3842
         4        3792        3793        3844        3843
         4        3793        3794        3845        3844
         4        3794        3795        3846        3845
         4        3795        3796        3847        3846
         4        3796        3797        3848        3847
         4        3797        3798        3849        3848
         4        3798        3799        3850        3849
         4        3799        3800        3851        3850
         4        3800        3801        3852        3851
         4        3801        3802        3853        3852
         4        3802        3803        3854        3853
         4        3803        3804        3855        3854
         4        3804        3805        3856        3855
         4        3805        3806        3857        3856
         4        3806        3807        3858        3857
         4        3807        3808        3859        3858
         4        3808        3809        3860        3859
         4        3809        3810        3861        3860
         4        3810        3811        3862        3861
         4        3811        3812        3863        3862
         4        3812        3813        3864        3863
         4        3813        3814        3865        3864
         4        3814        3815        3866        3865
         4        3815        3816        3867        3866
         4        3816        3817        3868        3867
         4        3817        3818        3869        3868
         4        3818        3819        3870        3869
         4        3819        3820        3871        3870
         4        3820        3821        3872        3871
         4        3821        3822        3873        3872
         4        3822        3823        3874        3873
         4        3823        3824        3875        3874
         4        3825        3826        3877        3876
         4        3826        3827        3878        3877
         4        3827        3828        3879        3878
         4        3828        3829        3880        3879
         4        3829        3830        3881        3880
         4        3830        3831        3882        3881
         4        3831        3832        3883        3882
         4        3832        3833        3884        3883
         4        3833        3834        3885        3884
         4        3834        3835        3886        3885
         4        3835        3836        3887        3886
         4        3836        3837        3888        3887
         4        3837        3838        3889        3888
         4        3838        3839        3890        3889
         4        3839        3840        3891        3890
         4        3840        3841        3892        3891
         4        3841        3842        3893        3892
         4        3842        3843        3894        3893
         4        3843        3844        3895        3894
         4        3844        3845        3896        3895
         4        3845        3846        3897        3896
         4        3846        3847        3898        3897
         4        3847        3848        3899        3898
         4        3848        3849        3900        3899
         4        3849        3850        3901        3900
         4        3850        3851        3902        3901
         4        3851        3852        3903        3902
         4        3852        3853        3904        3903
         4        3853        3854        3905        3904
         4        3854        3855        3906        3905
         4        3855        3856        3907        3906
         4        3856        3857        3908        3907
         4        3857        3858        3909        3908
         4        3858        3859        3910        3909
         4        3859        3860        3911        3910
         4        3860        3861        3912        3911
         4        3861        3862        3913        3912
         4        3862        3863        3914        3913
         4        3863        3864        3915        3914
         4        3864        3865        3916        3915
         4        3865        3866        3917        3916
         4        3866        3867        3918        3917
         4        3867        3868        3919        3918
         4        3868        3869        3920        3919
         4        3869        3870        3921        3920
         4        3870        3871        3922        3921
         4        3871        3872        3923        3922
         4        3872        3873        3924        3923
         4        3873        3874        3925        3924
         4        3874        3875        3926        3925
         4        3876        3877        3928        3927
         4        3877        3878        3929        3928
         4        3878        3879        3930        3929
         4        3879        3880        3931        3930
         4        3880        3881        3932        3931
         4        3881        3882        3933        3932
         4        3882        3883        3934        3933
         4        3883        3884        3935        3934
         4        3884        3885        3936        3935
         4        3885        3886        3937        3936
         4        3886        3887        3938        3937
         4        3887        3888        3939        3938
         4        3888        3889        3940        3939
         4        3889        3890        3941        3940
         4        3890        3891        3942        3941
         4        3891        3892        3943        3942
         4        3892        3893        3944        3943
         4        3893        3894        3945        3944
         4        3894        3895        3946        3945
         4        3895        3896        3947        3946
         4        3896        3897        3948        3947
         4        3897        3898        3949        3948
         4        3898        3899        3950        3949
         4        3899        3900        3951        3950
         4        3900        3901        3952        3951
         4        3901        3902        3953        3952
         4        3902        3903        3954        3953
         4        3903        3904        3955        3954
         4        3904        3905        3956        3955
         4        3905        3906        3957        3956
         4        3906        3907        3958        3957
         4        3907        3908        3959        3958
         4        3908        3909        3960        3959
         4        3909        3910        3961        3960
         4        3910        3911        3962        3961
         4        3911        3912        3963        3962
         4        3912        3913        3964        3963
         4        3913        3914        3965        3964
         4        3914        3915        3966        3965
         4        3915        3916        3967        3966
         4        3916        3917        3968        3967
         4        3917        3918        3969        3968
         4        3918        3919        3970        3969
         4        3919        3920        3971        3970
         4        3920        3921        3972        3971
         4        3921        3922        3973        3972
         4        3922        3923        3974        3973
         4        3923        3924        3975        3974
         4        3924        3925        3976        3975
         4        3925        3926        3977        3976
         4        3927        3928        3979        3978
         4        3928        3929        3980        3979
         4        3929        3930        3981        3980
         4        3930        3931        3982        3981
         4        3931        3932        3983        3982
         4        3932        3933        3984        3983
         4        3933        3934        3985        3984
         4        3934        3935        3986        3985
         4        3935        3936        3987        3986
         4        3936        3937        3988        3987
         4        3937        3938        3989        3988
         4        3938        3939        3990        3989
         4        3939        3940        3991        3990
         4        3940        3941        3992        3991
         4        3941        3942        3993        3992
         4        3942        3943        3994        3993
         4        3943        3944        3995        3994
         4        3944        3945        3996        3995
         4        3945        3946        3997        3996
         4        3946        3947        3998        3997
         4        3947        3948        3999        3998
         4        3948        3949        4000        3999
         4        3949        3950        4001        4000
         4        3950        3951        4002        4001
         4        3951        3952        4003        4002
         4        3952        3953        4004        4003
         4        3953        3954        4005        4004
         4        3954        3955        4006        4005
         4        3955        3956        4007        4006
         4        3956        3957        4008        4007
         4        3957        3958        4009        4008
         4        3958        3959        4010        4009
         4        3959        3960        4011        4010
         4        3960        3961        4012        4011
         4        3961        3962        4013        4012
         4        3962        3963        4014        4013
         4        3963        3964        4015        4014
         4        3964        3965        4016        4015
         4        3965        3966        4017        4016
         4        3966        3967        4018        4017
         4        3967        3968        4019        4018
         4        3968        3969        4020        4019
         4        3969        3970        4021        4020
         4        3970        3971        4022        4021
         4        3971        3972        4023        4022
         4        3972        3973        4024        4023
         4        3973        3974        4025        4024
         4        3974        3975        4026        4025
         4        3975        3976        4027        4026
         4        3976        3977        4028        4027
         4        3978        3979        4030        4029
         4        3979        3980        4031        4030
         4        3980        3981        4032        4031
         4        3981        3982        4033        4032
         4        3982        3983        4034        4033
         4        3983        3984        4035        4034
         4        3984        3985        4036        4035
         4        3985        3986        4037        4036
         4        3986        3987        4038        4037
         4        3987        3988        4039        4038
         4        3988        3989        4040        4039
         4        3989        3990        4041        4040
         4        3990        3991        4042        4041
         4        3991        3992        4043        4042
         4        3992        3993        4044        4043
         4        3993        3994        4045        4044
         4        3994        3995        4046        4045
         4        3995        3996        4047        4046
         4        3996        3997        4048        4047
         4        3997        3998        4049        4048
         4        3998        3999        4050        4049
         4        3999        4000        4051        4050
         4        4000        4001        4052        4051
         4        4001        4002        4053        4052
         4        4002        4003        4054        4053
         4        4003        4004        4055        4054
         4        4004        4005        4056        4055
         4        4005        4006        4057        4056
         4        4006        4007        4058        4057
         4        4007        4008        4059        4058
         4        4008        4009        4060        4059
         4        4009        4010        4061        4060
         4        4010        4011        4062        4061
         4        4011        4012        4063        4062
         4        4012        4013        4064        4063
         4        4013        4014        4065        4064
         4        4014        4015        4066        4065
         4        4015        4016        4067        4066
         4        4016        4017        4068        4067
         4        4017        4018        4069        4068
         4        4018        4019        4070        4069
         4        4019        4020        4071        4070
         4        4020        4021        4072        4071
         4        4021        4022        4073        4072
         4        4022        4023        4074        4073
         4        4023        4024        4075        4074
         4        4024        4025        4076        4075
         4        4025        4026        4077        4076
         4        4026        4027        4078        4077
         4        4027        4028        4079        4078
         4        4029        4030        4081        4080
         4        4030        4031        4082        4081
         4        4031        4032        4083        4082
         4        4032        4033        4084        4083
         4        4033        4034        4085        4084
         4        4034        4035        4086        4085
         4        4035        4036        4087        4086
         4        4036        4037        4088        4087
         4        4037        4038        4089        4088
         4        4038        4039        4090        4089
         4        4039        4040        4091        4090
         4        4040        4041        4092        4091
         4        4041        4042        4093        4092
         4        4042        4043        4094        4093
         4        4043        4044        4095        4094
         4        4044        4045        4096        4095
         4        4045        4046        4097        4096
         4        4046        4047        4098        4097
         4        4047        4048        4099        4098
         4        4048        4049        4100        4099
         4        4049        4050        4101        4100
         4        4050        4051        4102        4101
         4        4051        4052        4103        4102
         4        4052        4053        4104        4103
         4        4053        4054        4105        4104
         4        4054        4055        4106        4105
         4        4055        4056        4107        4106
         4        4056        4057        4108        4107
         4        4057        4058        4109        4108
         4        4058        4059        4110        4109
         4        4059        4060        4111        4110
         4        4060        4061        4112        4111
         4        4061        4062        4113        4112
         4        4062        4063        4114        4113
         4        4063        4064        4115        4114
         4        4064        4065        4116        4115
         4        4065        4066        4117        4116
         4        4066        4067        4118        4117
         4        4067        4068        4119        4118
         4        4068        4069        4120        4119
         4        4069        4070        4121        4120
         4        4070        4071        4122        4121
         4        4071        4072        4123        4122
         4        4072        4073        4124        4123
         4        4073        4074        4125        4124
         4        4074        4075        4126        4125
         4        4075        4076        4127        4126
         4        4076        4077        4128        4127
         4        4077        4078        4129        4128
         4        4078        4079        4130        4129
         4        4080        4081        4132        4131
         4        4081        4082        4133        4132
         4        4082        4083        4134        4133
         4        4083        4084        4135        4134
         4        4084        4085        4136        4135
         4        4085        4086        4137        4136
         4        4086        4087        4138        4137
         4        4087        4088        4139        4138
         4        4088        4089        4140        4139
         4        4089        4090        4141        4140
         4        4090        4091        4142        4141
         4        4091        4092        4143        4142
         4        4092        4093        4144        4143
         4        4093        4094        4145        4144
         4        4094        4095        4146        4145
         4        4095        4096        4147        4146
         4        4096        4097        4148        4147
         4        4097        4098        4149        4148
         4        4098        4099        4150        4149
         4        4099        4100        4151        4150
         4        4100        4101        4152        4151
         4        4101        4102        4153        4152
         4        4102        4103        4154        4153
         4        4103        4104        4155        4154
         4        4104        4105        4156        4155
         4        4105        4106        4157        4156
         4        4106        4107        4158        4157
         4        4107        4108        4159        4158
         4        4108        4109        4160        4159
         4        4109        4110        4161        4160
         4        4110        4111        4162        4161
         4        4111        4112        4163        4162
         4        4112        4113        4164        4163
         4        4113        4114        4165        4164
         4        4114        4115        4166        4165
         4        4115        4116        4167        4166
         4        4116        4117        4168        4167
         4        4117        4118        4169        4168
         4        4118        4119        4170        4169
         4        4119        4120        4171        4170
         4        4120        4121        4172        4171
         4        4121        4122        4173        4172
         4        4122        4123        4174        4173
         4        4123        4124        4175        4174
         4        4124        4125        4176        4175
         4        4125        4126        4177        4176
         4        4126        4127        4178        4177
         4        4127        4128        4179        4178
         4        4128        4129        4180        4179
         4        4129        4130        4181        4180
         4        4131        4132        4183        4182
         4        4132        4133        4184        4183
         4        4133        4134        4185        4184
         4        4134        4135        4186        4185
         4        4135        4136        4187        4186
         4        4136        4137        4188        4187
         4        4137        4138        4189        4188
         4        4138        4139        4190        4189
         4        4139        4140        4191        4190
         4        4140        4141        4192        4191
         4        4141        4142        4193        4192
         4        4142        4143        4194        4193
         4        4143        4144        4195        4194
         4        4144        4145        4196        4195
         4        4145        4146        4197        4196
         4        4146        4147        4198        4197
         4        4147        4148        4199        4198
         4        4148        4149        4200        4199
         4        4149        4150        4201        4200
         4        4150        4151        4202        4201
         4        4151        4152        4203        4202
         4        4152        4153        4204        4203
         4        4153        4154        4205        4204
         4        4154        4155        4206        4205
         4        4155        4156        4207        4206
         4        4156        4157        4208        4207
         4        4157        4158        4209        4208
         4        4158        4159        4210        4209
         4        4159        4160        4211        4210
         4        4160        4161        4212        4211
         4        4161        4162        4213        4212
         4        4162        4163        4214        4213
         4        4163        4164        4215        4214
         4        4164        4165        4216        4215
         4        4165        4166        4217        4216
         4        4166        4167        4218        4217
         4        4167        4168        4219        4218
         4        4168        4169        4220        4219
         4        4169        4170        4221        4220
         4        4170        4171        4222        4221
         4        4171        4172        4223        4222
         4        4172        4173        4224        4223
         4        4173        4174        4225        4224
         4        4174        4175        4226        4225
         4        4175        4176        4227        4226
         4        4176        4177        4228        4227
         4        4177        4178        4229        4228
         4        4178        4179        4230        4229
         4        4179        4180        4231        4230
         4        4180        4181        4232        4231
         4        4182        4183        4234        4233
         4        4183        4184        4235        4234
         4        4184        4185        4236        4235
         4        4185        4186        4237        4236
         4        4186        4187        4238        4237
         4        4187        4188        4239        4238
         4        4188        4189        4240        4239
         4        4189        4190        4241        4240
         4        4190        4191        4242        4241
         4        4191        4192        4243        4242
         4        4192        4193        4244        4243
         4        4193        4194        4245        4244
         4        4194        4195        4246        4245
         4        4195        4196        4247        4246
         4        4196        4197        4248        4247
         4        4197        4198        4249        4248
         4        4198        4199        4250        4249
         4        4199        4200        4251        4250
         4        4200        4201        4252        4251
         4        4201        4202        4253        4252
         4        4202        4203        4254        4253
         4        4203        4204        4255        4254
         4        4204        4205        4256        4255
         4        4205        4206        4257        4256
         4        4206        4207        4258        4257
         4        4207        4208        4259        4258
         4        4208        4209        4260        4259
         4        4209        4210        4261        4260
         4        4210        4211        4262        4261
         4        4211        4212        4263        4262
         4        4212        4213        4264        4263
         4        4213        4214        4265        4264
         4        4214        4215        4266        4265
         4        4215        4216        4267        4266
         4        4216        4217        4268        4267
         4        4217        4218        4269        4268
         4        4218        4219        4270        4269
         4        4219        4220        4271        4270
         4        4220        4221        4272        4271
         4        4221        4222        4273        4272
         4        4222        4223        4274        4273
         4        4223        4224        4275        4274
         4        4224        4225        4276        4275
         4        4225        4226        4277        4276
         4        4226        4227        4278        4277
         4        4227        4228        4279        4278
         4        4228        4229        4280        4279
         4        4229        4230        4281        4280
         4        4230        4231        4282        4281
         4        4231        4232        4283        4282
         4        4233        4234        4285        4284
         4        4234        4235        4286        4285
         4        4235        4236        4287        4286
         4        4236        4237        4288        4287
         4        4237        4238        4289        4288
         4        4238        4239        4290        4289
         4        4239        4240        4291        4290
         4        4240        4241        4292        4291
         4        4241        4242        4293        4292
         4        4242        4243        4294        4293
         4        4243        4244        4295        4294
         4        4244        4245        4296        4295
         4        4245        4246        4297        4296
         4        4246        4247        4298        4297
         4        4247        4248        4299        4298
         4        4248        4249        4300        4299
         4        4249        4250        4301        4300
         4        4250        4251        4302        4301
         4        4251        4252        4303        4302
         4        4252        4253        4304        4303
         4        4253        4254        4305        4304
         4        4254        4255        4306        4305
         4        4255        4256        4307        4306
         4        4256        4257        4308        4307
         4        4257        4258        4309        4308
         4        4258        4259        4310        4309
         4        4259        4260        4311        4310
         4        4260        4261        4312        4311
         4        4261        4262        4313        4312
         4        4262        4263        4314        4313
         4        4263        4264        4315        4314
         4        4264        4265        4316        4315
         4        4265        4266        4317        4316
         4        4266        4267        4318        4317
         4        4267        4268        4319        4318
         4        4268        4269        4320        4319
         4        4269        4270        4321        4320
         4        4270        4271        4322        4321
         4        4271        4272        4323        4322
         4        4272        4273        4324        4323
         4        4273        4274        4325        4324
         4        4274        4275        4326        4325
         4        4275        4276        4327        4326
         4        4276        4277        4328        4327
         4        4277        4278        4329        4328
         4        4278        4279        4330        4329
         4        4279        4280        4331        4330
         4        4280        4281        4332        4331
         4        4281        4282        4333        4332
         4        4282        4283        4334        4333
         4        4284        4285        4336        4335
         4        4285        4286        4337        4336
         4        4286        4287        4338        4337
         4        4287        4288        4339        4338
         4        4288        4289        4340        4339
         4        4289        4290        4341        4340
         4        4290        4291        4342        4341
         4        4291        4292        4343        4342
         4        4292        4293        4344        4343
         4        4293        4294        4345        4344
         4        4294        4295        4346        4345
         4        4295        4296        4347        4346
         4        4296        4297        4348        4347
         4        4297        4298        4349        4348
         4        4298        4299        4350        4349
         4        4299        4300        4351        4350
         4        4300        4301        4352        4351
         4        4301        4302        4353        4352
         4        4302        4303        4354        4353
         4        4303        4304        4355        4354
         4        4304        4305        4356        4355
         4        4305        4306        4357        4356
         4        4306        4307        4358        4357
         4        4307        4308        4359        4358
         4        4308        4309        4360        4359
         4        4309        4310        4361        4360
         4        4310        4311        4362        4361
         4        4311        4312        4363        4362
         4        4312        4313        4364        4363
         4        4313        4314        4365        4364
         4        4314        4315        4366        4365
         4        4315        4316        4367        4366
         4        4316        4317        4368        4367
         4        4317        4318        4369        4368
         4        4318        4319        4370        4369
         4        4319        4320        4371        4370
         4        4320        4321        4372        4371
         4        4321        4322        4373        4372
         4        4322        4323        4374        4373
         4        4323        4324        4375        4374
         4        4324        4325        4376        4375
         4        4325        4326        4377        4376
         4        4326        4327        4378        4377
         4        4327        4328        4379        4378
         4        4328        4329        4380        4379
         4        4329        4330        4381        4380
         4        4330        4331        4382        4381
         4        4331        4332        4383        4382
         4        4332        4333        4384        4383
         4        4333        4334        4385        4384
         4        4335        4336        4387        4386
         4        4336        4337        4388        4387
         4        4337        4338        4389        4388
         4        4338        4339        4390        4389
         4        4339        4340        4391        4390
         4        4340        4341        4392        4391
         4        4341        4342        4393        4392
         4        4342        4343        4394        4393
         4        4343        4344        4395        4394
         4        4344        4345        4396        4395
         4        4345        4346        4397        4396
         4        4346        4347        4398        4397
         4        4347        4348        4399        4398
         4        4348        4349        4400        4399
         4        4349        4350        4401        4400
         4        4350        4351        4402        4401
         4        4351        4352        4403        4402
         4        4352        4353        4404        4403
         4        4353        4354        4405        4404
         4        4354        4355        4406        4405
         4        4355        4356        4407        4406
         4        4356        4357        4408        4407
         4        4357        4358        4409        4408
         4        4358        4359        4410        4409
         4        4359        4360        4411        4410
         4        4360        4361        4412        4411
         4        4361        4362        4413        4412
         4        4362        4363        4414        4413
         4        4363        4364        4415        4414
         4        4364        4365        4416        4415
         4        4365        4366        4417        4416
         4        4366        4367        4418        4417
         4        4367        4368        4419        4418
         4        4368        4369        4420        4419
         4        4369        4370        4421        4420
         4        4370        4371        4422        4421
         4        4371        4372        4423        4422
         4        4372        4373        4424        4423
         4        4373        4374        4425        4424
         4        4374        4375        4426        4425
         4        4375        4376        4427        4426
         4        4376        4377        4428        4427
         4        4377        4378        4429        4428
         4        4378        4379        4430        4429
         4        4379        4380        4431        4430
         4        4380        4381        4432        4431
         4        4381        4382        4433        4432
         4        4382        4383        4434        4433
         4        4383        4384        4435        4434
         4        4384        4385        4436        4435
         4        4386        4387        4438        4437
         4        4387        4388        4439        4438
         4        4388        4389        4440        4439
         4        4389        4390        4441        4440
         4        4390        4391        4442        4441
         4        4391        4392        4443        4442
         4        4392        4393        4444        4443
         4        4393        4394        4445        4444
         4        4394        4395        4446        4445
         4        4395        4396        4447        4446
         4        4396        4397        4448        4447
         4        4397        4398        4449        4448
         4        4398        4399        4450        4449
         4        4399        4400        4451        4450
         4        4400        4401        4452        4451
         4        4401        4402        4453        4452
         4        4402        4403        4454        4453
         4        4403        4404        4455        4454
         4        4404        4405        4456        4455
         4        4405        4406        4457        4456
         4        4406        4407        4458        4457
         4        4407        4408        4459        4458
         4        4408        4409        4460        4459
         4        4409        4410        4461        4460
         4        4410        4411        4462        4461
         4        4411        4412        4463        4462
         4        4412        4413        4464        4463
         4        4413        4414        4465        4464
         4        4414        4415        4466        4465
         4        4415        4416        4467        4466
         4        4416        4417        4468        4467
         4        4417        4418        4469        4468
         4        4418        4419        4470        4469
         4        4419        4420        4471        4470
         4        4420        4421        4472        4471
         4        4421        4422        4473        4472
         4        4422        4423        4474        4473
         4        4423        4424        4475        4474
         4        4424        4425        4476        4475
         4        4425        4426        4477        4476
         4        4426        4427        4478        4477
         4        4427        4428        4479        4478
         4        4428        4429        4480        4479
         4        4429        4430        4481        4480
         4        4430        4431        4482        4481
         4        4431        4432        4483        4482
         4        4432        4433        4484        4483
         4        4433        4434        4485        4484
         4        4434        4435        4486        4485
         4        4435        4436        4487        4486
         4        4437        4438        4489        4488
         4        4438        4439        4490        4489
         4        4439        4440        4491        4490
         4        4440        4441        4492        4491
         4        4441        4442        4493        4492
         4        4442        4443        4494        4493
         4        4443        4444        4495        4494
         4        4444        4445        4496        4495
         4        4445        4446        4497        4496
         4        4446        4447        4498        4497
         4        4447        4448        4499        4498
         4        4448        4449        4500        4499
         4        4449        4450        4501        4500
         4        4450        4451        4502        4501
         4        4451        4452        4503        4502
         4        4452        4453        4504        4503
         4        4453        4454        4505        4504
         4        4454        4455        4506        4505
         4        4455        4456        4507        4506
         4        4456        4457        4508        4507
         4        4457        4458        4509        4508
         4        4458        4459        4510        4509
         4        4459        4460        4511        4510
         4        4460        4461        4512        4511
         4        4461        4462        4513        4512
         4        4462        4463        4514        4513
         4        4463        4464        4515        4514
         4        4464        4465        4516        4515
         4        4465        4466        4517        4516
         4        4466        4467        4518        4517
         4        4467        4468        4519        4518
         4        4468        4469        4520        4519
         4        4469        4470        4521        4520
         4        4470        4471        4522        4521
         4        4471        4472        4523        4522
         4        4472        4473        4524        4523
         4        4473        4474        4525        4524
         4        4474        4475        4526        4525
         4        4475        4476        4527        4526
         4        4476        4477        4528        4527
         4        4477        4478        4529        4528
         4        4478        4479        4530        4529
         4        4479        4480        4531        4530
         4        4480        4481        4532        4531
         4        4481        4482        4533        4532
         4        4482        4483        4534        4533
         4        4483        4484        4535        4534
         4        4484        4485        4536        4535
         4        4485        4486        4537        4536
         4        4486        4487        4538        4537
         4        4488        4489        4540        4539
         4        4489        4490        4541        4540
         4        4490        4491        4542        4541
         4        4491        4492        4543        4542
         4        4492        4493        4544        4543
         4        4493        4494        4545        4544
         4        4494        4495        4546        4545
         4        4495        4496        4547        4546
         4        4496        4497        4548        4547
         4        4497        4498        4549        4548
         4        4498        4499        4550        4549
         4        4499        4500        4551        4550
         4        4500        4501        4552        4551
         4        4501        4502        4553        4552
         4        4502        4503        4554        4553
         4        4503        4504        4555        4554
         4        4504        4505        4556        4555
         4        4505        4506        4557        4556
         4        4506        4507        4558        4557
         4        4507        4508        4559        4558
         4        4508        4509        4560        4559
         4        4509        4510        4561        4560
         4        4510        4511        4562        4561
         4        4511        4512        4563        4562
         4        4512        4513        4564        4563
         4        4513        4514        4565        4564
         4        4514        4515        4566        4565
         4        4515        4516        4567        4566
         4        4516        4517        4568        4567
         4        4517        4518        4569        4568
         4        4518        4519        4570        4569
         4        4519        4520        4571        4570
         4        4520        4521        4572        4571
         4        4521        4522        4573        4572
         4        4522        4523        4574        4573
         4        4523        4524        4575        4574
         4        4524        4525        4576        4575
         4        4525        4526        4577        4576
         4        4526        4527        4578        4577
         4        4527        4528        4579        4578
         4        4528        4529        4580        4579
         4        4529        4530        4581        4580
         4        4530        4531        4582        4581
         4        4531        4532        4583        4582
         4        4532        4533        4584        4583
         4        4533        4534        4585        4584
         4        4534        4535        4586        4585
         4        4535        4536        4587        4586
         4        4536        4537        4588        4587
         4        4537        4538        4589        4588
         4        4539        4540        4591        4590
         4        4540        4541        4592        4591
         4        4541        4542        4593        4592
         4        4542        4543        4594        4593
         4        4543        4544        4595        4594
         4        4544        4545        4596        4595
         4        4545        4546        4597        4596
         4        4546        4547        4598        4597
         4        4547        4548        4599        4598
         4        4548        4549        4600        4599
         4        4549        4550        4601        4600
         4        4550        4551        4602        4601
         4        4551        4552        4603        4602
         4        4552        4553        4604        4603
         4        4553        4554        4605        4604
         4        4554        4555        4606        4605
         4        4555        4556        4607        4606
         4        4556        4557        4608        4607
         4        4557        4558        4609        4608
         4        4558        4559        4610        4609
         4        4559        4560        4611        4610
         4        4560        4561        4612        4611
         4        4561        4562        4613        4612
         4        4562        4563        4614        4613
         4        4563        4564        4615        4614
         4        4564        4565        4616        4615
         4        4565        4566        4617        4616
         4        4566        4567        4618        4617
         4        4567        4568        4619        4618
         4        4568        4569        4620        4619
         4        4569        4570        4621        4620
         4        4570        4571        4622        4621
         4        4571        4572        4623        4622
         4        4572        4573        4624        4623
         4        4573        4574        4625        4624
         4        4574        4575        4626        4625
         4        4575        4576        4627        4626
         4        4576        4577        4628        4627
         4        4577        4578        4629        4628
         4        4578        4579        4630        4629
         4        4579        4580        4631        4630
         4        4580        4581        4632        4631
         4        4581        4582        4633        4632
         4        4582        4583        4634        4633
         4        4583        4584        4635        4634
         4        4584        4585        4636        4635
         4        4585        4586        4637        4636
         4        4586        4587        4638        4637
         4        4587        4588        4639        4638
         4        4588        4589        4640        4639
         4        4590        4591        4642        4641
         4        4591        4592        4643        4642
         4        4592        4593        4644        4643
         4        4593        4594        4645        4644
         4        4594        4595        4646        4645
         4        4595        4596        4647        4646
         4        4596        4597        4648        4647
         4        4597        4598        4649        4648
         4        4598        4599        4650        4649
         4        4599        4600        4651        4650
         4        4600        4601        4652        4651
         4        4601        4602        4653        4652
         4        4602        4603        4654        4653
         4        4603        4604        4655        4654
         4        4604        4605        4656        4655
         4        4605        4606        4657        4656
         4        4606        4607        4658        4657
         4        4607        4608        4659        4658
         4        4608        4609        4660        4659
         4        4609        4610        4661        4660
         4        4610        4611        4662        4661
         4        4611        4612        4663        4662
         4        4612        4613        4664        4663
         4        4613        4614        4665        4664
         4        4614        4615        4666        4665
         4        4615        4616        4667        4666
         4        4616        4617        4668        4667
         4        4617        4618        4669        4668
         4        4618        4619        4670        4669
         4        4619        4620        4671        4670
         4        4620        4621        4672        4671
         4        4621        4622        4673        4672
         4        4622        4623        4674        4673
         4        4623        4624        4675        4674
         4        4624        4625        4676        4675
         4        4625        4626        4677        4676
         4        4626        4627        4678        4677
         4        4627        4628        4679        4678
         4        4628        4629        4680        4679
         4        4629        4630        4681        4680
         4        4630        4631        4682        4681
         4        4631        4632        4683        4682
         4        4632        4633        4684        4683
         4        4633        4634        4685        4684
         4        4634        4635        4686        4685
         4        4635        4636        4687        4686
         4        4636        4637        4688        4687
         4        4637        4638        4689        4688
         4        4638        4639        4690        4689
         4        4639        4640        4691        4690
         4        4641        4642        4693        4692
         4        4642        4643        4694        4693
         4        4643        4644        4695        4694
         4        4644        4645        4696        4695
         4        4645        4646        4697        4696
         4        4646        4647        4698        4697
         4        4647        4648        4699        4698
         4        4648        4649        4700        4699
         4        4649        4650        4701        4700
         4        4650        4651        4702        4701
         4        4651        4652        4703        4702
         4        4652        4653        4704        4703
         4        4653        4654        4705        4704
         4        4654        4655        4706        4705
         4        4655        4656        4707        4706
         4        4656        4657        4708        4707
         4        4657        4658        4709        4708
         4        4658        4659        4710        4709
         4        4659        4660        4711        4710
         4        4660        4661        4712        4711
         4        4661        4662        4713        4712
         4        4662        4663        4714        4713
         4        4663        4664        4715        4714
         4        4664        4665        4716        4715
         4        4665        4666        4717        4716
         4        4666        4667        4718        4717
         4        4667        4668        4719        4718
         4        4668        4669        4720        4719
         4        4669        4670        4721        4720
         4        4670        4671        4722        4721
         4        4671        4672        4723        4722
         4        4672        4673        4724        4723
         4        4673        4674        4725        4724
         4        4674        4675        4726        4725
         4        4675        4676        4727        4726
         4        4676        4677        4728        4727
         4        4677        4678        4729        4728
         4        4678        4679        4730        4729
         4        4679        4680        4731        4730
         4        4680        4681        4732        4731
         4        4681        4682        4733        4732
         4        4682        4683        4734        4733
         4        4683        4684        4735        4734
         4        4684        4685        4736        4735
         4        4685        4686        4737        4736
         4        4686        4687        4738        4737
         4        4687        4688        4739        4738
         4        4688        4689        4740        4739
         4        4689        4690        4741        4740
         4        4690        4691        4742        4741
         4        4692        4693        4744        4743
         4        4693        4694        4745        4744
         4        4694        4695        4746        4745
         4        4695        4696        4747        4746
         4        4696        4697        4748        4747
         4        4697        4698        4749        4748
         4        4698        4699        4750        4749
         4        4699        4700        4751        4750
         4        4700        4701        4752        4751
         4        4701        4702        4753        4752
         4        4702        4703        4754        4753
         4        4703        4704        4755        4754
         4        4704        4705        4756        4755
         4        4705        4706        4757        4756
         4        4706        4707        4758        4757
         4        4707        4708        4759        4758
         4        4708        4709        4760        4759
         4        4709        4710        4761        4760
         4        4710        4711        4762        4761
         4        4711        4712        4763        4762
         4        4712        4713        4764        4763
         4        4713        4714        4765        4764
         4        4714        4715        4766        4765
         4        4715        4716        4767        4766
         4        4716        4717        4768        4767
         4        4717        4718        4769        4768
         4        4718        4719        4770        4769
         4        4719        4720        4771        4770
         4        4720        4721        4772        4771
         4        4721        4722        4773        4772
         4        4722        4723        4774        4773
         4        4723        4724        4775        4774
         4        4724        4725        4776        4775
         4        4725        4726        4777        4776
         4        4726        4727        4778        4777
         4        4727        4728        4779        4778
         4        4728        4729        4780        4779
         4        4729        4730        4781        4780
         4        4730        4731        4782        4781
         4        4731        4732        4783        4782
         4        4732        4733        4784        4783
         4        4733        4734        4785        4784
         4        4734        4735        4786        4785
         4        4735        4736        4787        4786
         4        4736        4737        4788        4787
         4        4737        4738        4789        4788
         4        4738        4739        4790        4789
         4        4739        4740        4791        4790
         4        4740        4741        4792        4791
         4        4741        4742        4793        4792
         4        4743        4744        4795        4794
         4        4744        4745        4796        4795
         4        4745        4746        4797        4796
         4        4746        4747        4798        4797
         4        4747        4748        4799        4798
         4        4748        4749        4800        4799
         4        4749        4750        4801        4800
         4        4750        4751        4802        4801
         4        4751        4752        4803        4802
         4        4752        4753        4804        4803
         4        4753        4754        4805        4804
         4        4754        4755        4806        4805
         4        4755        4756        4807        4806
         4        4756        4757        4808        4807
         4        4757        4758        4809        4808
         4        4758        4759        4810        4809
         4        4759        4760        4811        4810
         4        4760        4761        4812        4811
         4        4761        4762        4813        4812
         4        4762        4763        4814        4813
         4        4763        4764        4815        4814
         4        4764        4765        4816        4815
         4        4765        4766        4817        4816
         4        4766        4767        4818        4817
         4        4767        4768        4819        4818
         4        4768        4769        4820        4819
         4        4769        4770        4821        4820
         4        4770        4771        4822        4821
         4        4771        4772        4823        4822
         4        4772        4773        4824        4823
         4        4773        4774        4825        4824
         4        4774        4775        4826        4825
         4        4775        4776        4827        4826
         4        4776        4777        4828        4827
         4        4777        4778        4829        4828
         4        4778        4779        4830        4829
         4        4779        4780        4831        4830
         4        4780        4781        4832        4831
         4        4781        4782        4833        4832
         4        4782        4783        4834        4833
         4        4783        4784        4835        4834
         4        4784        4785        4836        4835
         4        4785        4786        4837        4836
         4        4786        4787        4838        4837
         4        4787        4788        4839        4838
         4        4788        4789        4840        4839
         4        4789        4790        4841        4840
         4        4790        4791        4842        4841
         4        4791        4792        4843        4842
         4        4792        4793        4844        4843
         4        4794        4795        4846        4845
         4        4795        4796        4847        4846
         4        4796        4797        4848        4847
         4        4797        4798        4849        4848
         4        4798        4799        4850        4849
         4        4799        4800        4851        4850
         4        4800        4801        4852        4851
         4        4801        4802        4853        4852
         4        4802        4803        4854        4853
         4        4803        4804        4855        4854
         4        4804        4805        4856        4855
         4        4805        4806        4857        4856
         4        4806        4807        4858        4857
         4        4807        4808        4859        4858
         4        4808        4809        4860        4859
         4        4809        4810        4861        4860
         4        4810        4811        4862        4861
         4        4811        4812        4863        4862
         4        4812        4813        4864        4863
         4        4813        4814        4865        4864
         4        4814        4815        4866        4865
         4        4815        4816        4867        4866
         4        4816        4817        4868        4867
         4        4817        4818        4869        4868
         4        4818        4819        4870        4869
         4        4819        4820        4871        4870
         4        4820        4821        4872        4871
         4        4821        4822        4873        4872
         4        4822        4823        4874        4873
         4        4823        4824        4875        4874
         4        4824        4825        4876        4875
         4        4825        4826        4877        4876
         4        4826        4827        4878        4877
         4        4827        4828        4879        4878
         4        4828        4829        4880        4879
         4        4829        4830        4881        4880
         4        4830        4831        4882        4881
         4        4831        4832        4883        4882
         4        4832        4833        4884        4883
         4        4833        4834        4885        4884
         4        4834        4835        4886        4885
         4        4835        4836        4887        4886
         4        4836        4837        4888        4887
         4        4837        4838        4889        4888
         4        4838        4839        4890        4889
         4        4839        4840        4891        4890
         4        4840        4841        4892        4891
         4        4841        4842        4893        4892
         4        4842        4843        4894        4893
         4        4843        4844        4895        4894
         4        4845        4846        4897        4896
         4        4846        4847        4898        4897
         4        4847        4848        4899        4898
         4        4848        4849        4900        4899
         4        4849        4850        4901        4900
         4        4850        4851        4902        4901
         4        4851        4852        4903        4902
         4        4852        4853        4904        4903
         4        4853        4854        4905        4904
         4        4854        4855        4906        4905
         4        4855        4856        4907        4906
         4        4856        4857        4908        4907
         4        4857        4858        4909        4908
         4        4858        4859        4910        4909
         4        4859        4860        4911        4910
         4        4860        4861        4912        4911
         4        4861        4862        4913        4912
         4        4862        4863        4914        4913
         4        4863        4864        4915        4914
         4        4864        4865        4916        4915
         4        4865        4866        4917        4916
         4        4866        4867        4918        4917
         4        4867        4868        4919        4918
         4        4868        4869        4920        4919
         4        4869        4870        4921        4920
         4        4870        4871        4922        4921
         4        4871        4872        4923        4922
         4        4872        4873        4924        4923
         4        4873        4874        4925        4924
         4        4874        4875        4926        4925
         4        4875        4876        4927        4926
         4        4876        4877        4928        4927
         4        4877        4878        4929        4928
         4        4878        4879        4930        4929
         4        4879        4880        4931        4930
         4        4880        4881        4932        4931
         4        4881        4882        4933        4932
         4        4882        4883        4934        4933
         4        4883        4884        4935        4934
         4        4884        4885        4936        4935
         4        4885        4886        4937        4936
         4        4886        4887        4938        4937
         4        4887        4888        4939        4938
         4        4888        4889        4940        4939
         4        4889        4890        4941        4940
         4        4890        4891        4942        4941
         4        4891        4892        4943        4942
         4        4892        4893        4944        4943
         4        4893        4894        4945        4944
         4        4894        4895        4946        4945
         4        4896        4897        4948        4947
         4        4897        4898        4949        4948
         4        4898        4899        4950        4949
         4        4899        4900        4951        4950
         4        4900        4901        4952        4951
         4        4901        4902        4953        4952
         4        4902        4903        4954        4953
         4        4903        4904        4955        4954
         4        4904        4905        4956        4955
         4        4905        4906        4957        4956
         4        4906        4907        4958        4957
         4        4907        4908        4959        4958
         4        4908        4909        4960        4959
         4        4909        4910        4961        4960
         4        4910        4911        4962        4961
         4        4911        4912        4963        4962
         4        4912        4913        4964        4963
         4        4913        4914        4965        4964
         4        4914        4915        4966        4965
         4        4915        4916        4967        4966
         4        4916        4917        4968        4967
         4        4917        4918        4969        4968
         4        4918        4919        4970        4969
         4        4919        4920        4971        4970
         4        4920        4921        4972        4971
         4        4921        4922        4973        4972
         4        4922        4923        4974        4973
         4        4923        4924        4975        4974
         4        4924        4925        4976        4975
         4        4925        4926        4977        4976
         4        4926        4927        4978        4977
         4        4927        4928        4979        4978
         4        4928        4929        4980        4979
         4        4929        4930        4981        4980
         4        4930        4931        4982        4981
         4        4931        4932        4983        4982
         4        4932        4933        4984        4983
         4        4933        4934        4985        4984
         4        4934        4935        4986        4985
         4        4935        4936        4987        4986
         4        4936        4937        4988        4987
         4        4937        4938        4989        4988
         4        4938        4939        4990        4989
         4        4939        4940        4991        4990
         4        4940        4941        4992        4991
         4        4941        4942        4993        4992
         4        4942        4943        4994        4993
         4        4943        4944        4995        4994
         4        4944        4945        4996        4995
         4        4945        4946        4997        4996
         4        4947        4948        4999        4998
         4        4948        4949        5000        4999
         4        4949        4950        5001        5000
         4        4950        4951        5002        5001
         4        4951        4952        5003        5002
         4        4952        4953        5004        5003
         4        4953        4954        5005        5004
         4        4954        4955        5006        5005
         4        4955        4956        5007        5006
         4        4956        4957        5008        5007
         4        4957        4958        5009        5008
         4        4958        4959        5010        5009
         4        4959        4960        5011        5010
         4        4960        4961        5012        5011
         4        4961        4962        5013        5012
         4        4962        4963        5014        5013
         4        4963        4964        5015        5014
         4        4964        4965        5016        5015
         4        4965        4966        5017        5016
         4        4966        4967        5018        5017
         4        4967        4968        5019        5018
         4        4968        4969        5020        5019
         4        4969        4970        5021        5020
         4        4970        4971        5022        5021
         4        4971        4972        5023        5022
         4        4972        4973        5024        5023
         4        4973        4974        5025        5024
         4        4974        4975        5026        5025
         4        4975        4976        5027        5026
         4        4976        4977        5028        5027
         4        4977        4978        5029        5028
         4        4978        4979        5030        5029
         4        4979        4980        5031        5030
         4        4980        4981        5032        5031
         4        4981        4982        5033        5032
         4        4982        4983        5034        5033
         4        4983        4984        5035        5034
         4        4984        4985        5036        5035
         4        4985        4986        5037        5036
         4        4986        4987        5038        5037
         4        4987        4988        5039        5038
         4        4988        4989        5040        5039
         4        4989        4990        5041        5040
         4        4990        4991        5042        5041
         4        4991        4992        5043        5042
         4        4992        4993        5044        5043
         4        4993        4994        5045        5044
         4        4994        4995        5046        5045
         4        4995        4996        5047        5046
         4        4996        4997        5048        5047
         4        4998        4999        5050        5049
         4        4999        5000        5051        5050
         4        5000        5001        5052        5051
         4        5001        5002        5053        5052
         4        5002        5003        5054        5053
         4        5003        5004        5055        5054
         4        5004        5005        5056        5055
         4        5005        5006        5057        5056
         4        5006        5007        5058        5057
         4        5007        5008        5059        5058
         4        5008        5009        5060        5059
         4        5009        5010        5061        5060
         4        5010        5011        5062        5061
         4        5011        5012        5063        5062
         4        5012        5013        5064        5063
         4        5013        5014        5065        5064
         4        5014        5015        5066        5065
         4        5015        5016        5067        5066
         4        5016        5017        5068        5067
         4        5017        5018        5069        5068
         4        5018        5019        5070        5069
         4        5019        5020        5071        5070
         4        5020        5021        5072        5071
         4        5021        5022        5073        5072
         4        5022        5023        5074        5073
         4        5023        5024        5075        5074
         4        5024        5025        5076        5075
         4        5025        5026        5077        5076
         4        5026        5027        5078        5077
         4        5027        5028        5079        5078
         4        5028        5029        5080        5079
         4        5029        5030        5081        5080
         4        5030        5031        5082        5081
         4        5031        5032        5083        5082
         4        5032        5033        5084        5083
         4        5033        5034        5085        5084
         4        5034        5035        5086        5085
         4        5035        5036        5087        5086
         4        5036        5037        5088        5087
         4        5037        5038        5089        5088
         4        5038        5039        5090        5089
         4        5039        5040        5091        5090
         4        5040        5041        5092        5091
         4        5041        5042        5093        5092
         4        5042        5043        5094        5093
         4        5043        5044        5095        5094
         4        5044        5045        5096        5095
         4        5045        5046        5097        5096
         4        5046        5047        5098        5097
         4        5047        5048        5099        5098
         4        5049        5050        5101        5100
         4        5050        5051        5102        5101
         4        5051        5052        5103        5102
         4        5052        5053        5104        5103
         4        5053        5054        5105        5104
         4        5054        5055        5106        5105
         4        5055        5056        5107        5106
         4        5056        5057        5108        5107
         4        5057        5058        5109        5108
         4        5058        5059        5110        5109
         4        5059        5060        5111        5110
         4        5060        5061        5112        5111
         4        5061        5062        5113        5112
         4        5062        5063        5114        5113
         4        5063        5064        5115        5114
         4        5064        5065        5116        5115
         4        5065        5066        5117        5116
         4        5066        5067        5118        5117
         4        5067        5068        5119        5118
         4        5068        5069        5120        5119
         4        5069        5070        5121        5120
         4        5070        5071        5122        5121
         4        5071        5072        5123        5122
         4        5072        5073        5124        5123
         4        5073        5074        5125        5124
         4        5074        5075        5126        5125
         4        5075        5076        5127        5126
         4        5076        5077        5128        5127
         4        5077        5078        5129        5128
         4        5078        5079        5130        5129
         4        5079        5080        5131        5130
         4        5080        5081        5132        5131
         4        5081        5082        5133        5132
         4        5082        5083        5134        5133
         4        5083        5084        5135        5134
         4        5084        5085        5136        5135
         4        5085        5086        5137        5136
         4        5086        5087        5138        5137
         4        5087        5088        5139        5138
         4        5088        5089        5140        5139
         4        5089        5090        5141        5140
         4        5090        5091        5142        5141
         4        5091        5092        5143        5142
         4        5092        5093        5144        5143
         4        5093        5094        5145        5144
         4        5094        5095        5146        5145
         4        5095        5096        5147        5146
         4        5096        5097        5148        5147
         4        5097        5098        5149        5148
         4        5098        5099        5150        5149
CELL_TYPES       5000
9
9
9
9
9
9
9
9
9
9
9
9
9
9
9
9
9
9
9
9
9
9
9
9
9
9
9
9
9
9
9
9
9
9
9
9
9
9
9
9
9
9
9
9
9
9
9
9
9
9
9
9
9
9
9
9
9
9
9
9
9
9
9
9
9
9
9
9
9
9
9
9
9
9
9
9
9
9
9
9
9
9
9
9
9
9
9
9
9
9
9
9
9
9
9
9
9
9
9
9
9
9
9
9
9
9
9
9
9
9
9
9
9
9
9
9
9
9
9
9
9
9
9
9
9
9
9
9
9
9
9
9
9
9
9
9
9
9
9
9
9
9
9
9
9
9
9
9
9
9
9
9
9
9
9
9
9
9
9
9
9
9
9
9
9
9
9
9
9
9
9
9
9
9
9
9
9
9
9
9
9
9
9
9
9
9
9
9
9
9
9
9
9
9
9
9
9
9
9
9
9
9
9
9
9
9
9
9
9
9
9
9
9
9
9
9
9
9
9
9
9
9
9
9
9
9
9
9
9
9
9
9
9
9
9
9
9
9
9
9
9
9
9
9
9
9
9
9
9
9
9
9
9
9
9
9
9
9
9
9
9
9
9
9
9
9
9
9
9
9
9
9
9
9
9
9
9
9
9
9
9
9
9
9
9
9
9
9
9
9
9
9
9
9
9
9
9
9
9
9
9
9
9
9
9
9
9
9
9
9
9
9
9
9
9
9
9
9
9
9
9
9
9
9
9
9
9
9
9
9
9
9
9
9
9
9
9
9
9
9
9
9
9
9
9
9
9
9
9
9
9
9
9
9
9
9
9
9
9
9
9
9
9
9
9
9
9
9
9
9
9
9
9
9
9
9
9
9
9
9
9
9
9
9
9
9
9
9
9
9
9
9
9
9
9
9
9
9
9
9
9
9
9
9
9
9
9
9
9
9
9
9
9
9
9
9
9
9
9
9
9
9
9
9
9
9
9
9
9
9
9
9
9
9
9
9
9
9
9
9
9
9
9
9
9
9
9
9
9
9
9
9
9
9
9
9
9
9
9
9
9
9
9
9
9
9
9
9
9
9
9
9
9
9
9
9
9
9
9
9
9
9
9
9
9
9
9
9
9
9
9
9
9
9
9
9
9
9
9
9
9
9
9
9
9
9
9
9
9
9
9
9
9
9
9
9
9
9
9
9
9
9
9
9
9
9
9
9
9
9
9
9
9
9
9
9
9
9
9
9
9
9
9
9
9
9
9
9
9
9
9
9
9
9
9
9
9
9
9
9
9
9
9
9
9
9
9
9
9
9
9
9
9
9
9
9
9
9
9
9
9
9
9
9
9
9
9
9
9
9
9
9
9
9
9
9
9
9
9
9
9
9
9
9
9
9
9
9
9
9
9
9
9
9
9
9
9
9
9
9
9
9
9
9
9
9
9
9
9
9
9
9
9
9
9
9
9
9
9
9
9
9
9
9
9
9
9
9
9
9
9
9
9
9
9
9
9
9
9
9
9
9
9
9
9
9
9
9
9
9
9
9
9
9
9
9
9
9
9
9
9
9
9
9
9
9
9
9
9
9
9
9
9
9
9
9
9
9
9
9
9
9
9
9
9
9
9
9
9
9
9
9
9
9
9
9
9
9
9
9
9
9
9
9
9
9
9
9
9
9
9
9
9
9
9
9
9
9
9
9
9
9
9
9
9
9
9
9
9
9
9
9
9
9
9
9
9
9
9
9
9
9
9
9
9
9
9
9
9
9
9
9
9
9
9
9
9
9
9
9
9
9
9
9
9
9
9
9
9
9
9
9
9
9
9
9
9
9
9
9
9
9
9
9
9
9
9
9
9
9
9
9
9
9
9
9
9
9
9
9
9
9
9
9
9
9
9
9
9
9
9
9
9
9
9
9
9
9
9
9
9
9
9
9
9
9
9
9
9
9
9
9
9
9
9
9
9
9
9
9
9
9
9
9
9
9
9
9
9
9
9
9
9
9
9
9
9
9
9
9
9
9
9
9
9
9
9
9
9
9
9
9
9
9
9
9
9
9
9
9
9
9
9
9
9
9
9
9
9
9
9
9
9
9
9
9
9
9
9
9
9
9
9
9
9
9
9
9
9
9
9
9
9
9
9
9
9
9
9
9
9
9
9
9
9
9
9
9
9
9
9
9
9
9
9
9
9
9
9
9
9
9
9
9
9
9
9
9
9
9
9
9
9
9
9
9
9
9
9
9
9
9
9
9
9
9
9
9
9
9
9
9
9
9
9
9
9
9
9
9
9
9
9
9
9
9
9
9
9
9
9
9
9
9
9
9
9
9
9
9
9
9
9
9
9
9
9
9
9
9
9
9
9
9
9
9
9
9
9
9
9
9
9
9
9
9
9
9
9
9
9
9
9
9
9
9
9
9
9
9
9
9
9
9
9
9
9
9
9
9
9
9
9
9
9
9
9
9
9
9
9
9
9
9
9
9
9
9
9
9
9
9
9
9
9
9
9
9
9
9
9
9
9
9
9
9
9
9
9
9
9
9
9
9
9
9
9
9
9
9
9
9
9
9
9
9
9
9
9
9
9
9
9
9
9
9
9
9
9
9
9
9
9
9
9
9
9
9
9
9
9
9
9
9
9
9
9
9
9
9
9
9
9
9
9
9
9
9
9
9
9
9
9
9
9
9
9
9
9
9
9
9
9
9
9
9
9
9
9
9
9
9
9
9
9
9
9
9
9
9
9
9
9
9
9
9
9
9
9
9
9
9
9
9
9
9
9
9
9
9
9
9
9
9
9
9
9
9
9
9
9
9
9
9
9
9
9
9
9
9
9
9
9
9
9
9
9
9
9
9
9
9
9
9
9
9
9
9
9
9
9
9
9
9
9
9
9
9
9
9
9
9
9
9
9
9
9
9
9
9
9
9
9
9
9
9
9
9
9
9
9
9
9
9
9
9
9
9
9
9
9
9
9
9
9
9
9
9
9
9
9
9
9
9
9
9
9
9
9
9
9
9
9
9
9
9
9
9
9
9
9
9
9
9
9
9
9
9
9
9
9
9
9
9
9
9
9
9
9
9
9
9
9
9
9
9
9
9
9
9
9
9
9
9
9
9
9
9
9
9
9
9
9
9
9
9
9
9
9
9
9
9
9
9
9
9
9
9
9
9
9
9
9
9
9
9
9
9
9
9
9
9
9
9
9
9
9
9
9
9
9
9
9
9
9
9
9
9
9
9
9
9
9
9
9
9
9
9
9
9
9
9
9
9
9
9
9
9
9
9
9
9
9
9
9
9
9
9
9
9
9
9
9
9
9
9
9
9
9
9
9
9
9
9
9
9
9
9
9
9
9
9
9
9
9
9
9
9
9
9
9
9
9
9
9
9
9
9
9
9
9
9
9
9
9
9
9
9
9
9
9
9
9
9
9
9
9
9
9
9
9
9
9
9
9
9
9
9
9
9
9
9
9
9
9
9
9
9
9
9
9
9
9
9
9
9
9
9
9
9
9
9
9
9
9
9
9
9
9
9
9
9
9
9
9
9
9
9
9
9
9
9
9
9
9
9
9
9
9
9
9
9
9
9
9
9
9
9
9
9
9
9
9
9
9
9
9
9
9
9
9
9
9
9
9
9
9
9
9
9
9
9
9
9
9
9
9
9
9
9
9
9
9
9
9
9
9
9
9
9
9
9
9
9
9
9
9
9
9
9
9
9
9
9
9
9
9
9
9
9
9
9
9
9
9
9
9
9
9
9
9
9
9
9
9
9
9
9
9
9
9
9
9
9
9
9
9
9
9
9
9
9
9
9
9
9
9
9
9
9
9
9
9
9
9
9
9
9
9
9
9
9
9
9
9
9
9
9
9
9
9
9
9
9
9
9
9
9
9
9
9
9
9
9
9
9
9
9
9
9
9
9
9
9
9
9
9
9
9
9
9
9
9
9
9
9
9
9
9
9
9
9
9
9
9
9
9
9
9
9
9
9
9
9
9
9
9
9
9
9
9
9
9
9
9
9
9
9
9
9
9
9
9
9
9
9
9
9
9
9
9
9
9
9
9
9
9
9
9
9
9
9
9
9
9
9
9
9
9
9
9
9
9
9
9
9
9
9
9
9
9
9
9
9
9
9
9
9
9
9
9
9
9
9
9
9
9
9
9
9
9
9
9
9
9
9
9
9
9
9
9
9
9
9
9
9
9
9
9
9
9
9
9
9
9
9
9
9
9
9
9
9
9
9
9
9
9
9
9
9
9
9
9
9
9
9
9
9
9
9
9
9
9
9
9
9
9
9
9
9
9
9
9
9
9
9
9
9
9
9
9
9
9
9
9
9
9
9
9
9
9
9
9
9
9
9
9
9
9
9
9
9
9
9
9
9
9
9
9
9
9
9
9
9
9
9
9
9
9
9
9
9
9
9
9
9
9
9
9
9
9
9
9
9
9
9
9
9
9
9
9
9
9
9
9
9
9
9
9
9
9
9
9
9
9
9
9
9
9
9
9
9
9
9
9
9
9
9
9
9
9
9
9
9
9
9
9
9
9
9
9
9
9
9
9
9
9
9
9
9
9
9
9
9
9
9
9
9
9
9
9
9
9
9
9
9
9
9
9
9
9
9
9
9
9
9
9
9
9
9
9
9
9
9
9
9
9
9
9
9
9
9
9
9
9
9
9
9
9
9
9
9
9
9
9
9
9
9
9
9
9
9
9
9
9
9
9
9
9
9
9
9
9
9
9
9
9
9
9
9
9
9
9
9
9
9
9
9
9
9
9
9
9
9
9
9
9
9
9
9
9
9
9
9
9
9
9
9
9
9
9
9
9
9
9
9
9
9
9
9
9
9
9
9
9
9
9
9
9
9
9
9
9
9
9
9
9
9
9
9
9
9
9
9
9
9
9
9
9
9
9
9
9
9
9
9
9
9
9
9
9
9
9
9
9
9
9
9
9
9
9
9
9
9
9
9
9
9
9
9
9
9
9
9
9
9
9
9
9
9
9
9
9
9
9
9
9
9
9
9
9
9
9
9
9
9
9
9
9
9
9
9
9
9
9
9
9
9
9
9
9
9
9
9
9
9
9
9
9
9
9
9
9
9
9
9
9
9
9
9
9
9
9
9
9
9
9
9
9
9
9
9
9
9
9
9
9
9
9
9
9
9
9
9
9
9
9
9
9
9
9
9
9
9
9
9
9
9
9
9
9
9
9
9
9
9
9
9
9
9
9
9
9
9
9
9
9
9
9
9
9
9
9
9
9
9
9
9
9
9
9
9
9
9
9
9
9
9
9
9
9
9
9
9
9
9
9
9
9
9
9
9
9
9
9
9
9
9
9
9
9
9
9
9
9
9
9
9
9
9
9
9
9
9
9
9
9
9
9
9
9
9
9
9
9
9
9
9
9
9
9
9
9
9
9
9
9
9
9
9
9
9
9
9
9
9
9
9
9
9
9
9
9
9
9
9
9
9
9
9
9
9
9
9
9
9
9
9
9
9
9
9
9
9
9
9
9
9
9
9
9
9
9
9
9
9
9
9
9
9
9
9
9
9
9
9
9
9
9
9
9
9
9
9
9
9
9
9
9
9
9
9
9
9
9
9
9
9
9
9
9
9
9
9
9
9
9
9
9
9
9
9
9
9
9
9
9
9
9
9
9
9
9
9
9
9
9
9
9
9
9
9
9
9
9
9
9
9
9
9
9
9
9
9
9
9
9
9
9
9
9
9
9
9
9
9
9
9
9
9
9
9
9
9
9
9
9
9
9
9
9
9
9
9
9
9
9
9
9
9
9
9
9
9
9
9
9
9
9
9
9
9
9
9
9
9
9
9
9
9
9
9
9
9
9
9
9
9
9
9
9
9
9
9
9
9
9
9
9
9
9
9
9
9
9
9
9
9
9
9
9
9
9
9
9
9
9
9
9
9
9
9
9
9
9
9
9
9
9
9
9
9
9
9
9
9
9
9
9
9
9
9
9
9
9
9
9
9
9
9
9
9
9
9
9
9
9
9
9
9
9
9
9
9
9
9
9
9
9
9
9
9
9
9
9
9
9
9
9
9
9
9
9
9
9
9
9
9
9
9
9
9
9
9
9
9
9
9
9
9
9
9
9
9
9
9
9
9
9
9
9
9
9
9
9
9
9
9
9
9
9
9
9
9
9
9
9
9
9
9
9
9
9
9
9
9
9
9
9
9
9
9
9
9
9
9
9
9
9
9
9
9
9
9
9
9
9
9
9
9
9
9
9
9
9
9
9
9
9
9
9
9
9
9
9
9
9
9
9
9
9
9
9
9
9
9
9
9
9
9
9
9
9
9
9
9
9
9
9
9
9
9
9
9
9
9
9
9
9
9
9
9
9
9
9
9
9
9
9
9
9
9
9
9
9
9
9
9
9
9
9
9
9
9
9
9
9
9
9
9
9
9
9
9
9
9
9
9
9
9
9
9
9
9
9
9
9
9
9
9
9
9
9
9
9
9
9
9
9
9
9
9
9
9
9
9
9
9
9
9
9
9
9
9
9
9
9
9
9
9
9
9
9
9
9
9
9
9
9
9
9
9
9
9
9
9
9
9
9
9
9
9
9
9
9
9
9
9
9
9
9
9
9
9
9
9
9
9
9
9
9
9
9
9
9
9
9
9
9
9
9
9
9
9
9
9
9
9
9
9
9
9
9
9
9
9
9
9
9
9
9
9
9
9
9
9
9
9
9
9
9
9
9
9
9
9
9
9
9
9
9
9
9
9
9
9
9
9
9
9
9
9
9
9
9
9
9
9
9
9
9
9
9
9
9
9
9
9
9
9
9
9
9
9
9
9
9
9
9
9
9
9
9
9
9
9
9
9
9
9
9
9
9
9
9
9
9
9
9
9
9
9
9
9
9
9
9
9
9
9
9
9
9
9
9
9
9
9
9
9
9
9
9
9
9
9
9
9
9
9
9
9
9
9
9
9
9
9
9
9
9
9
9
9
9
9
9
9
9
9
9
9
9
9
9
9
9
9
9
9
9
9
9
9
9
9
9
9
9
9
9
9
9
9
9
9
9
9
9
9
9
9
9
9
9
9
9
9
9
9
9
9
9
9
9
9
9
9
9
9
9
9
9
9
9
9
9
9
9
9
9
9
9
9
9
9
9
9
9
9
9
9
9
9
9
9
9
9
9
9
9
9
9
9
9
9
9
9
9
9
9
9
9
9
9
9
9
9
9
9
9
9
9
9
9
9
9
9
9
9
9
9
9
9
9
9
9
9
9
9
9
9
9
9
9
9
9
9
9
9
9
9
9
9
9
9
9
9
9
9
9
9
9
9
9
9
9
9
9
9
9
9
9
9
9
9
9
9
9
9
9
9
9
9
9
9
9
9
9
9
9
9
9
9
9
9
9
9
9
9
9
9
9
9
9
9
9
9
9
9
9
9
9
9
9
9
9
9
9
9
9
9
9
9
9
9
9
9
9
9
9
9
9
9
9
9
9
9
9
9
9
9
9
9
9
9
9
9
9
9
9
9
9
9
9
9
9
9
9
9
9
9
9
9
9
9
9
9
9
9
9
9
9
9
9
9
9
9
9
9
9
9
9
9
9
9
9
9
9
9
9
9
9
9
9
9
9
9
9
9
9
9
9
9
9
9
9
9
9
9
9
9
9
9
9
9
9
9
9
9
9
9
9
9
9
9
9
9
9
9
9
9
9
9
9
9
9
9
9
9
9
9
9
9
9
9
9
9
9
9
9
9
9
9
9
9
9
9
9
9
9
9
9
9
9
9
9
9
9
9
9
9
9
9
9
9
9
9
9
9
9
9
9
9
9
9
9
9
9
9
9
9
9
9
9
9
9
9
9
9
9
9
9
9
9
9
9
9
9
9
9
9
9
9
9
9
9
9
9
9
9
9
9
9
9
9
9
9
9
9
9
9
9
9
9
9
9
9
9
9
9
9
9
9
9
9
9
9
9
9
9
9
9
9
9
9
9
9
9
9
9
9
9
9
9
9
9
9
9
9
9
9
9
9
9
9
9
9
9
9
9
9
9
9
9
9
9
9
9
9
9
9
9
9
9
9
9
9
9
9
9
9
9
9
9
9
9
9
9
9
9
9
9
9
9
9
9
9
9
9
9
9
9
9
9
9
9
9
9
9
9
9
9
9
9
9
9
9
9
9
9
9
9
9
9
9
9
9
9
9
9
9
9
9
9
9
9
9
9
9
9
9
9
9
9
9
9
9
9
9
9
9
9
9
9
9
9
9
9
9
9
9
9
9
9
9
9
9
9
9
9
9
9
9
9
9
9
9
9
9
9
9
9
9
9
9
9
9
9
9
9
9
9
9
9
9
9
9
9
9
9
9
9
9
9
9
9
9
9
9
9
9
9
9
9
9
9
9
9
9
9
9
9
9
9
9
9
9
9
9
9
9
9
9
9
9
9
9
9
9
9
9
9
9
9
9
9
9
9
9
9
9
9
9
9
9
9
9
9
9
9
9
9
9
9
9
9
9
9
9
9
9
9
9
9
9
9
9
9
9
9
9
9
9
9
9
9
9
9
9
9
9
9
9
9
9
9
9
9
9
9
9
9
9
9
9
9
9
9
9
9
9
9
9
9
9
9
9
9
9
9
9
9
9
9
9
9
9
9
9
9
9
9
9
9
9
9
9
9
9
9
9
9
9
9
9
9
9
9
9
9
9
9
9
9
9
9
9
9
9
9
9
9
9
9
9
9
9
9
9
9
9
9
9
9
9
9
9
9
9
9
9
9
9
9
9
9
9
9
9
9
9
9
9
9
9
9
9
9
9
9
9
9
9
9
9
9
9
9
9
9
9
9
9
9
9
9
9
9
9
9
9
9
9
9
9
9
9
9
9
9
9
9
9
9
9
9
9
9
9
9
9
9
9
9
9
9
9
9
9
9
9
9
9
9
9
9
9
9
9
9
9
9
9
9
9
9
9
9
9
9
9
9
9
9
9
9
9
9
9
9
9
9
9
9
9
9
9
9
9
9
9
9
9
9
9
9
9
9
9
9
9
9
9
9
9
9
9
9
9
9
9
9
9
9
9
9
9
9
9
9
9
9
9
9
9
9
9
9
9
9
9
9
9
9
9
9
9
9
9
9
9
9
9
9
9
9
9
9
9
9
9
9
9
9
9
9
9
9
9
9
9
9
9
9
9
9
9
9
9
9
9
9
9
9
9
9
9
9
9
9
9
9
9
9
9
9
9
9
9
9
9
9
9
9
9
9
9
9
9
9
9
9
9
9
9
9
9
9
9
9
9
9
9
9
9
9
9
9
9
9
9
9
9
9
9
9
9
9
9
9
9
9
9
9
9
9
9
9
9
9
9
9
9
9
9
9
9
9
9
9
9
9
9
9
9
9
9
9
9
9
9
9
9
9
9
9
9
9
9
9
9
9
9
9
9
9
9
9
9
9
9
9
9
9
9
9
9
9
9
9
9
9
9
9
9
9
9
9
9
9
9
9
9
9
9
9
9
9
9
9
9
9
9
9
9
9
9
9
9
9
9
9
9
9
9
9
9
9
9
9
9
9
9
9
9
9
9
9
9
9
9
9
9
9
9
9
9
9
9
9
9
9
9
9
9
9
9
9
9
9
9
9
9
9
9
9
9
9
9
9
9
9
9
9
9
9
9
9
9
9
9
9
9
9
9
9
9
9
9
9
9
9
9
9
9
9
9
9
9
9
9
9
9
9
9
9
9
9
9
9
9
9
9
9
9
9
9
9
9
9
9
9
9
9
9
9
9
9
9
9
9
9
9
9
9
9
9
9
9
9
9
9
9
9
9
9
9
9
9
9
9
9
9
9
9
9
9
9
9
9
9
9
9
9
9
9
9
9
9
9
9
9
9
9
9
9
9
9
9
9
9
9
9
9
9
9
9
9
9
9
9
9
9
9
9
9
9
9
9
9
9
9
9
9
9
9
9
9
9
9
9
9
9
9
9
9
9
9
9
9
9
9
9
9
9
9
9
9
9
9
9
9
9
9
9
9
9
9
9
9
9
9
9
9
9
9
9
9
9
9
9
9
9
9
9
9
9
9
9
9
9
9
9
9
9
9
9
9
9
9
9
9
9
9
9
9
9
9
9
9
9
9
9
9
9
9
9
9
9
9
9
9
9
9
9
9
9
9
9
9
9
9
9
9
9
9
9
9
9
9
9
9
9
9
9
9
9
9
9
9
9
9
9
9
9
9
9
9
9
9
9
9
9
9
9
9
9
9
9
9
9
9
9
9
9
9
9
9
9
9
9
9
9
9
9
9
9
9
9
9
9
9
9
9
9
9
9
9
9
9
9
9
9
9
9
9
9
9
9
9
9
9
9
9
9
9
9
9
9
9
9
9
9
9
9
9
9
9
9
9
9
9
9
9
9
9
9
9
9
9
9
9
9
9
9
9
9
9
9
9
9
9
9
9
9
9
9
9
9
9
9
9
9
9
9
9
9
9
9
9
9
9
9
9
9
9
9
9
9
9
9
9
9
9
9
9
9
9
9
9
9
9
9
9
9
9
9
9
9
9
9
9
9
9
9
9
9
9
9
9
9
9
9
9
9
9
9
9
9
9
9
9
9
9
9
9
9
9
9
9
9
9
9
9
9
9
9
9
9
9
9
9
9
9
9
9
9
9
9
9
9
9
9
9
9
9
9
9
9
9
9
9
9
9
9
9
9
9
9
9
9
9
9
9
9
9
9
9
9
9
9
9
9
9
9
9
9
9
9
9
9
9
9
9
9
9
9
9
9
9
9
9
9
9
9
9
9
9
9
9
9
9
9
9
9
9
9
9
9
9
9
9
9
9
9
9
9
9
9
9
9
9
9
9
9
9
9
9
9
9
9
9
9
9
9
9
9
9
9
9
9
9
9
9
9
9
9
9
9
9
9
9
9
9
9
9
9
9
9
9
9
9
9
9
9
9
9
9
9
9
9
9
9
9
9
9
9
9
9
9
9
9
9
9
9
9
9
9
9
9
9
9
9
9
9
9
9
9
9
9
9
9
9
9
9
9
9
9
9
9
9
9
9
9
9
9
9
9
9
9
9
9
9
9
9
9
9
9
9
9
9
9
9
9
9
9
9
9
9
9
9
9
9
9
9
9
9
9
9
9
9
9
9
9
9
9
9
9
9
9
9
9
9
9
9
9
9
9
9
9
9
9
9
9
9
9
9
9
9
9
9
9
9
9
9
9
9
9
9
9
9
9
9
9
9
9
9
9
9
9
9
9
9
9
9
9
9
9
9
9
9
9
9
9
9
9
9
9
9
9
9
9
9
9
9
9
9
9
9
9
9
9
9
9
9
9
9
9
9
POINT_DATA      5151
SCALARS p double 
LOOKUP_TABLE default
   70000000.0000000     
   70000000.0000000     
   70000000.0000000     
   70000000.0000000     
   70000000.0000000     
   70000000.0000000     
   70000000.0000000     
   70000000.0000000     
   70000000.0000000     
   70000000.0000000     
   70000000.0000000     
   70000000.0000000     
   70000000.0000000     
   70000000.0000000     
   70000000.0000000     
   70000000.0000000     
   70000000.0000000     
   70000000.0000000     
   70000000.0000000     
   70000000.0000000     
   70000000.0000000     
   70000000.0000000     
   70000000.0000000     
   70000000.0000000     
   70000000.0000000     
   70000000.0000000     
   70000000.0000000     
   70000000.0000000     
   70000000.0000000     
   70000000.0000000     
   70000000.0000000     
   70000000.0000000     
   70000000.0000000     
   70000000.0000000     
   70000000.0000000     
   70000000.0000000     
   70000000.0000000     
   70000000.0000000     
   70000000.0000000     
   70000000.0000000     
   70000000.0000000     
   70000000.0000000     
   70000000.0000000     
   70000000.0000000     
   70000000.0000000     
   70000000.0000000     
   70000000.0000000     
   70000000.0000000     
   70000000.0000000     
   70000000.0000000     
   70000000.0000000     
   58784348.4266677     
   58784348.4266677     
   58784348.4266677     
   58784348.4266677     
   58784348.4266677     
   58784348.4266677     
   58784348.4266677     
   58784348.4266677     
   58784348.4266677     
   58784348.4266677     
   58784348.4266677     
   58784348.4266677     
   58784348.4266677     
   58784348.4266676     
   58784348.4266677     
   58784348.4266677     
   58784348.4266676     
   58784348.4266676     
   58784348.4266677     
   58784348.4266677     
   58784348.4266677     
   58784348.4266677     
   58784348.4266677     
   58784348.4266677     
   58784348.4266677     
   58784348.4266677     
   58784348.4266677     
   58784348.4266677     
   58784348.4266677     
   58784348.4266677     
   58784348.4266677     
   58784348.4266677     
   58784348.4266677     
   58784348.4266677     
   58784348.4266678     
   58784348.4266678     
   58784348.4266678     
   58784348.4266678     
   58784348.4266678     
   58784348.4266677     
   58784348.4266677     
   58784348.4266678     
   58784348.4266678     
   58784348.4266678     
   58784348.4266678     
   58784348.4266678     
   58784348.4266678     
   58784348.4266678     
   58784348.4266678     
   58784348.4266677     
   58784348.4266677     
   52712251.0869054     
   52712251.0869054     
   52712251.0869055     
   52712251.0869054     
   52712251.0869054     
   52712251.0869054     
   52712251.0869054     
   52712251.0869054     
   52712251.0869054     
   52712251.0869054     
   52712251.0869053     
   52712251.0869053     
   52712251.0869053     
   52712251.0869054     
   52712251.0869054     
   52712251.0869054     
   52712251.0869054     
   52712251.0869054     
   52712251.0869054     
   52712251.0869054     
   52712251.0869054     
   52712251.0869054     
   52712251.0869054     
   52712251.0869053     
   52712251.0869053     
   52712251.0869053     
   52712251.0869053     
   52712251.0869053     
   52712251.0869052     
   52712251.0869052     
   52712251.0869053     
   52712251.0869053     
   52712251.0869054     
   52712251.0869054     
   52712251.0869054     
   52712251.0869054     
   52712251.0869054     
   52712251.0869054     
   52712251.0869054     
   52712251.0869054     
   52712251.0869054     
   52712251.0869054     
   52712251.0869054     
   52712251.0869054     
   52712251.0869054     
   52712251.0869054     
   52712251.0869053     
   52712251.0869053     
   52712251.0869053     
   52712251.0869053     
   52712251.0869053     
   50654378.5517077     
   50654378.5517077     
   50654378.5517077     
   50654378.5517077     
   50654378.5517077     
   50654378.5517076     
   50654378.5517076     
   50654378.5517076     
   50654378.5517076     
   50654378.5517076     
   50654378.5517077     
   50654378.5517078     
   50654378.5517077     
   50654378.5517077     
   50654378.5517077     
   50654378.5517077     
   50654378.5517077     
   50654378.5517077     
   50654378.5517077     
   50654378.5517078     
   50654378.5517078     
   50654378.5517078     
   50654378.5517078     
   50654378.5517077     
   50654378.5517077     
   50654378.5517077     
   50654378.5517077     
   50654378.5517077     
   50654378.5517077     
   50654378.5517078     
   50654378.5517078     
   50654378.5517078     
   50654378.5517078     
   50654378.5517078     
   50654378.5517078     
   50654378.5517079     
   50654378.5517078     
   50654378.5517078     
   50654378.5517077     
   50654378.5517077     
   50654378.5517077     
   50654378.5517077     
   50654378.5517077     
   50654378.5517077     
   50654378.5517076     
   50654378.5517077     
   50654378.5517077     
   50654378.5517077     
   50654378.5517077     
   50654378.5517077     
   50654378.5517077     
   50136742.6113560     
   50136742.6113560     
   50136742.6113560     
   50136742.6113559     
   50136742.6113559     
   50136742.6113560     
   50136742.6113560     
   50136742.6113560     
   50136742.6113560     
   50136742.6113560     
   50136742.6113560     
   50136742.6113560     
   50136742.6113560     
   50136742.6113561     
   50136742.6113561     
   50136742.6113562     
   50136742.6113562     
   50136742.6113562     
   50136742.6113562     
   50136742.6113561     
   50136742.6113561     
   50136742.6113561     
   50136742.6113561     
   50136742.6113561     
   50136742.6113561     
   50136742.6113561     
   50136742.6113562     
   50136742.6113562     
   50136742.6113562     
   50136742.6113561     
   50136742.6113561     
   50136742.6113562     
   50136742.6113562     
   50136742.6113562     
   50136742.6113561     
   50136742.6113561     
   50136742.6113561     
   50136742.6113561     
   50136742.6113562     
   50136742.6113562     
   50136742.6113562     
   50136742.6113561     
   50136742.6113561     
   50136742.6113561     
   50136742.6113561     
   50136742.6113561     
   50136742.6113561     
   50136742.6113561     
   50136742.6113560     
   50136742.6113561     
   50136742.6113561     
   50026078.9709577     
   50026078.9709577     
   50026078.9709577     
   50026078.9709577     
   50026078.9709578     
   50026078.9709578     
   50026078.9709578     
   50026078.9709578     
   50026078.9709578     
   50026078.9709577     
   50026078.9709578     
   50026078.9709578     
   50026078.9709578     
   50026078.9709578     
   50026078.9709578     
   50026078.9709578     
   50026078.9709579     
   50026078.9709579     
   50026078.9709579     
   50026078.9709579     
   50026078.9709579     
   50026078.9709579     
   50026078.9709579     
   50026078.9709579     
   50026078.9709579     
   50026078.9709579     
   50026078.9709579     
   50026078.9709579     
   50026078.9709579     
   50026078.9709579     
   50026078.9709579     
   50026078.9709579     
   50026078.9709579     
   50026078.9709579     
   50026078.9709579     
   50026078.9709579     
   50026078.9709579     
   50026078.9709579     
   50026078.9709579     
   50026078.9709579     
   50026078.9709580     
   50026078.9709580     
   50026078.9709579     
   50026078.9709579     
   50026078.9709578     
   50026078.9709578     
   50026078.9709578     
   50026078.9709578     
   50026078.9709577     
   50026078.9709577     
   50026078.9709577     
   50004671.4525108     
   50004671.4525108     
   50004671.4525108     
   50004671.4525108     
   50004671.4525108     
   50004671.4525108     
   50004671.4525108     
   50004671.4525108     
   50004671.4525107     
   50004671.4525107     
   50004671.4525107     
   50004671.4525107     
   50004671.4525107     
   50004671.4525107     
   50004671.4525108     
   50004671.4525108     
   50004671.4525108     
   50004671.4525108     
   50004671.4525109     
   50004671.4525108     
   50004671.4525108     
   50004671.4525108     
   50004671.4525108     
   50004671.4525108     
   50004671.4525108     
   50004671.4525108     
   50004671.4525108     
   50004671.4525108     
   50004671.4525109     
   50004671.4525109     
   50004671.4525109     
   50004671.4525109     
   50004671.4525109     
   50004671.4525109     
   50004671.4525109     
   50004671.4525109     
   50004671.4525109     
   50004671.4525108     
   50004671.4525108     
   50004671.4525108     
   50004671.4525108     
   50004671.4525108     
   50004671.4525108     
   50004671.4525108     
   50004671.4525107     
   50004671.4525107     
   50004671.4525107     
   50004671.4525107     
   50004671.4525107     
   50004671.4525107     
   50004671.4525107     
   50000799.5518258     
   50000799.5518258     
   50000799.5518258     
   50000799.5518258     
   50000799.5518258     
   50000799.5518257     
   50000799.5518257     
   50000799.5518257     
   50000799.5518257     
   50000799.5518256     
   50000799.5518256     
   50000799.5518256     
   50000799.5518256     
   50000799.5518256     
   50000799.5518257     
   50000799.5518257     
   50000799.5518257     
   50000799.5518257     
   50000799.5518257     
   50000799.5518257     
   50000799.5518257     
   50000799.5518257     
   50000799.5518257     
   50000799.5518257     
   50000799.5518257     
   50000799.5518257     
   50000799.5518257     
   50000799.5518258     
   50000799.5518259     
   50000799.5518259     
   50000799.5518259     
   50000799.5518259     
   50000799.5518259     
   50000799.5518258     
   50000799.5518257     
   50000799.5518257     
   50000799.5518257     
   50000799.5518257     
   50000799.5518257     
   50000799.5518257     
   50000799.5518258     
   50000799.5518258     
   50000799.5518258     
   50000799.5518257     
   50000799.5518257     
   50000799.5518257     
   50000799.5518256     
   50000799.5518256     
   50000799.5518256     
   50000799.5518256     
   50000799.5518256     
   50000132.2095256     
   50000132.2095256     
   50000132.2095256     
   50000132.2095256     
   50000132.2095256     
   50000132.2095256     
   50000132.2095255     
   50000132.2095255     
   50000132.2095255     
   50000132.2095255     
   50000132.2095255     
   50000132.2095255     
   50000132.2095255     
   50000132.2095254     
   50000132.2095254     
   50000132.2095254     
   50000132.2095254     
   50000132.2095255     
   50000132.2095255     
   50000132.2095255     
   50000132.2095255     
   50000132.2095254     
   50000132.2095254     
   50000132.2095255     
   50000132.2095255     
   50000132.2095255     
   50000132.2095255     
   50000132.2095255     
   50000132.2095256     
   50000132.2095256     
   50000132.2095256     
   50000132.2095256     
   50000132.2095256     
   50000132.2095255     
   50000132.2095256     
   50000132.2095256     
   50000132.2095256     
   50000132.2095256     
   50000132.2095256     
   50000132.2095256     
   50000132.2095256     
   50000132.2095256     
   50000132.2095255     
   50000132.2095255     
   50000132.2095255     
   50000132.2095255     
   50000132.2095254     
   50000132.2095254     
   50000132.2095254     
   50000132.2095254     
   50000132.2095254     
   50000021.2788264     
   50000021.2788264     
   50000021.2788264     
   50000021.2788265     
   50000021.2788265     
   50000021.2788265     
   50000021.2788265     
   50000021.2788265     
   50000021.2788264     
   50000021.2788264     
   50000021.2788263     
   50000021.2788263     
   50000021.2788263     
   50000021.2788263     
   50000021.2788263     
   50000021.2788263     
   50000021.2788263     
   50000021.2788262     
   50000021.2788262     
   50000021.2788262     
   50000021.2788262     
   50000021.2788262     
   50000021.2788262     
   50000021.2788262     
   50000021.2788261     
   50000021.2788262     
   50000021.2788262     
   50000021.2788262     
   50000021.2788263     
   50000021.2788263     
   50000021.2788264     
   50000021.2788264     
   50000021.2788263     
   50000021.2788263     
   50000021.2788263     
   50000021.2788263     
   50000021.2788263     
   50000021.2788263     
   50000021.2788263     
   50000021.2788263     
   50000021.2788263     
   50000021.2788263     
   50000021.2788264     
   50000021.2788263     
   50000021.2788263     
   50000021.2788262     
   50000021.2788262     
   50000021.2788262     
   50000021.2788262     
   50000021.2788262     
   50000021.2788262     
   50000003.3512070     
   50000003.3512070     
   50000003.3512070     
   50000003.3512070     
   50000003.3512071     
   50000003.3512071     
   50000003.3512070     
   50000003.3512070     
   50000003.3512070     
   50000003.3512069     
   50000003.3512069     
   50000003.3512069     
   50000003.3512069     
   50000003.3512069     
   50000003.3512068     
   50000003.3512068     
   50000003.3512068     
   50000003.3512068     
   50000003.3512069     
   50000003.3512069     
   50000003.3512069     
   50000003.3512068     
   50000003.3512068     
   50000003.3512068     
   50000003.3512067     
   50000003.3512068     
   50000003.3512068     
   50000003.3512069     
   50000003.3512069     
   50000003.3512069     
   50000003.3512069     
   50000003.3512069     
   50000003.3512069     
   50000003.3512069     
   50000003.3512068     
   50000003.3512068     
   50000003.3512068     
   50000003.3512068     
   50000003.3512068     
   50000003.3512068     
   50000003.3512068     
   50000003.3512068     
   50000003.3512068     
   50000003.3512067     
   50000003.3512067     
   50000003.3512067     
   50000003.3512067     
   50000003.3512067     
   50000003.3512067     
   50000003.3512067     
   50000003.3512067     
   50000000.5184540     
   50000000.5184540     
   50000000.5184540     
   50000000.5184540     
   50000000.5184541     
   50000000.5184541     
   50000000.5184541     
   50000000.5184540     
   50000000.5184540     
   50000000.5184539     
   50000000.5184539     
   50000000.5184539     
   50000000.5184538     
   50000000.5184538     
   50000000.5184538     
   50000000.5184538     
   50000000.5184538     
   50000000.5184538     
   50000000.5184538     
   50000000.5184538     
   50000000.5184538     
   50000000.5184538     
   50000000.5184538     
   50000000.5184538     
   50000000.5184538     
   50000000.5184538     
   50000000.5184538     
   50000000.5184538     
   50000000.5184538     
   50000000.5184538     
   50000000.5184538     
   50000000.5184538     
   50000000.5184538     
   50000000.5184538     
   50000000.5184538     
   50000000.5184538     
   50000000.5184538     
   50000000.5184538     
   50000000.5184538     
   50000000.5184538     
   50000000.5184538     
   50000000.5184537     
   50000000.5184537     
   50000000.5184537     
   50000000.5184537     
   50000000.5184536     
   50000000.5184536     
   50000000.5184536     
   50000000.5184536     
   50000000.5184536     
   50000000.5184536     
   50000000.0790220     
   50000000.0790220     
   50000000.0790220     
   50000000.0790220     
   50000000.0790220     
   50000000.0790220     
   50000000.0790220     
   50000000.0790219     
   50000000.0790219     
   50000000.0790218     
   50000000.0790218     
   50000000.0790218     
   50000000.0790218     
   50000000.0790217     
   50000000.0790218     
   50000000.0790218     
   50000000.0790218     
   50000000.0790218     
   50000000.0790218     
   50000000.0790218     
   50000000.0790218     
   50000000.0790218     
   50000000.0790218     
   50000000.0790218     
   50000000.0790217     
   50000000.0790217     
   50000000.0790217     
   50000000.0790217     
   50000000.0790218     
   50000000.0790218     
   50000000.0790218     
   50000000.0790218     
   50000000.0790218     
   50000000.0790218     
   50000000.0790218     
   50000000.0790218     
   50000000.0790218     
   50000000.0790218     
   50000000.0790218     
   50000000.0790218     
   50000000.0790217     
   50000000.0790217     
   50000000.0790217     
   50000000.0790216     
   50000000.0790216     
   50000000.0790215     
   50000000.0790215     
   50000000.0790215     
   50000000.0790215     
   50000000.0790215     
   50000000.0790215     
   50000000.0118932     
   50000000.0118932     
   50000000.0118932     
   50000000.0118932     
   50000000.0118932     
   50000000.0118932     
   50000000.0118932     
   50000000.0118932     
   50000000.0118931     
   50000000.0118931     
   50000000.0118931     
   50000000.0118930     
   50000000.0118931     
   50000000.0118930     
   50000000.0118931     
   50000000.0118930     
   50000000.0118931     
   50000000.0118931     
   50000000.0118931     
   50000000.0118932     
   50000000.0118931     
   50000000.0118931     
   50000000.0118931     
   50000000.0118930     
   50000000.0118930     
   50000000.0118930     
   50000000.0118930     
   50000000.0118930     
   50000000.0118930     
   50000000.0118930     
   50000000.0118930     
   50000000.0118930     
   50000000.0118930     
   50000000.0118930     
   50000000.0118930     
   50000000.0118930     
   50000000.0118930     
   50000000.0118930     
   50000000.0118930     
   50000000.0118930     
   50000000.0118930     
   50000000.0118929     
   50000000.0118929     
   50000000.0118929     
   50000000.0118928     
   50000000.0118928     
   50000000.0118928     
   50000000.0118928     
   50000000.0118928     
   50000000.0118928     
   50000000.0118928     
   50000000.0017707     
   50000000.0017707     
   50000000.0017707     
   50000000.0017707     
   50000000.0017707     
   50000000.0017707     
   50000000.0017707     
   50000000.0017707     
   50000000.0017706     
   50000000.0017706     
   50000000.0017705     
   50000000.0017705     
   50000000.0017705     
   50000000.0017706     
   50000000.0017706     
   50000000.0017706     
   50000000.0017706     
   50000000.0017706     
   50000000.0017706     
   50000000.0017707     
   50000000.0017707     
   50000000.0017706     
   50000000.0017706     
   50000000.0017705     
   50000000.0017705     
   50000000.0017705     
   50000000.0017705     
   50000000.0017705     
   50000000.0017705     
   50000000.0017705     
   50000000.0017705     
   50000000.0017705     
   50000000.0017705     
   50000000.0017705     
   50000000.0017705     
   50000000.0017705     
   50000000.0017705     
   50000000.0017705     
   50000000.0017705     
   50000000.0017705     
   50000000.0017705     
   50000000.0017705     
   50000000.0017705     
   50000000.0017704     
   50000000.0017704     
   50000000.0017703     
   50000000.0017703     
   50000000.0017703     
   50000000.0017703     
   50000000.0017704     
   50000000.0017704     
   50000000.0002613     
   50000000.0002613     
   50000000.0002613     
   50000000.0002613     
   50000000.0002613     
   50000000.0002613     
   50000000.0002612     
   50000000.0002612     
   50000000.0002611     
   50000000.0002611     
   50000000.0002610     
   50000000.0002610     
   50000000.0002610     
   50000000.0002610     
   50000000.0002610     
   50000000.0002610     
   50000000.0002610     
   50000000.0002611     
   50000000.0002611     
   50000000.0002611     
   50000000.0002611     
   50000000.0002611     
   50000000.0002611     
   50000000.0002611     
   50000000.0002610     
   50000000.0002610     
   50000000.0002610     
   50000000.0002610     
   50000000.0002610     
   50000000.0002610     
   50000000.0002610     
   50000000.0002610     
   50000000.0002610     
   50000000.0002611     
   50000000.0002611     
   50000000.0002611     
   50000000.0002611     
   50000000.0002611     
   50000000.0002611     
   50000000.0002611     
   50000000.0002611     
   50000000.0002610     
   50000000.0002610     
   50000000.0002609     
   50000000.0002609     
   50000000.0002609     
   50000000.0002608     
   50000000.0002608     
   50000000.0002608     
   50000000.0002608     
   50000000.0002608     
   50000000.0000383     
   50000000.0000384     
   50000000.0000384     
   50000000.0000384     
   50000000.0000383     
   50000000.0000383     
   50000000.0000383     
   50000000.0000382     
   50000000.0000382     
   50000000.0000382     
   50000000.0000381     
   50000000.0000381     
   50000000.0000381     
   50000000.0000381     
   50000000.0000381     
   50000000.0000381     
   50000000.0000381     
   50000000.0000381     
   50000000.0000382     
   50000000.0000383     
   50000000.0000383     
   50000000.0000383     
   50000000.0000382     
   50000000.0000382     
   50000000.0000381     
   50000000.0000381     
   50000000.0000381     
   50000000.0000381     
   50000000.0000381     
   50000000.0000381     
   50000000.0000381     
   50000000.0000381     
   50000000.0000381     
   50000000.0000381     
   50000000.0000381     
   50000000.0000381     
   50000000.0000381     
   50000000.0000381     
   50000000.0000381     
   50000000.0000381     
   50000000.0000381     
   50000000.0000381     
   50000000.0000380     
   50000000.0000380     
   50000000.0000379     
   50000000.0000379     
   50000000.0000379     
   50000000.0000379     
   50000000.0000379     
   50000000.0000379     
   50000000.0000379     
   50000000.0000057     
   50000000.0000057     
   50000000.0000057     
   50000000.0000057     
   50000000.0000057     
   50000000.0000057     
   50000000.0000057     
   50000000.0000056     
   50000000.0000056     
   50000000.0000055     
   50000000.0000055     
   50000000.0000055     
   50000000.0000055     
   50000000.0000055     
   50000000.0000055     
   50000000.0000054     
   50000000.0000055     
   50000000.0000055     
   50000000.0000055     
   50000000.0000056     
   50000000.0000056     
   50000000.0000055     
   50000000.0000055     
   50000000.0000054     
   50000000.0000054     
   50000000.0000054     
   50000000.0000054     
   50000000.0000054     
   50000000.0000055     
   50000000.0000055     
   50000000.0000055     
   50000000.0000055     
   50000000.0000055     
   50000000.0000055     
   50000000.0000055     
   50000000.0000055     
   50000000.0000055     
   50000000.0000055     
   50000000.0000055     
   50000000.0000055     
   50000000.0000055     
   50000000.0000054     
   50000000.0000053     
   50000000.0000053     
   50000000.0000052     
   50000000.0000052     
   50000000.0000052     
   50000000.0000052     
   50000000.0000051     
   50000000.0000052     
   50000000.0000051     
   50000000.0000009     
   50000000.0000009     
   50000000.0000009     
   50000000.0000009     
   50000000.0000009     
   50000000.0000009     
   50000000.0000008     
   50000000.0000008     
   50000000.0000007     
   50000000.0000007     
   50000000.0000007     
   50000000.0000007     
   50000000.0000007     
   50000000.0000007     
   50000000.0000007     
   50000000.0000007     
   50000000.0000008     
   50000000.0000008     
   50000000.0000008     
   50000000.0000008     
   50000000.0000008     
   50000000.0000008     
   50000000.0000007     
   50000000.0000007     
   50000000.0000007     
   50000000.0000007     
   50000000.0000007     
   50000000.0000007     
   50000000.0000007     
   50000000.0000007     
   50000000.0000007     
   50000000.0000007     
   50000000.0000007     
   50000000.0000008     
   50000000.0000008     
   50000000.0000008     
   50000000.0000008     
   50000000.0000008     
   50000000.0000007     
   50000000.0000007     
   50000000.0000007     
   50000000.0000006     
   50000000.0000006     
   50000000.0000006     
   50000000.0000005     
   50000000.0000004     
   50000000.0000004     
   50000000.0000004     
   50000000.0000004     
   50000000.0000004     
   50000000.0000004     
   50000000.0000002     
   50000000.0000002     
   50000000.0000002     
   50000000.0000003     
   50000000.0000003     
   50000000.0000002     
   50000000.0000002     
   50000000.0000002     
   50000000.0000001     
   50000000.0000001     
   50000000.0000000     
   49999999.9999999     
   50000000.0000000     
   50000000.0000000     
   50000000.0000000     
   50000000.0000001     
   50000000.0000001     
   50000000.0000001     
   50000000.0000002     
   50000000.0000002     
   50000000.0000002     
   50000000.0000001     
   50000000.0000001     
   50000000.0000001     
   50000000.0000000     
   50000000.0000000     
   50000000.0000000     
   50000000.0000000     
   50000000.0000000     
   50000000.0000000     
   50000000.0000000     
   50000000.0000000     
   50000000.0000000     
   50000000.0000000     
   50000000.0000000     
   50000000.0000000     
   50000000.0000000     
   50000000.0000000     
   50000000.0000000     
   50000000.0000000     
   49999999.9999999     
   49999999.9999999     
   49999999.9999999     
   49999999.9999999     
   49999999.9999998     
   49999999.9999997     
   49999999.9999997     
   49999999.9999997     
   49999999.9999997     
   49999999.9999997     
   49999999.9999997     
   50000000.0000001     
   50000000.0000001     
   50000000.0000001     
   50000000.0000001     
   50000000.0000001     
   50000000.0000002     
   50000000.0000001     
   50000000.0000001     
   50000000.0000001     
   50000000.0000000     
   50000000.0000000     
   50000000.0000000     
   49999999.9999999     
   49999999.9999999     
   49999999.9999999     
   50000000.0000000     
   50000000.0000000     
   50000000.0000000     
   50000000.0000001     
   50000000.0000001     
   50000000.0000001     
   50000000.0000000     
   50000000.0000000     
   49999999.9999999     
   49999999.9999999     
   49999999.9999999     
   49999999.9999999     
   49999999.9999999     
   49999999.9999999     
   49999999.9999999     
   49999999.9999999     
   49999999.9999999     
   49999999.9999999     
   49999999.9999999     
   49999999.9999999     
   49999999.9999999     
   49999999.9999999     
   49999999.9999999     
   49999999.9999999     
   49999999.9999999     
   49999999.9999998     
   49999999.9999998     
   49999999.9999998     
   49999999.9999997     
   49999999.9999997     
   49999999.9999996     
   49999999.9999996     
   49999999.9999996     
   49999999.9999996     
   49999999.9999996     
   49999999.9999996     
   50000000.0000001     
   50000000.0000001     
   50000000.0000001     
   50000000.0000001     
   50000000.0000001     
   50000000.0000001     
   50000000.0000001     
   50000000.0000001     
   50000000.0000000     
   50000000.0000000     
   50000000.0000000     
   50000000.0000000     
   50000000.0000000     
   49999999.9999999     
   49999999.9999999     
   49999999.9999999     
   50000000.0000000     
   50000000.0000000     
   50000000.0000000     
   50000000.0000000     
   50000000.0000000     
   50000000.0000000     
   50000000.0000000     
   49999999.9999999     
   49999999.9999999     
   49999999.9999999     
   49999999.9999999     
   49999999.9999999     
   49999999.9999999     
   49999999.9999999     
   49999999.9999999     
   49999999.9999999     
   49999999.9999999     
   49999999.9999999     
   49999999.9999999     
   49999999.9999999     
   49999999.9999999     
   49999999.9999999     
   49999999.9999999     
   49999999.9999999     
   49999999.9999999     
   49999999.9999998     
   49999999.9999998     
   49999999.9999997     
   49999999.9999997     
   49999999.9999997     
   49999999.9999996     
   49999999.9999996     
   49999999.9999996     
   49999999.9999996     
   49999999.9999996     
   50000000.0000000     
   50000000.0000001     
   50000000.0000001     
   50000000.0000001     
   50000000.0000001     
   50000000.0000001     
   50000000.0000000     
   50000000.0000000     
   50000000.0000000     
   49999999.9999999     
   49999999.9999999     
   49999999.9999999     
   49999999.9999999     
   49999999.9999999     
   49999999.9999999     
   49999999.9999999     
   49999999.9999999     
   49999999.9999999     
   49999999.9999999     
   50000000.0000000     
   50000000.0000000     
   50000000.0000000     
   50000000.0000000     
   50000000.0000000     
   50000000.0000000     
   50000000.0000000     
   49999999.9999999     
   49999999.9999999     
   49999999.9999999     
   49999999.9999999     
   49999999.9999999     
   49999999.9999999     
   49999999.9999999     
   49999999.9999999     
   49999999.9999999     
   49999999.9999999     
   49999999.9999999     
   49999999.9999999     
   49999999.9999999     
   49999999.9999999     
   49999999.9999999     
   49999999.9999998     
   49999999.9999998     
   49999999.9999998     
   49999999.9999997     
   49999999.9999996     
   49999999.9999996     
   49999999.9999996     
   49999999.9999996     
   49999999.9999996     
   49999999.9999996     
   50000000.0000001     
   50000000.0000001     
   50000000.0000001     
   50000000.0000001     
   50000000.0000001     
   50000000.0000001     
   50000000.0000000     
   50000000.0000000     
   50000000.0000000     
   49999999.9999999     
   49999999.9999999     
   49999999.9999999     
   49999999.9999999     
   49999999.9999999     
   49999999.9999999     
   49999999.9999999     
   49999999.9999999     
   49999999.9999999     
   50000000.0000000     
   50000000.0000000     
   50000000.0000000     
   50000000.0000000     
   50000000.0000000     
   49999999.9999999     
   49999999.9999999     
   49999999.9999999     
   49999999.9999999     
   49999999.9999999     
   50000000.0000000     
   50000000.0000000     
   49999999.9999999     
   49999999.9999999     
   50000000.0000000     
   50000000.0000000     
   50000000.0000000     
   50000000.0000000     
   50000000.0000000     
   50000000.0000000     
   50000000.0000000     
   49999999.9999999     
   49999999.9999999     
   49999999.9999999     
   49999999.9999998     
   49999999.9999998     
   49999999.9999997     
   49999999.9999997     
   49999999.9999997     
   49999999.9999996     
   49999999.9999996     
   49999999.9999996     
   49999999.9999996     
   50000000.0000001     
   50000000.0000002     
   50000000.0000002     
   50000000.0000001     
   50000000.0000001     
   50000000.0000001     
   50000000.0000001     
   50000000.0000001     
   50000000.0000000     
   50000000.0000000     
   49999999.9999999     
   49999999.9999999     
   49999999.9999999     
   49999999.9999999     
   49999999.9999999     
   49999999.9999999     
   49999999.9999999     
   49999999.9999999     
   49999999.9999999     
   50000000.0000000     
   50000000.0000000     
   49999999.9999999     
   49999999.9999999     
   49999999.9999999     
   49999999.9999999     
   49999999.9999999     
   49999999.9999999     
   49999999.9999999     
   49999999.9999999     
   49999999.9999999     
   49999999.9999999     
   49999999.9999999     
   49999999.9999999     
   50000000.0000000     
   50000000.0000000     
   50000000.0000000     
   50000000.0000000     
   50000000.0000000     
   50000000.0000000     
   50000000.0000000     
   50000000.0000000     
   49999999.9999999     
   49999999.9999999     
   49999999.9999998     
   49999999.9999998     
   49999999.9999997     
   49999999.9999997     
   49999999.9999997     
   49999999.9999997     
   49999999.9999997     
   49999999.9999997     
   50000000.0000002     
   50000000.0000002     
   50000000.0000002     
   50000000.0000002     
   50000000.0000002     
   50000000.0000002     
   50000000.0000001     
   50000000.0000001     
   50000000.0000000     
   50000000.0000000     
   49999999.9999999     
   49999999.9999999     
   49999999.9999999     
   49999999.9999999     
   49999999.9999999     
   49999999.9999999     
   49999999.9999999     
   49999999.9999999     
   50000000.0000000     
   50000000.0000000     
   50000000.0000000     
   50000000.0000000     
   50000000.0000000     
   49999999.9999999     
   49999999.9999999     
   49999999.9999999     
   49999999.9999999     
   49999999.9999999     
   50000000.0000000     
   50000000.0000000     
   50000000.0000000     
   50000000.0000000     
   50000000.0000000     
   50000000.0000000     
   50000000.0000000     
   50000000.0000000     
   50000000.0000000     
   50000000.0000000     
   50000000.0000000     
   50000000.0000000     
   49999999.9999999     
   49999999.9999999     
   49999999.9999999     
   49999999.9999998     
   49999999.9999998     
   49999999.9999998     
   49999999.9999998     
   49999999.9999997     
   49999999.9999997     
   49999999.9999997     
   49999999.9999997     
   50000000.0000002     
   50000000.0000002     
   50000000.0000002     
   50000000.0000002     
   50000000.0000002     
   50000000.0000002     
   50000000.0000001     
   50000000.0000001     
   50000000.0000000     
   50000000.0000000     
   50000000.0000000     
   49999999.9999999     
   49999999.9999999     
   49999999.9999999     
   49999999.9999999     
   49999999.9999999     
   49999999.9999999     
   49999999.9999999     
   50000000.0000000     
   50000000.0000000     
   50000000.0000000     
   49999999.9999999     
   49999999.9999999     
   49999999.9999999     
   49999999.9999999     
   49999999.9999999     
   49999999.9999999     
   49999999.9999999     
   49999999.9999999     
   49999999.9999999     
   49999999.9999998     
   49999999.9999998     
   49999999.9999999     
   49999999.9999999     
   49999999.9999999     
   50000000.0000000     
   50000000.0000000     
   49999999.9999999     
   49999999.9999999     
   50000000.0000000     
   50000000.0000000     
   49999999.9999999     
   49999999.9999999     
   49999999.9999999     
   49999999.9999998     
   49999999.9999997     
   49999999.9999997     
   49999999.9999997     
   49999999.9999997     
   49999999.9999997     
   49999999.9999997     
   50000000.0000002     
   50000000.0000002     
   50000000.0000002     
   50000000.0000002     
   50000000.0000002     
   50000000.0000002     
   50000000.0000001     
   50000000.0000001     
   50000000.0000000     
   50000000.0000000     
   49999999.9999999     
   49999999.9999999     
   49999999.9999999     
   49999999.9999999     
   49999999.9999999     
   49999999.9999999     
   49999999.9999999     
   49999999.9999999     
   49999999.9999999     
   49999999.9999999     
   49999999.9999999     
   49999999.9999999     
   49999999.9999999     
   49999999.9999998     
   49999999.9999998     
   49999999.9999998     
   49999999.9999998     
   49999999.9999998     
   49999999.9999999     
   49999999.9999999     
   49999999.9999999     
   49999999.9999998     
   49999999.9999999     
   49999999.9999999     
   49999999.9999999     
   50000000.0000000     
   50000000.0000000     
   50000000.0000000     
   49999999.9999999     
   49999999.9999999     
   49999999.9999999     
   49999999.9999998     
   49999999.9999998     
   49999999.9999998     
   49999999.9999997     
   49999999.9999997     
   49999999.9999996     
   49999999.9999997     
   49999999.9999997     
   49999999.9999997     
   49999999.9999997     
   50000000.0000002     
   50000000.0000002     
   50000000.0000002     
   50000000.0000002     
   50000000.0000002     
   50000000.0000002     
   50000000.0000001     
   50000000.0000001     
   50000000.0000000     
   50000000.0000000     
   49999999.9999999     
   49999999.9999999     
   49999999.9999999     
   49999999.9999999     
   49999999.9999999     
   49999999.9999999     
   49999999.9999999     
   49999999.9999999     
   50000000.0000000     
   50000000.0000000     
   50000000.0000000     
   49999999.9999999     
   49999999.9999999     
   49999999.9999998     
   49999999.9999998     
   49999999.9999998     
   49999999.9999998     
   49999999.9999998     
   49999999.9999998     
   49999999.9999999     
   49999999.9999999     
   49999999.9999999     
   49999999.9999999     
   50000000.0000000     
   50000000.0000000     
   50000000.0000000     
   50000000.0000000     
   50000000.0000000     
   49999999.9999999     
   49999999.9999999     
   49999999.9999999     
   49999999.9999998     
   49999999.9999998     
   49999999.9999997     
   49999999.9999997     
   49999999.9999997     
   49999999.9999997     
   49999999.9999997     
   49999999.9999996     
   49999999.9999996     
   49999999.9999996     
   50000000.0000000     
   50000000.0000000     
   50000000.0000001     
   50000000.0000001     
   50000000.0000001     
   50000000.0000001     
   50000000.0000001     
   50000000.0000000     
   50000000.0000000     
   50000000.0000000     
   49999999.9999999     
   49999999.9999999     
   49999999.9999999     
   49999999.9999999     
   49999999.9999999     
   49999999.9999999     
   50000000.0000000     
   50000000.0000000     
   50000000.0000000     
   50000000.0000000     
   50000000.0000000     
   50000000.0000000     
   50000000.0000000     
   49999999.9999999     
   49999999.9999999     
   49999999.9999999     
   49999999.9999999     
   49999999.9999999     
   49999999.9999999     
   49999999.9999999     
   49999999.9999999     
   49999999.9999999     
   49999999.9999999     
   50000000.0000000     
   50000000.0000000     
   50000000.0000000     
   50000000.0000000     
   50000000.0000000     
   49999999.9999999     
   49999999.9999999     
   49999999.9999999     
   49999999.9999999     
   49999999.9999998     
   49999999.9999998     
   49999999.9999997     
   49999999.9999997     
   49999999.9999997     
   49999999.9999996     
   49999999.9999996     
   49999999.9999996     
   49999999.9999996     
   50000000.0000001     
   50000000.0000001     
   50000000.0000001     
   50000000.0000001     
   50000000.0000001     
   50000000.0000001     
   50000000.0000001     
   50000000.0000001     
   50000000.0000000     
   50000000.0000000     
   49999999.9999999     
   49999999.9999999     
   49999999.9999999     
   49999999.9999999     
   49999999.9999999     
   49999999.9999999     
   49999999.9999999     
   49999999.9999999     
   49999999.9999999     
   50000000.0000000     
   50000000.0000000     
   49999999.9999999     
   49999999.9999999     
   49999999.9999999     
   49999999.9999999     
   49999999.9999999     
   49999999.9999999     
   49999999.9999999     
   49999999.9999999     
   49999999.9999999     
   49999999.9999999     
   49999999.9999999     
   49999999.9999999     
   49999999.9999999     
   49999999.9999999     
   49999999.9999999     
   50000000.0000000     
   50000000.0000000     
   50000000.0000000     
   49999999.9999999     
   49999999.9999999     
   49999999.9999999     
   49999999.9999999     
   49999999.9999998     
   49999999.9999998     
   49999999.9999997     
   49999999.9999997     
   49999999.9999997     
   49999999.9999996     
   49999999.9999996     
   49999999.9999996     
   50000000.0000001     
   50000000.0000001     
   50000000.0000001     
   50000000.0000001     
   50000000.0000001     
   50000000.0000001     
   50000000.0000001     
   50000000.0000000     
   50000000.0000000     
   49999999.9999999     
   49999999.9999999     
   49999999.9999999     
   49999999.9999999     
   49999999.9999999     
   49999999.9999999     
   49999999.9999999     
   49999999.9999999     
   50000000.0000000     
   50000000.0000000     
   50000000.0000000     
   50000000.0000000     
   50000000.0000000     
   49999999.9999999     
   49999999.9999999     
   49999999.9999999     
   49999999.9999998     
   49999999.9999999     
   49999999.9999999     
   49999999.9999999     
   49999999.9999999     
   49999999.9999999     
   49999999.9999999     
   49999999.9999999     
   50000000.0000000     
   50000000.0000000     
   50000000.0000000     
   50000000.0000000     
   49999999.9999999     
   49999999.9999999     
   49999999.9999999     
   49999999.9999998     
   49999999.9999998     
   49999999.9999998     
   49999999.9999998     
   49999999.9999997     
   49999999.9999997     
   49999999.9999997     
   49999999.9999997     
   49999999.9999997     
   49999999.9999997     
   49999999.9999997     
   50000000.0000002     
   50000000.0000002     
   50000000.0000002     
   50000000.0000002     
   50000000.0000002     
   50000000.0000001     
   50000000.0000001     
   50000000.0000000     
   50000000.0000000     
   50000000.0000000     
   49999999.9999999     
   49999999.9999999     
   49999999.9999999     
   49999999.9999999     
   49999999.9999999     
   50000000.0000000     
   50000000.0000000     
   50000000.0000000     
   50000000.0000000     
   50000000.0000000     
   49999999.9999999     
   49999999.9999999     
   49999999.9999999     
   49999999.9999999     
   49999999.9999999     
   49999999.9999999     
   49999999.9999999     
   49999999.9999999     
   49999999.9999999     
   49999999.9999999     
   49999999.9999999     
   49999999.9999999     
   50000000.0000000     
   50000000.0000000     
   50000000.0000000     
   50000000.0000000     
   50000000.0000000     
   50000000.0000000     
   50000000.0000000     
   50000000.0000000     
   50000000.0000000     
   49999999.9999999     
   49999999.9999999     
   49999999.9999999     
   49999999.9999998     
   49999999.9999998     
   49999999.9999997     
   49999999.9999997     
   49999999.9999996     
   49999999.9999996     
   49999999.9999996     
   50000000.0000002     
   50000000.0000002     
   50000000.0000002     
   50000000.0000002     
   50000000.0000002     
   50000000.0000002     
   50000000.0000001     
   50000000.0000001     
   50000000.0000000     
   50000000.0000000     
   49999999.9999999     
   49999999.9999999     
   49999999.9999999     
   49999999.9999999     
   49999999.9999999     
   49999999.9999999     
   49999999.9999999     
   49999999.9999999     
   50000000.0000000     
   50000000.0000000     
   50000000.0000000     
   50000000.0000000     
   50000000.0000000     
   49999999.9999999     
   49999999.9999999     
   49999999.9999999     
   49999999.9999999     
   49999999.9999999     
   49999999.9999999     
   49999999.9999999     
   49999999.9999999     
   49999999.9999999     
   50000000.0000000     
   50000000.0000000     
   50000000.0000000     
   50000000.0000000     
   50000000.0000000     
   50000000.0000000     
   50000000.0000000     
   50000000.0000000     
   50000000.0000000     
   50000000.0000000     
   49999999.9999999     
   49999999.9999999     
   49999999.9999998     
   49999999.9999998     
   49999999.9999997     
   49999999.9999997     
   49999999.9999997     
   49999999.9999997     
   49999999.9999997     
   50000000.0000001     
   50000000.0000001     
   50000000.0000001     
   50000000.0000002     
   50000000.0000002     
   50000000.0000002     
   50000000.0000001     
   50000000.0000001     
   50000000.0000001     
   50000000.0000000     
   50000000.0000000     
   49999999.9999999     
   49999999.9999999     
   49999999.9999999     
   49999999.9999999     
   49999999.9999999     
   49999999.9999999     
   50000000.0000000     
   50000000.0000000     
   50000000.0000000     
   50000000.0000000     
   50000000.0000000     
   50000000.0000000     
   49999999.9999999     
   49999999.9999999     
   49999999.9999999     
   49999999.9999999     
   49999999.9999999     
   50000000.0000000     
   49999999.9999999     
   49999999.9999999     
   49999999.9999999     
   49999999.9999999     
   50000000.0000000     
   50000000.0000000     
   50000000.0000000     
   50000000.0000000     
   50000000.0000000     
   50000000.0000000     
   50000000.0000000     
   50000000.0000000     
   49999999.9999999     
   49999999.9999999     
   49999999.9999999     
   49999999.9999998     
   49999999.9999997     
   49999999.9999997     
   49999999.9999997     
   49999999.9999997     
   49999999.9999997     
   49999999.9999996     
   50000000.0000001     
   50000000.0000001     
   50000000.0000001     
   50000000.0000001     
   50000000.0000001     
   50000000.0000001     
   50000000.0000001     
   50000000.0000001     
   50000000.0000000     
   50000000.0000000     
   49999999.9999999     
   49999999.9999999     
   49999999.9999999     
   49999999.9999999     
   49999999.9999999     
   49999999.9999999     
   49999999.9999999     
   49999999.9999999     
   50000000.0000000     
   50000000.0000000     
   50000000.0000000     
   50000000.0000000     
   49999999.9999999     
   49999999.9999999     
   49999999.9999999     
   49999999.9999999     
   49999999.9999999     
   49999999.9999999     
   49999999.9999999     
   50000000.0000000     
   49999999.9999999     
   49999999.9999999     
   49999999.9999999     
   50000000.0000000     
   50000000.0000000     
   50000000.0000000     
   50000000.0000000     
   50000000.0000000     
   50000000.0000000     
   50000000.0000000     
   50000000.0000000     
   50000000.0000000     
   49999999.9999999     
   49999999.9999999     
   49999999.9999998     
   49999999.9999997     
   49999999.9999997     
   49999999.9999997     
   49999999.9999997     
   49999999.9999997     
   49999999.9999997     
   50000000.0000000     
   50000000.0000000     
   50000000.0000000     
   50000000.0000000     
   50000000.0000000     
   50000000.0000000     
   50000000.0000000     
   50000000.0000000     
   50000000.0000000     
   49999999.9999999     
   49999999.9999999     
   49999999.9999999     
   49999999.9999999     
   49999999.9999999     
   49999999.9999999     
   49999999.9999999     
   50000000.0000000     
   50000000.0000000     
   50000000.0000000     
   50000000.0000001     
   50000000.0000000     
   50000000.0000000     
   50000000.0000000     
   50000000.0000000     
   49999999.9999999     
   49999999.9999999     
   49999999.9999999     
   49999999.9999999     
   49999999.9999999     
   49999999.9999999     
   49999999.9999999     
   49999999.9999999     
   49999999.9999999     
   50000000.0000000     
   50000000.0000000     
   50000000.0000000     
   50000000.0000000     
   50000000.0000000     
   50000000.0000000     
   50000000.0000000     
   50000000.0000000     
   49999999.9999999     
   49999999.9999999     
   49999999.9999998     
   49999999.9999998     
   49999999.9999997     
   49999999.9999997     
   49999999.9999997     
   49999999.9999997     
   49999999.9999997     
   49999999.9999997     
   49999999.9999999     
   49999999.9999999     
   50000000.0000000     
   50000000.0000000     
   50000000.0000000     
   50000000.0000000     
   50000000.0000000     
   50000000.0000000     
   49999999.9999999     
   49999999.9999999     
   49999999.9999999     
   49999999.9999998     
   49999999.9999999     
   49999999.9999999     
   49999999.9999999     
   49999999.9999999     
   49999999.9999999     
   49999999.9999999     
   50000000.0000000     
   50000000.0000000     
   50000000.0000000     
   50000000.0000000     
   50000000.0000000     
   49999999.9999999     
   49999999.9999999     
   49999999.9999999     
   49999999.9999999     
   49999999.9999999     
   49999999.9999999     
   50000000.0000000     
   50000000.0000000     
   49999999.9999999     
   50000000.0000000     
   50000000.0000000     
   50000000.0000000     
   50000000.0000000     
   50000000.0000000     
   50000000.0000000     
   50000000.0000000     
   50000000.0000000     
   50000000.0000000     
   49999999.9999999     
   49999999.9999999     
   49999999.9999998     
   49999999.9999997     
   49999999.9999997     
   49999999.9999997     
   49999999.9999997     
   49999999.9999997     
   49999999.9999997     
   49999999.9999997     
   50000000.0000000     
   50000000.0000001     
   50000000.0000001     
   50000000.0000001     
   50000000.0000001     
   50000000.0000001     
   50000000.0000000     
   50000000.0000000     
   50000000.0000000     
   49999999.9999999     
   49999999.9999999     
   49999999.9999999     
   49999999.9999999     
   49999999.9999999     
   49999999.9999999     
   49999999.9999999     
   49999999.9999999     
   50000000.0000000     
   50000000.0000000     
   50000000.0000000     
   50000000.0000000     
   50000000.0000000     
   50000000.0000000     
   49999999.9999999     
   49999999.9999999     
   49999999.9999999     
   49999999.9999999     
   49999999.9999999     
   49999999.9999999     
   49999999.9999999     
   49999999.9999999     
   49999999.9999999     
   50000000.0000000     
   50000000.0000000     
   50000000.0000000     
   50000000.0000000     
   50000000.0000000     
   50000000.0000000     
   50000000.0000000     
   50000000.0000000     
   50000000.0000000     
   49999999.9999999     
   49999999.9999999     
   49999999.9999999     
   49999999.9999998     
   49999999.9999998     
   49999999.9999997     
   49999999.9999997     
   49999999.9999997     
   49999999.9999997     
   49999999.9999997     
   50000000.0000001     
   50000000.0000001     
   50000000.0000001     
   50000000.0000002     
   50000000.0000002     
   50000000.0000002     
   50000000.0000001     
   50000000.0000001     
   50000000.0000000     
   50000000.0000000     
   49999999.9999999     
   49999999.9999999     
   49999999.9999999     
   49999999.9999999     
   49999999.9999999     
   49999999.9999999     
   49999999.9999999     
   49999999.9999999     
   50000000.0000000     
   50000000.0000000     
   50000000.0000001     
   50000000.0000000     
   50000000.0000000     
   50000000.0000000     
   50000000.0000000     
   49999999.9999999     
   49999999.9999999     
   49999999.9999999     
   49999999.9999999     
   50000000.0000000     
   49999999.9999999     
   49999999.9999999     
   50000000.0000000     
   50000000.0000000     
   50000000.0000000     
   50000000.0000001     
   50000000.0000001     
   50000000.0000000     
   50000000.0000000     
   50000000.0000000     
   50000000.0000000     
   49999999.9999999     
   49999999.9999999     
   49999999.9999998     
   49999999.9999998     
   49999999.9999997     
   49999999.9999997     
   49999999.9999997     
   49999999.9999997     
   49999999.9999997     
   49999999.9999997     
   50000000.0000002     
   50000000.0000002     
   50000000.0000002     
   50000000.0000002     
   50000000.0000001     
   50000000.0000001     
   50000000.0000001     
   50000000.0000000     
   50000000.0000000     
   49999999.9999999     
   49999999.9999999     
   49999999.9999999     
   49999999.9999999     
   49999999.9999999     
   49999999.9999999     
   49999999.9999999     
   49999999.9999999     
   49999999.9999999     
   49999999.9999999     
   50000000.0000000     
   50000000.0000000     
   50000000.0000000     
   49999999.9999999     
   49999999.9999999     
   49999999.9999999     
   49999999.9999999     
   49999999.9999999     
   49999999.9999999     
   49999999.9999999     
   50000000.0000000     
   50000000.0000000     
   50000000.0000000     
   50000000.0000000     
   50000000.0000001     
   50000000.0000001     
   50000000.0000000     
   50000000.0000000     
   50000000.0000000     
   50000000.0000000     
   49999999.9999999     
   49999999.9999999     
   49999999.9999999     
   49999999.9999998     
   49999999.9999998     
   49999999.9999997     
   49999999.9999997     
   49999999.9999997     
   49999999.9999997     
   49999999.9999997     
   49999999.9999997     
   49999999.9999997     
   50000000.0000001     
   50000000.0000001     
   50000000.0000001     
   50000000.0000001     
   50000000.0000002     
   50000000.0000001     
   50000000.0000001     
   50000000.0000000     
   50000000.0000000     
   49999999.9999999     
   49999999.9999999     
   49999999.9999999     
   49999999.9999999     
   49999999.9999999     
   49999999.9999999     
   49999999.9999999     
   50000000.0000000     
   50000000.0000000     
   50000000.0000000     
   50000000.0000000     
   50000000.0000000     
   50000000.0000000     
   49999999.9999999     
   49999999.9999999     
   49999999.9999999     
   49999999.9999998     
   49999999.9999998     
   49999999.9999999     
   49999999.9999999     
   49999999.9999999     
   49999999.9999999     
   49999999.9999999     
   50000000.0000000     
   50000000.0000000     
   50000000.0000000     
   50000000.0000000     
   50000000.0000000     
   50000000.0000000     
   50000000.0000000     
   50000000.0000000     
   50000000.0000000     
   50000000.0000000     
   49999999.9999999     
   49999999.9999999     
   49999999.9999998     
   49999999.9999997     
   49999999.9999997     
   49999999.9999997     
   49999999.9999996     
   49999999.9999996     
   49999999.9999996     
   50000000.0000001     
   50000000.0000001     
   50000000.0000001     
   50000000.0000001     
   50000000.0000001     
   50000000.0000001     
   50000000.0000001     
   50000000.0000000     
   50000000.0000000     
   49999999.9999999     
   49999999.9999999     
   49999999.9999999     
   49999999.9999999     
   49999999.9999999     
   49999999.9999999     
   49999999.9999999     
   49999999.9999999     
   50000000.0000000     
   50000000.0000000     
   50000000.0000000     
   50000000.0000001     
   50000000.0000000     
   50000000.0000000     
   49999999.9999999     
   49999999.9999999     
   49999999.9999999     
   49999999.9999999     
   49999999.9999999     
   49999999.9999999     
   49999999.9999999     
   49999999.9999999     
   49999999.9999999     
   50000000.0000000     
   50000000.0000000     
   50000000.0000000     
   50000000.0000000     
   50000000.0000000     
   50000000.0000000     
   50000000.0000000     
   50000000.0000000     
   50000000.0000000     
   49999999.9999999     
   49999999.9999999     
   49999999.9999999     
   49999999.9999998     
   49999999.9999997     
   49999999.9999997     
   49999999.9999997     
   49999999.9999996     
   49999999.9999996     
   49999999.9999996     
   50000000.0000001     
   50000000.0000001     
   50000000.0000001     
   50000000.0000001     
   50000000.0000002     
   50000000.0000001     
   50000000.0000001     
   50000000.0000001     
   50000000.0000000     
   50000000.0000000     
   50000000.0000000     
   49999999.9999999     
   49999999.9999999     
   49999999.9999999     
   49999999.9999999     
   49999999.9999999     
   50000000.0000000     
   50000000.0000000     
   50000000.0000000     
   50000000.0000001     
   50000000.0000001     
   50000000.0000000     
   50000000.0000000     
   50000000.0000000     
   49999999.9999999     
   49999999.9999999     
   49999999.9999999     
   49999999.9999999     
   50000000.0000000     
   50000000.0000000     
   50000000.0000000     
   50000000.0000000     
   50000000.0000000     
   50000000.0000000     
   50000000.0000000     
   50000000.0000000     
   50000000.0000001     
   50000000.0000001     
   50000000.0000000     
   50000000.0000000     
   50000000.0000000     
   50000000.0000000     
   50000000.0000000     
   49999999.9999999     
   49999999.9999998     
   49999999.9999998     
   49999999.9999998     
   49999999.9999998     
   49999999.9999998     
   49999999.9999998     
   49999999.9999998     
   50000000.0000001     
   50000000.0000001     
   50000000.0000001     
   50000000.0000001     
   50000000.0000001     
   50000000.0000001     
   50000000.0000001     
   50000000.0000001     
   50000000.0000001     
   50000000.0000000     
   50000000.0000000     
   50000000.0000000     
   50000000.0000000     
   50000000.0000000     
   50000000.0000000     
   49999999.9999999     
   50000000.0000000     
   50000000.0000000     
   50000000.0000000     
   50000000.0000001     
   50000000.0000001     
   50000000.0000000     
   50000000.0000000     
   50000000.0000000     
   49999999.9999999     
   50000000.0000000     
   50000000.0000000     
   50000000.0000000     
   50000000.0000000     
   50000000.0000000     
   50000000.0000000     
   50000000.0000000     
   50000000.0000000     
   50000000.0000001     
   50000000.0000001     
   50000000.0000001     
   50000000.0000001     
   50000000.0000000     
   50000000.0000000     
   50000000.0000000     
   50000000.0000000     
   49999999.9999999     
   49999999.9999999     
   49999999.9999998     
   49999999.9999998     
   49999999.9999997     
   49999999.9999997     
   49999999.9999997     
   49999999.9999997     
   49999999.9999997     
   49999999.9999997     
   50000000.0000001     
   50000000.0000001     
   50000000.0000001     
   50000000.0000001     
   50000000.0000002     
   50000000.0000002     
   50000000.0000002     
   50000000.0000001     
   50000000.0000001     
   50000000.0000000     
   50000000.0000000     
   50000000.0000000     
   50000000.0000000     
   50000000.0000000     
   50000000.0000000     
   50000000.0000000     
   50000000.0000001     
   50000000.0000001     
   50000000.0000001     
   50000000.0000001     
   50000000.0000001     
   50000000.0000001     
   50000000.0000000     
   50000000.0000000     
   49999999.9999999     
   49999999.9999999     
   49999999.9999999     
   49999999.9999999     
   50000000.0000000     
   50000000.0000000     
   50000000.0000000     
   50000000.0000000     
   50000000.0000000     
   50000000.0000000     
   50000000.0000000     
   50000000.0000000     
   50000000.0000000     
   50000000.0000000     
   50000000.0000000     
   49999999.9999999     
   49999999.9999999     
   49999999.9999999     
   49999999.9999999     
   49999999.9999999     
   49999999.9999998     
   49999999.9999997     
   49999999.9999997     
   49999999.9999997     
   49999999.9999997     
   49999999.9999997     
   49999999.9999997     
   50000000.0000001     
   50000000.0000002     
   50000000.0000002     
   50000000.0000002     
   50000000.0000002     
   50000000.0000002     
   50000000.0000001     
   50000000.0000001     
   50000000.0000001     
   50000000.0000000     
   50000000.0000000     
   50000000.0000000     
   50000000.0000000     
   50000000.0000000     
   50000000.0000000     
   50000000.0000000     
   50000000.0000000     
   50000000.0000000     
   50000000.0000000     
   50000000.0000001     
   50000000.0000001     
   50000000.0000000     
   50000000.0000000     
   50000000.0000000     
   49999999.9999999     
   49999999.9999999     
   49999999.9999999     
   49999999.9999999     
   50000000.0000000     
   50000000.0000000     
   49999999.9999999     
   49999999.9999999     
   49999999.9999999     
   50000000.0000000     
   50000000.0000000     
   50000000.0000000     
   50000000.0000000     
   50000000.0000000     
   50000000.0000000     
   50000000.0000000     
   50000000.0000000     
   49999999.9999999     
   49999999.9999999     
   49999999.9999999     
   49999999.9999998     
   49999999.9999998     
   49999999.9999998     
   49999999.9999998     
   49999999.9999997     
   49999999.9999997     
   49999999.9999997     
   50000000.0000002     
   50000000.0000002     
   50000000.0000002     
   50000000.0000002     
   50000000.0000002     
   50000000.0000002     
   50000000.0000001     
   50000000.0000001     
   50000000.0000001     
   50000000.0000000     
   50000000.0000000     
   49999999.9999999     
   49999999.9999999     
   49999999.9999999     
   50000000.0000000     
   50000000.0000000     
   50000000.0000000     
   50000000.0000000     
   50000000.0000000     
   50000000.0000000     
   50000000.0000000     
   50000000.0000000     
   50000000.0000000     
   49999999.9999999     
   49999999.9999999     
   49999999.9999999     
   49999999.9999999     
   49999999.9999999     
   49999999.9999999     
   50000000.0000000     
   50000000.0000000     
   49999999.9999999     
   49999999.9999999     
   50000000.0000000     
   49999999.9999999     
   49999999.9999999     
   50000000.0000000     
   49999999.9999999     
   49999999.9999999     
   49999999.9999999     
   49999999.9999999     
   49999999.9999998     
   49999999.9999999     
   49999999.9999998     
   49999999.9999998     
   49999999.9999997     
   49999999.9999997     
   49999999.9999997     
   49999999.9999997     
   49999999.9999997     
   49999999.9999997     
   50000000.0000001     
   50000000.0000002     
   50000000.0000002     
   50000000.0000002     
   50000000.0000002     
   50000000.0000002     
   50000000.0000002     
   50000000.0000001     
   50000000.0000001     
   50000000.0000000     
   50000000.0000000     
   49999999.9999999     
   49999999.9999999     
   49999999.9999999     
   49999999.9999999     
   49999999.9999999     
   49999999.9999999     
   50000000.0000000     
   50000000.0000000     
   50000000.0000000     
   50000000.0000000     
   50000000.0000000     
   50000000.0000000     
   49999999.9999999     
   49999999.9999999     
   49999999.9999999     
   49999999.9999999     
   49999999.9999999     
   49999999.9999999     
   49999999.9999999     
   49999999.9999999     
   49999999.9999999     
   49999999.9999999     
   49999999.9999999     
   49999999.9999999     
   49999999.9999999     
   50000000.0000000     
   50000000.0000000     
   49999999.9999999     
   49999999.9999999     
   49999999.9999999     
   49999999.9999999     
   49999999.9999998     
   49999999.9999998     
   49999999.9999997     
   49999999.9999997     
   49999999.9999997     
   49999999.9999996     
   49999999.9999997     
   49999999.9999997     
   49999999.9999997     
   50000000.0000001     
   50000000.0000001     
   50000000.0000001     
   50000000.0000001     
   50000000.0000001     
   50000000.0000001     
   50000000.0000001     
   50000000.0000000     
   50000000.0000000     
   50000000.0000000     
   49999999.9999999     
   49999999.9999999     
   49999999.9999999     
   49999999.9999999     
   49999999.9999999     
   49999999.9999998     
   49999999.9999999     
   49999999.9999999     
   50000000.0000000     
   50000000.0000000     
   50000000.0000000     
   50000000.0000000     
   50000000.0000000     
   49999999.9999999     
   49999999.9999999     
   49999999.9999999     
   49999999.9999999     
   49999999.9999999     
   49999999.9999999     
   49999999.9999999     
   49999999.9999999     
   49999999.9999999     
   49999999.9999999     
   49999999.9999999     
   49999999.9999999     
   49999999.9999999     
   49999999.9999999     
   49999999.9999999     
   49999999.9999999     
   49999999.9999999     
   49999999.9999999     
   49999999.9999999     
   49999999.9999998     
   49999999.9999998     
   49999999.9999997     
   49999999.9999997     
   49999999.9999997     
   49999999.9999997     
   49999999.9999997     
   49999999.9999997     
   49999999.9999997     
   50000000.0000000     
   50000000.0000000     
   50000000.0000000     
   50000000.0000000     
   50000000.0000001     
   50000000.0000000     
   50000000.0000000     
   50000000.0000000     
   49999999.9999999     
   49999999.9999999     
   49999999.9999999     
   49999999.9999999     
   49999999.9999999     
   49999999.9999998     
   49999999.9999998     
   49999999.9999998     
   49999999.9999999     
   49999999.9999999     
   49999999.9999999     
   49999999.9999999     
   49999999.9999999     
   49999999.9999999     
   49999999.9999999     
   49999999.9999999     
   49999999.9999999     
   49999999.9999999     
   49999999.9999999     
   49999999.9999999     
   49999999.9999999     
   49999999.9999999     
   49999999.9999999     
   49999999.9999999     
   50000000.0000000     
   50000000.0000000     
   50000000.0000000     
   50000000.0000000     
   50000000.0000000     
   50000000.0000000     
   50000000.0000000     
   49999999.9999999     
   49999999.9999999     
   49999999.9999999     
   49999999.9999998     
   49999999.9999998     
   49999999.9999997     
   49999999.9999997     
   49999999.9999997     
   49999999.9999997     
   49999999.9999997     
   49999999.9999997     
   49999999.9999997     
   50000000.0000000     
   50000000.0000000     
   50000000.0000001     
   50000000.0000001     
   50000000.0000001     
   50000000.0000001     
   50000000.0000000     
   50000000.0000000     
   50000000.0000000     
   49999999.9999999     
   49999999.9999999     
   49999999.9999999     
   49999999.9999999     
   49999999.9999999     
   49999999.9999999     
   49999999.9999999     
   49999999.9999999     
   49999999.9999999     
   49999999.9999999     
   50000000.0000000     
   50000000.0000000     
   50000000.0000000     
   50000000.0000000     
   49999999.9999999     
   49999999.9999999     
   49999999.9999999     
   49999999.9999999     
   49999999.9999999     
   49999999.9999999     
   50000000.0000000     
   49999999.9999999     
   50000000.0000000     
   50000000.0000000     
   50000000.0000000     
   50000000.0000000     
   50000000.0000000     
   50000000.0000000     
   50000000.0000000     
   50000000.0000000     
   50000000.0000000     
   50000000.0000000     
   49999999.9999999     
   49999999.9999999     
   49999999.9999998     
   49999999.9999998     
   49999999.9999997     
   49999999.9999997     
   49999999.9999997     
   49999999.9999996     
   49999999.9999997     
   49999999.9999997     
   50000000.0000001     
   50000000.0000001     
   50000000.0000001     
   50000000.0000001     
   50000000.0000001     
   50000000.0000001     
   50000000.0000001     
   50000000.0000000     
   50000000.0000000     
   50000000.0000000     
   49999999.9999999     
   49999999.9999999     
   49999999.9999999     
   49999999.9999999     
   49999999.9999999     
   49999999.9999999     
   49999999.9999999     
   50000000.0000000     
   50000000.0000000     
   50000000.0000000     
   50000000.0000000     
   50000000.0000000     
   50000000.0000000     
   49999999.9999999     
   49999999.9999999     
   49999999.9999999     
   49999999.9999999     
   49999999.9999999     
   49999999.9999999     
   49999999.9999999     
   49999999.9999999     
   49999999.9999999     
   49999999.9999999     
   50000000.0000000     
   50000000.0000000     
   50000000.0000000     
   50000000.0000000     
   50000000.0000001     
   50000000.0000000     
   50000000.0000000     
   50000000.0000000     
   49999999.9999999     
   49999999.9999999     
   49999999.9999998     
   49999999.9999998     
   49999999.9999997     
   49999999.9999997     
   49999999.9999997     
   49999999.9999997     
   49999999.9999997     
   49999999.9999997     
   50000000.0000002     
   50000000.0000002     
   50000000.0000002     
   50000000.0000002     
   50000000.0000002     
   50000000.0000002     
   50000000.0000001     
   50000000.0000001     
   50000000.0000000     
   50000000.0000000     
   49999999.9999999     
   49999999.9999999     
   49999999.9999999     
   49999999.9999999     
   49999999.9999999     
   49999999.9999999     
   49999999.9999999     
   50000000.0000000     
   50000000.0000000     
   50000000.0000000     
   50000000.0000000     
   50000000.0000000     
   50000000.0000000     
   49999999.9999999     
   49999999.9999999     
   49999999.9999999     
   49999999.9999999     
   49999999.9999999     
   49999999.9999999     
   49999999.9999999     
   49999999.9999999     
   49999999.9999999     
   49999999.9999999     
   50000000.0000000     
   50000000.0000000     
   50000000.0000000     
   50000000.0000000     
   50000000.0000000     
   50000000.0000000     
   50000000.0000000     
   49999999.9999999     
   49999999.9999999     
   49999999.9999999     
   49999999.9999998     
   49999999.9999998     
   49999999.9999998     
   49999999.9999997     
   49999999.9999997     
   49999999.9999997     
   49999999.9999998     
   49999999.9999998     
   50000000.0000002     
   50000000.0000002     
   50000000.0000002     
   50000000.0000002     
   50000000.0000003     
   50000000.0000002     
   50000000.0000002     
   50000000.0000001     
   50000000.0000000     
   50000000.0000000     
   49999999.9999999     
   49999999.9999999     
   49999999.9999999     
   49999999.9999999     
   49999999.9999999     
   49999999.9999999     
   49999999.9999999     
   50000000.0000000     
   50000000.0000000     
   50000000.0000000     
   50000000.0000000     
   50000000.0000000     
   49999999.9999999     
   49999999.9999999     
   49999999.9999999     
   49999999.9999999     
   49999999.9999999     
   49999999.9999999     
   50000000.0000000     
   49999999.9999999     
   49999999.9999999     
   49999999.9999999     
   49999999.9999999     
   49999999.9999999     
   50000000.0000000     
   50000000.0000000     
   50000000.0000000     
   50000000.0000000     
   50000000.0000000     
   49999999.9999999     
   49999999.9999999     
   49999999.9999999     
   49999999.9999999     
   49999999.9999998     
   49999999.9999997     
   49999999.9999997     
   49999999.9999997     
   49999999.9999997     
   49999999.9999997     
   49999999.9999997     
   49999999.9999997     
   50000000.0000001     
   50000000.0000001     
   50000000.0000002     
   50000000.0000002     
   50000000.0000002     
   50000000.0000002     
   50000000.0000001     
   50000000.0000001     
   50000000.0000000     
   50000000.0000000     
   50000000.0000000     
   49999999.9999999     
   50000000.0000000     
   49999999.9999999     
   49999999.9999999     
   49999999.9999999     
   49999999.9999999     
   49999999.9999999     
   50000000.0000000     
   50000000.0000000     
   50000000.0000000     
   50000000.0000000     
   49999999.9999999     
   49999999.9999999     
   49999999.9999999     
   49999999.9999999     
   49999999.9999999     
   49999999.9999999     
   49999999.9999999     
   49999999.9999999     
   49999999.9999999     
   49999999.9999999     
   50000000.0000000     
   50000000.0000000     
   50000000.0000000     
   50000000.0000000     
   50000000.0000000     
   50000000.0000000     
   50000000.0000000     
   49999999.9999999     
   49999999.9999999     
   49999999.9999999     
   49999999.9999998     
   49999999.9999998     
   49999999.9999997     
   49999999.9999997     
   49999999.9999997     
   49999999.9999997     
   49999999.9999997     
   49999999.9999997     
   49999999.9999997     
   50000000.0000001     
   50000000.0000001     
   50000000.0000002     
   50000000.0000002     
   50000000.0000002     
   50000000.0000001     
   50000000.0000000     
   50000000.0000000     
   49999999.9999999     
   49999999.9999999     
   49999999.9999999     
   49999999.9999998     
   49999999.9999998     
   49999999.9999998     
   49999999.9999999     
   49999999.9999999     
   49999999.9999999     
   49999999.9999999     
   50000000.0000000     
   50000000.0000000     
   50000000.0000000     
   50000000.0000000     
   49999999.9999999     
   49999999.9999999     
   49999999.9999999     
   49999999.9999999     
   49999999.9999999     
   49999999.9999999     
   49999999.9999999     
   49999999.9999999     
   49999999.9999999     
   49999999.9999999     
   49999999.9999999     
   50000000.0000000     
   50000000.0000000     
   50000000.0000000     
   50000000.0000000     
   50000000.0000000     
   50000000.0000000     
   50000000.0000000     
   49999999.9999999     
   49999999.9999999     
   49999999.9999999     
   49999999.9999999     
   49999999.9999999     
   49999999.9999998     
   49999999.9999998     
   49999999.9999998     
   49999999.9999998     
   49999999.9999998     
   49999999.9999998     
   50000000.0000001     
   50000000.0000001     
   50000000.0000001     
   50000000.0000001     
   50000000.0000001     
   50000000.0000001     
   50000000.0000001     
   50000000.0000000     
   50000000.0000000     
   49999999.9999999     
   49999999.9999999     
   49999999.9999999     
   49999999.9999999     
   49999999.9999998     
   49999999.9999998     
   49999999.9999998     
   49999999.9999999     
   49999999.9999999     
   49999999.9999999     
   50000000.0000000     
   50000000.0000000     
   50000000.0000000     
   49999999.9999999     
   49999999.9999999     
   49999999.9999998     
   49999999.9999998     
   49999999.9999998     
   49999999.9999998     
   49999999.9999999     
   49999999.9999999     
   49999999.9999999     
   49999999.9999999     
   50000000.0000000     
   50000000.0000000     
   50000000.0000000     
   50000000.0000000     
   50000000.0000001     
   50000000.0000000     
   50000000.0000000     
   50000000.0000001     
   50000000.0000000     
   50000000.0000000     
   50000000.0000000     
   49999999.9999999     
   49999999.9999999     
   49999999.9999998     
   49999999.9999998     
   49999999.9999998     
   49999999.9999998     
   49999999.9999998     
   49999999.9999998     
   50000000.0000002     
   50000000.0000002     
   50000000.0000002     
   50000000.0000002     
   50000000.0000002     
   50000000.0000002     
   50000000.0000002     
   50000000.0000001     
   50000000.0000001     
   50000000.0000000     
   50000000.0000000     
   49999999.9999999     
   49999999.9999999     
   49999999.9999999     
   49999999.9999999     
   49999999.9999999     
   49999999.9999999     
   49999999.9999999     
   50000000.0000000     
   50000000.0000000     
   50000000.0000000     
   50000000.0000000     
   49999999.9999999     
   49999999.9999999     
   49999999.9999998     
   49999999.9999998     
   49999999.9999998     
   49999999.9999999     
   49999999.9999999     
   49999999.9999999     
   49999999.9999999     
   49999999.9999999     
   49999999.9999999     
   50000000.0000000     
   50000000.0000000     
   50000000.0000000     
   50000000.0000000     
   50000000.0000001     
   50000000.0000000     
   50000000.0000000     
   50000000.0000000     
   50000000.0000000     
   49999999.9999999     
   49999999.9999999     
   49999999.9999998     
   49999999.9999998     
   49999999.9999998     
   49999999.9999998     
   49999999.9999998     
   49999999.9999998     
   49999999.9999998     
   50000000.0000001     
   50000000.0000001     
   50000000.0000001     
   50000000.0000001     
   50000000.0000001     
   50000000.0000001     
   50000000.0000001     
   50000000.0000000     
   50000000.0000000     
   50000000.0000000     
   50000000.0000000     
   49999999.9999999     
   49999999.9999999     
   49999999.9999999     
   50000000.0000000     
   50000000.0000000     
   50000000.0000000     
   50000000.0000000     
   50000000.0000000     
   50000000.0000000     
   50000000.0000000     
   50000000.0000000     
   50000000.0000000     
   49999999.9999999     
   49999999.9999999     
   49999999.9999999     
   49999999.9999999     
   49999999.9999999     
   49999999.9999999     
   50000000.0000000     
   50000000.0000000     
   50000000.0000000     
   50000000.0000000     
   50000000.0000000     
   50000000.0000000     
   50000000.0000000     
   50000000.0000000     
   50000000.0000000     
   50000000.0000000     
   50000000.0000000     
   50000000.0000000     
   50000000.0000000     
   49999999.9999999     
   49999999.9999999     
   49999999.9999999     
   49999999.9999998     
   49999999.9999998     
   49999999.9999998     
   49999999.9999998     
   49999999.9999998     
   49999999.9999998     
   50000000.0000001     
   50000000.0000001     
   50000000.0000001     
   50000000.0000001     
   50000000.0000001     
   50000000.0000001     
   50000000.0000001     
   50000000.0000001     
   50000000.0000000     
   50000000.0000000     
   50000000.0000000     
   49999999.9999999     
   50000000.0000000     
   50000000.0000000     
   50000000.0000000     
   50000000.0000000     
   50000000.0000000     
   50000000.0000001     
   50000000.0000001     
   50000000.0000001     
   50000000.0000001     
   50000000.0000000     
   50000000.0000000     
   49999999.9999999     
   49999999.9999999     
   49999999.9999999     
   49999999.9999999     
   49999999.9999999     
   49999999.9999999     
   49999999.9999999     
   49999999.9999999     
   49999999.9999999     
   49999999.9999999     
   50000000.0000000     
   50000000.0000000     
   50000000.0000000     
   50000000.0000001     
   50000000.0000001     
   50000000.0000001     
   50000000.0000001     
   50000000.0000000     
   50000000.0000000     
   49999999.9999999     
   49999999.9999999     
   49999999.9999998     
   49999999.9999998     
   49999999.9999997     
   49999999.9999997     
   49999999.9999997     
   49999999.9999997     
   49999999.9999997     
   50000000.0000001     
   50000000.0000001     
   50000000.0000001     
   50000000.0000001     
   50000000.0000002     
   50000000.0000002     
   50000000.0000001     
   50000000.0000001     
   50000000.0000000     
   50000000.0000000     
   50000000.0000000     
   49999999.9999999     
   49999999.9999999     
   49999999.9999999     
   49999999.9999999     
   49999999.9999999     
   50000000.0000000     
   50000000.0000000     
   50000000.0000000     
   50000000.0000001     
   50000000.0000001     
   50000000.0000000     
   50000000.0000000     
   49999999.9999999     
   49999999.9999999     
   49999999.9999999     
   49999999.9999999     
   49999999.9999999     
   49999999.9999999     
   49999999.9999999     
   49999999.9999999     
   49999999.9999999     
   49999999.9999999     
   50000000.0000000     
   50000000.0000000     
   50000000.0000000     
   50000000.0000000     
   50000000.0000000     
   50000000.0000000     
   50000000.0000000     
   50000000.0000000     
   49999999.9999999     
   49999999.9999999     
   49999999.9999999     
   49999999.9999998     
   49999999.9999997     
   49999999.9999997     
   49999999.9999997     
   49999999.9999997     
   49999999.9999997     
   49999999.9999997     
   50000000.0000001     
   50000000.0000001     
   50000000.0000001     
   50000000.0000002     
   50000000.0000002     
   50000000.0000002     
   50000000.0000001     
   50000000.0000001     
   50000000.0000001     
   50000000.0000000     
   50000000.0000000     
   49999999.9999999     
   50000000.0000000     
   49999999.9999999     
   49999999.9999999     
   49999999.9999999     
   50000000.0000000     
   50000000.0000000     
   50000000.0000000     
   50000000.0000001     
   50000000.0000001     
   50000000.0000000     
   50000000.0000000     
   50000000.0000000     
   50000000.0000000     
   50000000.0000000     
   50000000.0000000     
   50000000.0000000     
   50000000.0000000     
   50000000.0000000     
   49999999.9999999     
   49999999.9999999     
   49999999.9999999     
   50000000.0000000     
   50000000.0000000     
   50000000.0000000     
   50000000.0000000     
   50000000.0000000     
   50000000.0000000     
   50000000.0000000     
   50000000.0000000     
   49999999.9999999     
   49999999.9999999     
   49999999.9999999     
   49999999.9999998     
   49999999.9999998     
   49999999.9999998     
   49999999.9999998     
   49999999.9999997     
   49999999.9999997     
   49999999.9999998     
   50000000.0000002     
   50000000.0000002     
   50000000.0000002     
   50000000.0000002     
   50000000.0000003     
   50000000.0000002     
   50000000.0000002     
   50000000.0000001     
   50000000.0000001     
   50000000.0000000     
   50000000.0000000     
   50000000.0000000     
   50000000.0000000     
   50000000.0000000     
   50000000.0000000     
   50000000.0000000     
   50000000.0000000     
   50000000.0000000     
   50000000.0000000     
   50000000.0000001     
   50000000.0000001     
   50000000.0000000     
   50000000.0000000     
   49999999.9999999     
   49999999.9999999     
   49999999.9999999     
   49999999.9999999     
   49999999.9999999     
   49999999.9999999     
   50000000.0000000     
   49999999.9999999     
   50000000.0000000     
   50000000.0000000     
   50000000.0000000     
   50000000.0000000     
   50000000.0000000     
   50000000.0000000     
   50000000.0000000     
   50000000.0000000     
   50000000.0000000     
   50000000.0000000     
   49999999.9999999     
   49999999.9999999     
   49999999.9999999     
   49999999.9999998     
   49999999.9999998     
   49999999.9999998     
   49999999.9999997     
   49999999.9999997     
   49999999.9999997     
   49999999.9999997     
   50000000.0000002     
   50000000.0000002     
   50000000.0000002     
   50000000.0000002     
   50000000.0000002     
   50000000.0000002     
   50000000.0000001     
   50000000.0000001     
   50000000.0000000     
   50000000.0000000     
   50000000.0000000     
   49999999.9999999     
   49999999.9999999     
   49999999.9999999     
   50000000.0000000     
   50000000.0000000     
   50000000.0000000     
   50000000.0000000     
   50000000.0000000     
   50000000.0000000     
   50000000.0000000     
   50000000.0000000     
   50000000.0000000     
   49999999.9999999     
   49999999.9999999     
   49999999.9999999     
   49999999.9999999     
   49999999.9999999     
   49999999.9999999     
   50000000.0000000     
   50000000.0000000     
   50000000.0000000     
   50000000.0000000     
   50000000.0000000     
   50000000.0000000     
   50000000.0000000     
   50000000.0000000     
   50000000.0000001     
   50000000.0000000     
   50000000.0000000     
   50000000.0000000     
   50000000.0000000     
   50000000.0000000     
   49999999.9999999     
   49999999.9999998     
   49999999.9999998     
   49999999.9999998     
   49999999.9999998     
   49999999.9999997     
   49999999.9999997     
   49999999.9999997     
   50000000.0000001     
   50000000.0000001     
   50000000.0000001     
   50000000.0000002     
   50000000.0000002     
   50000000.0000002     
   50000000.0000002     
   50000000.0000002     
   50000000.0000001     
   50000000.0000001     
   50000000.0000000     
   50000000.0000000     
   50000000.0000000     
   50000000.0000000     
   50000000.0000000     
   50000000.0000000     
   50000000.0000000     
   50000000.0000001     
   50000000.0000001     
   50000000.0000001     
   50000000.0000001     
   50000000.0000000     
   50000000.0000000     
   49999999.9999999     
   49999999.9999999     
   49999999.9999999     
   49999999.9999999     
   49999999.9999999     
   50000000.0000000     
   50000000.0000000     
   49999999.9999999     
   50000000.0000000     
   50000000.0000000     
   50000000.0000000     
   50000000.0000000     
   50000000.0000000     
   50000000.0000000     
   50000000.0000000     
   50000000.0000000     
   50000000.0000000     
   50000000.0000000     
   49999999.9999999     
   49999999.9999999     
   49999999.9999999     
   49999999.9999998     
   49999999.9999998     
   49999999.9999997     
   49999999.9999997     
   49999999.9999997     
   49999999.9999997     
   49999999.9999997     
   50000000.0000001     
   50000000.0000001     
   50000000.0000001     
   50000000.0000001     
   50000000.0000001     
   50000000.0000001     
   50000000.0000001     
   50000000.0000001     
   50000000.0000001     
   50000000.0000000     
   50000000.0000000     
   50000000.0000000     
   50000000.0000000     
   50000000.0000000     
   50000000.0000000     
   50000000.0000000     
   50000000.0000001     
   50000000.0000000     
   50000000.0000001     
   50000000.0000001     
   50000000.0000001     
   50000000.0000001     
   50000000.0000000     
   50000000.0000000     
   50000000.0000000     
   50000000.0000000     
   49999999.9999999     
   49999999.9999999     
   50000000.0000000     
   50000000.0000000     
   50000000.0000000     
   49999999.9999999     
   50000000.0000000     
   50000000.0000000     
   50000000.0000000     
   50000000.0000000     
   50000000.0000000     
   50000000.0000000     
   50000000.0000000     
   50000000.0000000     
   50000000.0000000     
   49999999.9999999     
   49999999.9999999     
   49999999.9999999     
   49999999.9999998     
   49999999.9999997     
   49999999.9999997     
   49999999.9999997     
   49999999.9999997     
   49999999.9999997     
   49999999.9999997     
   50000000.0000001     
   50000000.0000002     
   50000000.0000002     
   50000000.0000002     
   50000000.0000002     
   50000000.0000002     
   50000000.0000002     
   50000000.0000001     
   50000000.0000001     
   50000000.0000000     
   50000000.0000000     
   49999999.9999999     
   50000000.0000000     
   49999999.9999999     
   50000000.0000000     
   50000000.0000000     
   50000000.0000000     
   50000000.0000000     
   50000000.0000000     
   50000000.0000000     
   50000000.0000001     
   50000000.0000000     
   50000000.0000000     
   50000000.0000000     
   50000000.0000000     
   50000000.0000000     
   50000000.0000000     
   49999999.9999999     
   49999999.9999999     
   50000000.0000000     
   50000000.0000000     
   50000000.0000000     
   50000000.0000000     
   50000000.0000000     
   50000000.0000000     
   50000000.0000000     
   50000000.0000000     
   50000000.0000000     
   50000000.0000000     
   50000000.0000000     
   49999999.9999999     
   49999999.9999999     
   49999999.9999999     
   49999999.9999998     
   49999999.9999998     
   49999999.9999997     
   49999999.9999997     
   49999999.9999997     
   49999999.9999997     
   49999999.9999997     
   49999999.9999997     
   50000000.0000001     
   50000000.0000001     
   50000000.0000001     
   50000000.0000001     
   50000000.0000002     
   50000000.0000001     
   50000000.0000001     
   50000000.0000001     
   50000000.0000000     
   50000000.0000000     
   50000000.0000000     
   50000000.0000000     
   50000000.0000000     
   49999999.9999999     
   49999999.9999999     
   49999999.9999999     
   50000000.0000000     
   50000000.0000000     
   50000000.0000000     
   50000000.0000001     
   50000000.0000001     
   50000000.0000001     
   50000000.0000000     
   50000000.0000000     
   50000000.0000000     
   49999999.9999999     
   49999999.9999999     
   50000000.0000000     
   50000000.0000000     
   50000000.0000000     
   50000000.0000000     
   50000000.0000000     
   50000000.0000000     
   50000000.0000000     
   50000000.0000000     
   50000000.0000000     
   50000000.0000000     
   50000000.0000000     
   50000000.0000000     
   50000000.0000000     
   50000000.0000000     
   49999999.9999999     
   49999999.9999999     
   49999999.9999998     
   49999999.9999997     
   49999999.9999997     
   49999999.9999997     
   49999999.9999997     
   49999999.9999997     
   49999999.9999997     
   49999999.9999997     
   50000000.0000001     
   50000000.0000001     
   50000000.0000001     
   50000000.0000001     
   50000000.0000001     
   50000000.0000001     
   50000000.0000001     
   50000000.0000001     
   50000000.0000001     
   50000000.0000001     
   50000000.0000000     
   50000000.0000000     
   50000000.0000000     
   50000000.0000000     
   50000000.0000000     
   50000000.0000000     
   50000000.0000000     
   50000000.0000000     
   50000000.0000000     
   50000000.0000000     
   50000000.0000001     
   50000000.0000000     
   50000000.0000000     
   50000000.0000000     
   49999999.9999999     
   49999999.9999999     
   49999999.9999999     
   49999999.9999999     
   49999999.9999999     
   49999999.9999999     
   50000000.0000000     
   49999999.9999999     
   49999999.9999999     
   49999999.9999999     
   50000000.0000000     
   50000000.0000000     
   50000000.0000000     
   50000000.0000000     
   50000000.0000000     
   50000000.0000000     
   50000000.0000000     
   49999999.9999999     
   49999999.9999999     
   49999999.9999999     
   49999999.9999998     
   49999999.9999997     
   49999999.9999997     
   49999999.9999997     
   49999999.9999997     
   49999999.9999997     
   49999999.9999997     
   50000000.0000001     
   50000000.0000001     
   50000000.0000001     
   50000000.0000001     
   50000000.0000001     
   50000000.0000001     
   50000000.0000001     
   50000000.0000001     
   50000000.0000000     
   50000000.0000000     
   49999999.9999999     
   49999999.9999999     
   49999999.9999999     
   49999999.9999999     
   49999999.9999999     
   49999999.9999999     
   50000000.0000000     
   50000000.0000000     
   50000000.0000000     
   50000000.0000001     
   50000000.0000000     
   50000000.0000000     
   50000000.0000000     
   50000000.0000000     
   49999999.9999999     
   49999999.9999999     
   49999999.9999999     
   49999999.9999999     
   50000000.0000000     
   50000000.0000000     
   50000000.0000000     
   50000000.0000000     
   50000000.0000000     
   50000000.0000000     
   50000000.0000001     
   50000000.0000001     
   50000000.0000001     
   50000000.0000001     
   50000000.0000001     
   50000000.0000000     
   50000000.0000000     
   49999999.9999999     
   49999999.9999999     
   49999999.9999999     
   49999999.9999998     
   49999999.9999997     
   49999999.9999997     
   49999999.9999997     
   49999999.9999996     
   49999999.9999996     
   49999999.9999996     
   50000000.0000001     
   50000000.0000001     
   50000000.0000001     
   50000000.0000001     
   50000000.0000001     
   50000000.0000001     
   50000000.0000000     
   50000000.0000000     
   50000000.0000000     
   50000000.0000000     
   49999999.9999999     
   49999999.9999999     
   49999999.9999999     
   49999999.9999999     
   49999999.9999999     
   49999999.9999999     
   49999999.9999999     
   49999999.9999999     
   50000000.0000000     
   50000000.0000000     
   50000000.0000000     
   50000000.0000000     
   50000000.0000000     
   49999999.9999999     
   49999999.9999999     
   49999999.9999999     
   49999999.9999999     
   49999999.9999999     
   49999999.9999999     
   50000000.0000000     
   50000000.0000000     
   50000000.0000000     
   50000000.0000000     
   50000000.0000001     
   50000000.0000001     
   50000000.0000001     
   50000000.0000001     
   50000000.0000001     
   50000000.0000001     
   50000000.0000001     
   50000000.0000000     
   49999999.9999999     
   49999999.9999999     
   49999999.9999998     
   49999999.9999997     
   49999999.9999997     
   49999999.9999997     
   49999999.9999997     
   49999999.9999997     
   49999999.9999997     
   49999999.9999996     
   50000000.0000001     
   50000000.0000001     
   50000000.0000001     
   50000000.0000001     
   50000000.0000001     
   50000000.0000001     
   50000000.0000001     
   50000000.0000001     
   50000000.0000000     
   50000000.0000000     
   50000000.0000000     
   49999999.9999999     
   49999999.9999999     
   49999999.9999999     
   49999999.9999999     
   49999999.9999999     
   49999999.9999999     
   50000000.0000000     
   50000000.0000000     
   50000000.0000000     
   50000000.0000000     
   50000000.0000000     
   49999999.9999999     
   49999999.9999999     
   49999999.9999999     
   49999999.9999999     
   49999999.9999999     
   49999999.9999999     
   49999999.9999999     
   49999999.9999999     
   49999999.9999999     
   49999999.9999999     
   50000000.0000000     
   50000000.0000000     
   50000000.0000000     
   50000000.0000000     
   50000000.0000000     
   50000000.0000000     
   50000000.0000000     
   49999999.9999999     
   49999999.9999999     
   49999999.9999999     
   49999999.9999998     
   49999999.9999998     
   49999999.9999997     
   49999999.9999997     
   49999999.9999996     
   49999999.9999996     
   49999999.9999996     
   49999999.9999996     
   49999999.9999996     
   50000000.0000001     
   50000000.0000002     
   50000000.0000002     
   50000000.0000002     
   50000000.0000002     
   50000000.0000002     
   50000000.0000001     
   50000000.0000001     
   50000000.0000000     
   50000000.0000000     
   49999999.9999999     
   49999999.9999999     
   49999999.9999999     
   49999999.9999999     
   49999999.9999999     
   49999999.9999999     
   50000000.0000000     
   50000000.0000000     
   50000000.0000001     
   50000000.0000001     
   50000000.0000001     
   50000000.0000001     
   50000000.0000000     
   50000000.0000000     
   50000000.0000000     
   49999999.9999999     
   49999999.9999999     
   49999999.9999999     
   50000000.0000000     
   50000000.0000000     
   49999999.9999999     
   49999999.9999999     
   50000000.0000000     
   50000000.0000000     
   50000000.0000000     
   50000000.0000000     
   50000000.0000000     
   50000000.0000000     
   50000000.0000000     
   49999999.9999999     
   49999999.9999999     
   49999999.9999999     
   49999999.9999999     
   49999999.9999998     
   49999999.9999998     
   49999999.9999997     
   49999999.9999997     
   49999999.9999997     
   49999999.9999997     
   49999999.9999997     
   49999999.9999997     
   50000000.0000002     
   50000000.0000002     
   50000000.0000002     
   50000000.0000002     
   50000000.0000002     
   50000000.0000002     
   50000000.0000001     
   50000000.0000001     
   50000000.0000000     
   50000000.0000000     
   50000000.0000000     
   49999999.9999999     
   49999999.9999999     
   49999999.9999999     
   49999999.9999999     
   49999999.9999999     
   50000000.0000000     
   50000000.0000000     
   50000000.0000000     
   50000000.0000001     
   50000000.0000001     
   50000000.0000000     
   50000000.0000000     
   50000000.0000000     
   50000000.0000000     
   49999999.9999999     
   49999999.9999999     
   49999999.9999999     
   49999999.9999999     
   49999999.9999999     
   49999999.9999999     
   49999999.9999999     
   49999999.9999999     
   49999999.9999999     
   49999999.9999999     
   50000000.0000000     
   50000000.0000000     
   50000000.0000000     
   49999999.9999999     
   49999999.9999999     
   49999999.9999999     
   49999999.9999999     
   49999999.9999999     
   49999999.9999998     
   49999999.9999997     
   49999999.9999997     
   49999999.9999997     
   49999999.9999997     
   49999999.9999997     
   49999999.9999997     
   49999999.9999997     
   50000000.0000001     
   50000000.0000001     
   50000000.0000001     
   50000000.0000001     
   50000000.0000001     
   50000000.0000001     
   50000000.0000001     
   50000000.0000000     
   50000000.0000000     
   50000000.0000000     
   49999999.9999999     
   49999999.9999999     
   49999999.9999999     
   49999999.9999999     
   49999999.9999999     
   49999999.9999999     
   50000000.0000000     
   50000000.0000000     
   50000000.0000000     
   50000000.0000000     
   50000000.0000000     
   50000000.0000000     
   49999999.9999999     
   49999999.9999999     
   49999999.9999999     
   49999999.9999999     
   49999999.9999999     
   49999999.9999999     
   49999999.9999999     
   49999999.9999999     
   49999999.9999999     
   49999999.9999999     
   49999999.9999999     
   49999999.9999999     
   49999999.9999999     
   49999999.9999999     
   50000000.0000000     
   50000000.0000000     
   50000000.0000000     
   50000000.0000000     
   50000000.0000000     
   49999999.9999999     
   49999999.9999999     
   49999999.9999999     
   49999999.9999999     
   49999999.9999998     
   49999999.9999998     
   49999999.9999997     
   49999999.9999997     
   49999999.9999997     
   49999999.9999997     
   50000000.0000000     
   50000000.0000000     
   50000000.0000001     
   50000000.0000000     
   50000000.0000001     
   50000000.0000000     
   50000000.0000000     
   50000000.0000000     
   49999999.9999999     
   49999999.9999999     
   49999999.9999999     
   49999999.9999999     
   49999999.9999999     
   50000000.0000000     
   50000000.0000000     
   50000000.0000000     
   50000000.0000000     
   50000000.0000000     
   50000000.0000001     
   50000000.0000001     
   50000000.0000000     
   50000000.0000000     
   50000000.0000000     
   49999999.9999999     
   49999999.9999999     
   49999999.9999999     
   49999999.9999999     
   49999999.9999999     
   49999999.9999999     
   49999999.9999999     
   49999999.9999999     
   49999999.9999999     
   49999999.9999999     
   49999999.9999999     
   50000000.0000000     
   50000000.0000000     
   50000000.0000000     
   50000000.0000000     
   50000000.0000000     
   49999999.9999999     
   49999999.9999999     
   49999999.9999999     
   49999999.9999999     
   49999999.9999999     
   49999999.9999998     
   49999999.9999998     
   49999999.9999998     
   49999999.9999997     
   49999999.9999997     
   49999999.9999997     
   49999999.9999997     
   49999999.9999999     
   49999999.9999999     
   49999999.9999999     
   50000000.0000000     
   50000000.0000000     
   50000000.0000000     
   50000000.0000000     
   50000000.0000000     
   50000000.0000000     
   50000000.0000000     
   50000000.0000000     
   50000000.0000000     
   50000000.0000000     
   50000000.0000000     
   50000000.0000000     
   50000000.0000000     
   50000000.0000000     
   50000000.0000001     
   50000000.0000001     
   50000000.0000001     
   50000000.0000001     
   50000000.0000001     
   50000000.0000000     
   50000000.0000000     
   49999999.9999999     
   49999999.9999999     
   49999999.9999999     
   49999999.9999999     
   50000000.0000000     
   49999999.9999999     
   49999999.9999999     
   49999999.9999999     
   49999999.9999999     
   49999999.9999999     
   49999999.9999999     
   49999999.9999999     
   50000000.0000000     
   50000000.0000000     
   50000000.0000000     
   50000000.0000000     
   50000000.0000000     
   49999999.9999999     
   49999999.9999999     
   49999999.9999999     
   49999999.9999998     
   49999999.9999997     
   49999999.9999997     
   49999999.9999997     
   49999999.9999997     
   49999999.9999997     
   49999999.9999997     
   50000000.0000001     
   50000000.0000001     
   50000000.0000001     
   50000000.0000001     
   50000000.0000001     
   50000000.0000001     
   50000000.0000000     
   50000000.0000000     
   50000000.0000000     
   49999999.9999999     
   49999999.9999999     
   49999999.9999999     
   50000000.0000000     
   50000000.0000000     
   50000000.0000000     
   50000000.0000000     
   50000000.0000001     
   50000000.0000001     
   50000000.0000001     
   50000000.0000001     
   50000000.0000001     
   50000000.0000000     
   50000000.0000000     
   50000000.0000000     
   49999999.9999999     
   49999999.9999999     
   49999999.9999999     
   49999999.9999999     
   49999999.9999999     
   49999999.9999999     
   49999999.9999999     
   49999999.9999999     
   49999999.9999999     
   49999999.9999999     
   49999999.9999999     
   49999999.9999999     
   49999999.9999999     
   50000000.0000000     
   50000000.0000000     
   50000000.0000000     
   49999999.9999999     
   49999999.9999999     
   49999999.9999999     
   49999999.9999999     
   49999999.9999998     
   49999999.9999998     
   49999999.9999998     
   49999999.9999998     
   49999999.9999997     
   49999999.9999997     
   49999999.9999997     
   50000000.0000001     
   50000000.0000001     
   50000000.0000001     
   50000000.0000001     
   50000000.0000001     
   50000000.0000001     
   50000000.0000001     
   50000000.0000000     
   50000000.0000000     
   49999999.9999999     
   49999999.9999999     
   49999999.9999999     
   49999999.9999999     
   49999999.9999999     
   50000000.0000000     
   50000000.0000000     
   50000000.0000000     
   50000000.0000000     
   50000000.0000001     
   50000000.0000001     
   50000000.0000001     
   50000000.0000000     
   50000000.0000000     
   49999999.9999999     
   49999999.9999999     
   49999999.9999999     
   49999999.9999999     
   49999999.9999999     
   50000000.0000000     
   50000000.0000000     
   49999999.9999999     
   49999999.9999999     
   49999999.9999999     
   49999999.9999999     
   49999999.9999999     
   50000000.0000000     
   50000000.0000000     
   50000000.0000000     
   50000000.0000000     
   50000000.0000000     
   49999999.9999999     
   49999999.9999999     
   49999999.9999999     
   49999999.9999998     
   49999999.9999998     
   49999999.9999998     
   49999999.9999998     
   49999999.9999998     
   49999999.9999998     
   49999999.9999998     
   49999999.9999998     
   50000000.0000001     
   50000000.0000001     
   50000000.0000001     
   50000000.0000001     
   50000000.0000001     
   50000000.0000001     
   50000000.0000001     
   50000000.0000001     
   50000000.0000000     
   49999999.9999999     
   49999999.9999999     
   49999999.9999999     
   49999999.9999999     
   49999999.9999999     
   49999999.9999999     
   49999999.9999999     
   50000000.0000000     
   49999999.9999999     
   50000000.0000000     
   50000000.0000000     
   50000000.0000000     
   50000000.0000000     
   50000000.0000000     
   49999999.9999999     
   49999999.9999999     
   49999999.9999999     
   49999999.9999999     
   49999999.9999999     
   49999999.9999999     
   50000000.0000000     
   49999999.9999999     
   49999999.9999999     
   49999999.9999999     
   49999999.9999999     
   50000000.0000000     
   50000000.0000000     
   50000000.0000000     
   50000000.0000000     
   50000000.0000000     
   50000000.0000000     
   49999999.9999999     
   49999999.9999999     
   49999999.9999998     
   49999999.9999998     
   49999999.9999998     
   49999999.9999998     
   49999999.9999997     
   49999999.9999997     
   49999999.9999997     
   49999999.9999997     
   49999999.9999997     
   50000000.0000000     
   50000000.0000000     
   50000000.0000000     
   50000000.0000000     
   50000000.0000001     
   50000000.0000001     
   50000000.0000000     
   50000000.0000000     
   49999999.9999999     
   49999999.9999999     
   49999999.9999998     
   49999999.9999998     
   49999999.9999998     
   49999999.9999997     
   49999999.9999997     
   49999999.9999997     
   49999999.9999998     
   49999999.9999998     
   49999999.9999998     
   49999999.9999999     
   49999999.9999999     
   49999999.9999999     
   49999999.9999998     
   49999999.9999998     
   49999999.9999998     
   49999999.9999997     
   49999999.9999998     
   49999999.9999998     
   49999999.9999998     
   49999999.9999998     
   49999999.9999998     
   49999999.9999998     
   49999999.9999998     
   49999999.9999998     
   49999999.9999998     
   49999999.9999998     
   49999999.9999998     
   49999999.9999998     
   49999999.9999998     
   49999999.9999998     
   49999999.9999998     
   49999999.9999997     
   49999999.9999997     
   49999999.9999997     
   49999999.9999996     
   49999999.9999996     
   49999999.9999996     
   49999999.9999996     
   49999999.9999996     
   49999999.9999995     
   49999999.9999995     
   49999999.9999990     
   49999999.9999990     
   49999999.9999990     
   49999999.9999991     
   49999999.9999991     
   49999999.9999991     
   49999999.9999990     
   49999999.9999990     
   49999999.9999989     
   49999999.9999989     
   49999999.9999988     
   49999999.9999988     
   49999999.9999988     
   49999999.9999988     
   49999999.9999988     
   49999999.9999988     
   49999999.9999988     
   49999999.9999988     
   49999999.9999989     
   49999999.9999989     
   49999999.9999989     
   49999999.9999988     
   49999999.9999988     
   49999999.9999987     
   49999999.9999987     
   49999999.9999987     
   49999999.9999987     
   49999999.9999987     
   49999999.9999988     
   49999999.9999988     
   49999999.9999988     
   49999999.9999988     
   49999999.9999988     
   49999999.9999988     
   49999999.9999988     
   49999999.9999988     
   49999999.9999988     
   49999999.9999989     
   49999999.9999989     
   49999999.9999989     
   49999999.9999988     
   49999999.9999988     
   49999999.9999988     
   49999999.9999988     
   49999999.9999987     
   49999999.9999987     
   49999999.9999987     
   49999999.9999986     
   49999999.9999986     
   49999999.9999986     
   49999999.9999986     
   49999999.9999919     
   49999999.9999919     
   49999999.9999919     
   49999999.9999919     
   49999999.9999919     
   49999999.9999919     
   49999999.9999919     
   49999999.9999918     
   49999999.9999917     
   49999999.9999917     
   49999999.9999916     
   49999999.9999916     
   49999999.9999916     
   49999999.9999916     
   49999999.9999916     
   49999999.9999917     
   49999999.9999917     
   49999999.9999917     
   49999999.9999918     
   49999999.9999918     
   49999999.9999918     
   49999999.9999917     
   49999999.9999917     
   49999999.9999917     
   49999999.9999917     
   49999999.9999916     
   49999999.9999916     
   49999999.9999916     
   49999999.9999916     
   49999999.9999916     
   49999999.9999916     
   49999999.9999916     
   49999999.9999917     
   49999999.9999917     
   49999999.9999917     
   49999999.9999917     
   49999999.9999917     
   49999999.9999917     
   49999999.9999917     
   49999999.9999917     
   49999999.9999917     
   49999999.9999916     
   49999999.9999916     
   49999999.9999916     
   49999999.9999915     
   49999999.9999915     
   49999999.9999915     
   49999999.9999915     
   49999999.9999914     
   49999999.9999914     
   49999999.9999914     
   49999999.9999428     
   49999999.9999428     
   49999999.9999429     
   49999999.9999429     
   49999999.9999429     
   49999999.9999429     
   49999999.9999429     
   49999999.9999428     
   49999999.9999427     
   49999999.9999427     
   49999999.9999427     
   49999999.9999426     
   49999999.9999426     
   49999999.9999426     
   49999999.9999426     
   49999999.9999426     
   49999999.9999426     
   49999999.9999427     
   49999999.9999427     
   49999999.9999428     
   49999999.9999428     
   49999999.9999428     
   49999999.9999428     
   49999999.9999427     
   49999999.9999426     
   49999999.9999426     
   49999999.9999426     
   49999999.9999426     
   49999999.9999426     
   49999999.9999426     
   49999999.9999426     
   49999999.9999426     
   49999999.9999426     
   49999999.9999426     
   49999999.9999426     
   49999999.9999427     
   49999999.9999427     
   49999999.9999427     
   49999999.9999427     
   49999999.9999427     
   49999999.9999427     
   49999999.9999426     
   49999999.9999426     
   49999999.9999426     
   49999999.9999425     
   49999999.9999425     
   49999999.9999425     
   49999999.9999424     
   49999999.9999424     
   49999999.9999424     
   49999999.9999424     
   49999999.9996083     
   49999999.9996083     
   49999999.9996083     
   49999999.9996084     
   49999999.9996084     
   49999999.9996084     
   49999999.9996084     
   49999999.9996083     
   49999999.9996083     
   49999999.9996082     
   49999999.9996081     
   49999999.9996081     
   49999999.9996081     
   49999999.9996081     
   49999999.9996081     
   49999999.9996081     
   49999999.9996082     
   49999999.9996082     
   49999999.9996083     
   49999999.9996084     
   49999999.9996084     
   49999999.9996083     
   49999999.9996083     
   49999999.9996082     
   49999999.9996082     
   49999999.9996082     
   49999999.9996082     
   49999999.9996082     
   49999999.9996082     
   49999999.9996082     
   49999999.9996082     
   49999999.9996082     
   49999999.9996082     
   49999999.9996082     
   49999999.9996082     
   49999999.9996082     
   49999999.9996082     
   49999999.9996082     
   49999999.9996082     
   49999999.9996082     
   49999999.9996082     
   49999999.9996082     
   49999999.9996082     
   49999999.9996081     
   49999999.9996081     
   49999999.9996080     
   49999999.9996080     
   49999999.9996080     
   49999999.9996080     
   49999999.9996080     
   49999999.9996080     
   49999999.9973441     
   49999999.9973441     
   49999999.9973441     
   49999999.9973441     
   49999999.9973441     
   49999999.9973441     
   49999999.9973441     
   49999999.9973440     
   49999999.9973440     
   49999999.9973440     
   49999999.9973440     
   49999999.9973439     
   49999999.9973439     
   49999999.9973439     
   49999999.9973439     
   49999999.9973439     
   49999999.9973439     
   49999999.9973439     
   49999999.9973440     
   49999999.9973440     
   49999999.9973440     
   49999999.9973440     
   49999999.9973440     
   49999999.9973440     
   49999999.9973439     
   49999999.9973439     
   49999999.9973439     
   49999999.9973439     
   49999999.9973440     
   49999999.9973440     
   49999999.9973441     
   49999999.9973441     
   49999999.9973440     
   49999999.9973440     
   49999999.9973440     
   49999999.9973441     
   49999999.9973441     
   49999999.9973441     
   49999999.9973440     
   49999999.9973440     
   49999999.9973440     
   49999999.9973439     
   49999999.9973439     
   49999999.9973439     
   49999999.9973439     
   49999999.9973438     
   49999999.9973438     
   49999999.9973438     
   49999999.9973438     
   49999999.9973438     
   49999999.9973438     
   49999999.9821604     
   49999999.9821604     
   49999999.9821604     
   49999999.9821604     
   49999999.9821604     
   49999999.9821604     
   49999999.9821604     
   49999999.9821604     
   49999999.9821603     
   49999999.9821603     
   49999999.9821602     
   49999999.9821602     
   49999999.9821602     
   49999999.9821602     
   49999999.9821602     
   49999999.9821602     
   49999999.9821603     
   49999999.9821603     
   49999999.9821603     
   49999999.9821604     
   49999999.9821603     
   49999999.9821603     
   49999999.9821603     
   49999999.9821603     
   49999999.9821602     
   49999999.9821602     
   49999999.9821602     
   49999999.9821602     
   49999999.9821603     
   49999999.9821603     
   49999999.9821603     
   49999999.9821603     
   49999999.9821603     
   49999999.9821603     
   49999999.9821603     
   49999999.9821603     
   49999999.9821603     
   49999999.9821603     
   49999999.9821603     
   49999999.9821603     
   49999999.9821603     
   49999999.9821602     
   49999999.9821602     
   49999999.9821602     
   49999999.9821601     
   49999999.9821601     
   49999999.9821601     
   49999999.9821601     
   49999999.9821601     
   49999999.9821601     
   49999999.9821601     
   49999999.8814673     
   49999999.8814674     
   49999999.8814674     
   49999999.8814674     
   49999999.8814674     
   49999999.8814674     
   49999999.8814674     
   49999999.8814673     
   49999999.8814673     
   49999999.8814673     
   49999999.8814672     
   49999999.8814672     
   49999999.8814672     
   49999999.8814672     
   49999999.8814672     
   49999999.8814672     
   49999999.8814672     
   49999999.8814672     
   49999999.8814673     
   49999999.8814673     
   49999999.8814673     
   49999999.8814672     
   49999999.8814672     
   49999999.8814672     
   49999999.8814671     
   49999999.8814671     
   49999999.8814671     
   49999999.8814671     
   49999999.8814672     
   49999999.8814672     
   49999999.8814672     
   49999999.8814672     
   49999999.8814672     
   49999999.8814672     
   49999999.8814672     
   49999999.8814672     
   49999999.8814673     
   49999999.8814673     
   49999999.8814673     
   49999999.8814673     
   49999999.8814672     
   49999999.8814672     
   49999999.8814672     
   49999999.8814671     
   49999999.8814671     
   49999999.8814670     
   49999999.8814670     
   49999999.8814670     
   49999999.8814670     
   49999999.8814670     
   49999999.8814670     
   49999999.2223193     
   49999999.2223193     
   49999999.2223193     
   49999999.2223193     
   49999999.2223193     
   49999999.2223193     
   49999999.2223193     
   49999999.2223193     
   49999999.2223192     
   49999999.2223192     
   49999999.2223192     
   49999999.2223191     
   49999999.2223191     
   49999999.2223191     
   49999999.2223191     
   49999999.2223191     
   49999999.2223191     
   49999999.2223191     
   49999999.2223191     
   49999999.2223191     
   49999999.2223192     
   49999999.2223191     
   49999999.2223191     
   49999999.2223191     
   49999999.2223191     
   49999999.2223191     
   49999999.2223191     
   49999999.2223191     
   49999999.2223192     
   49999999.2223192     
   49999999.2223192     
   49999999.2223191     
   49999999.2223192     
   49999999.2223192     
   49999999.2223192     
   49999999.2223192     
   49999999.2223192     
   49999999.2223192     
   49999999.2223192     
   49999999.2223192     
   49999999.2223192     
   49999999.2223191     
   49999999.2223191     
   49999999.2223191     
   49999999.2223191     
   49999999.2223190     
   49999999.2223190     
   49999999.2223190     
   49999999.2223190     
   49999999.2223190     
   49999999.2223190     
   49999994.9731897     
   49999994.9731897     
   49999994.9731897     
   49999994.9731897     
   49999994.9731898     
   49999994.9731898     
   49999994.9731897     
   49999994.9731897     
   49999994.9731897     
   49999994.9731896     
   49999994.9731896     
   49999994.9731895     
   49999994.9731896     
   49999994.9731896     
   49999994.9731896     
   49999994.9731896     
   49999994.9731896     
   49999994.9731896     
   49999994.9731897     
   49999994.9731897     
   49999994.9731898     
   49999994.9731897     
   49999994.9731897     
   49999994.9731897     
   49999994.9731896     
   49999994.9731896     
   49999994.9731896     
   49999994.9731896     
   49999994.9731896     
   49999994.9731896     
   49999994.9731896     
   49999994.9731896     
   49999994.9731896     
   49999994.9731896     
   49999994.9731896     
   49999994.9731896     
   49999994.9731896     
   49999994.9731896     
   49999994.9731896     
   49999994.9731896     
   49999994.9731896     
   49999994.9731896     
   49999994.9731895     
   49999994.9731895     
   49999994.9731894     
   49999994.9731894     
   49999994.9731894     
   49999994.9731894     
   49999994.9731894     
   49999994.9731894     
   49999994.9731894     
   49999968.0817606     
   49999968.0817606     
   49999968.0817606     
   49999968.0817606     
   49999968.0817606     
   49999968.0817606     
   49999968.0817606     
   49999968.0817606     
   49999968.0817605     
   49999968.0817605     
   49999968.0817605     
   49999968.0817604     
   49999968.0817605     
   49999968.0817605     
   49999968.0817605     
   49999968.0817605     
   49999968.0817605     
   49999968.0817606     
   49999968.0817606     
   49999968.0817606     
   49999968.0817606     
   49999968.0817606     
   49999968.0817605     
   49999968.0817605     
   49999968.0817604     
   49999968.0817604     
   49999968.0817604     
   49999968.0817604     
   49999968.0817605     
   49999968.0817605     
   49999968.0817605     
   49999968.0817604     
   49999968.0817605     
   49999968.0817605     
   49999968.0817605     
   49999968.0817605     
   49999968.0817605     
   49999968.0817605     
   49999968.0817605     
   49999968.0817605     
   49999968.0817605     
   49999968.0817604     
   49999968.0817604     
   49999968.0817603     
   49999968.0817603     
   49999968.0817603     
   49999968.0817602     
   49999968.0817603     
   49999968.0817602     
   49999968.0817602     
   49999968.0817602     
   49999801.6857118     
   49999801.6857119     
   49999801.6857119     
   49999801.6857119     
   49999801.6857119     
   49999801.6857119     
   49999801.6857118     
   49999801.6857118     
   49999801.6857118     
   49999801.6857118     
   49999801.6857117     
   49999801.6857117     
   49999801.6857117     
   49999801.6857117     
   49999801.6857117     
   49999801.6857117     
   49999801.6857118     
   49999801.6857118     
   49999801.6857118     
   49999801.6857118     
   49999801.6857118     
   49999801.6857118     
   49999801.6857118     
   49999801.6857117     
   49999801.6857117     
   49999801.6857117     
   49999801.6857116     
   49999801.6857117     
   49999801.6857117     
   49999801.6857117     
   49999801.6857117     
   49999801.6857117     
   49999801.6857117     
   49999801.6857117     
   49999801.6857117     
   49999801.6857117     
   49999801.6857117     
   49999801.6857117     
   49999801.6857117     
   49999801.6857117     
   49999801.6857116     
   49999801.6857116     
   49999801.6857116     
   49999801.6857115     
   49999801.6857115     
   49999801.6857115     
   49999801.6857115     
   49999801.6857115     
   49999801.6857115     
   49999801.6857115     
   49999801.6857115     
   49998800.6722615     
   49998800.6722615     
   49998800.6722615     
   49998800.6722615     
   49998800.6722615     
   49998800.6722616     
   49998800.6722615     
   49998800.6722615     
   49998800.6722615     
   49998800.6722614     
   49998800.6722614     
   49998800.6722613     
   49998800.6722613     
   49998800.6722614     
   49998800.6722614     
   49998800.6722614     
   49998800.6722614     
   49998800.6722615     
   49998800.6722615     
   49998800.6722615     
   49998800.6722615     
   49998800.6722615     
   49998800.6722615     
   49998800.6722614     
   49998800.6722614     
   49998800.6722614     
   49998800.6722613     
   49998800.6722613     
   49998800.6722614     
   49998800.6722614     
   49998800.6722614     
   49998800.6722614     
   49998800.6722614     
   49998800.6722614     
   49998800.6722614     
   49998800.6722613     
   49998800.6722613     
   49998800.6722613     
   49998800.6722613     
   49998800.6722613     
   49998800.6722613     
   49998800.6722613     
   49998800.6722613     
   49998800.6722612     
   49998800.6722612     
   49998800.6722612     
   49998800.6722612     
   49998800.6722612     
   49998800.6722612     
   49998800.6722612     
   49998800.6722612     
   49992992.8212338     
   49992992.8212338     
   49992992.8212339     
   49992992.8212339     
   49992992.8212339     
   49992992.8212339     
   49992992.8212339     
   49992992.8212338     
   49992992.8212338     
   49992992.8212337     
   49992992.8212337     
   49992992.8212337     
   49992992.8212337     
   49992992.8212337     
   49992992.8212337     
   49992992.8212337     
   49992992.8212338     
   49992992.8212338     
   49992992.8212339     
   49992992.8212339     
   49992992.8212339     
   49992992.8212339     
   49992992.8212338     
   49992992.8212337     
   49992992.8212337     
   49992992.8212337     
   49992992.8212337     
   49992992.8212337     
   49992992.8212338     
   49992992.8212338     
   49992992.8212338     
   49992992.8212338     
   49992992.8212338     
   49992992.8212338     
   49992992.8212338     
   49992992.8212338     
   49992992.8212338     
   49992992.8212338     
   49992992.8212337     
   49992992.8212337     
   49992992.8212337     
   49992992.8212336     
   49992992.8212336     
   49992992.8212336     
   49992992.8212335     
   49992992.8212335     
   49992992.8212335     
   49992992.8212335     
   49992992.8212335     
   49992992.8212335     
   49992992.8212335     
   49960881.5435633     
   49960881.5435633     
   49960881.5435633     
   49960881.5435633     
   49960881.5435633     
   49960881.5435633     
   49960881.5435633     
   49960881.5435632     
   49960881.5435631     
   49960881.5435631     
   49960881.5435631     
   49960881.5435631     
   49960881.5435630     
   49960881.5435630     
   49960881.5435630     
   49960881.5435631     
   49960881.5435631     
   49960881.5435631     
   49960881.5435632     
   49960881.5435632     
   49960881.5435632     
   49960881.5435632     
   49960881.5435631     
   49960881.5435631     
   49960881.5435631     
   49960881.5435631     
   49960881.5435631     
   49960881.5435631     
   49960881.5435631     
   49960881.5435631     
   49960881.5435631     
   49960881.5435631     
   49960881.5435631     
   49960881.5435631     
   49960881.5435631     
   49960881.5435631     
   49960881.5435631     
   49960881.5435631     
   49960881.5435631     
   49960881.5435630     
   49960881.5435630     
   49960881.5435630     
   49960881.5435629     
   49960881.5435629     
   49960881.5435628     
   49960881.5435628     
   49960881.5435628     
   49960881.5435628     
   49960881.5435628     
   49960881.5435628     
   49960881.5435628     
   49794886.0829659     
   49794886.0829659     
   49794886.0829659     
   49794886.0829659     
   49794886.0829660     
   49794886.0829660     
   49794886.0829659     
   49794886.0829659     
   49794886.0829658     
   49794886.0829657     
   49794886.0829657     
   49794886.0829657     
   49794886.0829657     
   49794886.0829657     
   49794886.0829657     
   49794886.0829657     
   49794886.0829657     
   49794886.0829658     
   49794886.0829658     
   49794886.0829659     
   49794886.0829659     
   49794886.0829659     
   49794886.0829658     
   49794886.0829658     
   49794886.0829657     
   49794886.0829657     
   49794886.0829657     
   49794886.0829657     
   49794886.0829657     
   49794886.0829658     
   49794886.0829657     
   49794886.0829657     
   49794886.0829657     
   49794886.0829657     
   49794886.0829657     
   49794886.0829657     
   49794886.0829657     
   49794886.0829657     
   49794886.0829657     
   49794886.0829657     
   49794886.0829657     
   49794886.0829656     
   49794886.0829656     
   49794886.0829656     
   49794886.0829655     
   49794886.0829655     
   49794886.0829655     
   49794886.0829655     
   49794886.0829655     
   49794886.0829655     
   49794886.0829655     
   49018432.1724385     
   49018432.1724386     
   49018432.1724385     
   49018432.1724386     
   49018432.1724385     
   49018432.1724385     
   49018432.1724385     
   49018432.1724384     
   49018432.1724384     
   49018432.1724384     
   49018432.1724383     
   49018432.1724383     
   49018432.1724383     
   49018432.1724383     
   49018432.1724383     
   49018432.1724384     
   49018432.1724383     
   49018432.1724384     
   49018432.1724384     
   49018432.1724384     
   49018432.1724384     
   49018432.1724384     
   49018432.1724384     
   49018432.1724383     
   49018432.1724382     
   49018432.1724382     
   49018432.1724382     
   49018432.1724382     
   49018432.1724383     
   49018432.1724382     
   49018432.1724383     
   49018432.1724383     
   49018432.1724383     
   49018432.1724383     
   49018432.1724383     
   49018432.1724383     
   49018432.1724383     
   49018432.1724383     
   49018432.1724383     
   49018432.1724383     
   49018432.1724383     
   49018432.1724383     
   49018432.1724382     
   49018432.1724382     
   49018432.1724381     
   49018432.1724381     
   49018432.1724381     
   49018432.1724381     
   49018432.1724381     
   49018432.1724381     
   49018432.1724381     
   45931623.3696419     
   45931623.3696420     
   45931623.3696419     
   45931623.3696419     
   45931623.3696419     
   45931623.3696419     
   45931623.3696419     
   45931623.3696418     
   45931623.3696418     
   45931623.3696417     
   45931623.3696417     
   45931623.3696417     
   45931623.3696416     
   45931623.3696416     
   45931623.3696417     
   45931623.3696416     
   45931623.3696416     
   45931623.3696416     
   45931623.3696417     
   45931623.3696417     
   45931623.3696418     
   45931623.3696417     
   45931623.3696417     
   45931623.3696416     
   45931623.3696416     
   45931623.3696416     
   45931623.3696416     
   45931623.3696416     
   45931623.3696416     
   45931623.3696417     
   45931623.3696417     
   45931623.3696417     
   45931623.3696418     
   45931623.3696417     
   45931623.3696418     
   45931623.3696417     
   45931623.3696417     
   45931623.3696417     
   45931623.3696418     
   45931623.3696417     
   45931623.3696416     
   45931623.3696417     
   45931623.3696416     
   45931623.3696415     
   45931623.3696415     
   45931623.3696415     
   45931623.3696416     
   45931623.3696415     
   45931623.3696415     
   45931623.3696416     
   45931623.3696415     
   36823477.3599982     
   36823477.3599982     
   36823477.3599982     
   36823477.3599982     
   36823477.3599982     
   36823477.3599982     
   36823477.3599982     
   36823477.3599980     
   36823477.3599981     
   36823477.3599980     
   36823477.3599981     
   36823477.3599980     
   36823477.3599980     
   36823477.3599980     
   36823477.3599980     
   36823477.3599980     
   36823477.3599981     
   36823477.3599981     
   36823477.3599981     
   36823477.3599982     
   36823477.3599982     
   36823477.3599981     
   36823477.3599981     
   36823477.3599981     
   36823477.3599980     
   36823477.3599980     
   36823477.3599980     
   36823477.3599980     
   36823477.3599981     
   36823477.3599981     
   36823477.3599981     
   36823477.3599980     
   36823477.3599983     
   36823477.3599981     
   36823477.3599981     
   36823477.3599981     
   36823477.3599981     
   36823477.3599981     
   36823477.3599981     
   36823477.3599980     
   36823477.3599981     
   36823477.3599980     
   36823477.3599980     
   36823477.3599980     
   36823477.3599980     
   36823477.3599980     
   36823477.3599980     
   36823477.3599980     
   36823477.3599980     
   36823477.3599981     
   36823477.3599979     
   20000000.0000000     
   20000000.0000000     
   20000000.0000000     
   20000000.0000000     
   20000000.0000000     
   20000000.0000000     
   20000000.0000000     
   20000000.0000000     
   20000000.0000000     
   20000000.0000000     
   20000000.0000000     
   20000000.0000000     
   20000000.0000000     
   20000000.0000000     
   20000000.0000000     
   20000000.0000000     
   20000000.0000000     
   20000000.0000000     
   20000000.0000000     
   20000000.0000000     
   20000000.0000000     
   20000000.0000000     
   20000000.0000000     
   20000000.0000000     
   20000000.0000000     
   20000000.0000000     
   20000000.0000000     
   20000000.0000000     
   20000000.0000000     
   20000000.0000000     
   20000000.0000000     
   20000000.0000000     
   20000000.0000000     
   20000000.0000000     
   20000000.0000000     
   20000000.0000000     
   20000000.0000000     
   20000000.0000000     
   20000000.0000000     
   20000000.0000000     
   20000000.0000000     
   20000000.0000000     
   20000000.0000000     
   20000000.0000000     
   20000000.0000000     
   20000000.0000000     
   20000000.0000000     
   20000000.0000000     
   20000000.0000000     
   20000000.0000000     
   20000000.0000000     
VECTORS u double 
    0.00000E+00         0.25285E+01         0.00000E+00
    0.00000E+00         0.24065E+01         0.00000E+00
    0.00000E+00         0.22918E+01         0.00000E+00
    0.00000E+00         0.21866E+01         0.00000E+00
    0.00000E+00         0.20907E+01         0.00000E+00
    0.00000E+00         0.20008E+01         0.00000E+00
    0.00000E+00         0.19163E+01         0.00000E+00
    0.00000E+00         0.18369E+01         0.00000E+00
    0.00000E+00         0.17620E+01         0.00000E+00
    0.00000E+00         0.16914E+01         0.00000E+00
    0.00000E+00         0.16246E+01         0.00000E+00
    0.00000E+00         0.15612E+01         0.00000E+00
    0.00000E+00         0.15009E+01         0.00000E+00
    0.00000E+00         0.14435E+01         0.00000E+00
    0.00000E+00         0.13888E+01         0.00000E+00
    0.00000E+00         0.13363E+01         0.00000E+00
    0.00000E+00         0.12861E+01         0.00000E+00
    0.00000E+00         0.12378E+01         0.00000E+00
    0.00000E+00         0.11914E+01         0.00000E+00
    0.00000E+00         0.11467E+01         0.00000E+00
    0.00000E+00         0.11035E+01         0.00000E+00
    0.00000E+00         0.10617E+01         0.00000E+00
    0.00000E+00         0.10213E+01         0.00000E+00
    0.00000E+00         0.98204E+00         0.00000E+00
    0.00000E+00         0.94394E+00         0.00000E+00
    0.00000E+00         0.90689E+00         0.00000E+00
    0.00000E+00         0.87079E+00         0.00000E+00
    0.00000E+00         0.83558E+00         0.00000E+00
    0.00000E+00         0.80118E+00         0.00000E+00
    0.00000E+00         0.76751E+00         0.00000E+00
    0.00000E+00         0.73452E+00         0.00000E+00
    0.00000E+00         0.70212E+00         0.00000E+00
    0.00000E+00         0.67027E+00         0.00000E+00
    0.00000E+00         0.63887E+00         0.00000E+00
    0.00000E+00         0.60787E+00         0.00000E+00
    0.00000E+00         0.57718E+00         0.00000E+00
    0.00000E+00         0.54672E+00         0.00000E+00
    0.00000E+00         0.51639E+00         0.00000E+00
    0.00000E+00         0.48608E+00         0.00000E+00
    0.00000E+00         0.45566E+00         0.00000E+00
    0.00000E+00         0.42498E+00         0.00000E+00
    0.00000E+00         0.39383E+00         0.00000E+00
    0.00000E+00         0.36197E+00         0.00000E+00
    0.00000E+00         0.32909E+00         0.00000E+00
    0.00000E+00         0.29475E+00         0.00000E+00
    0.00000E+00         0.25837E+00         0.00000E+00
    0.00000E+00         0.21916E+00         0.00000E+00
    0.00000E+00         0.17597E+00         0.00000E+00
    0.00000E+00         0.12707E+00         0.00000E+00
    0.00000E+00         0.69838E-01         0.00000E+00
    0.00000E+00         0.00000E+00         0.00000E+00
    0.83415E+00         0.20302E+01         0.00000E+00
    0.72414E+00         0.19884E+01         0.00000E+00
    0.64431E+00         0.19417E+01         0.00000E+00
    0.58677E+00         0.18913E+01         0.00000E+00
    0.54565E+00         0.18377E+01         0.00000E+00
    0.51639E+00         0.17826E+01         0.00000E+00
    0.49526E+00         0.17270E+01         0.00000E+00
    0.47980E+00         0.16716E+01         0.00000E+00
    0.46839E+00         0.16168E+01         0.00000E+00
    0.45990E+00         0.15630E+01         0.00000E+00
    0.45356E+00         0.15104E+01         0.00000E+00
    0.44881E+00         0.14591E+01         0.00000E+00
    0.44525E+00         0.14092E+01         0.00000E+00
    0.44257E+00         0.13607E+01         0.00000E+00
    0.44055E+00         0.13137E+01         0.00000E+00
    0.43902E+00         0.12679E+01         0.00000E+00
    0.43785E+00         0.12235E+01         0.00000E+00
    0.43694E+00         0.11804E+01         0.00000E+00
    0.43620E+00         0.11384E+01         0.00000E+00
    0.43558E+00         0.10977E+01         0.00000E+00
    0.43502E+00         0.10580E+01         0.00000E+00
    0.43447E+00         0.10193E+01         0.00000E+00
    0.43390E+00         0.98164E+00         0.00000E+00
    0.43328E+00         0.94485E+00         0.00000E+00
    0.43256E+00         0.90891E+00         0.00000E+00
    0.43173E+00         0.87376E+00         0.00000E+00
    0.43075E+00         0.83933E+00         0.00000E+00
    0.42960E+00         0.80558E+00         0.00000E+00
    0.42824E+00         0.77244E+00         0.00000E+00
    0.42663E+00         0.73985E+00         0.00000E+00
    0.42474E+00         0.70777E+00         0.00000E+00
    0.42253E+00         0.67612E+00         0.00000E+00
    0.41994E+00         0.64484E+00         0.00000E+00
    0.41691E+00         0.61387E+00         0.00000E+00
    0.41337E+00         0.58314E+00         0.00000E+00
    0.40923E+00         0.55257E+00         0.00000E+00
    0.40438E+00         0.52208E+00         0.00000E+00
    0.39868E+00         0.49156E+00         0.00000E+00
    0.39197E+00         0.46091E+00         0.00000E+00
    0.38404E+00         0.43000E+00         0.00000E+00
    0.37463E+00         0.39869E+00         0.00000E+00
    0.36337E+00         0.36679E+00         0.00000E+00
    0.34983E+00         0.33409E+00         0.00000E+00
    0.33339E+00         0.30035E+00         0.00000E+00
    0.31326E+00         0.26524E+00         0.00000E+00
    0.28832E+00         0.22840E+00         0.00000E+00
    0.25699E+00         0.18936E+00         0.00000E+00
    0.21701E+00         0.14759E+00         0.00000E+00
    0.16496E+00         0.10249E+00         0.00000E+00
    0.95531E-01         0.53427E-01         0.00000E+00
    0.00000E+00         0.00000E+00         0.00000E+00
    0.10789E+01         0.14690E+01         0.00000E+00
    0.98736E+00         0.14521E+01         0.00000E+00
    0.90789E+00         0.14362E+01         0.00000E+00
    0.84094E+00         0.14196E+01         0.00000E+00
    0.78558E+00         0.14016E+01         0.00000E+00
    0.74036E+00         0.13814E+01         0.00000E+00
    0.70375E+00         0.13590E+01         0.00000E+00
    0.67422E+00         0.13346E+01         0.00000E+00
    0.65043E+00         0.13083E+01         0.00000E+00
    0.63125E+00         0.12805E+01         0.00000E+00
    0.61576E+00         0.12515E+01         0.00000E+00
    0.60323E+00         0.12215E+01         0.00000E+00
    0.59306E+00         0.11908E+01         0.00000E+00
    0.58477E+00         0.11595E+01         0.00000E+00
    0.57798E+00         0.11280E+01         0.00000E+00
    0.57237E+00         0.10962E+01         0.00000E+00
    0.56769E+00         0.10644E+01         0.00000E+00
    0.56373E+00         0.10325E+01         0.00000E+00
    0.56032E+00         0.10008E+01         0.00000E+00
    0.55732E+00         0.96920E+00         0.00000E+00
    0.55461E+00         0.93778E+00         0.00000E+00
    0.55209E+00         0.90657E+00         0.00000E+00
    0.54966E+00         0.87559E+00         0.00000E+00
    0.54725E+00         0.84484E+00         0.00000E+00
    0.54478E+00         0.81433E+00         0.00000E+00
    0.54219E+00         0.78404E+00         0.00000E+00
    0.53941E+00         0.75397E+00         0.00000E+00
    0.53637E+00         0.72409E+00         0.00000E+00
    0.53301E+00         0.69439E+00         0.00000E+00
    0.52926E+00         0.66484E+00         0.00000E+00
    0.52505E+00         0.63539E+00         0.00000E+00
    0.52029E+00         0.60603E+00         0.00000E+00
    0.51488E+00         0.57669E+00         0.00000E+00
    0.50874E+00         0.54734E+00         0.00000E+00
    0.50172E+00         0.51792E+00         0.00000E+00
    0.49370E+00         0.48838E+00         0.00000E+00
    0.48450E+00         0.45864E+00         0.00000E+00
    0.47392E+00         0.42865E+00         0.00000E+00
    0.46173E+00         0.39831E+00         0.00000E+00
    0.44763E+00         0.36756E+00         0.00000E+00
    0.43129E+00         0.33632E+00         0.00000E+00
    0.41229E+00         0.30448E+00         0.00000E+00
    0.39010E+00         0.27199E+00         0.00000E+00
    0.36412E+00         0.23878E+00         0.00000E+00
    0.33359E+00         0.20481E+00         0.00000E+00
    0.29760E+00         0.17013E+00         0.00000E+00
    0.25510E+00         0.13487E+00         0.00000E+00
    0.20491E+00         0.99337E-01         0.00000E+00
    0.14588E+00         0.64153E-01         0.00000E+00
    0.77309E-01         0.30413E-01         0.00000E+00
    0.00000E+00         0.00000E+00         0.00000E+00
    0.10870E+01         0.10557E+01         0.00000E+00
    0.10211E+01         0.10491E+01         0.00000E+00
    0.96008E+00         0.10429E+01         0.00000E+00
    0.90422E+00         0.10369E+01         0.00000E+00
    0.85374E+00         0.10307E+01         0.00000E+00
    0.80871E+00         0.10237E+01         0.00000E+00
    0.76895E+00         0.10158E+01         0.00000E+00
    0.73417E+00         0.10066E+01         0.00000E+00
    0.70392E+00         0.99601E+00         0.00000E+00
    0.67774E+00         0.98400E+00         0.00000E+00
    0.65514E+00         0.97059E+00         0.00000E+00
    0.63565E+00         0.95582E+00         0.00000E+00
    0.61883E+00         0.93979E+00         0.00000E+00
    0.60429E+00         0.92260E+00         0.00000E+00
    0.59168E+00         0.90436E+00         0.00000E+00
    0.58070E+00         0.88518E+00         0.00000E+00
    0.57107E+00         0.86517E+00         0.00000E+00
    0.56256E+00         0.84442E+00         0.00000E+00
    0.55496E+00         0.82303E+00         0.00000E+00
    0.54809E+00         0.80107E+00         0.00000E+00
    0.54179E+00         0.77861E+00         0.00000E+00
    0.53591E+00         0.75572E+00         0.00000E+00
    0.53033E+00         0.73245E+00         0.00000E+00
    0.52493E+00         0.70884E+00         0.00000E+00
    0.51960E+00         0.68492E+00         0.00000E+00
    0.51424E+00         0.66072E+00         0.00000E+00
    0.50876E+00         0.63626E+00         0.00000E+00
    0.50307E+00         0.61156E+00         0.00000E+00
    0.49706E+00         0.58662E+00         0.00000E+00
    0.49066E+00         0.56145E+00         0.00000E+00
    0.48375E+00         0.53604E+00         0.00000E+00
    0.47624E+00         0.51038E+00         0.00000E+00
    0.46802E+00         0.48447E+00         0.00000E+00
    0.45897E+00         0.45830E+00         0.00000E+00
    0.44897E+00         0.43184E+00         0.00000E+00
    0.43786E+00         0.40509E+00         0.00000E+00
    0.42549E+00         0.37803E+00         0.00000E+00
    0.41168E+00         0.35064E+00         0.00000E+00
    0.39624E+00         0.32294E+00         0.00000E+00
    0.37895E+00         0.29491E+00         0.00000E+00
    0.35956E+00         0.26657E+00         0.00000E+00
    0.33782E+00         0.23798E+00         0.00000E+00
    0.31344E+00         0.20920E+00         0.00000E+00
    0.28614E+00         0.18034E+00         0.00000E+00
    0.25563E+00         0.15158E+00         0.00000E+00
    0.22169E+00         0.12314E+00         0.00000E+00
    0.18414E+00         0.95358E-01         0.00000E+00
    0.14297E+00         0.68650E-01         0.00000E+00
    0.98342E-01         0.43525E-01         0.00000E+00
    0.50619E-01         0.20513E-01         0.00000E+00
    0.00000E+00         0.00000E+00         0.00000E+00
    0.10181E+01         0.77418E+00         0.00000E+00
    0.97183E+00         0.76933E+00         0.00000E+00
    0.92677E+00         0.76521E+00         0.00000E+00
    0.88357E+00         0.76151E+00         0.00000E+00
    0.84264E+00         0.75801E+00         0.00000E+00
    0.80423E+00         0.75446E+00         0.00000E+00
    0.76851E+00         0.75065E+00         0.00000E+00
    0.73555E+00         0.74640E+00         0.00000E+00
    0.70532E+00         0.74152E+00         0.00000E+00
    0.67775E+00         0.73589E+00         0.00000E+00
    0.65271E+00         0.72942E+00         0.00000E+00
    0.63003E+00         0.72204E+00         0.00000E+00
    0.60952E+00         0.71370E+00         0.00000E+00
    0.59098E+00         0.70440E+00         0.00000E+00
    0.57421E+00         0.69415E+00         0.00000E+00
    0.55901E+00         0.68296E+00         0.00000E+00
    0.54518E+00         0.67086E+00         0.00000E+00
    0.53254E+00         0.65790E+00         0.00000E+00
    0.52092E+00         0.64412E+00         0.00000E+00
    0.51015E+00         0.62956E+00         0.00000E+00
    0.50010E+00         0.61426E+00         0.00000E+00
    0.49062E+00         0.59827E+00         0.00000E+00
    0.48158E+00         0.58164E+00         0.00000E+00
    0.47285E+00         0.56439E+00         0.00000E+00
    0.46433E+00         0.54657E+00         0.00000E+00
    0.45590E+00         0.52821E+00         0.00000E+00
    0.44747E+00         0.50934E+00         0.00000E+00
    0.43892E+00         0.48999E+00         0.00000E+00
    0.43017E+00         0.47018E+00         0.00000E+00
    0.42111E+00         0.44993E+00         0.00000E+00
    0.41165E+00         0.42927E+00         0.00000E+00
    0.40168E+00         0.40821E+00         0.00000E+00
    0.39111E+00         0.38677E+00         0.00000E+00
    0.37985E+00         0.36498E+00         0.00000E+00
    0.36777E+00         0.34285E+00         0.00000E+00
    0.35479E+00         0.32041E+00         0.00000E+00
    0.34078E+00         0.29770E+00         0.00000E+00
    0.32564E+00         0.27475E+00         0.00000E+00
    0.30926E+00         0.25160E+00         0.00000E+00
    0.29154E+00         0.22833E+00         0.00000E+00
    0.27236E+00         0.20500E+00         0.00000E+00
    0.25166E+00         0.18171E+00         0.00000E+00
    0.22935E+00         0.15858E+00         0.00000E+00
    0.20541E+00         0.13574E+00         0.00000E+00
    0.17984E+00         0.11336E+00         0.00000E+00
    0.15270E+00         0.91635E-01         0.00000E+00
    0.12410E+00         0.70756E-01         0.00000E+00
    0.94245E-01         0.50942E-01         0.00000E+00
    0.63367E-01         0.32402E-01         0.00000E+00
    0.31784E-01         0.15339E-01         0.00000E+00
    0.00000E+00         0.00000E+00         0.00000E+00
    0.93190E+00         0.57460E+00         0.00000E+00
    0.89788E+00         0.57025E+00         0.00000E+00
    0.86415E+00         0.56634E+00         0.00000E+00
    0.83097E+00         0.56282E+00         0.00000E+00
    0.79863E+00         0.55957E+00         0.00000E+00
    0.76735E+00         0.55648E+00         0.00000E+00
    0.73731E+00         0.55343E+00         0.00000E+00
    0.70865E+00         0.55030E+00         0.00000E+00
    0.68146E+00         0.54698E+00         0.00000E+00
    0.65577E+00         0.54335E+00         0.00000E+00
    0.63160E+00         0.53932E+00         0.00000E+00
    0.60893E+00         0.53482E+00         0.00000E+00
    0.58772E+00         0.52976E+00         0.00000E+00
    0.56789E+00         0.52411E+00         0.00000E+00
    0.54936E+00         0.51781E+00         0.00000E+00
    0.53204E+00         0.51084E+00         0.00000E+00
    0.51583E+00         0.50319E+00         0.00000E+00
    0.50062E+00         0.49484E+00         0.00000E+00
    0.48630E+00         0.48580E+00         0.00000E+00
    0.47276E+00         0.47607E+00         0.00000E+00
    0.45989E+00         0.46567E+00         0.00000E+00
    0.44760E+00         0.45460E+00         0.00000E+00
    0.43577E+00         0.44290E+00         0.00000E+00
    0.42431E+00         0.43057E+00         0.00000E+00
    0.41312E+00         0.41766E+00         0.00000E+00
    0.40211E+00         0.40417E+00         0.00000E+00
    0.39119E+00         0.39013E+00         0.00000E+00
    0.38027E+00         0.37558E+00         0.00000E+00
    0.36927E+00         0.36054E+00         0.00000E+00
    0.35810E+00         0.34503E+00         0.00000E+00
    0.34669E+00         0.32909E+00         0.00000E+00
    0.33496E+00         0.31275E+00         0.00000E+00
    0.32284E+00         0.29604E+00         0.00000E+00
    0.31025E+00         0.27900E+00         0.00000E+00
    0.29713E+00         0.26166E+00         0.00000E+00
    0.28341E+00         0.24409E+00         0.00000E+00
    0.26903E+00         0.22631E+00         0.00000E+00
    0.25396E+00         0.20839E+00         0.00000E+00
    0.23814E+00         0.19040E+00         0.00000E+00
    0.22154E+00         0.17239E+00         0.00000E+00
    0.20416E+00         0.15446E+00         0.00000E+00
    0.18599E+00         0.13668E+00         0.00000E+00
    0.16705E+00         0.11915E+00         0.00000E+00
    0.14741E+00         0.10196E+00         0.00000E+00
    0.12712E+00         0.85228E-01         0.00000E+00
    0.10630E+00         0.69054E-01         0.00000E+00
    0.85075E-01         0.53542E-01         0.00000E+00
    0.63615E-01         0.38795E-01         0.00000E+00
    0.42123E-01         0.24906E-01         0.00000E+00
    0.20838E-01         0.11959E-01         0.00000E+00
    0.00000E+00         0.00000E+00         0.00000E+00
    0.84433E+00         0.42669E+00         0.00000E+00
    0.81857E+00         0.42251E+00         0.00000E+00
    0.79267E+00         0.41865E+00         0.00000E+00
    0.76684E+00         0.41508E+00         0.00000E+00
    0.74122E+00         0.41176E+00         0.00000E+00
    0.71597E+00         0.40861E+00         0.00000E+00
    0.69123E+00         0.40559E+00         0.00000E+00
    0.66709E+00         0.40261E+00         0.00000E+00
    0.64365E+00         0.39962E+00         0.00000E+00
    0.62098E+00         0.39653E+00         0.00000E+00
    0.59913E+00         0.39329E+00         0.00000E+00
    0.57813E+00         0.38983E+00         0.00000E+00
    0.55798E+00         0.38610E+00         0.00000E+00
    0.53868E+00         0.38203E+00         0.00000E+00
    0.52022E+00         0.37759E+00         0.00000E+00
    0.50256E+00         0.37274E+00         0.00000E+00
    0.48567E+00         0.36744E+00         0.00000E+00
    0.46949E+00         0.36168E+00         0.00000E+00
    0.45397E+00         0.35543E+00         0.00000E+00
    0.43906E+00         0.34868E+00         0.00000E+00
    0.42468E+00         0.34142E+00         0.00000E+00
    0.41077E+00         0.33366E+00         0.00000E+00
    0.39728E+00         0.32540E+00         0.00000E+00
    0.38412E+00         0.31664E+00         0.00000E+00
    0.37123E+00         0.30740E+00         0.00000E+00
    0.35856E+00         0.29768E+00         0.00000E+00
    0.34603E+00         0.28750E+00         0.00000E+00
    0.33359E+00         0.27690E+00         0.00000E+00
    0.32116E+00         0.26588E+00         0.00000E+00
    0.30871E+00         0.25447E+00         0.00000E+00
    0.29616E+00         0.24270E+00         0.00000E+00
    0.28347E+00         0.23060E+00         0.00000E+00
    0.27060E+00         0.21822E+00         0.00000E+00
    0.25750E+00         0.20557E+00         0.00000E+00
    0.24414E+00         0.19270E+00         0.00000E+00
    0.23047E+00         0.17966E+00         0.00000E+00
    0.21649E+00         0.16650E+00         0.00000E+00
    0.20218E+00         0.15325E+00         0.00000E+00
    0.18752E+00         0.13998E+00         0.00000E+00
    0.17253E+00         0.12675E+00         0.00000E+00
    0.15721E+00         0.11360E+00         0.00000E+00
    0.14161E+00         0.10061E+00         0.00000E+00
    0.12576E+00         0.87826E-01         0.00000E+00
    0.10971E+00         0.75319E-01         0.00000E+00
    0.93552E-01         0.63148E-01         0.00000E+00
    0.77357E-01         0.51370E-01         0.00000E+00
    0.61234E-01         0.40040E-01         0.00000E+00
    0.45300E-01         0.29203E-01         0.00000E+00
    0.29687E-01         0.18900E-01         0.00000E+00
    0.14534E-01         0.91585E-02         0.00000E+00
    0.00000E+00         0.00000E+00         0.00000E+00
    0.75978E+00         0.31435E+00         0.00000E+00
    0.73999E+00         0.31035E+00         0.00000E+00
    0.71989E+00         0.30660E+00         0.00000E+00
    0.69958E+00         0.30308E+00         0.00000E+00
    0.67918E+00         0.29975E+00         0.00000E+00
    0.65879E+00         0.29659E+00         0.00000E+00
    0.63850E+00         0.29356E+00         0.00000E+00
    0.61840E+00         0.29062E+00         0.00000E+00
    0.59856E+00         0.28773E+00         0.00000E+00
    0.57904E+00         0.28484E+00         0.00000E+00
    0.55989E+00         0.28191E+00         0.00000E+00
    0.54116E+00         0.27891E+00         0.00000E+00
    0.52286E+00         0.27578E+00         0.00000E+00
    0.50503E+00         0.27249E+00         0.00000E+00
    0.48767E+00         0.26901E+00         0.00000E+00
    0.47079E+00         0.26529E+00         0.00000E+00
    0.45436E+00         0.26132E+00         0.00000E+00
    0.43840E+00         0.25707E+00         0.00000E+00
    0.42286E+00         0.25252E+00         0.00000E+00
    0.40773E+00         0.24765E+00         0.00000E+00
    0.39298E+00         0.24245E+00         0.00000E+00
    0.37858E+00         0.23692E+00         0.00000E+00
    0.36448E+00         0.23103E+00         0.00000E+00
    0.35066E+00         0.22481E+00         0.00000E+00
    0.33708E+00         0.21824E+00         0.00000E+00
    0.32370E+00         0.21134E+00         0.00000E+00
    0.31048E+00         0.20412E+00         0.00000E+00
    0.29738E+00         0.19658E+00         0.00000E+00
    0.28437E+00         0.18874E+00         0.00000E+00
    0.27142E+00         0.18063E+00         0.00000E+00
    0.25849E+00         0.17226E+00         0.00000E+00
    0.24555E+00         0.16366E+00         0.00000E+00
    0.23259E+00         0.15485E+00         0.00000E+00
    0.21957E+00         0.14587E+00         0.00000E+00
    0.20649E+00         0.13673E+00         0.00000E+00
    0.19333E+00         0.12749E+00         0.00000E+00
    0.18009E+00         0.11817E+00         0.00000E+00
    0.16677E+00         0.10880E+00         0.00000E+00
    0.15337E+00         0.99439E-01         0.00000E+00
    0.13991E+00         0.90110E-01         0.00000E+00
    0.12641E+00         0.80856E-01         0.00000E+00
    0.11291E+00         0.71716E-01         0.00000E+00
    0.99436E-01         0.62728E-01         0.00000E+00
    0.86041E-01         0.53928E-01         0.00000E+00
    0.72780E-01         0.45352E-01         0.00000E+00
    0.59714E-01         0.37030E-01         0.00000E+00
    0.46914E-01         0.28989E-01         0.00000E+00
    0.34456E-01         0.21252E-01         0.00000E+00
    0.22425E-01         0.13835E-01         0.00000E+00
    0.10909E-01         0.67502E-02         0.00000E+00
    0.00000E+00         0.00000E+00         0.00000E+00
    0.67994E+00         0.22845E+00         0.00000E+00
    0.66474E+00         0.22470E+00         0.00000E+00
    0.64910E+00         0.22114E+00         0.00000E+00
    0.63311E+00         0.21776E+00         0.00000E+00
    0.61685E+00         0.21454E+00         0.00000E+00
    0.60039E+00         0.21147E+00         0.00000E+00
    0.58381E+00         0.20852E+00         0.00000E+00
    0.56716E+00         0.20568E+00         0.00000E+00
    0.55052E+00         0.20290E+00         0.00000E+00
    0.53392E+00         0.20018E+00         0.00000E+00
    0.51743E+00         0.19748E+00         0.00000E+00
    0.50107E+00         0.19477E+00         0.00000E+00
    0.48488E+00         0.19203E+00         0.00000E+00
    0.46889E+00         0.18923E+00         0.00000E+00
    0.45311E+00         0.18634E+00         0.00000E+00
    0.43758E+00         0.18335E+00         0.00000E+00
    0.42228E+00         0.18023E+00         0.00000E+00
    0.40724E+00         0.17697E+00         0.00000E+00
    0.39244E+00         0.17354E+00         0.00000E+00
    0.37789E+00         0.16993E+00         0.00000E+00
    0.36357E+00         0.16613E+00         0.00000E+00
    0.34949E+00         0.16213E+00         0.00000E+00
    0.33561E+00         0.15793E+00         0.00000E+00
    0.32194E+00         0.15352E+00         0.00000E+00
    0.30845E+00         0.14890E+00         0.00000E+00
    0.29512E+00         0.14407E+00         0.00000E+00
    0.28195E+00         0.13904E+00         0.00000E+00
    0.26891E+00         0.13381E+00         0.00000E+00
    0.25598E+00         0.12840E+00         0.00000E+00
    0.24316E+00         0.12281E+00         0.00000E+00
    0.23042E+00         0.11706E+00         0.00000E+00
    0.21775E+00         0.11116E+00         0.00000E+00
    0.20515E+00         0.10514E+00         0.00000E+00
    0.19261E+00         0.99016E-01         0.00000E+00
    0.18012E+00         0.92802E-01         0.00000E+00
    0.16768E+00         0.86524E-01         0.00000E+00
    0.15530E+00         0.80207E-01         0.00000E+00
    0.14299E+00         0.73872E-01         0.00000E+00
    0.13075E+00         0.67546E-01         0.00000E+00
    0.11860E+00         0.61253E-01         0.00000E+00
    0.10657E+00         0.55015E-01         0.00000E+00
    0.94671E-01         0.48858E-01         0.00000E+00
    0.82940E-01         0.42803E-01         0.00000E+00
    0.71409E-01         0.36871E-01         0.00000E+00
    0.60118E-01         0.31081E-01         0.00000E+00
    0.49108E-01         0.25449E-01         0.00000E+00
    0.38426E-01         0.19988E-01         0.00000E+00
    0.28121E-01         0.14708E-01         0.00000E+00
    0.18245E-01         0.96158E-02         0.00000E+00
    0.88526E-02         0.47138E-02         0.00000E+00
    0.00000E+00         0.00000E+00         0.00000E+00
    0.60580E+00         0.16308E+00         0.00000E+00
    0.59419E+00         0.15960E+00         0.00000E+00
    0.58208E+00         0.15629E+00         0.00000E+00
    0.56954E+00         0.15311E+00         0.00000E+00
    0.55662E+00         0.15008E+00         0.00000E+00
    0.54338E+00         0.14718E+00         0.00000E+00
    0.52988E+00         0.14439E+00         0.00000E+00
    0.51617E+00         0.14170E+00         0.00000E+00
    0.50231E+00         0.13910E+00         0.00000E+00
    0.48833E+00         0.13657E+00         0.00000E+00
    0.47428E+00         0.13409E+00         0.00000E+00
    0.46019E+00         0.13165E+00         0.00000E+00
    0.44610E+00         0.12923E+00         0.00000E+00
    0.43203E+00         0.12681E+00         0.00000E+00
    0.41802E+00         0.12438E+00         0.00000E+00
    0.40407E+00         0.12192E+00         0.00000E+00
    0.39022E+00         0.11942E+00         0.00000E+00
    0.37647E+00         0.11686E+00         0.00000E+00
    0.36283E+00         0.11423E+00         0.00000E+00
    0.34932E+00         0.11152E+00         0.00000E+00
    0.33593E+00         0.10872E+00         0.00000E+00
    0.32267E+00         0.10583E+00         0.00000E+00
    0.30954E+00         0.10283E+00         0.00000E+00
    0.29654E+00         0.99728E-01         0.00000E+00
    0.28367E+00         0.96518E-01         0.00000E+00
    0.27093E+00         0.93200E-01         0.00000E+00
    0.25831E+00         0.89776E-01         0.00000E+00
    0.24581E+00         0.86248E-01         0.00000E+00
    0.23342E+00         0.82622E-01         0.00000E+00
    0.22114E+00         0.78904E-01         0.00000E+00
    0.20897E+00         0.75103E-01         0.00000E+00
    0.19691E+00         0.71228E-01         0.00000E+00
    0.18496E+00         0.67289E-01         0.00000E+00
    0.17312E+00         0.63299E-01         0.00000E+00
    0.16139E+00         0.59269E-01         0.00000E+00
    0.14977E+00         0.55215E-01         0.00000E+00
    0.13828E+00         0.51148E-01         0.00000E+00
    0.12692E+00         0.47085E-01         0.00000E+00
    0.11571E+00         0.43038E-01         0.00000E+00
    0.10466E+00         0.39022E-01         0.00000E+00
    0.93786E-01         0.35052E-01         0.00000E+00
    0.83107E-01         0.31139E-01         0.00000E+00
    0.72644E-01         0.27296E-01         0.00000E+00
    0.62423E-01         0.23534E-01         0.00000E+00
    0.52469E-01         0.19862E-01         0.00000E+00
    0.42809E-01         0.16288E-01         0.00000E+00
    0.33473E-01         0.12817E-01         0.00000E+00
    0.24492E-01         0.94536E-02         0.00000E+00
    0.15898E-01         0.61976E-02         0.00000E+00
    0.77230E-02         0.30479E-02         0.00000E+00
    0.00000E+00         0.00000E+00         0.00000E+00
    0.53791E+00         0.11385E+00         0.00000E+00
    0.52915E+00         0.11068E+00         0.00000E+00
    0.51986E+00         0.10764E+00         0.00000E+00
    0.51008E+00         0.10472E+00         0.00000E+00
    0.49988E+00         0.10191E+00         0.00000E+00
    0.48929E+00         0.99222E-01         0.00000E+00
    0.47836E+00         0.96638E-01         0.00000E+00
    0.46714E+00         0.94152E-01         0.00000E+00
    0.45567E+00         0.91756E-01         0.00000E+00
    0.44398E+00         0.89441E-01         0.00000E+00
    0.43212E+00         0.87197E-01         0.00000E+00
    0.42011E+00         0.85015E-01         0.00000E+00
    0.40800E+00         0.82884E-01         0.00000E+00
    0.39580E+00         0.80793E-01         0.00000E+00
    0.38353E+00         0.78733E-01         0.00000E+00
    0.37124E+00         0.76693E-01         0.00000E+00
    0.35893E+00         0.74665E-01         0.00000E+00
    0.34662E+00         0.72639E-01         0.00000E+00
    0.33433E+00         0.70607E-01         0.00000E+00
    0.32208E+00         0.68562E-01         0.00000E+00
    0.30986E+00         0.66497E-01         0.00000E+00
    0.29771E+00         0.64406E-01         0.00000E+00
    0.28562E+00         0.62286E-01         0.00000E+00
    0.27360E+00         0.60132E-01         0.00000E+00
    0.26166E+00         0.57942E-01         0.00000E+00
    0.24980E+00         0.55716E-01         0.00000E+00
    0.23803E+00         0.53452E-01         0.00000E+00
    0.22635E+00         0.51152E-01         0.00000E+00
    0.21477E+00         0.48819E-01         0.00000E+00
    0.20329E+00         0.46454E-01         0.00000E+00
    0.19191E+00         0.44062E-01         0.00000E+00
    0.18065E+00         0.41648E-01         0.00000E+00
    0.16950E+00         0.39217E-01         0.00000E+00
    0.15847E+00         0.36776E-01         0.00000E+00
    0.14757E+00         0.34332E-01         0.00000E+00
    0.13681E+00         0.31891E-01         0.00000E+00
    0.12619E+00         0.29461E-01         0.00000E+00
    0.11572E+00         0.27049E-01         0.00000E+00
    0.10542E+00         0.24663E-01         0.00000E+00
    0.95294E-01         0.22311E-01         0.00000E+00
    0.85359E-01         0.19998E-01         0.00000E+00
    0.75628E-01         0.17732E-01         0.00000E+00
    0.66116E-01         0.15518E-01         0.00000E+00
    0.56840E-01         0.13361E-01         0.00000E+00
    0.47817E-01         0.11264E-01         0.00000E+00
    0.39064E-01         0.92302E-02         0.00000E+00
    0.30599E-01         0.72610E-02         0.00000E+00
    0.22442E-01         0.53560E-02         0.00000E+00
    0.14611E-01         0.35134E-02         0.00000E+00
    0.71245E-02         0.17298E-02         0.00000E+00
    0.00000E+00         0.00000E+00         0.00000E+00
    0.47650E+00         0.77329E-01         0.00000E+00
    0.46999E+00         0.74472E-01         0.00000E+00
    0.46294E+00         0.71715E-01         0.00000E+00
    0.45539E+00         0.69059E-01         0.00000E+00
    0.44739E+00         0.66504E-01         0.00000E+00
    0.43897E+00         0.64048E-01         0.00000E+00
    0.43018E+00         0.61688E-01         0.00000E+00
    0.42105E+00         0.59422E-01         0.00000E+00
    0.41162E+00         0.57246E-01         0.00000E+00
    0.40192E+00         0.55154E-01         0.00000E+00
    0.39199E+00         0.53143E-01         0.00000E+00
    0.38184E+00         0.51205E-01         0.00000E+00
    0.37152E+00         0.49337E-01         0.00000E+00
    0.36105E+00         0.47531E-01         0.00000E+00
    0.35045E+00         0.45782E-01         0.00000E+00
    0.33974E+00         0.44084E-01         0.00000E+00
    0.32895E+00         0.42431E-01         0.00000E+00
    0.31810E+00         0.40818E-01         0.00000E+00
    0.30720E+00         0.39239E-01         0.00000E+00
    0.29627E+00         0.37689E-01         0.00000E+00
    0.28533E+00         0.36164E-01         0.00000E+00
    0.27439E+00         0.34659E-01         0.00000E+00
    0.26346E+00         0.33173E-01         0.00000E+00
    0.25255E+00         0.31701E-01         0.00000E+00
    0.24168E+00         0.30241E-01         0.00000E+00
    0.23085E+00         0.28792E-01         0.00000E+00
    0.22007E+00         0.27353E-01         0.00000E+00
    0.20936E+00         0.25924E-01         0.00000E+00
    0.19872E+00         0.24504E-01         0.00000E+00
    0.18816E+00         0.23095E-01         0.00000E+00
    0.17768E+00         0.21698E-01         0.00000E+00
    0.16730E+00         0.20316E-01         0.00000E+00
    0.15702E+00         0.18949E-01         0.00000E+00
    0.14685E+00         0.17601E-01         0.00000E+00
    0.13680E+00         0.16275E-01         0.00000E+00
    0.12688E+00         0.14973E-01         0.00000E+00
    0.11709E+00         0.13700E-01         0.00000E+00
    0.10745E+00         0.12457E-01         0.00000E+00
    0.97960E-01         0.11249E-01         0.00000E+00
    0.88637E-01         0.10078E-01         0.00000E+00
    0.79490E-01         0.89470E-02         0.00000E+00
    0.70528E-01         0.78578E-02         0.00000E+00
    0.61761E-01         0.68124E-02         0.00000E+00
    0.53203E-01         0.58120E-02         0.00000E+00
    0.44862E-01         0.48569E-02         0.00000E+00
    0.36750E-01         0.39469E-02         0.00000E+00
    0.28879E-01         0.30809E-02         0.00000E+00
    0.21258E-01         0.22568E-02         0.00000E+00
    0.13899E-01         0.14715E-02         0.00000E+00
    0.68097E-02         0.72095E-03         0.00000E+00
    0.00000E+00         0.00000E+00         0.00000E+00
    0.42154E+00         0.50714E-01         0.00000E+00
    0.41677E+00         0.48162E-01         0.00000E+00
    0.41149E+00         0.45690E-01         0.00000E+00
    0.40571E+00         0.43302E-01         0.00000E+00
    0.39949E+00         0.40998E-01         0.00000E+00
    0.39285E+00         0.38781E-01         0.00000E+00
    0.38582E+00         0.36651E-01         0.00000E+00
    0.37844E+00         0.34607E-01         0.00000E+00
    0.37073E+00         0.32648E-01         0.00000E+00
    0.36273E+00         0.30774E-01         0.00000E+00
    0.35446E+00         0.28982E-01         0.00000E+00
    0.34595E+00         0.27270E-01         0.00000E+00
    0.33723E+00         0.25635E-01         0.00000E+00
    0.32831E+00         0.24075E-01         0.00000E+00
    0.31923E+00         0.22585E-01         0.00000E+00
    0.30999E+00         0.21163E-01         0.00000E+00
    0.30063E+00         0.19807E-01         0.00000E+00
    0.29117E+00         0.18511E-01         0.00000E+00
    0.28161E+00         0.17273E-01         0.00000E+00
    0.27198E+00         0.16091E-01         0.00000E+00
    0.26230E+00         0.14961E-01         0.00000E+00
    0.25257E+00         0.13880E-01         0.00000E+00
    0.24282E+00         0.12845E-01         0.00000E+00
    0.23305E+00         0.11856E-01         0.00000E+00
    0.22328E+00         0.10909E-01         0.00000E+00
    0.21352E+00         0.10004E-01         0.00000E+00
    0.20378E+00         0.91385E-02         0.00000E+00
    0.19407E+00         0.83118E-02         0.00000E+00
    0.18441E+00         0.75233E-02         0.00000E+00
    0.17479E+00         0.67726E-02         0.00000E+00
    0.16524E+00         0.60594E-02         0.00000E+00
    0.15576E+00         0.53840E-02         0.00000E+00
    0.14636E+00         0.47466E-02         0.00000E+00
    0.13705E+00         0.41476E-02         0.00000E+00
    0.12783E+00         0.35876E-02         0.00000E+00
    0.11872E+00         0.30672E-02         0.00000E+00
    0.10972E+00         0.25871E-02         0.00000E+00
    0.10084E+00         0.21478E-02         0.00000E+00
    0.92095E-01         0.17499E-02         0.00000E+00
    0.83486E-01         0.13937E-02         0.00000E+00
    0.75023E-01         0.10794E-02         0.00000E+00
    0.66714E-01         0.80667E-03         0.00000E+00
    0.58567E-01         0.57517E-03         0.00000E+00
    0.50588E-01         0.38399E-03         0.00000E+00
    0.42785E-01         0.23185E-03         0.00000E+00
    0.35165E-01         0.11694E-03         0.00000E+00
    0.27734E-01         0.36973E-04         0.00000E+00
    0.20497E-01        -0.10939E-04         0.00000E+00
    0.13460E-01        -0.30252E-04         0.00000E+00
    0.66265E-02        -0.25040E-04         0.00000E+00
    0.00000E+00         0.00000E+00         0.00000E+00
    0.37274E+00         0.31724E-01         0.00000E+00
    0.36932E+00         0.29462E-01         0.00000E+00
    0.36541E+00         0.27263E-01         0.00000E+00
    0.36104E+00         0.25132E-01         0.00000E+00
    0.35623E+00         0.23072E-01         0.00000E+00
    0.35103E+00         0.21087E-01         0.00000E+00
    0.34544E+00         0.19178E-01         0.00000E+00
    0.33950E+00         0.17348E-01         0.00000E+00
    0.33324E+00         0.15597E-01         0.00000E+00
    0.32667E+00         0.13926E-01         0.00000E+00
    0.31982E+00         0.12335E-01         0.00000E+00
    0.31272E+00         0.10825E-01         0.00000E+00
    0.30539E+00         0.93934E-02         0.00000E+00
    0.29785E+00         0.80404E-02         0.00000E+00
    0.29011E+00         0.67646E-02         0.00000E+00
    0.28220E+00         0.55646E-02         0.00000E+00
    0.27414E+00         0.44388E-02         0.00000E+00
    0.26595E+00         0.33855E-02         0.00000E+00
    0.25764E+00         0.24030E-02         0.00000E+00
    0.24923E+00         0.14895E-02         0.00000E+00
    0.24073E+00         0.64324E-03         0.00000E+00
    0.23216E+00        -0.13765E-03         0.00000E+00
    0.22353E+00        -0.85485E-03         0.00000E+00
    0.21486E+00        -0.15100E-02         0.00000E+00
    0.20616E+00        -0.21048E-02         0.00000E+00
    0.19744E+00        -0.26405E-02         0.00000E+00
    0.18872E+00        -0.31186E-02         0.00000E+00
    0.17999E+00        -0.35403E-02         0.00000E+00
    0.17129E+00        -0.39068E-02         0.00000E+00
    0.16260E+00        -0.42191E-02         0.00000E+00
    0.15396E+00        -0.44781E-02         0.00000E+00
    0.14535E+00        -0.46846E-02         0.00000E+00
    0.13680E+00        -0.48396E-02         0.00000E+00
    0.12831E+00        -0.49436E-02         0.00000E+00
    0.11989E+00        -0.49976E-02         0.00000E+00
    0.11155E+00        -0.50021E-02         0.00000E+00
    0.10329E+00        -0.49579E-02         0.00000E+00
    0.95123E-01        -0.48660E-02         0.00000E+00
    0.87057E-01        -0.47271E-02         0.00000E+00
    0.79096E-01        -0.45424E-02         0.00000E+00
    0.71248E-01        -0.43132E-02         0.00000E+00
    0.63518E-01        -0.40406E-02         0.00000E+00
    0.55912E-01        -0.37265E-02         0.00000E+00
    0.48435E-01        -0.33727E-02         0.00000E+00
    0.41090E-01        -0.29812E-02         0.00000E+00
    0.33883E-01        -0.25545E-02         0.00000E+00
    0.26817E-01        -0.20954E-02         0.00000E+00
    0.19894E-01        -0.16068E-02         0.00000E+00
    0.13116E-01        -0.10922E-02         0.00000E+00
    0.64848E-02        -0.55525E-03         0.00000E+00
    0.00000E+00         0.00000E+00         0.00000E+00
    0.32969E+00         0.18511E-01         0.00000E+00
    0.32729E+00         0.16517E-01         0.00000E+00
    0.32444E+00         0.14572E-01         0.00000E+00
    0.32116E+00         0.12682E-01         0.00000E+00
    0.31748E+00         0.10851E-01         0.00000E+00
    0.31342E+00         0.90834E-02         0.00000E+00
    0.30900E+00         0.73824E-02         0.00000E+00
    0.30424E+00         0.57509E-02         0.00000E+00
    0.29916E+00         0.41915E-02         0.00000E+00
    0.29379E+00         0.27060E-02         0.00000E+00
    0.28814E+00         0.12959E-02         0.00000E+00
    0.28224E+00        -0.37791E-04         0.00000E+00
    0.27611E+00        -0.12943E-02         0.00000E+00
    0.26975E+00        -0.24733E-02         0.00000E+00
    0.26319E+00        -0.35747E-02         0.00000E+00
    0.25645E+00        -0.45986E-02         0.00000E+00
    0.24955E+00        -0.55454E-02         0.00000E+00
    0.24249E+00        -0.64157E-02         0.00000E+00
    0.23530E+00        -0.72102E-02         0.00000E+00
    0.22800E+00        -0.79299E-02         0.00000E+00
    0.22058E+00        -0.85756E-02         0.00000E+00
    0.21308E+00        -0.91485E-02         0.00000E+00
    0.20549E+00        -0.96496E-02         0.00000E+00
    0.19785E+00        -0.10080E-01         0.00000E+00
    0.19015E+00        -0.10441E-01         0.00000E+00
    0.18240E+00        -0.10734E-01         0.00000E+00
    0.17463E+00        -0.10961E-01         0.00000E+00
    0.16684E+00        -0.11121E-01         0.00000E+00
    0.15903E+00        -0.11217E-01         0.00000E+00
    0.15123E+00        -0.11250E-01         0.00000E+00
    0.14344E+00        -0.11221E-01         0.00000E+00
    0.13566E+00        -0.11132E-01         0.00000E+00
    0.12791E+00        -0.10983E-01         0.00000E+00
    0.12020E+00        -0.10776E-01         0.00000E+00
    0.11253E+00        -0.10512E-01         0.00000E+00
    0.10490E+00        -0.10193E-01         0.00000E+00
    0.97336E-01        -0.98206E-02         0.00000E+00
    0.89832E-01        -0.93954E-02         0.00000E+00
    0.82396E-01        -0.89195E-02         0.00000E+00
    0.75035E-01        -0.83945E-02         0.00000E+00
    0.67752E-01        -0.78223E-02         0.00000E+00
    0.60553E-01        -0.72047E-02         0.00000E+00
    0.53441E-01        -0.65439E-02         0.00000E+00
    0.46421E-01        -0.58420E-02         0.00000E+00
    0.39495E-01        -0.51015E-02         0.00000E+00
    0.32665E-01        -0.43248E-02         0.00000E+00
    0.25934E-01        -0.35148E-02         0.00000E+00
    0.19302E-01        -0.26741E-02         0.00000E+00
    0.12769E-01        -0.18060E-02         0.00000E+00
    0.63355E-02        -0.91349E-03         0.00000E+00
    0.00000E+00         0.00000E+00         0.00000E+00
    0.29189E+00         0.95953E-02         0.00000E+00
    0.29025E+00         0.78447E-02         0.00000E+00
    0.28820E+00         0.61318E-02         0.00000E+00
    0.28576E+00         0.44624E-02         0.00000E+00
    0.28296E+00         0.28414E-02         0.00000E+00
    0.27980E+00         0.12736E-02         0.00000E+00
    0.27631E+00        -0.23700E-03         0.00000E+00
    0.27251E+00        -0.16868E-02         0.00000E+00
    0.26840E+00        -0.30728E-02         0.00000E+00
    0.26402E+00        -0.43921E-02         0.00000E+00
    0.25937E+00        -0.56426E-02         0.00000E+00
    0.25448E+00        -0.68223E-02         0.00000E+00
    0.24935E+00        -0.79298E-02         0.00000E+00
    0.24401E+00        -0.89637E-02         0.00000E+00
    0.23847E+00        -0.99231E-02         0.00000E+00
    0.23274E+00        -0.10807E-01         0.00000E+00
    0.22684E+00        -0.11616E-01         0.00000E+00
    0.22079E+00        -0.12349E-01         0.00000E+00
    0.21459E+00        -0.13007E-01         0.00000E+00
    0.20826E+00        -0.13589E-01         0.00000E+00
    0.20182E+00        -0.14096E-01         0.00000E+00
    0.19527E+00        -0.14528E-01         0.00000E+00
    0.18863E+00        -0.14887E-01         0.00000E+00
    0.18191E+00        -0.15172E-01         0.00000E+00
    0.17512E+00        -0.15384E-01         0.00000E+00
    0.16827E+00        -0.15526E-01         0.00000E+00
    0.16137E+00        -0.15597E-01         0.00000E+00
    0.15443E+00        -0.15599E-01         0.00000E+00
    0.14746E+00        -0.15532E-01         0.00000E+00
    0.14047E+00        -0.15399E-01         0.00000E+00
    0.13346E+00        -0.15200E-01         0.00000E+00
    0.12646E+00        -0.14937E-01         0.00000E+00
    0.11945E+00        -0.14611E-01         0.00000E+00
    0.11246E+00        -0.14223E-01         0.00000E+00
    0.10548E+00        -0.13776E-01         0.00000E+00
    0.98531E-01        -0.13270E-01         0.00000E+00
    0.91608E-01        -0.12708E-01         0.00000E+00
    0.84720E-01        -0.12091E-01         0.00000E+00
    0.77872E-01        -0.11421E-01         0.00000E+00
    0.71069E-01        -0.10699E-01         0.00000E+00
    0.64315E-01        -0.99287E-02         0.00000E+00
    0.57614E-01        -0.91107E-02         0.00000E+00
    0.50968E-01        -0.82477E-02         0.00000E+00
    0.44381E-01        -0.73417E-02         0.00000E+00
    0.37854E-01        -0.63951E-02         0.00000E+00
    0.31389E-01        -0.54103E-02         0.00000E+00
    0.24987E-01        -0.43896E-02         0.00000E+00
    0.18647E-01        -0.33357E-02         0.00000E+00
    0.12371E-01        -0.22510E-02         0.00000E+00
    0.61555E-02        -0.11382E-02         0.00000E+00
    0.00000E+00         0.00000E+00         0.00000E+00
    0.25880E+00         0.38153E-02         0.00000E+00
    0.25770E+00         0.22817E-02         0.00000E+00
    0.25625E+00         0.77678E-03         0.00000E+00
    0.25445E+00        -0.69397E-03         0.00000E+00
    0.25233E+00        -0.21253E-02         0.00000E+00
    0.24988E+00        -0.35125E-02         0.00000E+00
    0.24713E+00        -0.48513E-02         0.00000E+00
    0.24409E+00        -0.61377E-02         0.00000E+00
    0.24077E+00        -0.73685E-02         0.00000E+00
    0.23719E+00        -0.85404E-02         0.00000E+00
    0.23337E+00        -0.96507E-02         0.00000E+00
    0.22931E+00        -0.10697E-01         0.00000E+00
    0.22503E+00        -0.11678E-01         0.00000E+00
    0.22055E+00        -0.12591E-01         0.00000E+00
    0.21586E+00        -0.13434E-01         0.00000E+00
    0.21100E+00        -0.14208E-01         0.00000E+00
    0.20597E+00        -0.14910E-01         0.00000E+00
    0.20078E+00        -0.15541E-01         0.00000E+00
    0.19545E+00        -0.16099E-01         0.00000E+00
    0.18998E+00        -0.16584E-01         0.00000E+00
    0.18439E+00        -0.16997E-01         0.00000E+00
    0.17868E+00        -0.17337E-01         0.00000E+00
    0.17288E+00        -0.17604E-01         0.00000E+00
    0.16698E+00        -0.17800E-01         0.00000E+00
    0.16101E+00        -0.17924E-01         0.00000E+00
    0.15496E+00        -0.17977E-01         0.00000E+00
    0.14885E+00        -0.17960E-01         0.00000E+00
    0.14268E+00        -0.17874E-01         0.00000E+00
    0.13647E+00        -0.17720E-01         0.00000E+00
    0.13022E+00        -0.17498E-01         0.00000E+00
    0.12394E+00        -0.17211E-01         0.00000E+00
    0.11763E+00        -0.16859E-01         0.00000E+00
    0.11131E+00        -0.16443E-01         0.00000E+00
    0.10498E+00        -0.15965E-01         0.00000E+00
    0.98646E-01        -0.15427E-01         0.00000E+00
    0.92313E-01        -0.14829E-01         0.00000E+00
    0.85987E-01        -0.14174E-01         0.00000E+00
    0.79673E-01        -0.13464E-01         0.00000E+00
    0.73374E-01        -0.12699E-01         0.00000E+00
    0.67096E-01        -0.11882E-01         0.00000E+00
    0.60841E-01        -0.11014E-01         0.00000E+00
    0.54612E-01        -0.10098E-01         0.00000E+00
    0.48413E-01        -0.91353E-02         0.00000E+00
    0.42245E-01        -0.81279E-02         0.00000E+00
    0.36109E-01        -0.70780E-02         0.00000E+00
    0.30007E-01        -0.59875E-02         0.00000E+00
    0.23939E-01        -0.48585E-02         0.00000E+00
    0.17905E-01        -0.36932E-02         0.00000E+00
    0.11905E-01        -0.24937E-02         0.00000E+00
    0.59372E-02        -0.12619E-02         0.00000E+00
    0.00000E+00         0.00000E+00         0.00000E+00
    0.22986E+00         0.27119E-03         0.00000E+00
    0.22917E+00        -0.10708E-02         0.00000E+00
    0.22815E+00        -0.23915E-02         0.00000E+00
    0.22683E+00        -0.36855E-02         0.00000E+00
    0.22522E+00        -0.49478E-02         0.00000E+00
    0.22332E+00        -0.61738E-02         0.00000E+00
    0.22115E+00        -0.73592E-02         0.00000E+00
    0.21872E+00        -0.85001E-02         0.00000E+00
    0.21603E+00        -0.95931E-02         0.00000E+00
    0.21311E+00        -0.10635E-01         0.00000E+00
    0.20995E+00        -0.11623E-01         0.00000E+00
    0.20658E+00        -0.12554E-01         0.00000E+00
    0.20301E+00        -0.13426E-01         0.00000E+00
    0.19924E+00        -0.14238E-01         0.00000E+00
    0.19528E+00        -0.14986E-01         0.00000E+00
    0.19115E+00        -0.15671E-01         0.00000E+00
    0.18685E+00        -0.16290E-01         0.00000E+00
    0.18241E+00        -0.16843E-01         0.00000E+00
    0.17781E+00        -0.17328E-01         0.00000E+00
    0.17309E+00        -0.17746E-01         0.00000E+00
    0.16824E+00        -0.18096E-01         0.00000E+00
    0.16327E+00        -0.18377E-01         0.00000E+00
    0.15820E+00        -0.18589E-01         0.00000E+00
    0.15303E+00        -0.18734E-01         0.00000E+00
    0.14778E+00        -0.18809E-01         0.00000E+00
    0.14244E+00        -0.18817E-01         0.00000E+00
    0.13703E+00        -0.18758E-01         0.00000E+00
    0.13155E+00        -0.18632E-01         0.00000E+00
    0.12602E+00        -0.18440E-01         0.00000E+00
    0.12044E+00        -0.18183E-01         0.00000E+00
    0.11481E+00        -0.17861E-01         0.00000E+00
    0.10914E+00        -0.17476E-01         0.00000E+00
    0.10344E+00        -0.17029E-01         0.00000E+00
    0.97719E-01        -0.16522E-01         0.00000E+00
    0.91973E-01        -0.15954E-01         0.00000E+00
    0.86211E-01        -0.15328E-01         0.00000E+00
    0.80438E-01        -0.14646E-01         0.00000E+00
    0.74657E-01        -0.13908E-01         0.00000E+00
    0.68872E-01        -0.13116E-01         0.00000E+00
    0.63088E-01        -0.12272E-01         0.00000E+00
    0.57306E-01        -0.11376E-01         0.00000E+00
    0.51529E-01        -0.10432E-01         0.00000E+00
    0.45760E-01        -0.94405E-02         0.00000E+00
    0.40000E-01        -0.84030E-02         0.00000E+00
    0.34252E-01        -0.73215E-02         0.00000E+00
    0.28514E-01        -0.61975E-02         0.00000E+00
    0.22789E-01        -0.50329E-02         0.00000E+00
    0.17076E-01        -0.38292E-02         0.00000E+00
    0.11374E-01        -0.25881E-02         0.00000E+00
    0.56823E-02        -0.13112E-02         0.00000E+00
    0.00000E+00         0.00000E+00         0.00000E+00
    0.20458E+00        -0.17198E-02         0.00000E+00
    0.20416E+00        -0.28944E-02         0.00000E+00
    0.20346E+00        -0.40533E-02         0.00000E+00
    0.20250E+00        -0.51915E-02         0.00000E+00
    0.20127E+00        -0.63044E-02         0.00000E+00
    0.19979E+00        -0.73876E-02         0.00000E+00
    0.19807E+00        -0.84372E-02         0.00000E+00
    0.19611E+00        -0.94494E-02         0.00000E+00
    0.19393E+00        -0.10421E-01         0.00000E+00
    0.19153E+00        -0.11348E-01         0.00000E+00
    0.18892E+00        -0.12229E-01         0.00000E+00
    0.18611E+00        -0.13060E-01         0.00000E+00
    0.18312E+00        -0.13839E-01         0.00000E+00
    0.17994E+00        -0.14565E-01         0.00000E+00
    0.17659E+00        -0.15234E-01         0.00000E+00
    0.17307E+00        -0.15847E-01         0.00000E+00
    0.16940E+00        -0.16400E-01         0.00000E+00
    0.16558E+00        -0.16893E-01         0.00000E+00
    0.16162E+00        -0.17325E-01         0.00000E+00
    0.15753E+00        -0.17696E-01         0.00000E+00
    0.15332E+00        -0.18003E-01         0.00000E+00
    0.14899E+00        -0.18248E-01         0.00000E+00
    0.14456E+00        -0.18429E-01         0.00000E+00
    0.14003E+00        -0.18546E-01         0.00000E+00
    0.13540E+00        -0.18600E-01         0.00000E+00
    0.13069E+00        -0.18591E-01         0.00000E+00
    0.12590E+00        -0.18518E-01         0.00000E+00
    0.12104E+00        -0.18383E-01         0.00000E+00
    0.11611E+00        -0.18185E-01         0.00000E+00
    0.11112E+00        -0.17925E-01         0.00000E+00
    0.10608E+00        -0.17604E-01         0.00000E+00
    0.10099E+00        -0.17223E-01         0.00000E+00
    0.95853E-01        -0.16782E-01         0.00000E+00
    0.90679E-01        -0.16283E-01         0.00000E+00
    0.85471E-01        -0.15726E-01         0.00000E+00
    0.80234E-01        -0.15113E-01         0.00000E+00
    0.74970E-01        -0.14445E-01         0.00000E+00
    0.69685E-01        -0.13723E-01         0.00000E+00
    0.64380E-01        -0.12947E-01         0.00000E+00
    0.59060E-01        -0.12120E-01         0.00000E+00
    0.53726E-01        -0.11243E-01         0.00000E+00
    0.48382E-01        -0.10317E-01         0.00000E+00
    0.43029E-01        -0.93436E-02         0.00000E+00
    0.37669E-01        -0.83238E-02         0.00000E+00
    0.32302E-01        -0.72590E-02         0.00000E+00
    0.26930E-01        -0.61507E-02         0.00000E+00
    0.21554E-01        -0.50001E-02         0.00000E+00
    0.16173E-01        -0.38085E-02         0.00000E+00
    0.10788E-01        -0.25772E-02         0.00000E+00
    0.53972E-02        -0.13073E-02         0.00000E+00
    0.00000E+00         0.00000E+00         0.00000E+00
    0.18247E+00        -0.26665E-02         0.00000E+00
    0.18223E+00        -0.36957E-02         0.00000E+00
    0.18176E+00        -0.47133E-02         0.00000E+00
    0.18105E+00        -0.57151E-02         0.00000E+00
    0.18011E+00        -0.66968E-02         0.00000E+00
    0.17895E+00        -0.76545E-02         0.00000E+00
    0.17758E+00        -0.85844E-02         0.00000E+00
    0.17599E+00        -0.94832E-02         0.00000E+00
    0.17421E+00        -0.10348E-01         0.00000E+00
    0.17223E+00        -0.11174E-01         0.00000E+00
    0.17006E+00        -0.11961E-01         0.00000E+00
    0.16771E+00        -0.12705E-01         0.00000E+00
    0.16519E+00        -0.13404E-01         0.00000E+00
    0.16250E+00        -0.14056E-01         0.00000E+00
    0.15965E+00        -0.14659E-01         0.00000E+00
    0.15664E+00        -0.15211E-01         0.00000E+00
    0.15349E+00        -0.15711E-01         0.00000E+00
    0.15020E+00        -0.16157E-01         0.00000E+00
    0.14678E+00        -0.16549E-01         0.00000E+00
    0.14324E+00        -0.16885E-01         0.00000E+00
    0.13957E+00        -0.17164E-01         0.00000E+00
    0.13580E+00        -0.17386E-01         0.00000E+00
    0.13192E+00        -0.17551E-01         0.00000E+00
    0.12793E+00        -0.17657E-01         0.00000E+00
    0.12386E+00        -0.17705E-01         0.00000E+00
    0.11970E+00        -0.17695E-01         0.00000E+00
    0.11545E+00        -0.17627E-01         0.00000E+00
    0.11113E+00        -0.17500E-01         0.00000E+00
    0.10674E+00        -0.17315E-01         0.00000E+00
    0.10228E+00        -0.17073E-01         0.00000E+00
    0.97761E-01        -0.16774E-01         0.00000E+00
    0.93186E-01        -0.16418E-01         0.00000E+00
    0.88559E-01        -0.16006E-01         0.00000E+00
    0.83885E-01        -0.15538E-01         0.00000E+00
    0.79168E-01        -0.15016E-01         0.00000E+00
    0.74410E-01        -0.14440E-01         0.00000E+00
    0.69617E-01        -0.13812E-01         0.00000E+00
    0.64790E-01        -0.13131E-01         0.00000E+00
    0.59934E-01        -0.12399E-01         0.00000E+00
    0.55050E-01        -0.11617E-01         0.00000E+00
    0.50141E-01        -0.10786E-01         0.00000E+00
    0.45209E-01        -0.99073E-02         0.00000E+00
    0.40256E-01        -0.89813E-02         0.00000E+00
    0.35284E-01        -0.80094E-02         0.00000E+00
    0.30293E-01        -0.69924E-02         0.00000E+00
    0.25285E-01        -0.59315E-02         0.00000E+00
    0.20261E-01        -0.48276E-02         0.00000E+00
    0.15220E-01        -0.36816E-02         0.00000E+00
    0.10163E-01        -0.24945E-02         0.00000E+00
    0.50901E-02        -0.12670E-02         0.00000E+00
    0.00000E+00         0.00000E+00         0.00000E+00
    0.16310E+00        -0.29402E-02         0.00000E+00
    0.16299E+00        -0.38434E-02         0.00000E+00
    0.16267E+00        -0.47384E-02         0.00000E+00
    0.16214E+00        -0.56212E-02         0.00000E+00
    0.16142E+00        -0.64882E-02         0.00000E+00
    0.16050E+00        -0.73358E-02         0.00000E+00
    0.15939E+00        -0.81607E-02         0.00000E+00
    0.15810E+00        -0.89596E-02         0.00000E+00
    0.15663E+00        -0.97298E-02         0.00000E+00
    0.15498E+00        -0.10468E-01         0.00000E+00
    0.15316E+00        -0.11173E-01         0.00000E+00
    0.15118E+00        -0.11840E-01         0.00000E+00
    0.14905E+00        -0.12469E-01         0.00000E+00
    0.14676E+00        -0.13058E-01         0.00000E+00
    0.14432E+00        -0.13603E-01         0.00000E+00
    0.14174E+00        -0.14104E-01         0.00000E+00
    0.13903E+00        -0.14559E-01         0.00000E+00
    0.13619E+00        -0.14967E-01         0.00000E+00
    0.13323E+00        -0.15327E-01         0.00000E+00
    0.13014E+00        -0.15637E-01         0.00000E+00
    0.12694E+00        -0.15896E-01         0.00000E+00
    0.12364E+00        -0.16105E-01         0.00000E+00
    0.12023E+00        -0.16261E-01         0.00000E+00
    0.11673E+00        -0.16366E-01         0.00000E+00
    0.11313E+00        -0.16417E-01         0.00000E+00
    0.10944E+00        -0.16416E-01         0.00000E+00
    0.10568E+00        -0.16361E-01         0.00000E+00
    0.10183E+00        -0.16253E-01         0.00000E+00
    0.97913E-01        -0.16092E-01         0.00000E+00
    0.93926E-01        -0.15878E-01         0.00000E+00
    0.89874E-01        -0.15611E-01         0.00000E+00
    0.85762E-01        -0.15291E-01         0.00000E+00
    0.81593E-01        -0.14919E-01         0.00000E+00
    0.77371E-01        -0.14496E-01         0.00000E+00
    0.73099E-01        -0.14021E-01         0.00000E+00
    0.68780E-01        -0.13496E-01         0.00000E+00
    0.64418E-01        -0.12921E-01         0.00000E+00
    0.60016E-01        -0.12296E-01         0.00000E+00
    0.55576E-01        -0.11622E-01         0.00000E+00
    0.51101E-01        -0.10901E-01         0.00000E+00
    0.46592E-01        -0.10132E-01         0.00000E+00
    0.42052E-01        -0.93164E-02         0.00000E+00
    0.37483E-01        -0.84551E-02         0.00000E+00
    0.32885E-01        -0.75488E-02         0.00000E+00
    0.28261E-01        -0.65981E-02         0.00000E+00
    0.23611E-01        -0.56037E-02         0.00000E+00
    0.18937E-01        -0.45664E-02         0.00000E+00
    0.14238E-01        -0.34868E-02         0.00000E+00
    0.95159E-02        -0.23655E-02         0.00000E+00
    0.47698E-02        -0.12031E-02         0.00000E+00
    0.00000E+00         0.00000E+00         0.00000E+00
    0.14610E+00        -0.28055E-02         0.00000E+00
    0.14606E+00        -0.36000E-02         0.00000E+00
    0.14585E+00        -0.43886E-02         0.00000E+00
    0.14545E+00        -0.51680E-02         0.00000E+00
    0.14488E+00        -0.59349E-02         0.00000E+00
    0.14415E+00        -0.66862E-02         0.00000E+00
    0.14324E+00        -0.74189E-02         0.00000E+00
    0.14217E+00        -0.81302E-02         0.00000E+00
    0.14095E+00        -0.88174E-02         0.00000E+00
    0.13956E+00        -0.94781E-02         0.00000E+00
    0.13803E+00        -0.10110E-01         0.00000E+00
    0.13635E+00        -0.10710E-01         0.00000E+00
    0.13453E+00        -0.11278E-01         0.00000E+00
    0.13257E+00        -0.11810E-01         0.00000E+00
    0.13048E+00        -0.12305E-01         0.00000E+00
    0.12825E+00        -0.12762E-01         0.00000E+00
    0.12591E+00        -0.13179E-01         0.00000E+00
    0.12344E+00        -0.13555E-01         0.00000E+00
    0.12086E+00        -0.13888E-01         0.00000E+00
    0.11817E+00        -0.14177E-01         0.00000E+00
    0.11537E+00        -0.14422E-01         0.00000E+00
    0.11246E+00        -0.14621E-01         0.00000E+00
    0.10946E+00        -0.14774E-01         0.00000E+00
    0.10637E+00        -0.14881E-01         0.00000E+00
    0.10319E+00        -0.14940E-01         0.00000E+00
    0.99919E-01        -0.14951E-01         0.00000E+00
    0.96570E-01        -0.14914E-01         0.00000E+00
    0.93143E-01        -0.14829E-01         0.00000E+00
    0.89643E-01        -0.14696E-01         0.00000E+00
    0.86074E-01        -0.14514E-01         0.00000E+00
    0.82438E-01        -0.14284E-01         0.00000E+00
    0.78739E-01        -0.14006E-01         0.00000E+00
    0.74981E-01        -0.13679E-01         0.00000E+00
    0.71166E-01        -0.13305E-01         0.00000E+00
    0.67299E-01        -0.12882E-01         0.00000E+00
    0.63381E-01        -0.12413E-01         0.00000E+00
    0.59415E-01        -0.11897E-01         0.00000E+00
    0.55404E-01        -0.11334E-01         0.00000E+00
    0.51350E-01        -0.10725E-01         0.00000E+00
    0.47256E-01        -0.10071E-01         0.00000E+00
    0.43123E-01        -0.93713E-02         0.00000E+00
    0.38954E-01        -0.86271E-02         0.00000E+00
    0.34749E-01        -0.78388E-02         0.00000E+00
    0.30511E-01        -0.70069E-02         0.00000E+00
    0.26241E-01        -0.61318E-02         0.00000E+00
    0.21940E-01        -0.52141E-02         0.00000E+00
    0.17609E-01        -0.42542E-02         0.00000E+00
    0.13249E-01        -0.32524E-02         0.00000E+00
    0.88609E-02        -0.22093E-02         0.00000E+00
    0.44443E-02        -0.11250E-02         0.00000E+00
    0.00000E+00         0.00000E+00         0.00000E+00
    0.13114E+00        -0.24464E-02         0.00000E+00
    0.13115E+00        -0.31469E-02         0.00000E+00
    0.13100E+00        -0.38434E-02         0.00000E+00
    0.13069E+00        -0.45329E-02         0.00000E+00
    0.13024E+00        -0.52126E-02         0.00000E+00
    0.12964E+00        -0.58796E-02         0.00000E+00
    0.12889E+00        -0.65315E-02         0.00000E+00
    0.12799E+00        -0.71658E-02         0.00000E+00
    0.12696E+00        -0.77800E-02         0.00000E+00
    0.12579E+00        -0.83719E-02         0.00000E+00
    0.12448E+00        -0.89394E-02         0.00000E+00
    0.12305E+00        -0.94805E-02         0.00000E+00
    0.12148E+00        -0.99933E-02         0.00000E+00
    0.11979E+00        -0.10476E-01         0.00000E+00
    0.11798E+00        -0.10927E-01         0.00000E+00
    0.11605E+00        -0.11345E-01         0.00000E+00
    0.11401E+00        -0.11728E-01         0.00000E+00
    0.11186E+00        -0.12075E-01         0.00000E+00
    0.10960E+00        -0.12385E-01         0.00000E+00
    0.10724E+00        -0.12657E-01         0.00000E+00
    0.10478E+00        -0.12889E-01         0.00000E+00
    0.10222E+00        -0.13081E-01         0.00000E+00
    0.99572E-01        -0.13233E-01         0.00000E+00
    0.96834E-01        -0.13343E-01         0.00000E+00
    0.94010E-01        -0.13410E-01         0.00000E+00
    0.91105E-01        -0.13435E-01         0.00000E+00
    0.88121E-01        -0.13417E-01         0.00000E+00
    0.85062E-01        -0.13356E-01         0.00000E+00
    0.81930E-01        -0.13251E-01         0.00000E+00
    0.78730E-01        -0.13102E-01         0.00000E+00
    0.75464E-01        -0.12909E-01         0.00000E+00
    0.72135E-01        -0.12672E-01         0.00000E+00
    0.68745E-01        -0.12390E-01         0.00000E+00
    0.65299E-01        -0.12065E-01         0.00000E+00
    0.61797E-01        -0.11696E-01         0.00000E+00
    0.58244E-01        -0.11283E-01         0.00000E+00
    0.54640E-01        -0.10826E-01         0.00000E+00
    0.50989E-01        -0.10326E-01         0.00000E+00
    0.47293E-01        -0.97833E-02         0.00000E+00
    0.43553E-01        -0.91973E-02         0.00000E+00
    0.39771E-01        -0.85686E-02         0.00000E+00
    0.35950E-01        -0.78977E-02         0.00000E+00
    0.32091E-01        -0.71847E-02         0.00000E+00
    0.28195E-01        -0.64299E-02         0.00000E+00
    0.24264E-01        -0.56337E-02         0.00000E+00
    0.20299E-01        -0.47963E-02         0.00000E+00
    0.16302E-01        -0.39180E-02         0.00000E+00
    0.12272E-01        -0.29991E-02         0.00000E+00
    0.82114E-02        -0.20396E-02         0.00000E+00
    0.41205E-02        -0.10399E-02         0.00000E+00
    0.00000E+00         0.00000E+00         0.00000E+00
    0.11794E+00        -0.19862E-02         0.00000E+00
    0.11797E+00        -0.26056E-02         0.00000E+00
    0.11786E+00        -0.32222E-02         0.00000E+00
    0.11762E+00        -0.38335E-02         0.00000E+00
    0.11725E+00        -0.44371E-02         0.00000E+00
    0.11675E+00        -0.50304E-02         0.00000E+00
    0.11611E+00        -0.56114E-02         0.00000E+00
    0.11536E+00        -0.61778E-02         0.00000E+00
    0.11448E+00        -0.67275E-02         0.00000E+00
    0.11347E+00        -0.72586E-02         0.00000E+00
    0.11235E+00        -0.77691E-02         0.00000E+00
    0.11111E+00        -0.82572E-02         0.00000E+00
    0.10975E+00        -0.87213E-02         0.00000E+00
    0.10829E+00        -0.91596E-02         0.00000E+00
    0.10671E+00        -0.95708E-02         0.00000E+00
    0.10503E+00        -0.99533E-02         0.00000E+00
    0.10324E+00        -0.10306E-01         0.00000E+00
    0.10135E+00        -0.10627E-01         0.00000E+00
    0.99370E-01        -0.10916E-01         0.00000E+00
    0.97290E-01        -0.11172E-01         0.00000E+00
    0.95118E-01        -0.11393E-01         0.00000E+00
    0.92856E-01        -0.11579E-01         0.00000E+00
    0.90509E-01        -0.11729E-01         0.00000E+00
    0.88078E-01        -0.11842E-01         0.00000E+00
    0.85566E-01        -0.11918E-01         0.00000E+00
    0.82976E-01        -0.11956E-01         0.00000E+00
    0.80312E-01        -0.11955E-01         0.00000E+00
    0.77575E-01        -0.11916E-01         0.00000E+00
    0.74769E-01        -0.11837E-01         0.00000E+00
    0.71896E-01        -0.11718E-01         0.00000E+00
    0.68959E-01        -0.11560E-01         0.00000E+00
    0.65960E-01        -0.11362E-01         0.00000E+00
    0.62901E-01        -0.11123E-01         0.00000E+00
    0.59786E-01        -0.10845E-01         0.00000E+00
    0.56616E-01        -0.10526E-01         0.00000E+00
    0.53394E-01        -0.10167E-01         0.00000E+00
    0.50121E-01        -0.97670E-02         0.00000E+00
    0.46800E-01        -0.93273E-02         0.00000E+00
    0.43433E-01        -0.88474E-02         0.00000E+00
    0.40021E-01        -0.83274E-02         0.00000E+00
    0.36567E-01        -0.77676E-02         0.00000E+00
    0.33072E-01        -0.71679E-02         0.00000E+00
    0.29537E-01        -0.65286E-02         0.00000E+00
    0.25964E-01        -0.58497E-02         0.00000E+00
    0.22355E-01        -0.51314E-02         0.00000E+00
    0.18711E-01        -0.43738E-02         0.00000E+00
    0.15032E-01        -0.35770E-02         0.00000E+00
    0.11321E-01        -0.27412E-02         0.00000E+00
    0.75780E-02        -0.18664E-02         0.00000E+00
    0.38040E-02        -0.95266E-03         0.00000E+00
    0.00000E+00         0.00000E+00         0.00000E+00
    0.10626E+00        -0.15044E-02         0.00000E+00
    0.10629E+00        -0.20536E-02         0.00000E+00
    0.10621E+00        -0.26008E-02         0.00000E+00
    0.10601E+00        -0.31440E-02         0.00000E+00
    0.10570E+00        -0.36810E-02         0.00000E+00
    0.10528E+00        -0.42098E-02         0.00000E+00
    0.10474E+00        -0.47284E-02         0.00000E+00
    0.10408E+00        -0.52349E-02         0.00000E+00
    0.10332E+00        -0.57276E-02         0.00000E+00
    0.10245E+00        -0.62046E-02         0.00000E+00
    0.10148E+00        -0.66643E-02         0.00000E+00
    0.10040E+00        -0.71050E-02         0.00000E+00
    0.99216E-01        -0.75253E-02         0.00000E+00
    0.97933E-01        -0.79237E-02         0.00000E+00
    0.96552E-01        -0.82987E-02         0.00000E+00
    0.95074E-01        -0.86491E-02         0.00000E+00
    0.93503E-01        -0.89737E-02         0.00000E+00
    0.91839E-01        -0.92712E-02         0.00000E+00
    0.90086E-01        -0.95407E-02         0.00000E+00
    0.88246E-01        -0.97811E-02         0.00000E+00
    0.86321E-01        -0.99914E-02         0.00000E+00
    0.84314E-01        -0.10171E-01         0.00000E+00
    0.82226E-01        -0.10319E-01         0.00000E+00
    0.80061E-01        -0.10434E-01         0.00000E+00
    0.77820E-01        -0.10516E-01         0.00000E+00
    0.75506E-01        -0.10565E-01         0.00000E+00
    0.73122E-01        -0.10579E-01         0.00000E+00
    0.70669E-01        -0.10558E-01         0.00000E+00
    0.68150E-01        -0.10503E-01         0.00000E+00
    0.65567E-01        -0.10411E-01         0.00000E+00
    0.62922E-01        -0.10284E-01         0.00000E+00
    0.60218E-01        -0.10121E-01         0.00000E+00
    0.57456E-01        -0.99213E-02         0.00000E+00
    0.54639E-01        -0.96850E-02         0.00000E+00
    0.51769E-01        -0.94119E-02         0.00000E+00
    0.48847E-01        -0.91020E-02         0.00000E+00
    0.45876E-01        -0.87551E-02         0.00000E+00
    0.42857E-01        -0.83711E-02         0.00000E+00
    0.39792E-01        -0.79499E-02         0.00000E+00
    0.36683E-01        -0.74917E-02         0.00000E+00
    0.33532E-01        -0.69963E-02         0.00000E+00
    0.30340E-01        -0.64637E-02         0.00000E+00
    0.27108E-01        -0.58940E-02         0.00000E+00
    0.23839E-01        -0.52872E-02         0.00000E+00
    0.20533E-01        -0.46432E-02         0.00000E+00
    0.17191E-01        -0.39622E-02         0.00000E+00
    0.13816E-01        -0.32440E-02         0.00000E+00
    0.10409E-01        -0.24887E-02         0.00000E+00
    0.69691E-02        -0.16963E-02         0.00000E+00
    0.34993E-02        -0.86677E-03         0.00000E+00
    0.00000E+00         0.00000E+00         0.00000E+00
    0.95892E-01        -0.10491E-02         0.00000E+00
    0.95927E-01        -0.15372E-02         0.00000E+00
    0.95860E-01        -0.20240E-02         0.00000E+00
    0.95692E-01        -0.25077E-02         0.00000E+00
    0.95422E-01        -0.29864E-02         0.00000E+00
    0.95053E-01        -0.34584E-02         0.00000E+00
    0.94583E-01        -0.39221E-02         0.00000E+00
    0.94016E-01        -0.43757E-02         0.00000E+00
    0.93352E-01        -0.48177E-02         0.00000E+00
    0.92591E-01        -0.52466E-02         0.00000E+00
    0.91736E-01        -0.56608E-02         0.00000E+00
    0.90788E-01        -0.60590E-02         0.00000E+00
    0.89748E-01        -0.64397E-02         0.00000E+00
    0.88618E-01        -0.68017E-02         0.00000E+00
    0.87399E-01        -0.71438E-02         0.00000E+00
    0.86094E-01        -0.74646E-02         0.00000E+00
    0.84703E-01        -0.77632E-02         0.00000E+00
    0.83229E-01        -0.80384E-02         0.00000E+00
    0.81674E-01        -0.82892E-02         0.00000E+00
    0.80039E-01        -0.85147E-02         0.00000E+00
    0.78326E-01        -0.87140E-02         0.00000E+00
    0.76537E-01        -0.88862E-02         0.00000E+00
    0.74675E-01        -0.90305E-02         0.00000E+00
    0.72740E-01        -0.91463E-02         0.00000E+00
    0.70736E-01        -0.92329E-02         0.00000E+00
    0.68663E-01        -0.92896E-02         0.00000E+00
    0.66524E-01        -0.93158E-02         0.00000E+00
    0.64321E-01        -0.93112E-02         0.00000E+00
    0.62056E-01        -0.92751E-02         0.00000E+00
    0.59730E-01        -0.92071E-02         0.00000E+00
    0.57346E-01        -0.91069E-02         0.00000E+00
    0.54905E-01        -0.89742E-02         0.00000E+00
    0.52409E-01        -0.88085E-02         0.00000E+00
    0.49861E-01        -0.86097E-02         0.00000E+00
    0.47261E-01        -0.83774E-02         0.00000E+00
    0.44612E-01        -0.81115E-02         0.00000E+00
    0.41915E-01        -0.78118E-02         0.00000E+00
    0.39172E-01        -0.74781E-02         0.00000E+00
    0.36384E-01        -0.71103E-02         0.00000E+00
    0.33554E-01        -0.67082E-02         0.00000E+00
    0.30682E-01        -0.62718E-02         0.00000E+00
    0.27770E-01        -0.58009E-02         0.00000E+00
    0.24820E-01        -0.52955E-02         0.00000E+00
    0.21833E-01        -0.47555E-02         0.00000E+00
    0.18811E-01        -0.41808E-02         0.00000E+00
    0.15754E-01        -0.35713E-02         0.00000E+00
    0.12664E-01        -0.29270E-02         0.00000E+00
    0.95426E-02        -0.22479E-02         0.00000E+00
    0.63906E-02        -0.15337E-02         0.00000E+00
    0.32094E-02        -0.78444E-03         0.00000E+00
    0.00000E+00         0.00000E+00         0.00000E+00
    0.86671E-01        -0.64644E-03         0.00000E+00
    0.86701E-01        -0.10813E-02         0.00000E+00
    0.86641E-01        -0.15153E-02         0.00000E+00
    0.86492E-01        -0.19468E-02         0.00000E+00
    0.86254E-01        -0.23743E-02         0.00000E+00
    0.85928E-01        -0.27963E-02         0.00000E+00
    0.85515E-01        -0.32113E-02         0.00000E+00
    0.85014E-01        -0.36180E-02         0.00000E+00
    0.84428E-01        -0.40149E-02         0.00000E+00
    0.83756E-01        -0.44008E-02         0.00000E+00
    0.83000E-01        -0.47742E-02         0.00000E+00
    0.82161E-01        -0.51340E-02         0.00000E+00
    0.81240E-01        -0.54789E-02         0.00000E+00
    0.80238E-01        -0.58078E-02         0.00000E+00
    0.79156E-01        -0.61196E-02         0.00000E+00
    0.77996E-01        -0.64131E-02         0.00000E+00
    0.76759E-01        -0.66873E-02         0.00000E+00
    0.75447E-01        -0.69413E-02         0.00000E+00
    0.74060E-01        -0.71742E-02         0.00000E+00
    0.72601E-01        -0.73849E-02         0.00000E+00
    0.71072E-01        -0.75728E-02         0.00000E+00
    0.69472E-01        -0.77370E-02         0.00000E+00
    0.67805E-01        -0.78768E-02         0.00000E+00
    0.66071E-01        -0.79914E-02         0.00000E+00
    0.64273E-01        -0.80802E-02         0.00000E+00
    0.62412E-01        -0.81426E-02         0.00000E+00
    0.60489E-01        -0.81780E-02         0.00000E+00
    0.58507E-01        -0.81859E-02         0.00000E+00
    0.56466E-01        -0.81657E-02         0.00000E+00
    0.54369E-01        -0.81171E-02         0.00000E+00
    0.52217E-01        -0.80396E-02         0.00000E+00
    0.50012E-01        -0.79327E-02         0.00000E+00
    0.47755E-01        -0.77962E-02         0.00000E+00
    0.45447E-01        -0.76298E-02         0.00000E+00
    0.43092E-01        -0.74330E-02         0.00000E+00
    0.40689E-01        -0.72057E-02         0.00000E+00
    0.38241E-01        -0.69476E-02         0.00000E+00
    0.35749E-01        -0.66585E-02         0.00000E+00
    0.33215E-01        -0.63382E-02         0.00000E+00
    0.30640E-01        -0.59864E-02         0.00000E+00
    0.28025E-01        -0.56030E-02         0.00000E+00
    0.25372E-01        -0.51879E-02         0.00000E+00
    0.22682E-01        -0.47409E-02         0.00000E+00
    0.19957E-01        -0.42618E-02         0.00000E+00
    0.17198E-01        -0.37505E-02         0.00000E+00
    0.14406E-01        -0.32070E-02         0.00000E+00
    0.11582E-01        -0.26310E-02         0.00000E+00
    0.87289E-02        -0.20224E-02         0.00000E+00
    0.58465E-02        -0.13811E-02         0.00000E+00
    0.29365E-02        -0.70705E-03         0.00000E+00
    0.00000E+00         0.00000E+00         0.00000E+00
    0.78449E-01        -0.30801E-03         0.00000E+00
    0.78471E-01        -0.69625E-03         0.00000E+00
    0.78414E-01        -0.10838E-02         0.00000E+00
    0.78279E-01        -0.14694E-02         0.00000E+00
    0.78065E-01        -0.18517E-02         0.00000E+00
    0.77773E-01        -0.22295E-02         0.00000E+00
    0.77404E-01        -0.26014E-02         0.00000E+00
    0.76958E-01        -0.29663E-02         0.00000E+00
    0.76435E-01        -0.33230E-02         0.00000E+00
    0.75837E-01        -0.36703E-02         0.00000E+00
    0.75163E-01        -0.40070E-02         0.00000E+00
    0.74415E-01        -0.43321E-02         0.00000E+00
    0.73594E-01        -0.46444E-02         0.00000E+00
    0.72700E-01        -0.49430E-02         0.00000E+00
    0.71735E-01        -0.52268E-02         0.00000E+00
    0.70699E-01        -0.54949E-02         0.00000E+00
    0.69593E-01        -0.57464E-02         0.00000E+00
    0.68419E-01        -0.59802E-02         0.00000E+00
    0.67178E-01        -0.61957E-02         0.00000E+00
    0.65872E-01        -0.63919E-02         0.00000E+00
    0.64500E-01        -0.65682E-02         0.00000E+00
    0.63065E-01        -0.67237E-02         0.00000E+00
    0.61568E-01        -0.68577E-02         0.00000E+00
    0.60010E-01        -0.69695E-02         0.00000E+00
    0.58393E-01        -0.70587E-02         0.00000E+00
    0.56717E-01        -0.71244E-02         0.00000E+00
    0.54985E-01        -0.71662E-02         0.00000E+00
    0.53198E-01        -0.71836E-02         0.00000E+00
    0.51357E-01        -0.71759E-02         0.00000E+00
    0.49463E-01        -0.71429E-02         0.00000E+00
    0.47518E-01        -0.70839E-02         0.00000E+00
    0.45523E-01        -0.69987E-02         0.00000E+00
    0.43480E-01        -0.68868E-02         0.00000E+00
    0.41390E-01        -0.67479E-02         0.00000E+00
    0.39255E-01        -0.65816E-02         0.00000E+00
    0.37075E-01        -0.63877E-02         0.00000E+00
    0.34853E-01        -0.61658E-02         0.00000E+00
    0.32589E-01        -0.59157E-02         0.00000E+00
    0.30285E-01        -0.56371E-02         0.00000E+00
    0.27943E-01        -0.53298E-02         0.00000E+00
    0.25563E-01        -0.49935E-02         0.00000E+00
    0.23148E-01        -0.46282E-02         0.00000E+00
    0.20697E-01        -0.42335E-02         0.00000E+00
    0.18214E-01        -0.38093E-02         0.00000E+00
    0.15698E-01        -0.33555E-02         0.00000E+00
    0.13151E-01        -0.28718E-02         0.00000E+00
    0.10575E-01        -0.23580E-02         0.00000E+00
    0.79706E-02        -0.18142E-02         0.00000E+00
    0.53391E-02        -0.12400E-02         0.00000E+00
    0.26818E-02        -0.63530E-03         0.00000E+00
    0.00000E+00         0.00000E+00         0.00000E+00
    0.71104E-01        -0.35902E-04         0.00000E+00
    0.71118E-01        -0.38305E-03         0.00000E+00
    0.71061E-01        -0.72970E-03         0.00000E+00
    0.70936E-01        -0.10747E-02         0.00000E+00
    0.70741E-01        -0.14170E-02         0.00000E+00
    0.70477E-01        -0.17555E-02         0.00000E+00
    0.70144E-01        -0.20891E-02         0.00000E+00
    0.69743E-01        -0.24167E-02         0.00000E+00
    0.69273E-01        -0.27373E-02         0.00000E+00
    0.68736E-01        -0.30499E-02         0.00000E+00
    0.68132E-01        -0.33535E-02         0.00000E+00
    0.67461E-01        -0.36471E-02         0.00000E+00
    0.66724E-01        -0.39298E-02         0.00000E+00
    0.65922E-01        -0.42006E-02         0.00000E+00
    0.65056E-01        -0.44587E-02         0.00000E+00
    0.64126E-01        -0.47031E-02         0.00000E+00
    0.63134E-01        -0.49331E-02         0.00000E+00
    0.62080E-01        -0.51479E-02         0.00000E+00
    0.60965E-01        -0.53465E-02         0.00000E+00
    0.59790E-01        -0.55285E-02         0.00000E+00
    0.58556E-01        -0.56928E-02         0.00000E+00
    0.57265E-01        -0.58390E-02         0.00000E+00
    0.55916E-01        -0.59664E-02         0.00000E+00
    0.54513E-01        -0.60742E-02         0.00000E+00
    0.53055E-01        -0.61619E-02         0.00000E+00
    0.51543E-01        -0.62290E-02         0.00000E+00
    0.49979E-01        -0.62748E-02         0.00000E+00
    0.48365E-01        -0.62989E-02         0.00000E+00
    0.46700E-01        -0.63008E-02         0.00000E+00
    0.44988E-01        -0.62800E-02         0.00000E+00
    0.43227E-01        -0.62360E-02         0.00000E+00
    0.41421E-01        -0.61685E-02         0.00000E+00
    0.39570E-01        -0.60770E-02         0.00000E+00
    0.37676E-01        -0.59613E-02         0.00000E+00
    0.35738E-01        -0.58208E-02         0.00000E+00
    0.33760E-01        -0.56554E-02         0.00000E+00
    0.31742E-01        -0.54646E-02         0.00000E+00
    0.29686E-01        -0.52483E-02         0.00000E+00
    0.27592E-01        -0.50061E-02         0.00000E+00
    0.25462E-01        -0.47378E-02         0.00000E+00
    0.23297E-01        -0.44430E-02         0.00000E+00
    0.21098E-01        -0.41217E-02         0.00000E+00
    0.18867E-01        -0.37736E-02         0.00000E+00
    0.16605E-01        -0.33985E-02         0.00000E+00
    0.14313E-01        -0.29961E-02         0.00000E+00
    0.11992E-01        -0.25663E-02         0.00000E+00
    0.96436E-02        -0.21089E-02         0.00000E+00
    0.72690E-02        -0.16237E-02         0.00000E+00
    0.48694E-02        -0.11107E-02         0.00000E+00
    0.24460E-02        -0.56946E-03         0.00000E+00
    0.00000E+00         0.00000E+00         0.00000E+00
    0.64533E-01         0.17348E-03         0.00000E+00
    0.64538E-01        -0.13730E-03         0.00000E+00
    0.64482E-01        -0.44768E-03         0.00000E+00
    0.64364E-01        -0.75670E-03         0.00000E+00
    0.64184E-01        -0.10634E-02         0.00000E+00
    0.63943E-01        -0.13669E-02         0.00000E+00
    0.63640E-01        -0.16662E-02         0.00000E+00
    0.63276E-01        -0.19604E-02         0.00000E+00
    0.62852E-01        -0.22487E-02         0.00000E+00
    0.62367E-01        -0.25300E-02         0.00000E+00
    0.61821E-01        -0.28036E-02         0.00000E+00
    0.61216E-01        -0.30686E-02         0.00000E+00
    0.60552E-01        -0.33242E-02         0.00000E+00
    0.59830E-01        -0.35695E-02         0.00000E+00
    0.59049E-01        -0.38038E-02         0.00000E+00
    0.58211E-01        -0.40263E-02         0.00000E+00
    0.57317E-01        -0.42361E-02         0.00000E+00
    0.56366E-01        -0.44327E-02         0.00000E+00
    0.55361E-01        -0.46153E-02         0.00000E+00
    0.54301E-01        -0.47831E-02         0.00000E+00
    0.53188E-01        -0.49357E-02         0.00000E+00
    0.52022E-01        -0.50722E-02         0.00000E+00
    0.50805E-01        -0.51921E-02         0.00000E+00
    0.49537E-01        -0.52949E-02         0.00000E+00
    0.48219E-01        -0.53798E-02         0.00000E+00
    0.46852E-01        -0.54465E-02         0.00000E+00
    0.45438E-01        -0.54944E-02         0.00000E+00
    0.43977E-01        -0.55230E-02         0.00000E+00
    0.42470E-01        -0.55317E-02         0.00000E+00
    0.40918E-01        -0.55203E-02         0.00000E+00
    0.39323E-01        -0.54881E-02         0.00000E+00
    0.37686E-01        -0.54349E-02         0.00000E+00
    0.36007E-01        -0.53602E-02         0.00000E+00
    0.34288E-01        -0.52637E-02         0.00000E+00
    0.32529E-01        -0.51449E-02         0.00000E+00
    0.30733E-01        -0.50037E-02         0.00000E+00
    0.28900E-01        -0.48396E-02         0.00000E+00
    0.27030E-01        -0.46523E-02         0.00000E+00
    0.25127E-01        -0.44416E-02         0.00000E+00
    0.23189E-01        -0.42073E-02         0.00000E+00
    0.21220E-01        -0.39489E-02         0.00000E+00
    0.19219E-01        -0.36664E-02         0.00000E+00
    0.17188E-01        -0.33594E-02         0.00000E+00
    0.15128E-01        -0.30278E-02         0.00000E+00
    0.13041E-01        -0.26713E-02         0.00000E+00
    0.10927E-01        -0.22898E-02         0.00000E+00
    0.87875E-02        -0.18830E-02         0.00000E+00
    0.66239E-02        -0.14509E-02         0.00000E+00
    0.44374E-02        -0.99305E-03         0.00000E+00
    0.22290E-02        -0.50949E-03         0.00000E+00
    0.00000E+00         0.00000E+00         0.00000E+00
    0.58648E-01         0.32686E-03         0.00000E+00
    0.58646E-01         0.48436E-04         0.00000E+00
    0.58589E-01        -0.22965E-03         0.00000E+00
    0.58477E-01        -0.50658E-03         0.00000E+00
    0.58310E-01        -0.78154E-03         0.00000E+00
    0.58088E-01        -0.10537E-02         0.00000E+00
    0.57812E-01        -0.13223E-02         0.00000E+00
    0.57480E-01        -0.15865E-02         0.00000E+00
    0.57094E-01        -0.18456E-02         0.00000E+00
    0.56653E-01        -0.20987E-02         0.00000E+00
    0.56159E-01        -0.23451E-02         0.00000E+00
    0.55611E-01        -0.25841E-02         0.00000E+00
    0.55010E-01        -0.28149E-02         0.00000E+00
    0.54356E-01        -0.30368E-02         0.00000E+00
    0.53649E-01        -0.32491E-02         0.00000E+00
    0.52891E-01        -0.34511E-02         0.00000E+00
    0.52082E-01        -0.36421E-02         0.00000E+00
    0.51223E-01        -0.38214E-02         0.00000E+00
    0.50313E-01        -0.39886E-02         0.00000E+00
    0.49354E-01        -0.41428E-02         0.00000E+00
    0.48347E-01        -0.42836E-02         0.00000E+00
    0.47292E-01        -0.44102E-02         0.00000E+00
    0.46190E-01        -0.45223E-02         0.00000E+00
    0.45041E-01        -0.46192E-02         0.00000E+00
    0.43848E-01        -0.47004E-02         0.00000E+00
    0.42609E-01        -0.47653E-02         0.00000E+00
    0.41328E-01        -0.48136E-02         0.00000E+00
    0.40003E-01        -0.48448E-02         0.00000E+00
    0.38636E-01        -0.48583E-02         0.00000E+00
    0.37229E-01        -0.48538E-02         0.00000E+00
    0.35781E-01        -0.48308E-02         0.00000E+00
    0.34295E-01        -0.47890E-02         0.00000E+00
    0.32770E-01        -0.47279E-02         0.00000E+00
    0.31209E-01        -0.46473E-02         0.00000E+00
    0.29611E-01        -0.45467E-02         0.00000E+00
    0.27978E-01        -0.44259E-02         0.00000E+00
    0.26312E-01        -0.42844E-02         0.00000E+00
    0.24612E-01        -0.41221E-02         0.00000E+00
    0.22880E-01        -0.39387E-02         0.00000E+00
    0.21118E-01        -0.37338E-02         0.00000E+00
    0.19325E-01        -0.35072E-02         0.00000E+00
    0.17504E-01        -0.32587E-02         0.00000E+00
    0.15655E-01        -0.29880E-02         0.00000E+00
    0.13780E-01        -0.26949E-02         0.00000E+00
    0.11879E-01        -0.23792E-02         0.00000E+00
    0.99533E-02        -0.20407E-02         0.00000E+00
    0.80047E-02        -0.16793E-02         0.00000E+00
    0.60339E-02        -0.12946E-02         0.00000E+00
    0.40421E-02        -0.88663E-03         0.00000E+00
    0.20304E-02        -0.45514E-03         0.00000E+00
    0.00000E+00         0.00000E+00         0.00000E+00
    0.53375E-01         0.43232E-03         0.00000E+00
    0.53367E-01         0.18281E-03         0.00000E+00
    0.53310E-01        -0.66385E-04         0.00000E+00
    0.53203E-01        -0.31457E-03         0.00000E+00
    0.53048E-01        -0.56105E-03         0.00000E+00
    0.52842E-01        -0.80512E-03         0.00000E+00
    0.52588E-01        -0.10461E-02         0.00000E+00
    0.52284E-01        -0.12832E-02         0.00000E+00
    0.51931E-01        -0.15159E-02         0.00000E+00
    0.51530E-01        -0.17435E-02         0.00000E+00
    0.51080E-01        -0.19652E-02         0.00000E+00
    0.50581E-01        -0.21804E-02         0.00000E+00
    0.50035E-01        -0.23886E-02         0.00000E+00
    0.49441E-01        -0.25889E-02         0.00000E+00
    0.48800E-01        -0.27809E-02         0.00000E+00
    0.48112E-01        -0.29638E-02         0.00000E+00
    0.47377E-01        -0.31372E-02         0.00000E+00
    0.46597E-01        -0.33004E-02         0.00000E+00
    0.45772E-01        -0.34528E-02         0.00000E+00
    0.44902E-01        -0.35939E-02         0.00000E+00
    0.43988E-01        -0.37231E-02         0.00000E+00
    0.43031E-01        -0.38399E-02         0.00000E+00
    0.42030E-01        -0.39439E-02         0.00000E+00
    0.40988E-01        -0.40344E-02         0.00000E+00
    0.39904E-01        -0.41110E-02         0.00000E+00
    0.38780E-01        -0.41733E-02         0.00000E+00
    0.37616E-01        -0.42207E-02         0.00000E+00
    0.36413E-01        -0.42529E-02         0.00000E+00
    0.35172E-01        -0.42695E-02         0.00000E+00
    0.33893E-01        -0.42700E-02         0.00000E+00
    0.32577E-01        -0.42540E-02         0.00000E+00
    0.31226E-01        -0.42211E-02         0.00000E+00
    0.29840E-01        -0.41711E-02         0.00000E+00
    0.28419E-01        -0.41035E-02         0.00000E+00
    0.26966E-01        -0.40181E-02         0.00000E+00
    0.25481E-01        -0.39144E-02         0.00000E+00
    0.23964E-01        -0.37923E-02         0.00000E+00
    0.22417E-01        -0.36514E-02         0.00000E+00
    0.20841E-01        -0.34914E-02         0.00000E+00
    0.19236E-01        -0.33121E-02         0.00000E+00
    0.17604E-01        -0.31131E-02         0.00000E+00
    0.15945E-01        -0.28944E-02         0.00000E+00
    0.14262E-01        -0.26556E-02         0.00000E+00
    0.12553E-01        -0.23966E-02         0.00000E+00
    0.10822E-01        -0.21171E-02         0.00000E+00
    0.90677E-02        -0.18169E-02         0.00000E+00
    0.72924E-02        -0.14959E-02         0.00000E+00
    0.54970E-02        -0.11539E-02         0.00000E+00
    0.36824E-02        -0.79063E-03         0.00000E+00
    0.18497E-02        -0.40606E-03         0.00000E+00
    0.00000E+00         0.00000E+00         0.00000E+00
    0.48649E-01         0.49816E-03         0.00000E+00
    0.48637E-01         0.27464E-03         0.00000E+00
    0.48580E-01         0.51408E-04         0.00000E+00
    0.48479E-01        -0.17093E-03         0.00000E+00
    0.48333E-01        -0.39177E-03         0.00000E+00
    0.48143E-01        -0.61050E-03         0.00000E+00
    0.47908E-01        -0.82652E-03         0.00000E+00
    0.47629E-01        -0.10392E-02         0.00000E+00
    0.47306E-01        -0.12480E-02         0.00000E+00
    0.46938E-01        -0.14523E-02         0.00000E+00
    0.46527E-01        -0.16516E-02         0.00000E+00
    0.46072E-01        -0.18451E-02         0.00000E+00
    0.45574E-01        -0.20325E-02         0.00000E+00
    0.45032E-01        -0.22130E-02         0.00000E+00
    0.44448E-01        -0.23862E-02         0.00000E+00
    0.43822E-01        -0.25516E-02         0.00000E+00
    0.43154E-01        -0.27084E-02         0.00000E+00
    0.42444E-01        -0.28564E-02         0.00000E+00
    0.41693E-01        -0.29948E-02         0.00000E+00
    0.40901E-01        -0.31233E-02         0.00000E+00
    0.40070E-01        -0.32414E-02         0.00000E+00
    0.39199E-01        -0.33485E-02         0.00000E+00
    0.38289E-01        -0.34442E-02         0.00000E+00
    0.37341E-01        -0.35281E-02         0.00000E+00
    0.36355E-01        -0.35996E-02         0.00000E+00
    0.35332E-01        -0.36585E-02         0.00000E+00
    0.34273E-01        -0.37042E-02         0.00000E+00
    0.33178E-01        -0.37363E-02         0.00000E+00
    0.32048E-01        -0.37545E-02         0.00000E+00
    0.30884E-01        -0.37584E-02         0.00000E+00
    0.29686E-01        -0.37477E-02         0.00000E+00
    0.28456E-01        -0.37219E-02         0.00000E+00
    0.27194E-01        -0.36807E-02         0.00000E+00
    0.25900E-01        -0.36239E-02         0.00000E+00
    0.24577E-01        -0.35510E-02         0.00000E+00
    0.23224E-01        -0.34618E-02         0.00000E+00
    0.21842E-01        -0.33561E-02         0.00000E+00
    0.20432E-01        -0.32335E-02         0.00000E+00
    0.18996E-01        -0.30937E-02         0.00000E+00
    0.17534E-01        -0.29366E-02         0.00000E+00
    0.16046E-01        -0.27618E-02         0.00000E+00
    0.14535E-01        -0.25692E-02         0.00000E+00
    0.13000E-01        -0.23586E-02         0.00000E+00
    0.11443E-01        -0.21296E-02         0.00000E+00
    0.98642E-02        -0.18822E-02         0.00000E+00
    0.82653E-02        -0.16161E-02         0.00000E+00
    0.66471E-02        -0.13312E-02         0.00000E+00
    0.50104E-02        -0.10272E-02         0.00000E+00
    0.33563E-02        -0.70416E-03         0.00000E+00
    0.16858E-02        -0.36180E-03         0.00000E+00
    0.00000E+00         0.00000E+00         0.00000E+00
    0.44417E-01         0.53228E-03         0.00000E+00
    0.44401E-01         0.33220E-03         0.00000E+00
    0.44345E-01         0.13241E-03         0.00000E+00
    0.44249E-01        -0.66584E-04         0.00000E+00
    0.44112E-01        -0.26425E-03         0.00000E+00
    0.43936E-01        -0.46006E-03         0.00000E+00
    0.43719E-01        -0.65349E-03         0.00000E+00
    0.43461E-01        -0.84401E-03         0.00000E+00
    0.43164E-01        -0.10311E-02         0.00000E+00
    0.42827E-01        -0.12143E-02         0.00000E+00
    0.42450E-01        -0.13930E-02         0.00000E+00
    0.42034E-01        -0.15667E-02         0.00000E+00
    0.41578E-01        -0.17350E-02         0.00000E+00
    0.41083E-01        -0.18973E-02         0.00000E+00
    0.40550E-01        -0.20532E-02         0.00000E+00
    0.39978E-01        -0.22022E-02         0.00000E+00
    0.39368E-01        -0.23437E-02         0.00000E+00
    0.38720E-01        -0.24773E-02         0.00000E+00
    0.38035E-01        -0.26027E-02         0.00000E+00
    0.37313E-01        -0.27192E-02         0.00000E+00
    0.36555E-01        -0.28265E-02         0.00000E+00
    0.35760E-01        -0.29242E-02         0.00000E+00
    0.34931E-01        -0.30117E-02         0.00000E+00
    0.34066E-01        -0.30888E-02         0.00000E+00
    0.33167E-01        -0.31550E-02         0.00000E+00
    0.32234E-01        -0.32100E-02         0.00000E+00
    0.31269E-01        -0.32532E-02         0.00000E+00
    0.30270E-01        -0.32845E-02         0.00000E+00
    0.29240E-01        -0.33033E-02         0.00000E+00
    0.28178E-01        -0.33094E-02         0.00000E+00
    0.27086E-01        -0.33025E-02         0.00000E+00
    0.25964E-01        -0.32822E-02         0.00000E+00
    0.24812E-01        -0.32481E-02         0.00000E+00
    0.23633E-01        -0.32001E-02         0.00000E+00
    0.22425E-01        -0.31377E-02         0.00000E+00
    0.21191E-01        -0.30608E-02         0.00000E+00
    0.19930E-01        -0.29690E-02         0.00000E+00
    0.18644E-01        -0.28621E-02         0.00000E+00
    0.17334E-01        -0.27399E-02         0.00000E+00
    0.15999E-01        -0.26021E-02         0.00000E+00
    0.14642E-01        -0.24484E-02         0.00000E+00
    0.13262E-01        -0.22788E-02         0.00000E+00
    0.11862E-01        -0.20929E-02         0.00000E+00
    0.10441E-01        -0.18905E-02         0.00000E+00
    0.90004E-02        -0.16716E-02         0.00000E+00
    0.75414E-02        -0.14358E-02         0.00000E+00
    0.60647E-02        -0.11831E-02         0.00000E+00
    0.45713E-02        -0.91335E-03         0.00000E+00
    0.30621E-02        -0.62632E-03         0.00000E+00
    0.15380E-02        -0.32191E-03         0.00000E+00
    0.00000E+00         0.00000E+00         0.00000E+00
    0.40632E-01         0.54171E-03         0.00000E+00
    0.40613E-01         0.36289E-03         0.00000E+00
    0.40558E-01         0.18435E-03         0.00000E+00
    0.40467E-01         0.65284E-05         0.00000E+00
    0.40339E-01        -0.17011E-03         0.00000E+00
    0.40174E-01        -0.34510E-03         0.00000E+00
    0.39973E-01        -0.51800E-03         0.00000E+00
    0.39736E-01        -0.68834E-03         0.00000E+00
    0.39462E-01        -0.85567E-03         0.00000E+00
    0.39152E-01        -0.10195E-02         0.00000E+00
    0.38805E-01        -0.11795E-02         0.00000E+00
    0.38423E-01        -0.13351E-02         0.00000E+00
    0.38005E-01        -0.14859E-02         0.00000E+00
    0.37552E-01        -0.16314E-02         0.00000E+00
    0.37063E-01        -0.17713E-02         0.00000E+00
    0.36539E-01        -0.19050E-02         0.00000E+00
    0.35981E-01        -0.20323E-02         0.00000E+00
    0.35388E-01        -0.21526E-02         0.00000E+00
    0.34762E-01        -0.22655E-02         0.00000E+00
    0.34101E-01        -0.23708E-02         0.00000E+00
    0.33408E-01        -0.24678E-02         0.00000E+00
    0.32682E-01        -0.25564E-02         0.00000E+00
    0.31923E-01        -0.26360E-02         0.00000E+00
    0.31133E-01        -0.27064E-02         0.00000E+00
    0.30311E-01        -0.27671E-02         0.00000E+00
    0.29459E-01        -0.28178E-02         0.00000E+00
    0.28576E-01        -0.28582E-02         0.00000E+00
    0.27664E-01        -0.28879E-02         0.00000E+00
    0.26722E-01        -0.29066E-02         0.00000E+00
    0.25752E-01        -0.29141E-02         0.00000E+00
    0.24753E-01        -0.29098E-02         0.00000E+00
    0.23728E-01        -0.28937E-02         0.00000E+00
    0.22676E-01        -0.28654E-02         0.00000E+00
    0.21597E-01        -0.28246E-02         0.00000E+00
    0.20494E-01        -0.27711E-02         0.00000E+00
    0.19366E-01        -0.27045E-02         0.00000E+00
    0.18213E-01        -0.26247E-02         0.00000E+00
    0.17038E-01        -0.25314E-02         0.00000E+00
    0.15840E-01        -0.24244E-02         0.00000E+00
    0.14621E-01        -0.23034E-02         0.00000E+00
    0.13380E-01        -0.21683E-02         0.00000E+00
    0.12119E-01        -0.20188E-02         0.00000E+00
    0.10839E-01        -0.18548E-02         0.00000E+00
    0.95405E-02        -0.16761E-02         0.00000E+00
    0.82241E-02        -0.14825E-02         0.00000E+00
    0.68907E-02        -0.12739E-02         0.00000E+00
    0.55413E-02        -0.10500E-02         0.00000E+00
    0.41766E-02        -0.81082E-03         0.00000E+00
    0.27976E-02        -0.55617E-03         0.00000E+00
    0.14051E-02        -0.28593E-03         0.00000E+00
    0.00000E+00         0.00000E+00         0.00000E+00
    0.37251E-01         0.53252E-03         0.00000E+00
    0.37231E-01         0.37306E-03         0.00000E+00
    0.37178E-01         0.21386E-03         0.00000E+00
    0.37092E-01         0.55326E-04         0.00000E+00
    0.36972E-01        -0.10216E-03         0.00000E+00
    0.36818E-01        -0.25818E-03         0.00000E+00
    0.36632E-01        -0.41235E-03         0.00000E+00
    0.36412E-01        -0.56426E-03         0.00000E+00
    0.36159E-01        -0.71352E-03         0.00000E+00
    0.35873E-01        -0.85972E-03         0.00000E+00
    0.35554E-01        -0.10025E-02         0.00000E+00
    0.35202E-01        -0.11414E-02         0.00000E+00
    0.34817E-01        -0.12761E-02         0.00000E+00
    0.34401E-01        -0.14062E-02         0.00000E+00
    0.33952E-01        -0.15313E-02         0.00000E+00
    0.33471E-01        -0.16510E-02         0.00000E+00
    0.32958E-01        -0.17649E-02         0.00000E+00
    0.32415E-01        -0.18728E-02         0.00000E+00
    0.31840E-01        -0.19742E-02         0.00000E+00
    0.31234E-01        -0.20687E-02         0.00000E+00
    0.30598E-01        -0.21561E-02         0.00000E+00
    0.29933E-01        -0.22359E-02         0.00000E+00
    0.29237E-01        -0.23078E-02         0.00000E+00
    0.28513E-01        -0.23716E-02         0.00000E+00
    0.27760E-01        -0.24268E-02         0.00000E+00
    0.26979E-01        -0.24732E-02         0.00000E+00
    0.26170E-01        -0.25105E-02         0.00000E+00
    0.25334E-01        -0.25383E-02         0.00000E+00
    0.24471E-01        -0.25563E-02         0.00000E+00
    0.23583E-01        -0.25644E-02         0.00000E+00
    0.22668E-01        -0.25621E-02         0.00000E+00
    0.21729E-01        -0.25492E-02         0.00000E+00
    0.20765E-01        -0.25255E-02         0.00000E+00
    0.19777E-01        -0.24907E-02         0.00000E+00
    0.18766E-01        -0.24446E-02         0.00000E+00
    0.17733E-01        -0.23869E-02         0.00000E+00
    0.16678E-01        -0.23174E-02         0.00000E+00
    0.15601E-01        -0.22359E-02         0.00000E+00
    0.14504E-01        -0.21421E-02         0.00000E+00
    0.13387E-01        -0.20360E-02         0.00000E+00
    0.12251E-01        -0.19172E-02         0.00000E+00
    0.11096E-01        -0.17856E-02         0.00000E+00
    0.99239E-02        -0.16411E-02         0.00000E+00
    0.87346E-02        -0.14834E-02         0.00000E+00
    0.75291E-02        -0.13124E-02         0.00000E+00
    0.63082E-02        -0.11280E-02         0.00000E+00
    0.50727E-02        -0.93001E-03         0.00000E+00
    0.38233E-02        -0.71834E-03         0.00000E+00
    0.25608E-02        -0.49285E-03         0.00000E+00
    0.12861E-02        -0.25343E-03         0.00000E+00
    0.00000E+00         0.00000E+00         0.00000E+00
    0.34241E-01         0.50976E-03         0.00000E+00
    0.34220E-01         0.36800E-03         0.00000E+00
    0.34169E-01         0.22649E-03         0.00000E+00
    0.34087E-01         0.85585E-04         0.00000E+00
    0.33975E-01        -0.54378E-04         0.00000E+00
    0.33832E-01        -0.19305E-03         0.00000E+00
    0.33658E-01        -0.33007E-03         0.00000E+00
    0.33454E-01        -0.46510E-03         0.00000E+00
    0.33220E-01        -0.59780E-03         0.00000E+00
    0.32955E-01        -0.72780E-03         0.00000E+00
    0.32661E-01        -0.85477E-03         0.00000E+00
    0.32336E-01        -0.97835E-03         0.00000E+00
    0.31981E-01        -0.10982E-02         0.00000E+00
    0.31597E-01        -0.12140E-02         0.00000E+00
    0.31184E-01        -0.13254E-02         0.00000E+00
    0.30741E-01        -0.14321E-02         0.00000E+00
    0.30269E-01        -0.15338E-02         0.00000E+00
    0.29768E-01        -0.16300E-02         0.00000E+00
    0.29240E-01        -0.17205E-02         0.00000E+00
    0.28683E-01        -0.18051E-02         0.00000E+00
    0.28098E-01        -0.18832E-02         0.00000E+00
    0.27486E-01        -0.19548E-02         0.00000E+00
    0.26847E-01        -0.20194E-02         0.00000E+00
    0.26181E-01        -0.20768E-02         0.00000E+00
    0.25489E-01        -0.21266E-02         0.00000E+00
    0.24771E-01        -0.21687E-02         0.00000E+00
    0.24028E-01        -0.22027E-02         0.00000E+00
    0.23260E-01        -0.22283E-02         0.00000E+00
    0.22467E-01        -0.22453E-02         0.00000E+00
    0.21651E-01        -0.22534E-02         0.00000E+00
    0.20811E-01        -0.22524E-02         0.00000E+00
    0.19948E-01        -0.22421E-02         0.00000E+00
    0.19062E-01        -0.22221E-02         0.00000E+00
    0.18155E-01        -0.21923E-02         0.00000E+00
    0.17227E-01        -0.21525E-02         0.00000E+00
    0.16278E-01        -0.21024E-02         0.00000E+00
    0.15309E-01        -0.20419E-02         0.00000E+00
    0.14320E-01        -0.19707E-02         0.00000E+00
    0.13313E-01        -0.18886E-02         0.00000E+00
    0.12287E-01        -0.17955E-02         0.00000E+00
    0.11244E-01        -0.16912E-02         0.00000E+00
    0.10184E-01        -0.15756E-02         0.00000E+00
    0.91079E-02        -0.14484E-02         0.00000E+00
    0.80162E-02        -0.13095E-02         0.00000E+00
    0.69096E-02        -0.11588E-02         0.00000E+00
    0.57890E-02        -0.99622E-03         0.00000E+00
    0.46550E-02        -0.82154E-03         0.00000E+00
    0.35083E-02        -0.63467E-03         0.00000E+00
    0.23498E-02        -0.43552E-03         0.00000E+00
    0.11801E-02        -0.22399E-03         0.00000E+00
    0.00000E+00         0.00000E+00         0.00000E+00
    0.31570E-01         0.47749E-03         0.00000E+00
    0.31549E-01         0.35199E-03         0.00000E+00
    0.31500E-01         0.22673E-03         0.00000E+00
    0.31422E-01         0.10201E-03         0.00000E+00
    0.31317E-01        -0.21866E-04         0.00000E+00
    0.31183E-01        -0.14459E-03         0.00000E+00
    0.31021E-01        -0.26587E-03         0.00000E+00
    0.30832E-01        -0.38538E-03         0.00000E+00
    0.30614E-01        -0.50284E-03         0.00000E+00
    0.30369E-01        -0.61793E-03         0.00000E+00
    0.30096E-01        -0.73034E-03         0.00000E+00
    0.29795E-01        -0.83979E-03         0.00000E+00
    0.29467E-01        -0.94597E-03         0.00000E+00
    0.29112E-01        -0.10486E-02         0.00000E+00
    0.28730E-01        -0.11473E-02         0.00000E+00
    0.28321E-01        -0.12419E-02         0.00000E+00
    0.27885E-01        -0.13321E-02         0.00000E+00
    0.27423E-01        -0.14175E-02         0.00000E+00
    0.26935E-01        -0.14979E-02         0.00000E+00
    0.26421E-01        -0.15731E-02         0.00000E+00
    0.25881E-01        -0.16426E-02         0.00000E+00
    0.25317E-01        -0.17063E-02         0.00000E+00
    0.24727E-01        -0.17640E-02         0.00000E+00
    0.24113E-01        -0.18152E-02         0.00000E+00
    0.23475E-01        -0.18599E-02         0.00000E+00
    0.22813E-01        -0.18976E-02         0.00000E+00
    0.22128E-01        -0.19283E-02         0.00000E+00
    0.21420E-01        -0.19516E-02         0.00000E+00
    0.20690E-01        -0.19673E-02         0.00000E+00
    0.19937E-01        -0.19752E-02         0.00000E+00
    0.19163E-01        -0.19751E-02         0.00000E+00
    0.18368E-01        -0.19667E-02         0.00000E+00
    0.17552E-01        -0.19498E-02         0.00000E+00
    0.16717E-01        -0.19242E-02         0.00000E+00
    0.15862E-01        -0.18898E-02         0.00000E+00
    0.14987E-01        -0.18464E-02         0.00000E+00
    0.14095E-01        -0.17937E-02         0.00000E+00
    0.13184E-01        -0.17315E-02         0.00000E+00
    0.12256E-01        -0.16598E-02         0.00000E+00
    0.11312E-01        -0.15784E-02         0.00000E+00
    0.10351E-01        -0.14870E-02         0.00000E+00
    0.93750E-02        -0.13856E-02         0.00000E+00
    0.83840E-02        -0.12740E-02         0.00000E+00
    0.73788E-02        -0.11520E-02         0.00000E+00
    0.63600E-02        -0.10197E-02         0.00000E+00
    0.53283E-02        -0.87671E-03         0.00000E+00
    0.42844E-02        -0.72310E-03         0.00000E+00
    0.32289E-02        -0.55871E-03         0.00000E+00
    0.21625E-02        -0.38345E-03         0.00000E+00
    0.10860E-02        -0.19724E-03         0.00000E+00
    0.00000E+00         0.00000E+00         0.00000E+00
    0.29211E-01         0.43892E-03         0.00000E+00
    0.29190E-01         0.32842E-03         0.00000E+00
    0.29143E-01         0.21814E-03         0.00000E+00
    0.29070E-01         0.10835E-03         0.00000E+00
    0.28971E-01        -0.68747E-06         0.00000E+00
    0.28846E-01        -0.10871E-03         0.00000E+00
    0.28695E-01        -0.21545E-03         0.00000E+00
    0.28518E-01        -0.32065E-03         0.00000E+00
    0.28316E-01        -0.42404E-03         0.00000E+00
    0.28087E-01        -0.52535E-03         0.00000E+00
    0.27834E-01        -0.62432E-03         0.00000E+00
    0.27554E-01        -0.72069E-03         0.00000E+00
    0.27250E-01        -0.81420E-03         0.00000E+00
    0.26920E-01        -0.90458E-03         0.00000E+00
    0.26566E-01        -0.99159E-03         0.00000E+00
    0.26186E-01        -0.10750E-02         0.00000E+00
    0.25782E-01        -0.11544E-02         0.00000E+00
    0.25354E-01        -0.12298E-02         0.00000E+00
    0.24902E-01        -0.13007E-02         0.00000E+00
    0.24426E-01        -0.13671E-02         0.00000E+00
    0.23926E-01        -0.14285E-02         0.00000E+00
    0.23403E-01        -0.14849E-02         0.00000E+00
    0.22858E-01        -0.15359E-02         0.00000E+00
    0.22289E-01        -0.15813E-02         0.00000E+00
    0.21699E-01        -0.16209E-02         0.00000E+00
    0.21086E-01        -0.16545E-02         0.00000E+00
    0.20453E-01        -0.16819E-02         0.00000E+00
    0.19798E-01        -0.17028E-02         0.00000E+00
    0.19122E-01        -0.17171E-02         0.00000E+00
    0.18426E-01        -0.17245E-02         0.00000E+00
    0.17710E-01        -0.17249E-02         0.00000E+00
    0.16975E-01        -0.17180E-02         0.00000E+00
    0.16220E-01        -0.17037E-02         0.00000E+00
    0.15448E-01        -0.16818E-02         0.00000E+00
    0.14657E-01        -0.16521E-02         0.00000E+00
    0.13849E-01        -0.16144E-02         0.00000E+00
    0.13023E-01        -0.15687E-02         0.00000E+00
    0.12182E-01        -0.15146E-02         0.00000E+00
    0.11324E-01        -0.14522E-02         0.00000E+00
    0.10451E-01        -0.13811E-02         0.00000E+00
    0.95632E-02        -0.13014E-02         0.00000E+00
    0.86611E-02        -0.12128E-02         0.00000E+00
    0.77453E-02        -0.11153E-02         0.00000E+00
    0.68165E-02        -0.10087E-02         0.00000E+00
    0.58751E-02        -0.89290E-03         0.00000E+00
    0.49219E-02        -0.76782E-03         0.00000E+00
    0.39575E-02        -0.63336E-03         0.00000E+00
    0.29824E-02        -0.48943E-03         0.00000E+00
    0.19974E-02        -0.33594E-03         0.00000E+00
    0.10030E-02        -0.17282E-03         0.00000E+00
    0.00000E+00         0.00000E+00         0.00000E+00
    0.27141E-01         0.39647E-03         0.00000E+00
    0.27120E-01         0.29988E-03         0.00000E+00
    0.27075E-01         0.20349E-03         0.00000E+00
    0.27006E-01         0.10753E-03         0.00000E+00
    0.26913E-01         0.12243E-04         0.00000E+00
    0.26796E-01        -0.82156E-04         0.00000E+00
    0.26654E-01        -0.17543E-03         0.00000E+00
    0.26489E-01        -0.26736E-03         0.00000E+00
    0.26300E-01        -0.35770E-03         0.00000E+00
    0.26087E-01        -0.44624E-03         0.00000E+00
    0.25850E-01        -0.53273E-03         0.00000E+00
    0.25590E-01        -0.61696E-03         0.00000E+00
    0.25306E-01        -0.69869E-03         0.00000E+00
    0.24999E-01        -0.77771E-03         0.00000E+00
    0.24668E-01        -0.85378E-03         0.00000E+00
    0.24315E-01        -0.92669E-03         0.00000E+00
    0.23939E-01        -0.99622E-03         0.00000E+00
    0.23541E-01        -0.10621E-02         0.00000E+00
    0.23120E-01        -0.11243E-02         0.00000E+00
    0.22677E-01        -0.11823E-02         0.00000E+00
    0.22213E-01        -0.12362E-02         0.00000E+00
    0.21727E-01        -0.12856E-02         0.00000E+00
    0.21219E-01        -0.13303E-02         0.00000E+00
    0.20691E-01        -0.13702E-02         0.00000E+00
    0.20142E-01        -0.14050E-02         0.00000E+00
    0.19573E-01        -0.14347E-02         0.00000E+00
    0.18984E-01        -0.14588E-02         0.00000E+00
    0.18375E-01        -0.14774E-02         0.00000E+00
    0.17748E-01        -0.14902E-02         0.00000E+00
    0.17101E-01        -0.14970E-02         0.00000E+00
    0.16436E-01        -0.14976E-02         0.00000E+00
    0.15753E-01        -0.14919E-02         0.00000E+00
    0.15053E-01        -0.14798E-02         0.00000E+00
    0.14335E-01        -0.14610E-02         0.00000E+00
    0.13601E-01        -0.14355E-02         0.00000E+00
    0.12851E-01        -0.14030E-02         0.00000E+00
    0.12084E-01        -0.13634E-02         0.00000E+00
    0.11303E-01        -0.13166E-02         0.00000E+00
    0.10507E-01        -0.12625E-02         0.00000E+00
    0.96967E-02        -0.12009E-02         0.00000E+00
    0.88726E-02        -0.11317E-02         0.00000E+00
    0.80354E-02        -0.10548E-02         0.00000E+00
    0.71856E-02        -0.97011E-03         0.00000E+00
    0.63237E-02        -0.87747E-03         0.00000E+00
    0.54502E-02        -0.77682E-03         0.00000E+00
    0.45658E-02        -0.66807E-03         0.00000E+00
    0.36711E-02        -0.55112E-03         0.00000E+00
    0.27665E-02        -0.42591E-03         0.00000E+00
    0.18527E-02        -0.29236E-03         0.00000E+00
    0.93035E-03        -0.15041E-03         0.00000E+00
    0.00000E+00         0.00000E+00         0.00000E+00
    0.25339E-01         0.35194E-03         0.00000E+00
    0.25319E-01         0.26831E-03         0.00000E+00
    0.25276E-01         0.18486E-03         0.00000E+00
    0.25211E-01         0.10179E-03         0.00000E+00
    0.25123E-01         0.19302E-04         0.00000E+00
    0.25012E-01        -0.62409E-04         0.00000E+00
    0.24880E-01        -0.14314E-03         0.00000E+00
    0.24724E-01        -0.22271E-03         0.00000E+00
    0.24547E-01        -0.30090E-03         0.00000E+00
    0.24347E-01        -0.37753E-03         0.00000E+00
    0.24125E-01        -0.45240E-03         0.00000E+00
    0.23881E-01        -0.52530E-03         0.00000E+00
    0.23616E-01        -0.59606E-03         0.00000E+00
    0.23328E-01        -0.66446E-03         0.00000E+00
    0.23019E-01        -0.73033E-03         0.00000E+00
    0.22689E-01        -0.79347E-03         0.00000E+00
    0.22337E-01        -0.85368E-03         0.00000E+00
    0.21965E-01        -0.91079E-03         0.00000E+00
    0.21571E-01        -0.96461E-03         0.00000E+00
    0.21158E-01        -0.10149E-02         0.00000E+00
    0.20723E-01        -0.10616E-02         0.00000E+00
    0.20269E-01        -0.11045E-02         0.00000E+00
    0.19795E-01        -0.11433E-02         0.00000E+00
    0.19302E-01        -0.11780E-02         0.00000E+00
    0.18789E-01        -0.12083E-02         0.00000E+00
    0.18258E-01        -0.12340E-02         0.00000E+00
    0.17708E-01        -0.12551E-02         0.00000E+00
    0.17139E-01        -0.12714E-02         0.00000E+00
    0.16553E-01        -0.12826E-02         0.00000E+00
    0.15950E-01        -0.12887E-02         0.00000E+00
    0.15329E-01        -0.12894E-02         0.00000E+00
    0.14692E-01        -0.12848E-02         0.00000E+00
    0.14038E-01        -0.12745E-02         0.00000E+00
    0.13369E-01        -0.12585E-02         0.00000E+00
    0.12683E-01        -0.12367E-02         0.00000E+00
    0.11983E-01        -0.12088E-02         0.00000E+00
    0.11269E-01        -0.11749E-02         0.00000E+00
    0.10540E-01        -0.11347E-02         0.00000E+00
    0.97970E-02        -0.10881E-02         0.00000E+00
    0.90412E-02        -0.10351E-02         0.00000E+00
    0.82727E-02        -0.97559E-03         0.00000E+00
    0.74919E-02        -0.90938E-03         0.00000E+00
    0.66993E-02        -0.83641E-03         0.00000E+00
    0.58956E-02        -0.75660E-03         0.00000E+00
    0.50811E-02        -0.66986E-03         0.00000E+00
    0.42565E-02        -0.57612E-03         0.00000E+00
    0.34222E-02        -0.47530E-03         0.00000E+00
    0.25789E-02        -0.36734E-03         0.00000E+00
    0.17270E-02        -0.25217E-03         0.00000E+00
    0.86721E-03        -0.12974E-03         0.00000E+00
    0.00000E+00         0.00000E+00         0.00000E+00
    0.23788E-01         0.30660E-03         0.00000E+00
    0.23769E-01         0.23511E-03         0.00000E+00
    0.23728E-01         0.16378E-03         0.00000E+00
    0.23666E-01         0.92781E-04         0.00000E+00
    0.23583E-01         0.22285E-04         0.00000E+00
    0.23478E-01        -0.47543E-04         0.00000E+00
    0.23353E-01        -0.11653E-03         0.00000E+00
    0.23206E-01        -0.18452E-03         0.00000E+00
    0.23039E-01        -0.25134E-03         0.00000E+00
    0.22851E-01        -0.31682E-03         0.00000E+00
    0.22642E-01        -0.38079E-03         0.00000E+00
    0.22412E-01        -0.44309E-03         0.00000E+00
    0.22162E-01        -0.50355E-03         0.00000E+00
    0.21892E-01        -0.56201E-03         0.00000E+00
    0.21601E-01        -0.61831E-03         0.00000E+00
    0.21290E-01        -0.67227E-03         0.00000E+00
    0.20960E-01        -0.72375E-03         0.00000E+00
    0.20610E-01        -0.77257E-03         0.00000E+00
    0.20240E-01        -0.81859E-03         0.00000E+00
    0.19851E-01        -0.86164E-03         0.00000E+00
    0.19443E-01        -0.90158E-03         0.00000E+00
    0.19016E-01        -0.93825E-03         0.00000E+00
    0.18571E-01        -0.97149E-03         0.00000E+00
    0.18108E-01        -0.10012E-02         0.00000E+00
    0.17626E-01        -0.10271E-02         0.00000E+00
    0.17127E-01        -0.10493E-02         0.00000E+00
    0.16611E-01        -0.10674E-02         0.00000E+00
    0.16077E-01        -0.10814E-02         0.00000E+00
    0.15527E-01        -0.10911E-02         0.00000E+00
    0.14960E-01        -0.10964E-02         0.00000E+00
    0.14378E-01        -0.10972E-02         0.00000E+00
    0.13780E-01        -0.10933E-02         0.00000E+00
    0.13166E-01        -0.10847E-02         0.00000E+00
    0.12538E-01        -0.10712E-02         0.00000E+00
    0.11895E-01        -0.10527E-02         0.00000E+00
    0.11238E-01        -0.10291E-02         0.00000E+00
    0.10567E-01        -0.10003E-02         0.00000E+00
    0.98836E-02        -0.96615E-03         0.00000E+00
    0.91870E-02        -0.92660E-03         0.00000E+00
    0.84780E-02        -0.88153E-03         0.00000E+00
    0.77571E-02        -0.83087E-03         0.00000E+00
    0.70248E-02        -0.77453E-03         0.00000E+00
    0.62815E-02        -0.71243E-03         0.00000E+00
    0.55277E-02        -0.64448E-03         0.00000E+00
    0.47640E-02        -0.57063E-03         0.00000E+00
    0.39907E-02        -0.49080E-03         0.00000E+00
    0.32085E-02        -0.40493E-03         0.00000E+00
    0.24178E-02        -0.31296E-03         0.00000E+00
    0.16191E-02        -0.21485E-03         0.00000E+00
    0.81299E-03        -0.11054E-03         0.00000E+00
    0.00000E+00         0.00000E+00         0.00000E+00
    0.22473E-01         0.26129E-03         0.00000E+00
    0.22454E-01         0.20124E-03         0.00000E+00
    0.22415E-01         0.14134E-03         0.00000E+00
    0.22356E-01         0.81718E-04         0.00000E+00
    0.22277E-01         0.22522E-04         0.00000E+00
    0.22178E-01        -0.36110E-04         0.00000E+00
    0.22059E-01        -0.94037E-04         0.00000E+00
    0.21920E-01        -0.15112E-03         0.00000E+00
    0.21761E-01        -0.20722E-03         0.00000E+00
    0.21583E-01        -0.26219E-03         0.00000E+00
    0.21385E-01        -0.31590E-03         0.00000E+00
    0.21168E-01        -0.36820E-03         0.00000E+00
    0.20931E-01        -0.41897E-03         0.00000E+00
    0.20675E-01        -0.46805E-03         0.00000E+00
    0.20400E-01        -0.51532E-03         0.00000E+00
    0.20106E-01        -0.56063E-03         0.00000E+00
    0.19793E-01        -0.60386E-03         0.00000E+00
    0.19462E-01        -0.64487E-03         0.00000E+00
    0.19112E-01        -0.68352E-03         0.00000E+00
    0.18744E-01        -0.71969E-03         0.00000E+00
    0.18359E-01        -0.75325E-03         0.00000E+00
    0.17955E-01        -0.78406E-03         0.00000E+00
    0.17534E-01        -0.81201E-03         0.00000E+00
    0.17096E-01        -0.83697E-03         0.00000E+00
    0.16641E-01        -0.85882E-03         0.00000E+00
    0.16170E-01        -0.87744E-03         0.00000E+00
    0.15682E-01        -0.89271E-03         0.00000E+00
    0.15177E-01        -0.90452E-03         0.00000E+00
    0.14658E-01        -0.91276E-03         0.00000E+00
    0.14123E-01        -0.91731E-03         0.00000E+00
    0.13572E-01        -0.91806E-03         0.00000E+00
    0.13007E-01        -0.91493E-03         0.00000E+00
    0.12428E-01        -0.90779E-03         0.00000E+00
    0.11834E-01        -0.89656E-03         0.00000E+00
    0.11227E-01        -0.88114E-03         0.00000E+00
    0.10607E-01        -0.86144E-03         0.00000E+00
    0.99738E-02        -0.83736E-03         0.00000E+00
    0.93282E-02        -0.80883E-03         0.00000E+00
    0.86705E-02        -0.77576E-03         0.00000E+00
    0.80012E-02        -0.73807E-03         0.00000E+00
    0.73206E-02        -0.69569E-03         0.00000E+00
    0.66294E-02        -0.64854E-03         0.00000E+00
    0.59278E-02        -0.59656E-03         0.00000E+00
    0.52164E-02        -0.53969E-03         0.00000E+00
    0.44955E-02        -0.47786E-03         0.00000E+00
    0.37658E-02        -0.41102E-03         0.00000E+00
    0.30275E-02        -0.33912E-03         0.00000E+00
    0.22814E-02        -0.26211E-03         0.00000E+00
    0.15277E-02        -0.17994E-03         0.00000E+00
    0.76710E-03        -0.92586E-04         0.00000E+00
    0.00000E+00         0.00000E+00         0.00000E+00
    0.21381E-01         0.21651E-03         0.00000E+00
    0.21363E-01         0.16733E-03         0.00000E+00
    0.21325E-01         0.11827E-03         0.00000E+00
    0.21269E-01         0.69445E-04         0.00000E+00
    0.21193E-01         0.20971E-04         0.00000E+00
    0.21098E-01        -0.27038E-04         0.00000E+00
    0.20985E-01        -0.74470E-04         0.00000E+00
    0.20852E-01        -0.12121E-03         0.00000E+00
    0.20701E-01        -0.16714E-03         0.00000E+00
    0.20531E-01        -0.21215E-03         0.00000E+00
    0.20342E-01        -0.25612E-03         0.00000E+00
    0.20135E-01        -0.29895E-03         0.00000E+00
    0.19909E-01        -0.34051E-03         0.00000E+00
    0.19665E-01        -0.38070E-03         0.00000E+00
    0.19403E-01        -0.41941E-03         0.00000E+00
    0.19123E-01        -0.45651E-03         0.00000E+00
    0.18825E-01        -0.49191E-03         0.00000E+00
    0.18509E-01        -0.52549E-03         0.00000E+00
    0.18176E-01        -0.55715E-03         0.00000E+00
    0.17826E-01        -0.58678E-03         0.00000E+00
    0.17459E-01        -0.61427E-03         0.00000E+00
    0.17075E-01        -0.63953E-03         0.00000E+00
    0.16674E-01        -0.66244E-03         0.00000E+00
    0.16257E-01        -0.68290E-03         0.00000E+00
    0.15824E-01        -0.70082E-03         0.00000E+00
    0.15375E-01        -0.71610E-03         0.00000E+00
    0.14911E-01        -0.72865E-03         0.00000E+00
    0.14431E-01        -0.73836E-03         0.00000E+00
    0.13937E-01        -0.74515E-03         0.00000E+00
    0.13428E-01        -0.74893E-03         0.00000E+00
    0.12904E-01        -0.74960E-03         0.00000E+00
    0.12367E-01        -0.74710E-03         0.00000E+00
    0.11815E-01        -0.74132E-03         0.00000E+00
    0.11251E-01        -0.73220E-03         0.00000E+00
    0.10674E-01        -0.71965E-03         0.00000E+00
    0.10084E-01        -0.70359E-03         0.00000E+00
    0.94816E-02        -0.68396E-03         0.00000E+00
    0.88676E-02        -0.66069E-03         0.00000E+00
    0.82422E-02        -0.63370E-03         0.00000E+00
    0.76058E-02        -0.60294E-03         0.00000E+00
    0.69588E-02        -0.56834E-03         0.00000E+00
    0.63015E-02        -0.52984E-03         0.00000E+00
    0.56345E-02        -0.48740E-03         0.00000E+00
    0.49582E-02        -0.44095E-03         0.00000E+00
    0.42730E-02        -0.39044E-03         0.00000E+00
    0.35793E-02        -0.33584E-03         0.00000E+00
    0.28776E-02        -0.27710E-03         0.00000E+00
    0.21683E-02        -0.21418E-03         0.00000E+00
    0.14520E-02        -0.14704E-03         0.00000E+00
    0.72906E-03        -0.75657E-04         0.00000E+00
    0.00000E+00         0.00000E+00         0.00000E+00
    0.20502E-01         0.17250E-03         0.00000E+00
    0.20484E-01         0.13372E-03         0.00000E+00
    0.20447E-01         0.95030E-04         0.00000E+00
    0.20393E-01         0.56529E-04         0.00000E+00
    0.20320E-01         0.18305E-04         0.00000E+00
    0.20229E-01        -0.19552E-04         0.00000E+00
    0.20120E-01        -0.56952E-04         0.00000E+00
    0.19992E-01        -0.93805E-04         0.00000E+00
    0.19847E-01        -0.13002E-03         0.00000E+00
    0.19684E-01        -0.16551E-03         0.00000E+00
    0.19502E-01        -0.20018E-03         0.00000E+00
    0.19303E-01        -0.23395E-03         0.00000E+00
    0.19086E-01        -0.26673E-03         0.00000E+00
    0.18852E-01        -0.29842E-03         0.00000E+00
    0.18601E-01        -0.32894E-03         0.00000E+00
    0.18332E-01        -0.35820E-03         0.00000E+00
    0.18046E-01        -0.38612E-03         0.00000E+00
    0.17743E-01        -0.41261E-03         0.00000E+00
    0.17423E-01        -0.43758E-03         0.00000E+00
    0.17087E-01        -0.46096E-03         0.00000E+00
    0.16735E-01        -0.48265E-03         0.00000E+00
    0.16367E-01        -0.50258E-03         0.00000E+00
    0.15982E-01        -0.52066E-03         0.00000E+00
    0.15582E-01        -0.53682E-03         0.00000E+00
    0.15167E-01        -0.55098E-03         0.00000E+00
    0.14736E-01        -0.56306E-03         0.00000E+00
    0.14291E-01        -0.57298E-03         0.00000E+00
    0.13831E-01        -0.58067E-03         0.00000E+00
    0.13357E-01        -0.58606E-03         0.00000E+00
    0.12868E-01        -0.58908E-03         0.00000E+00
    0.12367E-01        -0.58966E-03         0.00000E+00
    0.11851E-01        -0.58772E-03         0.00000E+00
    0.11323E-01        -0.58322E-03         0.00000E+00
    0.10782E-01        -0.57607E-03         0.00000E+00
    0.10228E-01        -0.56623E-03         0.00000E+00
    0.96627E-02        -0.55363E-03         0.00000E+00
    0.90855E-02        -0.53821E-03         0.00000E+00
    0.84971E-02        -0.51992E-03         0.00000E+00
    0.78977E-02        -0.49871E-03         0.00000E+00
    0.72877E-02        -0.47452E-03         0.00000E+00
    0.66677E-02        -0.44730E-03         0.00000E+00
    0.60378E-02        -0.41702E-03         0.00000E+00
    0.53987E-02        -0.38362E-03         0.00000E+00
    0.47506E-02        -0.34707E-03         0.00000E+00
    0.40940E-02        -0.30733E-03         0.00000E+00
    0.34293E-02        -0.26436E-03         0.00000E+00
    0.27569E-02        -0.21813E-03         0.00000E+00
    0.20774E-02        -0.16860E-03         0.00000E+00
    0.13911E-02        -0.11575E-03         0.00000E+00
    0.69847E-03        -0.59560E-04         0.00000E+00
    0.00000E+00         0.00000E+00         0.00000E+00
    0.19826E-01         0.12933E-03         0.00000E+00
    0.19809E-01         0.10056E-03         0.00000E+00
    0.19774E-01         0.71874E-04         0.00000E+00
    0.19721E-01         0.43322E-04         0.00000E+00
    0.19650E-01         0.14977E-04         0.00000E+00
    0.19562E-01        -0.13097E-04         0.00000E+00
    0.19456E-01        -0.40831E-04         0.00000E+00
    0.19332E-01        -0.68160E-04         0.00000E+00
    0.19192E-01        -0.95018E-04         0.00000E+00
    0.19033E-01        -0.12134E-03         0.00000E+00
    0.18858E-01        -0.14705E-03         0.00000E+00
    0.18665E-01        -0.17210E-03         0.00000E+00
    0.18455E-01        -0.19641E-03         0.00000E+00
    0.18228E-01        -0.21991E-03         0.00000E+00
    0.17985E-01        -0.24255E-03         0.00000E+00
    0.17725E-01        -0.26426E-03         0.00000E+00
    0.17448E-01        -0.28498E-03         0.00000E+00
    0.17155E-01        -0.30464E-03         0.00000E+00
    0.16845E-01        -0.32317E-03         0.00000E+00
    0.16520E-01        -0.34052E-03         0.00000E+00
    0.16179E-01        -0.35663E-03         0.00000E+00
    0.15823E-01        -0.37143E-03         0.00000E+00
    0.15451E-01        -0.38486E-03         0.00000E+00
    0.15064E-01        -0.39687E-03         0.00000E+00
    0.14662E-01        -0.40739E-03         0.00000E+00
    0.14246E-01        -0.41638E-03         0.00000E+00
    0.13815E-01        -0.42377E-03         0.00000E+00
    0.13370E-01        -0.42950E-03         0.00000E+00
    0.12912E-01        -0.43354E-03         0.00000E+00
    0.12439E-01        -0.43581E-03         0.00000E+00
    0.11954E-01        -0.43628E-03         0.00000E+00
    0.11456E-01        -0.43489E-03         0.00000E+00
    0.10945E-01        -0.43159E-03         0.00000E+00
    0.10421E-01        -0.42633E-03         0.00000E+00
    0.98864E-02        -0.41908E-03         0.00000E+00
    0.93396E-02        -0.40978E-03         0.00000E+00
    0.87816E-02        -0.39839E-03         0.00000E+00
    0.82127E-02        -0.38488E-03         0.00000E+00
    0.76333E-02        -0.36919E-03         0.00000E+00
    0.70436E-02        -0.35130E-03         0.00000E+00
    0.64442E-02        -0.33117E-03         0.00000E+00
    0.58354E-02        -0.30877E-03         0.00000E+00
    0.52176E-02        -0.28406E-03         0.00000E+00
    0.45912E-02        -0.25700E-03         0.00000E+00
    0.39566E-02        -0.22758E-03         0.00000E+00
    0.33142E-02        -0.19577E-03         0.00000E+00
    0.26644E-02        -0.16154E-03         0.00000E+00
    0.20076E-02        -0.12486E-03         0.00000E+00
    0.13443E-02        -0.85729E-04         0.00000E+00
    0.67500E-03        -0.44113E-04         0.00000E+00
    0.00000E+00         0.00000E+00         0.00000E+00
    0.19348E-01         0.86882E-04         0.00000E+00
    0.19331E-01         0.67864E-04         0.00000E+00
    0.19297E-01         0.48895E-04         0.00000E+00
    0.19245E-01         0.30017E-04         0.00000E+00
    0.19176E-01         0.11275E-04         0.00000E+00
    0.19090E-01        -0.72873E-05         0.00000E+00
    0.18986E-01        -0.25627E-04         0.00000E+00
    0.18866E-01        -0.43700E-04         0.00000E+00
    0.18728E-01        -0.61462E-04         0.00000E+00
    0.18573E-01        -0.78870E-04         0.00000E+00
    0.18402E-01        -0.95881E-04         0.00000E+00
    0.18214E-01        -0.11245E-03         0.00000E+00
    0.18009E-01        -0.12853E-03         0.00000E+00
    0.17787E-01        -0.14409E-03         0.00000E+00
    0.17549E-01        -0.15908E-03         0.00000E+00
    0.17295E-01        -0.17345E-03         0.00000E+00
    0.17025E-01        -0.18717E-03         0.00000E+00
    0.16739E-01        -0.20019E-03         0.00000E+00
    0.16437E-01        -0.21247E-03         0.00000E+00
    0.16119E-01        -0.22397E-03         0.00000E+00
    0.15786E-01        -0.23464E-03         0.00000E+00
    0.15438E-01        -0.24446E-03         0.00000E+00
    0.15075E-01        -0.25338E-03         0.00000E+00
    0.14697E-01        -0.26135E-03         0.00000E+00
    0.14305E-01        -0.26835E-03         0.00000E+00
    0.13899E-01        -0.27433E-03         0.00000E+00
    0.13478E-01        -0.27925E-03         0.00000E+00
    0.13044E-01        -0.28309E-03         0.00000E+00
    0.12597E-01        -0.28580E-03         0.00000E+00
    0.12136E-01        -0.28735E-03         0.00000E+00
    0.11662E-01        -0.28770E-03         0.00000E+00
    0.11176E-01        -0.28682E-03         0.00000E+00
    0.10677E-01        -0.28469E-03         0.00000E+00
    0.10167E-01        -0.28126E-03         0.00000E+00
    0.96444E-02        -0.27651E-03         0.00000E+00
    0.91110E-02        -0.27041E-03         0.00000E+00
    0.85665E-02        -0.26292E-03         0.00000E+00
    0.80115E-02        -0.25403E-03         0.00000E+00
    0.74461E-02        -0.24371E-03         0.00000E+00
    0.68709E-02        -0.23192E-03         0.00000E+00
    0.62861E-02        -0.21866E-03         0.00000E+00
    0.56922E-02        -0.20388E-03         0.00000E+00
    0.50895E-02        -0.18758E-03         0.00000E+00
    0.44784E-02        -0.16973E-03         0.00000E+00
    0.38593E-02        -0.15031E-03         0.00000E+00
    0.32327E-02        -0.12931E-03         0.00000E+00
    0.25988E-02        -0.10671E-03         0.00000E+00
    0.19582E-02        -0.82489E-04         0.00000E+00
    0.13113E-02        -0.56639E-04         0.00000E+00
    0.65838E-03        -0.29146E-04         0.00000E+00
    0.00000E+00         0.00000E+00         0.00000E+00
    0.19064E-01         0.44954E-04         0.00000E+00
    0.19047E-01         0.35502E-04         0.00000E+00
    0.19013E-01         0.26073E-04         0.00000E+00
    0.18962E-01         0.16688E-04         0.00000E+00
    0.18894E-01         0.73692E-05         0.00000E+00
    0.18808E-01        -0.18623E-05         0.00000E+00
    0.18706E-01        -0.10985E-04         0.00000E+00
    0.18587E-01        -0.19978E-04         0.00000E+00
    0.18452E-01        -0.28819E-04         0.00000E+00
    0.18299E-01        -0.37487E-04         0.00000E+00
    0.18130E-01        -0.45961E-04         0.00000E+00
    0.17944E-01        -0.54218E-04         0.00000E+00
    0.17742E-01        -0.62237E-04         0.00000E+00
    0.17524E-01        -0.69998E-04         0.00000E+00
    0.17289E-01        -0.77479E-04         0.00000E+00
    0.17039E-01        -0.84657E-04         0.00000E+00
    0.16773E-01        -0.91514E-04         0.00000E+00
    0.16490E-01        -0.98026E-04         0.00000E+00
    0.16193E-01        -0.10417E-03         0.00000E+00
    0.15880E-01        -0.10994E-03         0.00000E+00
    0.15552E-01        -0.11530E-03         0.00000E+00
    0.15209E-01        -0.12023E-03         0.00000E+00
    0.14851E-01        -0.12472E-03         0.00000E+00
    0.14479E-01        -0.12874E-03         0.00000E+00
    0.14092E-01        -0.13227E-03         0.00000E+00
    0.13692E-01        -0.13531E-03         0.00000E+00
    0.13277E-01        -0.13782E-03         0.00000E+00
    0.12850E-01        -0.13979E-03         0.00000E+00
    0.12408E-01        -0.14120E-03         0.00000E+00
    0.11954E-01        -0.14203E-03         0.00000E+00
    0.11488E-01        -0.14228E-03         0.00000E+00
    0.11009E-01        -0.14190E-03         0.00000E+00
    0.10517E-01        -0.14091E-03         0.00000E+00
    0.10014E-01        -0.13926E-03         0.00000E+00
    0.94999E-02        -0.13696E-03         0.00000E+00
    0.89744E-02        -0.13399E-03         0.00000E+00
    0.84380E-02        -0.13033E-03         0.00000E+00
    0.78912E-02        -0.12596E-03         0.00000E+00
    0.73343E-02        -0.12088E-03         0.00000E+00
    0.67676E-02        -0.11507E-03         0.00000E+00
    0.61916E-02        -0.10852E-03         0.00000E+00
    0.56066E-02        -0.10122E-03         0.00000E+00
    0.50129E-02        -0.93150E-04         0.00000E+00
    0.44110E-02        -0.84308E-04         0.00000E+00
    0.38012E-02        -0.74683E-04         0.00000E+00
    0.31840E-02        -0.64264E-04         0.00000E+00
    0.25597E-02        -0.53043E-04         0.00000E+00
    0.19287E-02        -0.41013E-04         0.00000E+00
    0.12915E-02        -0.28167E-04         0.00000E+00
    0.64845E-03        -0.14498E-04         0.00000E+00
    0.00000E+00         0.00000E+00         0.00000E+00
    0.18969E-01         0.32579E-05         0.00000E+00
    0.18953E-01         0.32828E-05         0.00000E+00
    0.18919E-01         0.33057E-05         0.00000E+00
    0.18868E-01         0.33255E-05         0.00000E+00
    0.18800E-01         0.33416E-05         0.00000E+00
    0.18715E-01         0.33531E-05         0.00000E+00
    0.18614E-01         0.33595E-05         0.00000E+00
    0.18495E-01         0.33600E-05         0.00000E+00
    0.18360E-01         0.33543E-05         0.00000E+00
    0.18208E-01         0.33419E-05         0.00000E+00
    0.18040E-01         0.33225E-05         0.00000E+00
    0.17855E-01         0.32959E-05         0.00000E+00
    0.17654E-01         0.32617E-05         0.00000E+00
    0.17436E-01         0.32200E-05         0.00000E+00
    0.17203E-01         0.31707E-05         0.00000E+00
    0.16954E-01         0.31139E-05         0.00000E+00
    0.16688E-01         0.30495E-05         0.00000E+00
    0.16408E-01         0.29778E-05         0.00000E+00
    0.16111E-01         0.28990E-05         0.00000E+00
    0.15800E-01         0.28135E-05         0.00000E+00
    0.15473E-01         0.27214E-05         0.00000E+00
    0.15132E-01         0.26233E-05         0.00000E+00
    0.14776E-01         0.25195E-05         0.00000E+00
    0.14406E-01         0.24106E-05         0.00000E+00
    0.14021E-01         0.22970E-05         0.00000E+00
    0.13622E-01         0.21794E-05         0.00000E+00
    0.13210E-01         0.20584E-05         0.00000E+00
    0.12784E-01         0.19346E-05         0.00000E+00
    0.12345E-01         0.18086E-05         0.00000E+00
    0.11894E-01         0.16812E-05         0.00000E+00
    0.11429E-01         0.15531E-05         0.00000E+00
    0.10952E-01         0.14251E-05         0.00000E+00
    0.10464E-01         0.12978E-05         0.00000E+00
    0.99631E-02         0.11721E-05         0.00000E+00
    0.94512E-02         0.10487E-05         0.00000E+00
    0.89283E-02         0.92845E-06         0.00000E+00
    0.83947E-02         0.81210E-06         0.00000E+00
    0.78506E-02         0.70043E-06         0.00000E+00
    0.72966E-02         0.59421E-06         0.00000E+00
    0.67328E-02         0.49421E-06         0.00000E+00
    0.61597E-02         0.40117E-06         0.00000E+00
    0.55777E-02         0.31583E-06         0.00000E+00
    0.49870E-02         0.23889E-06         0.00000E+00
    0.43882E-02         0.17104E-06         0.00000E+00
    0.37816E-02         0.11291E-06         0.00000E+00
    0.31675E-02         0.65135E-07         0.00000E+00
    0.25464E-02         0.28281E-07         0.00000E+00
    0.19187E-02         0.28817E-08         0.00000E+00
    0.12848E-02        -0.10577E-07         0.00000E+00
    0.64508E-03        -0.11664E-07         0.00000E+00
    0.00000E+00         0.00000E+00         0.00000E+00
    0.19065E-01        -0.38548E-04         0.00000E+00
    0.19048E-01        -0.29042E-04         0.00000E+00
    0.19014E-01        -0.19563E-04         0.00000E+00
    0.18963E-01        -0.10136E-04         0.00000E+00
    0.18894E-01        -0.78163E-06         0.00000E+00
    0.18809E-01         0.84756E-05         0.00000E+00
    0.18707E-01         0.17613E-04         0.00000E+00
    0.18588E-01         0.26609E-04         0.00000E+00
    0.18452E-01         0.35441E-04         0.00000E+00
    0.18299E-01         0.44085E-04         0.00000E+00
    0.18130E-01         0.52521E-04         0.00000E+00
    0.17944E-01         0.60725E-04         0.00000E+00
    0.17742E-01         0.68677E-04         0.00000E+00
    0.17524E-01         0.76354E-04         0.00000E+00
    0.17289E-01         0.83736E-04         0.00000E+00
    0.17038E-01         0.90801E-04         0.00000E+00
    0.16772E-01         0.97528E-04         0.00000E+00
    0.16489E-01         0.10390E-03         0.00000E+00
    0.16192E-01         0.10989E-03         0.00000E+00
    0.15879E-01         0.11548E-03         0.00000E+00
    0.15550E-01         0.12065E-03         0.00000E+00
    0.15207E-01         0.12539E-03         0.00000E+00
    0.14849E-01         0.12967E-03         0.00000E+00
    0.14477E-01         0.13347E-03         0.00000E+00
    0.14091E-01         0.13678E-03         0.00000E+00
    0.13690E-01         0.13958E-03         0.00000E+00
    0.13275E-01         0.14184E-03         0.00000E+00
    0.12848E-01         0.14357E-03         0.00000E+00
    0.12406E-01         0.14473E-03         0.00000E+00
    0.11952E-01         0.14530E-03         0.00000E+00
    0.11486E-01         0.14529E-03         0.00000E+00
    0.11006E-01         0.14466E-03         0.00000E+00
    0.10515E-01         0.14341E-03         0.00000E+00
    0.10012E-01         0.14152E-03         0.00000E+00
    0.94979E-02         0.13897E-03         0.00000E+00
    0.89723E-02         0.13576E-03         0.00000E+00
    0.84360E-02         0.13187E-03         0.00000E+00
    0.78893E-02         0.12728E-03         0.00000E+00
    0.73325E-02         0.12199E-03         0.00000E+00
    0.67659E-02         0.11598E-03         0.00000E+00
    0.61900E-02         0.10925E-03         0.00000E+00
    0.56051E-02         0.10178E-03         0.00000E+00
    0.50115E-02         0.93565E-04         0.00000E+00
    0.44097E-02         0.84593E-04         0.00000E+00
    0.38001E-02         0.74857E-04         0.00000E+00
    0.31830E-02         0.64350E-04         0.00000E+00
    0.25589E-02         0.53063E-04         0.00000E+00
    0.19281E-02         0.40990E-04         0.00000E+00
    0.12911E-02         0.28126E-04         0.00000E+00
    0.64824E-03         0.14464E-04         0.00000E+00
    0.00000E+00         0.00000E+00         0.00000E+00
    0.19351E-01        -0.80839E-04         0.00000E+00
    0.19333E-01        -0.61755E-04         0.00000E+00
    0.19299E-01        -0.42725E-04         0.00000E+00
    0.19247E-01        -0.23794E-04         0.00000E+00
    0.19178E-01        -0.50080E-05         0.00000E+00
    0.19091E-01         0.13588E-04         0.00000E+00
    0.18987E-01         0.31950E-04         0.00000E+00
    0.18867E-01         0.50032E-04         0.00000E+00
    0.18729E-01         0.67789E-04         0.00000E+00
    0.18574E-01         0.85177E-04         0.00000E+00
    0.18402E-01         0.10215E-03         0.00000E+00
    0.18213E-01         0.11867E-03         0.00000E+00
    0.18008E-01         0.13469E-03         0.00000E+00
    0.17786E-01         0.15016E-03         0.00000E+00
    0.17548E-01         0.16505E-03         0.00000E+00
    0.17294E-01         0.17931E-03         0.00000E+00
    0.17023E-01         0.19290E-03         0.00000E+00
    0.16737E-01         0.20577E-03         0.00000E+00
    0.16434E-01         0.21789E-03         0.00000E+00
    0.16117E-01         0.22922E-03         0.00000E+00
    0.15784E-01         0.23971E-03         0.00000E+00
    0.15435E-01         0.24932E-03         0.00000E+00
    0.15072E-01         0.25803E-03         0.00000E+00
    0.14694E-01         0.26578E-03         0.00000E+00
    0.14302E-01         0.27255E-03         0.00000E+00
    0.13895E-01         0.27829E-03         0.00000E+00
    0.13474E-01         0.28298E-03         0.00000E+00
    0.13040E-01         0.28656E-03         0.00000E+00
    0.12592E-01         0.28902E-03         0.00000E+00
    0.12132E-01         0.29032E-03         0.00000E+00
    0.11658E-01         0.29041E-03         0.00000E+00
    0.11171E-01         0.28929E-03         0.00000E+00
    0.10673E-01         0.28690E-03         0.00000E+00
    0.10162E-01         0.28322E-03         0.00000E+00
    0.96402E-02         0.27823E-03         0.00000E+00
    0.91068E-02         0.27190E-03         0.00000E+00
    0.85625E-02         0.26419E-03         0.00000E+00
    0.80075E-02         0.25509E-03         0.00000E+00
    0.74424E-02         0.24456E-03         0.00000E+00
    0.68673E-02         0.23259E-03         0.00000E+00
    0.62828E-02         0.21916E-03         0.00000E+00
    0.56891E-02         0.20423E-03         0.00000E+00
    0.50866E-02         0.18780E-03         0.00000E+00
    0.44758E-02         0.16984E-03         0.00000E+00
    0.38571E-02         0.15033E-03         0.00000E+00
    0.32307E-02         0.12926E-03         0.00000E+00
    0.25972E-02         0.10661E-03         0.00000E+00
    0.19570E-02         0.82376E-04         0.00000E+00
    0.13104E-02         0.56535E-04         0.00000E+00
    0.65796E-03         0.29080E-04         0.00000E+00
    0.00000E+00         0.00000E+00         0.00000E+00
    0.19830E-01        -0.12401E-03         0.00000E+00
    0.19812E-01        -0.95154E-04         0.00000E+00
    0.19777E-01        -0.66384E-04         0.00000E+00
    0.19724E-01        -0.37762E-04         0.00000E+00
    0.19653E-01        -0.93574E-05         0.00000E+00
    0.19564E-01         0.18763E-04         0.00000E+00
    0.19458E-01         0.46531E-04         0.00000E+00
    0.19334E-01         0.73879E-04         0.00000E+00
    0.19193E-01         0.10074E-03         0.00000E+00
    0.19034E-01         0.12705E-03         0.00000E+00
    0.18858E-01         0.15273E-03         0.00000E+00
    0.18665E-01         0.17773E-03         0.00000E+00
    0.18454E-01         0.20197E-03         0.00000E+00
    0.18227E-01         0.22540E-03         0.00000E+00
    0.17983E-01         0.24794E-03         0.00000E+00
    0.17722E-01         0.26954E-03         0.00000E+00
    0.17445E-01         0.29012E-03         0.00000E+00
    0.17152E-01         0.30963E-03         0.00000E+00
    0.16842E-01         0.32801E-03         0.00000E+00
    0.16516E-01         0.34518E-03         0.00000E+00
    0.16175E-01         0.36110E-03         0.00000E+00
    0.15818E-01         0.37570E-03         0.00000E+00
    0.15446E-01         0.38892E-03         0.00000E+00
    0.15059E-01         0.40071E-03         0.00000E+00
    0.14657E-01         0.41100E-03         0.00000E+00
    0.14240E-01         0.41975E-03         0.00000E+00
    0.13809E-01         0.42690E-03         0.00000E+00
    0.13364E-01         0.43239E-03         0.00000E+00
    0.12905E-01         0.43617E-03         0.00000E+00
    0.12433E-01         0.43820E-03         0.00000E+00
    0.11947E-01         0.43842E-03         0.00000E+00
    0.11449E-01         0.43678E-03         0.00000E+00
    0.10938E-01         0.43324E-03         0.00000E+00
    0.10415E-01         0.42775E-03         0.00000E+00
    0.98798E-02         0.42026E-03         0.00000E+00
    0.93331E-02         0.41074E-03         0.00000E+00
    0.87753E-02         0.39915E-03         0.00000E+00
    0.82066E-02         0.38544E-03         0.00000E+00
    0.76274E-02         0.36958E-03         0.00000E+00
    0.70380E-02         0.35153E-03         0.00000E+00
    0.64390E-02         0.33126E-03         0.00000E+00
    0.58305E-02         0.30873E-03         0.00000E+00
    0.52131E-02         0.28391E-03         0.00000E+00
    0.45871E-02         0.25678E-03         0.00000E+00
    0.39530E-02         0.22731E-03         0.00000E+00
    0.33111E-02         0.19547E-03         0.00000E+00
    0.26618E-02         0.16123E-03         0.00000E+00
    0.20057E-02         0.12459E-03         0.00000E+00
    0.13430E-02         0.85514E-04         0.00000E+00
    0.67433E-03         0.43989E-04         0.00000E+00
    0.00000E+00         0.00000E+00         0.00000E+00
    0.20507E-01        -0.16844E-03         0.00000E+00
    0.20489E-01        -0.12954E-03         0.00000E+00
    0.20453E-01        -0.90741E-04         0.00000E+00
    0.20398E-01        -0.52146E-04         0.00000E+00
    0.20324E-01        -0.13842E-04         0.00000E+00
    0.20233E-01         0.24081E-04         0.00000E+00
    0.20123E-01         0.61530E-04         0.00000E+00
    0.19995E-01         0.98416E-04         0.00000E+00
    0.19849E-01         0.13465E-03         0.00000E+00
    0.19685E-01         0.17013E-03         0.00000E+00
    0.19503E-01         0.20479E-03         0.00000E+00
    0.19303E-01         0.23851E-03         0.00000E+00
    0.19086E-01         0.27123E-03         0.00000E+00
    0.18851E-01         0.30284E-03         0.00000E+00
    0.18598E-01         0.33327E-03         0.00000E+00
    0.18329E-01         0.36242E-03         0.00000E+00
    0.18042E-01         0.39021E-03         0.00000E+00
    0.17739E-01         0.41655E-03         0.00000E+00
    0.17419E-01         0.44137E-03         0.00000E+00
    0.17082E-01         0.46457E-03         0.00000E+00
    0.16729E-01         0.48607E-03         0.00000E+00
    0.16360E-01         0.50580E-03         0.00000E+00
    0.15975E-01         0.52368E-03         0.00000E+00
    0.15575E-01         0.53962E-03         0.00000E+00
    0.15159E-01         0.55355E-03         0.00000E+00
    0.14728E-01         0.56540E-03         0.00000E+00
    0.14282E-01         0.57508E-03         0.00000E+00
    0.13822E-01         0.58254E-03         0.00000E+00
    0.13348E-01         0.58769E-03         0.00000E+00
    0.12859E-01         0.59047E-03         0.00000E+00
    0.12357E-01         0.59082E-03         0.00000E+00
    0.11842E-01         0.58866E-03         0.00000E+00
    0.11313E-01         0.58393E-03         0.00000E+00
    0.10772E-01         0.57657E-03         0.00000E+00
    0.10219E-01         0.56653E-03         0.00000E+00
    0.96536E-02         0.55373E-03         0.00000E+00
    0.90766E-02         0.53814E-03         0.00000E+00
    0.84884E-02         0.51969E-03         0.00000E+00
    0.78894E-02         0.49833E-03         0.00000E+00
    0.72798E-02         0.47402E-03         0.00000E+00
    0.66602E-02         0.44671E-03         0.00000E+00
    0.60309E-02         0.41635E-03         0.00000E+00
    0.53923E-02         0.38291E-03         0.00000E+00
    0.47448E-02         0.34633E-03         0.00000E+00
    0.40889E-02         0.30660E-03         0.00000E+00
    0.34249E-02         0.26366E-03         0.00000E+00
    0.27534E-02         0.21750E-03         0.00000E+00
    0.20746E-02         0.16807E-03         0.00000E+00
    0.13892E-02         0.11536E-03         0.00000E+00
    0.69752E-03         0.59347E-04         0.00000E+00
    0.00000E+00         0.00000E+00         0.00000E+00
    0.21390E-01        -0.21451E-03         0.00000E+00
    0.21371E-01        -0.16517E-03         0.00000E+00
    0.21333E-01        -0.11597E-03         0.00000E+00
    0.21275E-01        -0.67025E-04         0.00000E+00
    0.21199E-01        -0.18443E-04         0.00000E+00
    0.21104E-01         0.29656E-04         0.00000E+00
    0.20989E-01         0.77157E-04         0.00000E+00
    0.20856E-01         0.12395E-03         0.00000E+00
    0.20703E-01         0.16991E-03         0.00000E+00
    0.20532E-01         0.21493E-03         0.00000E+00
    0.20343E-01         0.25889E-03         0.00000E+00
    0.20135E-01         0.30169E-03         0.00000E+00
    0.19908E-01         0.34320E-03         0.00000E+00
    0.19663E-01         0.38332E-03         0.00000E+00
    0.19400E-01         0.42193E-03         0.00000E+00
    0.19119E-01         0.45893E-03         0.00000E+00
    0.18820E-01         0.49421E-03         0.00000E+00
    0.18504E-01         0.52765E-03         0.00000E+00
    0.18170E-01         0.55916E-03         0.00000E+00
    0.17819E-01         0.58862E-03         0.00000E+00
    0.17451E-01         0.61593E-03         0.00000E+00
    0.17066E-01         0.64100E-03         0.00000E+00
    0.16665E-01         0.66371E-03         0.00000E+00
    0.16247E-01         0.68397E-03         0.00000E+00
    0.15814E-01         0.70169E-03         0.00000E+00
    0.15364E-01         0.71675E-03         0.00000E+00
    0.14899E-01         0.72908E-03         0.00000E+00
    0.14420E-01         0.73858E-03         0.00000E+00
    0.13925E-01         0.74516E-03         0.00000E+00
    0.13415E-01         0.74873E-03         0.00000E+00
    0.12892E-01         0.74921E-03         0.00000E+00
    0.12354E-01         0.74651E-03         0.00000E+00
    0.11803E-01         0.74055E-03         0.00000E+00
    0.11238E-01         0.73126E-03         0.00000E+00
    0.10661E-01         0.71855E-03         0.00000E+00
    0.10071E-01         0.70236E-03         0.00000E+00
    0.94696E-02         0.68261E-03         0.00000E+00
    0.88560E-02         0.65923E-03         0.00000E+00
    0.82311E-02         0.63217E-03         0.00000E+00
    0.75952E-02         0.60136E-03         0.00000E+00
    0.69488E-02         0.56673E-03         0.00000E+00
    0.62922E-02         0.52823E-03         0.00000E+00
    0.56260E-02         0.48582E-03         0.00000E+00
    0.49505E-02         0.43943E-03         0.00000E+00
    0.42661E-02         0.38903E-03         0.00000E+00
    0.35734E-02         0.33456E-03         0.00000E+00
    0.28728E-02         0.27599E-03         0.00000E+00
    0.21646E-02         0.21328E-03         0.00000E+00
    0.14495E-02         0.14640E-03         0.00000E+00
    0.72778E-03         0.75315E-04         0.00000E+00
    0.00000E+00         0.00000E+00         0.00000E+00
    0.22486E-01        -0.26254E-03         0.00000E+00
    0.22466E-01        -0.20229E-03         0.00000E+00
    0.22426E-01        -0.14221E-03         0.00000E+00
    0.22366E-01        -0.82424E-04         0.00000E+00
    0.22285E-01        -0.23088E-04         0.00000E+00
    0.22185E-01         0.35662E-04         0.00000E+00
    0.22065E-01         0.93684E-04         0.00000E+00
    0.21925E-01         0.15084E-03         0.00000E+00
    0.21765E-01         0.20699E-03         0.00000E+00
    0.21585E-01         0.26199E-03         0.00000E+00
    0.21386E-01         0.31570E-03         0.00000E+00
    0.21168E-01         0.36799E-03         0.00000E+00
    0.20930E-01         0.41872E-03         0.00000E+00
    0.20672E-01         0.46774E-03         0.00000E+00
    0.20396E-01         0.51493E-03         0.00000E+00
    0.20101E-01         0.56015E-03         0.00000E+00
    0.19787E-01         0.60327E-03         0.00000E+00
    0.19454E-01         0.64416E-03         0.00000E+00
    0.19104E-01         0.68267E-03         0.00000E+00
    0.18735E-01         0.71870E-03         0.00000E+00
    0.18348E-01         0.75210E-03         0.00000E+00
    0.17944E-01         0.78275E-03         0.00000E+00
    0.17522E-01         0.81053E-03         0.00000E+00
    0.17083E-01         0.83532E-03         0.00000E+00
    0.16627E-01         0.85700E-03         0.00000E+00
    0.16155E-01         0.87544E-03         0.00000E+00
    0.15667E-01         0.89055E-03         0.00000E+00
    0.15162E-01         0.90219E-03         0.00000E+00
    0.14642E-01         0.91026E-03         0.00000E+00
    0.14106E-01         0.91466E-03         0.00000E+00
    0.13556E-01         0.91528E-03         0.00000E+00
    0.12991E-01         0.91202E-03         0.00000E+00
    0.12411E-01         0.90477E-03         0.00000E+00
    0.11818E-01         0.89345E-03         0.00000E+00
    0.11211E-01         0.87796E-03         0.00000E+00
    0.10591E-01         0.85820E-03         0.00000E+00
    0.99583E-02         0.83409E-03         0.00000E+00
    0.93132E-02         0.80556E-03         0.00000E+00
    0.86561E-02         0.77251E-03         0.00000E+00
    0.79874E-02         0.73488E-03         0.00000E+00
    0.73077E-02         0.69258E-03         0.00000E+00
    0.66173E-02         0.64556E-03         0.00000E+00
    0.59167E-02         0.59374E-03         0.00000E+00
    0.52063E-02         0.53706E-03         0.00000E+00
    0.44867E-02         0.47547E-03         0.00000E+00
    0.37582E-02         0.40891E-03         0.00000E+00
    0.30213E-02         0.33734E-03         0.00000E+00
    0.22766E-02         0.26069E-03         0.00000E+00
    0.15244E-02         0.17895E-03         0.00000E+00
    0.76542E-03         0.92062E-04         0.00000E+00
    0.00000E+00         0.00000E+00         0.00000E+00
    0.23805E-01        -0.31280E-03         0.00000E+00
    0.23785E-01        -0.24105E-03         0.00000E+00
    0.23742E-01        -0.16949E-03         0.00000E+00
    0.23679E-01        -0.98288E-04         0.00000E+00
    0.23594E-01        -0.27615E-04         0.00000E+00
    0.23488E-01         0.42364E-04         0.00000E+00
    0.23361E-01         0.11148E-03         0.00000E+00
    0.23213E-01         0.17957E-03         0.00000E+00
    0.23044E-01         0.24646E-03         0.00000E+00
    0.22854E-01         0.31198E-03         0.00000E+00
    0.22644E-01         0.37598E-03         0.00000E+00
    0.22412E-01         0.43828E-03         0.00000E+00
    0.22161E-01         0.49873E-03         0.00000E+00
    0.21889E-01         0.55715E-03         0.00000E+00
    0.21596E-01         0.61340E-03         0.00000E+00
    0.21284E-01         0.66729E-03         0.00000E+00
    0.20952E-01         0.71869E-03         0.00000E+00
    0.20600E-01         0.76742E-03         0.00000E+00
    0.20229E-01         0.81334E-03         0.00000E+00
    0.19839E-01         0.85629E-03         0.00000E+00
    0.19430E-01         0.89611E-03         0.00000E+00
    0.19002E-01         0.93266E-03         0.00000E+00
    0.18556E-01         0.96580E-03         0.00000E+00
    0.18091E-01         0.99537E-03         0.00000E+00
    0.17609E-01         0.10212E-02         0.00000E+00
    0.17109E-01         0.10432E-02         0.00000E+00
    0.16592E-01         0.10613E-02         0.00000E+00
    0.16058E-01         0.10752E-02         0.00000E+00
    0.15507E-01         0.10848E-02         0.00000E+00
    0.14940E-01         0.10901E-02         0.00000E+00
    0.14357E-01         0.10909E-02         0.00000E+00
    0.13759E-01         0.10870E-02         0.00000E+00
    0.13145E-01         0.10784E-02         0.00000E+00
    0.12517E-01         0.10649E-02         0.00000E+00
    0.11875E-01         0.10465E-02         0.00000E+00
    0.11218E-01         0.10230E-02         0.00000E+00
    0.10548E-01         0.99425E-03         0.00000E+00
    0.98647E-02         0.96026E-03         0.00000E+00
    0.91688E-02         0.92089E-03         0.00000E+00
    0.84606E-02         0.87604E-03         0.00000E+00
    0.77407E-02         0.82564E-03         0.00000E+00
    0.70095E-02         0.76960E-03         0.00000E+00
    0.62674E-02         0.70784E-03         0.00000E+00
    0.55150E-02         0.64029E-03         0.00000E+00
    0.47527E-02         0.56687E-03         0.00000E+00
    0.39811E-02         0.48753E-03         0.00000E+00
    0.32005E-02         0.40220E-03         0.00000E+00
    0.24116E-02         0.31083E-03         0.00000E+00
    0.16149E-02         0.21337E-03         0.00000E+00
    0.81085E-03         0.10977E-03         0.00000E+00
    0.00000E+00         0.00000E+00         0.00000E+00
    0.25362E-01        -0.36544E-03         0.00000E+00
    0.25340E-01        -0.28149E-03         0.00000E+00
    0.25296E-01        -0.19776E-03         0.00000E+00
    0.25228E-01        -0.11444E-03         0.00000E+00
    0.25138E-01        -0.31735E-04         0.00000E+00
    0.25026E-01         0.50161E-04         0.00000E+00
    0.24891E-01         0.13105E-03         0.00000E+00
    0.24733E-01         0.21074E-03         0.00000E+00
    0.24554E-01         0.28904E-03         0.00000E+00
    0.24352E-01         0.36574E-03         0.00000E+00
    0.24128E-01         0.44066E-03         0.00000E+00
    0.23882E-01         0.51360E-03         0.00000E+00
    0.23614E-01         0.58436E-03         0.00000E+00
    0.23324E-01         0.65277E-03         0.00000E+00
    0.23013E-01         0.71862E-03         0.00000E+00
    0.22681E-01         0.78173E-03         0.00000E+00
    0.22327E-01         0.84192E-03         0.00000E+00
    0.21953E-01         0.89899E-03         0.00000E+00
    0.21558E-01         0.95277E-03         0.00000E+00
    0.21142E-01         0.10031E-02         0.00000E+00
    0.20707E-01         0.10497E-02         0.00000E+00
    0.20251E-01         0.10925E-02         0.00000E+00
    0.19776E-01         0.11314E-02         0.00000E+00
    0.19281E-01         0.11660E-02         0.00000E+00
    0.18767E-01         0.11963E-02         0.00000E+00
    0.18235E-01         0.12221E-02         0.00000E+00
    0.17684E-01         0.12432E-02         0.00000E+00
    0.17115E-01         0.12595E-02         0.00000E+00
    0.16529E-01         0.12708E-02         0.00000E+00
    0.15925E-01         0.12770E-02         0.00000E+00
    0.15304E-01         0.12780E-02         0.00000E+00
    0.14666E-01         0.12734E-02         0.00000E+00
    0.14012E-01         0.12634E-02         0.00000E+00
    0.13343E-01         0.12476E-02         0.00000E+00
    0.12658E-01         0.12260E-02         0.00000E+00
    0.11959E-01         0.11985E-02         0.00000E+00
    0.11244E-01         0.11649E-02         0.00000E+00
    0.10516E-01         0.11251E-02         0.00000E+00
    0.97745E-02         0.10790E-02         0.00000E+00
    0.90197E-02         0.10264E-02         0.00000E+00
    0.82523E-02         0.96739E-03         0.00000E+00
    0.74729E-02         0.90174E-03         0.00000E+00
    0.66819E-02         0.82939E-03         0.00000E+00
    0.58798E-02         0.75025E-03         0.00000E+00
    0.50672E-02         0.66423E-03         0.00000E+00
    0.42445E-02         0.57127E-03         0.00000E+00
    0.34124E-02         0.47129E-03         0.00000E+00
    0.25713E-02         0.36423E-03         0.00000E+00
    0.17218E-02         0.25003E-03         0.00000E+00
    0.86454E-03         0.12863E-03         0.00000E+00
    0.00000E+00         0.00000E+00         0.00000E+00
    0.27171E-01        -0.42046E-03         0.00000E+00
    0.27148E-01        -0.32350E-03         0.00000E+00
    0.27100E-01        -0.22677E-03         0.00000E+00
    0.27029E-01        -0.13053E-03         0.00000E+00
    0.26933E-01        -0.34981E-04         0.00000E+00
    0.26813E-01         0.59637E-04         0.00000E+00
    0.26668E-01         0.15310E-03         0.00000E+00
    0.26500E-01         0.24518E-03         0.00000E+00
    0.26308E-01         0.33565E-03         0.00000E+00
    0.26092E-01         0.42429E-03         0.00000E+00
    0.25853E-01         0.51087E-03         0.00000E+00
    0.25590E-01         0.59517E-03         0.00000E+00
    0.25303E-01         0.67696E-03         0.00000E+00
    0.24993E-01         0.75603E-03         0.00000E+00
    0.24661E-01         0.83215E-03         0.00000E+00
    0.24305E-01         0.90510E-03         0.00000E+00
    0.23927E-01         0.97468E-03         0.00000E+00
    0.23526E-01         0.10407E-02         0.00000E+00
    0.23103E-01         0.11028E-02         0.00000E+00
    0.22658E-01         0.11610E-02         0.00000E+00
    0.22192E-01         0.12149E-02         0.00000E+00
    0.21704E-01         0.12644E-02         0.00000E+00
    0.21195E-01         0.13093E-02         0.00000E+00
    0.20666E-01         0.13494E-02         0.00000E+00
    0.20115E-01         0.13844E-02         0.00000E+00
    0.19545E-01         0.14142E-02         0.00000E+00
    0.18955E-01         0.14387E-02         0.00000E+00
    0.18346E-01         0.14575E-02         0.00000E+00
    0.17717E-01         0.14706E-02         0.00000E+00
    0.17070E-01         0.14778E-02         0.00000E+00
    0.16405E-01         0.14788E-02         0.00000E+00
    0.15722E-01         0.14736E-02         0.00000E+00
    0.15021E-01         0.14619E-02         0.00000E+00
    0.14304E-01         0.14437E-02         0.00000E+00
    0.13570E-01         0.14187E-02         0.00000E+00
    0.12820E-01         0.13868E-02         0.00000E+00
    0.12055E-01         0.13479E-02         0.00000E+00
    0.11275E-01         0.13019E-02         0.00000E+00
    0.10480E-01         0.12485E-02         0.00000E+00
    0.96705E-02         0.11878E-02         0.00000E+00
    0.88479E-02         0.11195E-02         0.00000E+00
    0.80124E-02         0.10435E-02         0.00000E+00
    0.71644E-02         0.95977E-03         0.00000E+00
    0.63045E-02         0.86819E-03         0.00000E+00
    0.54332E-02         0.76866E-03         0.00000E+00
    0.45512E-02         0.66109E-03         0.00000E+00
    0.36590E-02         0.54540E-03         0.00000E+00
    0.27572E-02         0.42151E-03         0.00000E+00
    0.18463E-02         0.28935E-03         0.00000E+00
    0.92707E-03         0.14887E-03         0.00000E+00
    0.00000E+00         0.00000E+00         0.00000E+00
    0.29250E-01        -0.47767E-03         0.00000E+00
    0.29225E-01        -0.36674E-03         0.00000E+00
    0.29175E-01        -0.25609E-03         0.00000E+00
    0.29098E-01        -0.14597E-03         0.00000E+00
    0.28995E-01        -0.36642E-04         0.00000E+00
    0.28867E-01         0.71628E-04         0.00000E+00
    0.28712E-01         0.17858E-03         0.00000E+00
    0.28532E-01         0.28396E-03         0.00000E+00
    0.28325E-01         0.38751E-03         0.00000E+00
    0.28094E-01         0.48896E-03         0.00000E+00
    0.27836E-01         0.58806E-03         0.00000E+00
    0.27554E-01         0.68455E-03         0.00000E+00
    0.27246E-01         0.77818E-03         0.00000E+00
    0.26913E-01         0.86869E-03         0.00000E+00
    0.26555E-01         0.95583E-03         0.00000E+00
    0.26173E-01         0.10394E-02         0.00000E+00
    0.25766E-01         0.11190E-02         0.00000E+00
    0.25336E-01         0.11945E-02         0.00000E+00
    0.24881E-01         0.12657E-02         0.00000E+00
    0.24402E-01         0.13323E-02         0.00000E+00
    0.23901E-01         0.13940E-02         0.00000E+00
    0.23376E-01         0.14507E-02         0.00000E+00
    0.22828E-01         0.15021E-02         0.00000E+00
    0.22258E-01         0.15479E-02         0.00000E+00
    0.21666E-01         0.15880E-02         0.00000E+00
    0.21053E-01         0.16222E-02         0.00000E+00
    0.20418E-01         0.16501E-02         0.00000E+00
    0.19762E-01         0.16717E-02         0.00000E+00
    0.19085E-01         0.16866E-02         0.00000E+00
    0.18389E-01         0.16948E-02         0.00000E+00
    0.17673E-01         0.16959E-02         0.00000E+00
    0.16937E-01         0.16899E-02         0.00000E+00
    0.16183E-01         0.16765E-02         0.00000E+00
    0.15410E-01         0.16556E-02         0.00000E+00
    0.14620E-01         0.16269E-02         0.00000E+00
    0.13813E-01         0.15903E-02         0.00000E+00
    0.12988E-01         0.15457E-02         0.00000E+00
    0.12148E-01         0.14929E-02         0.00000E+00
    0.11291E-01         0.14317E-02         0.00000E+00
    0.10420E-01         0.13620E-02         0.00000E+00
    0.95337E-02         0.12836E-02         0.00000E+00
    0.86336E-02         0.11965E-02         0.00000E+00
    0.77200E-02         0.11005E-02         0.00000E+00
    0.67936E-02         0.99552E-03         0.00000E+00
    0.58548E-02         0.88139E-03         0.00000E+00
    0.49045E-02         0.75804E-03         0.00000E+00
    0.39431E-02         0.62538E-03         0.00000E+00
    0.29713E-02         0.48332E-03         0.00000E+00
    0.19897E-02         0.33179E-03         0.00000E+00
    0.99910E-03         0.17070E-03         0.00000E+00
    0.00000E+00         0.00000E+00         0.00000E+00
    0.31619E-01        -0.53657E-03         0.00000E+00
    0.31593E-01        -0.41060E-03         0.00000E+00
    0.31539E-01        -0.28493E-03         0.00000E+00
    0.31456E-01        -0.15986E-03         0.00000E+00
    0.31346E-01        -0.35680E-04         0.00000E+00
    0.31208E-01         0.87308E-04         0.00000E+00
    0.31042E-01         0.20881E-03         0.00000E+00
    0.30847E-01         0.32853E-03         0.00000E+00
    0.30625E-01         0.44617E-03         0.00000E+00
    0.30376E-01         0.56144E-03         0.00000E+00
    0.30098E-01         0.67404E-03         0.00000E+00
    0.29793E-01         0.78368E-03         0.00000E+00
    0.29461E-01         0.89007E-03         0.00000E+00
    0.29102E-01         0.99292E-03         0.00000E+00
    0.28716E-01         0.10919E-02         0.00000E+00
    0.28304E-01         0.11868E-02         0.00000E+00
    0.27865E-01         0.12773E-02         0.00000E+00
    0.27400E-01         0.13632E-02         0.00000E+00
    0.26909E-01         0.14440E-02         0.00000E+00
    0.26392E-01         0.15197E-02         0.00000E+00
    0.25850E-01         0.15898E-02         0.00000E+00
    0.25283E-01         0.16542E-02         0.00000E+00
    0.24692E-01         0.17126E-02         0.00000E+00
    0.24076E-01         0.17646E-02         0.00000E+00
    0.23436E-01         0.18101E-02         0.00000E+00
    0.22773E-01         0.18489E-02         0.00000E+00
    0.22087E-01         0.18806E-02         0.00000E+00
    0.21378E-01         0.19050E-02         0.00000E+00
    0.20647E-01         0.19219E-02         0.00000E+00
    0.19894E-01         0.19310E-02         0.00000E+00
    0.19119E-01         0.19323E-02         0.00000E+00
    0.18324E-01         0.19253E-02         0.00000E+00
    0.17509E-01         0.19099E-02         0.00000E+00
    0.16673E-01         0.18860E-02         0.00000E+00
    0.15819E-01         0.18533E-02         0.00000E+00
    0.14945E-01         0.18115E-02         0.00000E+00
    0.14054E-01         0.17606E-02         0.00000E+00
    0.13145E-01         0.17004E-02         0.00000E+00
    0.12218E-01         0.16307E-02         0.00000E+00
    0.11275E-01         0.15512E-02         0.00000E+00
    0.10317E-01         0.14620E-02         0.00000E+00
    0.93430E-02         0.13627E-02         0.00000E+00
    0.83545E-02         0.12534E-02         0.00000E+00
    0.73521E-02         0.11338E-02         0.00000E+00
    0.63364E-02         0.10038E-02         0.00000E+00
    0.53079E-02         0.86329E-03         0.00000E+00
    0.42676E-02         0.71220E-03         0.00000E+00
    0.32159E-02         0.55042E-03         0.00000E+00
    0.21536E-02         0.37784E-03         0.00000E+00
    0.10814E-02         0.19439E-03         0.00000E+00
    0.00000E+00         0.00000E+00         0.00000E+00
    0.34300E-01        -0.59628E-03         0.00000E+00
    0.34273E-01        -0.45404E-03         0.00000E+00
    0.34215E-01        -0.31213E-03         0.00000E+00
    0.34127E-01        -0.17088E-03         0.00000E+00
    0.34009E-01        -0.30631E-04         0.00000E+00
    0.33860E-01         0.10829E-03         0.00000E+00
    0.33680E-01         0.24553E-03         0.00000E+00
    0.33471E-01         0.38078E-03         0.00000E+00
    0.33231E-01         0.51368E-03         0.00000E+00
    0.32961E-01         0.64390E-03         0.00000E+00
    0.32661E-01         0.77111E-03         0.00000E+00
    0.32331E-01         0.89498E-03         0.00000E+00
    0.31972E-01         0.10152E-02         0.00000E+00
    0.31584E-01         0.11314E-02         0.00000E+00
    0.31166E-01         0.12432E-02         0.00000E+00
    0.30719E-01         0.13504E-02         0.00000E+00
    0.30243E-01         0.14527E-02         0.00000E+00
    0.29740E-01         0.15496E-02         0.00000E+00
    0.29208E-01         0.16409E-02         0.00000E+00
    0.28648E-01         0.17264E-02         0.00000E+00
    0.28060E-01         0.18056E-02         0.00000E+00
    0.27446E-01         0.18782E-02         0.00000E+00
    0.26805E-01         0.19441E-02         0.00000E+00
    0.26137E-01         0.20028E-02         0.00000E+00
    0.25443E-01         0.20541E-02         0.00000E+00
    0.24724E-01         0.20977E-02         0.00000E+00
    0.23980E-01         0.21334E-02         0.00000E+00
    0.23211E-01         0.21608E-02         0.00000E+00
    0.22417E-01         0.21798E-02         0.00000E+00
    0.21600E-01         0.21900E-02         0.00000E+00
    0.20760E-01         0.21911E-02         0.00000E+00
    0.19897E-01         0.21830E-02         0.00000E+00
    0.19012E-01         0.21654E-02         0.00000E+00
    0.18106E-01         0.21381E-02         0.00000E+00
    0.17178E-01         0.21009E-02         0.00000E+00
    0.16230E-01         0.20534E-02         0.00000E+00
    0.15262E-01         0.19956E-02         0.00000E+00
    0.14275E-01         0.19273E-02         0.00000E+00
    0.13270E-01         0.18481E-02         0.00000E+00
    0.12246E-01         0.17580E-02         0.00000E+00
    0.11205E-01         0.16568E-02         0.00000E+00
    0.10148E-01         0.15443E-02         0.00000E+00
    0.90746E-02         0.14203E-02         0.00000E+00
    0.79859E-02         0.12847E-02         0.00000E+00
    0.68828E-02         0.11373E-02         0.00000E+00
    0.57658E-02         0.97814E-03         0.00000E+00
    0.46358E-02         0.80693E-03         0.00000E+00
    0.34935E-02         0.62361E-03         0.00000E+00
    0.23395E-02         0.42807E-03         0.00000E+00
    0.11748E-02         0.22023E-03         0.00000E+00
    0.00000E+00         0.00000E+00         0.00000E+00
    0.37321E-01        -0.65546E-03         0.00000E+00
    0.37292E-01        -0.49556E-03         0.00000E+00
    0.37231E-01        -0.33601E-03         0.00000E+00
    0.37137E-01        -0.17719E-03         0.00000E+00
    0.37009E-01        -0.19478E-04         0.00000E+00
    0.36848E-01         0.13674E-03         0.00000E+00
    0.36654E-01         0.29110E-03         0.00000E+00
    0.36428E-01         0.44320E-03         0.00000E+00
    0.36168E-01         0.59267E-03         0.00000E+00
    0.35875E-01         0.73913E-03         0.00000E+00
    0.35550E-01         0.88221E-03         0.00000E+00
    0.35193E-01         0.10215E-02         0.00000E+00
    0.34803E-01         0.11567E-02         0.00000E+00
    0.34381E-01         0.12874E-02         0.00000E+00
    0.33928E-01         0.14132E-02         0.00000E+00
    0.33443E-01         0.15337E-02         0.00000E+00
    0.32926E-01         0.16486E-02         0.00000E+00
    0.32379E-01         0.17576E-02         0.00000E+00
    0.31801E-01         0.18602E-02         0.00000E+00
    0.31192E-01         0.19562E-02         0.00000E+00
    0.30554E-01         0.20452E-02         0.00000E+00
    0.29886E-01         0.21268E-02         0.00000E+00
    0.29188E-01         0.22007E-02         0.00000E+00
    0.28462E-01         0.22665E-02         0.00000E+00
    0.27708E-01         0.23240E-02         0.00000E+00
    0.26925E-01         0.23729E-02         0.00000E+00
    0.26115E-01         0.24128E-02         0.00000E+00
    0.25279E-01         0.24433E-02         0.00000E+00
    0.24415E-01         0.24643E-02         0.00000E+00
    0.23526E-01         0.24755E-02         0.00000E+00
    0.22612E-01         0.24764E-02         0.00000E+00
    0.21673E-01         0.24670E-02         0.00000E+00
    0.20710E-01         0.24468E-02         0.00000E+00
    0.19723E-01         0.24156E-02         0.00000E+00
    0.18713E-01         0.23733E-02         0.00000E+00
    0.17681E-01         0.23195E-02         0.00000E+00
    0.16627E-01         0.22540E-02         0.00000E+00
    0.15552E-01         0.21765E-02         0.00000E+00
    0.14457E-01         0.20870E-02         0.00000E+00
    0.13342E-01         0.19851E-02         0.00000E+00
    0.12209E-01         0.18706E-02         0.00000E+00
    0.11057E-01         0.17435E-02         0.00000E+00
    0.98875E-02         0.16034E-02         0.00000E+00
    0.87016E-02         0.14502E-02         0.00000E+00
    0.74998E-02         0.12838E-02         0.00000E+00
    0.62829E-02         0.11041E-02         0.00000E+00
    0.50517E-02         0.91076E-03         0.00000E+00
    0.38070E-02         0.70382E-03         0.00000E+00
    0.25495E-02         0.48312E-03         0.00000E+00
    0.12803E-02         0.24854E-03         0.00000E+00
    0.00000E+00         0.00000E+00         0.00000E+00
    0.40710E-01        -0.71210E-03         0.00000E+00
    0.40681E-01        -0.53297E-03         0.00000E+00
    0.40616E-01        -0.35421E-03         0.00000E+00
    0.40514E-01        -0.17624E-03         0.00000E+00
    0.40377E-01         0.49246E-06         0.00000E+00
    0.40203E-01         0.17557E-03         0.00000E+00
    0.39994E-01         0.34856E-03         0.00000E+00
    0.39748E-01         0.51903E-03         0.00000E+00
    0.39466E-01         0.68656E-03         0.00000E+00
    0.39149E-01         0.85070E-03         0.00000E+00
    0.38796E-01         0.10111E-02         0.00000E+00
    0.38407E-01         0.11672E-02         0.00000E+00
    0.37983E-01         0.13186E-02         0.00000E+00
    0.37525E-01         0.14650E-02         0.00000E+00
    0.37031E-01         0.16060E-02         0.00000E+00
    0.36503E-01         0.17410E-02         0.00000E+00
    0.35940E-01         0.18697E-02         0.00000E+00
    0.35344E-01         0.19917E-02         0.00000E+00
    0.34714E-01         0.21066E-02         0.00000E+00
    0.34051E-01         0.22139E-02         0.00000E+00
    0.33355E-01         0.23134E-02         0.00000E+00
    0.32627E-01         0.24046E-02         0.00000E+00
    0.31867E-01         0.24872E-02         0.00000E+00
    0.31075E-01         0.25607E-02         0.00000E+00
    0.30252E-01         0.26248E-02         0.00000E+00
    0.29399E-01         0.26791E-02         0.00000E+00
    0.28516E-01         0.27234E-02         0.00000E+00
    0.27603E-01         0.27572E-02         0.00000E+00
    0.26661E-01         0.27803E-02         0.00000E+00
    0.25691E-01         0.27922E-02         0.00000E+00
    0.24694E-01         0.27927E-02         0.00000E+00
    0.23669E-01         0.27815E-02         0.00000E+00
    0.22617E-01         0.27583E-02         0.00000E+00
    0.21540E-01         0.27228E-02         0.00000E+00
    0.20438E-01         0.26746E-02         0.00000E+00
    0.19311E-01         0.26136E-02         0.00000E+00
    0.18161E-01         0.25394E-02         0.00000E+00
    0.16987E-01         0.24519E-02         0.00000E+00
    0.15791E-01         0.23507E-02         0.00000E+00
    0.14574E-01         0.22357E-02         0.00000E+00
    0.13336E-01         0.21065E-02         0.00000E+00
    0.12079E-01         0.19631E-02         0.00000E+00
    0.10802E-01         0.18052E-02         0.00000E+00
    0.95063E-02         0.16326E-02         0.00000E+00
    0.81937E-02         0.14452E-02         0.00000E+00
    0.68644E-02         0.12427E-02         0.00000E+00
    0.55194E-02         0.10251E-02         0.00000E+00
    0.41596E-02         0.79210E-03         0.00000E+00
    0.27858E-02         0.54367E-03         0.00000E+00
    0.13989E-02         0.27968E-03         0.00000E+00
    0.00000E+00         0.00000E+00         0.00000E+00
    0.44501E-01        -0.76345E-03         0.00000E+00
    0.44472E-01        -0.56330E-03         0.00000E+00
    0.44403E-01        -0.36354E-03         0.00000E+00
    0.44294E-01        -0.16466E-03         0.00000E+00
    0.44146E-01         0.32863E-04         0.00000E+00
    0.43959E-01         0.22855E-03         0.00000E+00
    0.43732E-01         0.42190E-03         0.00000E+00
    0.43465E-01         0.61244E-03         0.00000E+00
    0.43159E-01         0.79968E-03         0.00000E+00
    0.42814E-01         0.98314E-03         0.00000E+00
    0.42430E-01         0.11623E-02         0.00000E+00
    0.42007E-01         0.13368E-02         0.00000E+00
    0.41545E-01         0.15060E-02         0.00000E+00
    0.41045E-01         0.16695E-02         0.00000E+00
    0.40507E-01         0.18269E-02         0.00000E+00
    0.39931E-01         0.19777E-02         0.00000E+00
    0.39317E-01         0.21213E-02         0.00000E+00
    0.38666E-01         0.22574E-02         0.00000E+00
    0.37978E-01         0.23856E-02         0.00000E+00
    0.37254E-01         0.25052E-02         0.00000E+00
    0.36494E-01         0.26161E-02         0.00000E+00
    0.35699E-01         0.27176E-02         0.00000E+00
    0.34868E-01         0.28094E-02         0.00000E+00
    0.34003E-01         0.28910E-02         0.00000E+00
    0.33104E-01         0.29621E-02         0.00000E+00
    0.32171E-01         0.30223E-02         0.00000E+00
    0.31205E-01         0.30711E-02         0.00000E+00
    0.30207E-01         0.31082E-02         0.00000E+00
    0.29178E-01         0.31332E-02         0.00000E+00
    0.28117E-01         0.31457E-02         0.00000E+00
    0.27026E-01         0.31454E-02         0.00000E+00
    0.25905E-01         0.31320E-02         0.00000E+00
    0.24755E-01         0.31051E-02         0.00000E+00
    0.23577E-01         0.30644E-02         0.00000E+00
    0.22371E-01         0.30096E-02         0.00000E+00
    0.21138E-01         0.29403E-02         0.00000E+00
    0.19879E-01         0.28564E-02         0.00000E+00
    0.18595E-01         0.27574E-02         0.00000E+00
    0.17287E-01         0.26432E-02         0.00000E+00
    0.15955E-01         0.25134E-02         0.00000E+00
    0.14600E-01         0.23679E-02         0.00000E+00
    0.13224E-01         0.22064E-02         0.00000E+00
    0.11826E-01         0.20286E-02         0.00000E+00
    0.10408E-01         0.18344E-02         0.00000E+00
    0.89713E-02         0.16236E-02         0.00000E+00
    0.75161E-02         0.13960E-02         0.00000E+00
    0.60436E-02         0.11514E-02         0.00000E+00
    0.45548E-02         0.88960E-03         0.00000E+00
    0.30506E-02         0.61054E-03         0.00000E+00
    0.15320E-02         0.31404E-03         0.00000E+00
    0.00000E+00         0.00000E+00         0.00000E+00
    0.48732E-01        -0.80577E-03         0.00000E+00
    0.48703E-01        -0.58260E-03         0.00000E+00
    0.48631E-01        -0.35984E-03         0.00000E+00
    0.48515E-01        -0.13803E-03         0.00000E+00
    0.48356E-01         0.82275E-04         0.00000E+00
    0.48153E-01         0.30054E-03         0.00000E+00
    0.47907E-01         0.51620E-03         0.00000E+00
    0.47617E-01         0.72872E-03         0.00000E+00
    0.47285E-01         0.93754E-03         0.00000E+00
    0.46909E-01         0.11421E-02         0.00000E+00
    0.46490E-01         0.13419E-02         0.00000E+00
    0.46029E-01         0.15364E-02         0.00000E+00
    0.45525E-01         0.17250E-02         0.00000E+00
    0.44979E-01         0.19072E-02         0.00000E+00
    0.44390E-01         0.20825E-02         0.00000E+00
    0.43761E-01         0.22504E-02         0.00000E+00
    0.43090E-01         0.24102E-02         0.00000E+00
    0.42378E-01         0.25616E-02         0.00000E+00
    0.41626E-01         0.27041E-02         0.00000E+00
    0.40834E-01         0.28370E-02         0.00000E+00
    0.40002E-01         0.29600E-02         0.00000E+00
    0.39131E-01         0.30726E-02         0.00000E+00
    0.38222E-01         0.31742E-02         0.00000E+00
    0.37274E-01         0.32645E-02         0.00000E+00
    0.36290E-01         0.33429E-02         0.00000E+00
    0.35268E-01         0.34091E-02         0.00000E+00
    0.34211E-01         0.34625E-02         0.00000E+00
    0.33117E-01         0.35028E-02         0.00000E+00
    0.31989E-01         0.35296E-02         0.00000E+00
    0.30827E-01         0.35424E-02         0.00000E+00
    0.29632E-01         0.35408E-02         0.00000E+00
    0.28403E-01         0.35245E-02         0.00000E+00
    0.27143E-01         0.34932E-02         0.00000E+00
    0.25852E-01         0.34464E-02         0.00000E+00
    0.24530E-01         0.33838E-02         0.00000E+00
    0.23179E-01         0.33050E-02         0.00000E+00
    0.21800E-01         0.32098E-02         0.00000E+00
    0.20392E-01         0.30979E-02         0.00000E+00
    0.18958E-01         0.29689E-02         0.00000E+00
    0.17498E-01         0.28225E-02         0.00000E+00
    0.16012E-01         0.26586E-02         0.00000E+00
    0.14503E-01         0.24767E-02         0.00000E+00
    0.12971E-01         0.22768E-02         0.00000E+00
    0.11416E-01         0.20585E-02         0.00000E+00
    0.98402E-02         0.18216E-02         0.00000E+00
    0.82444E-02         0.15660E-02         0.00000E+00
    0.66295E-02         0.12914E-02         0.00000E+00
    0.49965E-02         0.99764E-03         0.00000E+00
    0.33465E-02         0.68459E-03         0.00000E+00
    0.16807E-02         0.35209E-03         0.00000E+00
    0.00000E+00         0.00000E+00         0.00000E+00
    0.53445E-01        -0.83422E-03         0.00000E+00
    0.53417E-01        -0.58576E-03         0.00000E+00
    0.53342E-01        -0.33772E-03         0.00000E+00
    0.53219E-01        -0.90716E-04         0.00000E+00
    0.53047E-01         0.15463E-03         0.00000E+00
    0.52828E-01         0.39769E-03         0.00000E+00
    0.52561E-01         0.63786E-03         0.00000E+00
    0.52247E-01         0.87450E-03         0.00000E+00
    0.51885E-01         0.11070E-02         0.00000E+00
    0.51475E-01         0.13347E-02         0.00000E+00
    0.51018E-01         0.15571E-02         0.00000E+00
    0.50514E-01         0.17735E-02         0.00000E+00
    0.49963E-01         0.19832E-02         0.00000E+00
    0.49366E-01         0.21858E-02         0.00000E+00
    0.48722E-01         0.23807E-02         0.00000E+00
    0.48033E-01         0.25671E-02         0.00000E+00
    0.47298E-01         0.27446E-02         0.00000E+00
    0.46518E-01         0.29125E-02         0.00000E+00
    0.45694E-01         0.30704E-02         0.00000E+00
    0.44826E-01         0.32177E-02         0.00000E+00
    0.43914E-01         0.33537E-02         0.00000E+00
    0.42959E-01         0.34780E-02         0.00000E+00
    0.41962E-01         0.35901E-02         0.00000E+00
    0.40923E-01         0.36894E-02         0.00000E+00
    0.39843E-01         0.37754E-02         0.00000E+00
    0.38722E-01         0.38477E-02         0.00000E+00
    0.37561E-01         0.39057E-02         0.00000E+00
    0.36362E-01         0.39491E-02         0.00000E+00
    0.35124E-01         0.39772E-02         0.00000E+00
    0.33849E-01         0.39897E-02         0.00000E+00
    0.32537E-01         0.39862E-02         0.00000E+00
    0.31189E-01         0.39663E-02         0.00000E+00
    0.29805E-01         0.39294E-02         0.00000E+00
    0.28388E-01         0.38753E-02         0.00000E+00
    0.26937E-01         0.38036E-02         0.00000E+00
    0.25454E-01         0.37138E-02         0.00000E+00
    0.23940E-01         0.36057E-02         0.00000E+00
    0.22395E-01         0.34789E-02         0.00000E+00
    0.20820E-01         0.33330E-02         0.00000E+00
    0.19217E-01         0.31679E-02         0.00000E+00
    0.17586E-01         0.29830E-02         0.00000E+00
    0.15929E-01         0.27783E-02         0.00000E+00
    0.14246E-01         0.25534E-02         0.00000E+00
    0.12539E-01         0.23081E-02         0.00000E+00
    0.10809E-01         0.20420E-02         0.00000E+00
    0.90561E-02         0.17551E-02         0.00000E+00
    0.72824E-02         0.14470E-02         0.00000E+00
    0.54888E-02         0.11177E-02         0.00000E+00
    0.36764E-02         0.76683E-03         0.00000E+00
    0.18464E-02         0.39432E-03         0.00000E+00
    0.00000E+00         0.00000E+00         0.00000E+00
    0.58689E-01        -0.84264E-03         0.00000E+00
    0.58664E-01        -0.56631E-03         0.00000E+00
    0.58586E-01        -0.29041E-03         0.00000E+00
    0.58455E-01        -0.15642E-04         0.00000E+00
    0.58271E-01         0.25729E-03         0.00000E+00
    0.58034E-01         0.52767E-03         0.00000E+00
    0.57744E-01         0.79480E-03         0.00000E+00
    0.57402E-01         0.10580E-02         0.00000E+00
    0.57007E-01         0.13165E-02         0.00000E+00
    0.56560E-01         0.15696E-02         0.00000E+00
    0.56061E-01         0.18168E-02         0.00000E+00
    0.55509E-01         0.20571E-02         0.00000E+00
    0.54906E-01         0.22901E-02         0.00000E+00
    0.54252E-01         0.25149E-02         0.00000E+00
    0.53547E-01         0.27310E-02         0.00000E+00
    0.52791E-01         0.29376E-02         0.00000E+00
    0.51985E-01         0.31342E-02         0.00000E+00
    0.51129E-01         0.33200E-02         0.00000E+00
    0.50224E-01         0.34945E-02         0.00000E+00
    0.49271E-01         0.36570E-02         0.00000E+00
    0.48269E-01         0.38070E-02         0.00000E+00
    0.47221E-01         0.39438E-02         0.00000E+00
    0.46125E-01         0.40668E-02         0.00000E+00
    0.44984E-01         0.41755E-02         0.00000E+00
    0.43797E-01         0.42694E-02         0.00000E+00
    0.42566E-01         0.43478E-02         0.00000E+00
    0.41291E-01         0.44102E-02         0.00000E+00
    0.39973E-01         0.44562E-02         0.00000E+00
    0.38612E-01         0.44852E-02         0.00000E+00
    0.37211E-01         0.44967E-02         0.00000E+00
    0.35769E-01         0.44903E-02         0.00000E+00
    0.34287E-01         0.44655E-02         0.00000E+00
    0.32767E-01         0.44218E-02         0.00000E+00
    0.31209E-01         0.43589E-02         0.00000E+00
    0.29615E-01         0.42764E-02         0.00000E+00
    0.27985E-01         0.41737E-02         0.00000E+00
    0.26320E-01         0.40506E-02         0.00000E+00
    0.24622E-01         0.39066E-02         0.00000E+00
    0.22891E-01         0.37415E-02         0.00000E+00
    0.21129E-01         0.35548E-02         0.00000E+00
    0.19336E-01         0.33463E-02         0.00000E+00
    0.17514E-01         0.31157E-02         0.00000E+00
    0.15665E-01         0.28626E-02         0.00000E+00
    0.13788E-01         0.25868E-02         0.00000E+00
    0.11885E-01         0.22880E-02         0.00000E+00
    0.99586E-02         0.19660E-02         0.00000E+00
    0.80084E-02         0.16205E-02         0.00000E+00
    0.60362E-02         0.12514E-02         0.00000E+00
    0.40432E-02         0.85835E-03         0.00000E+00
    0.20307E-02         0.44129E-03         0.00000E+00
    0.00000E+00         0.00000E+00         0.00000E+00
    0.64519E-01        -0.82344E-03         0.00000E+00
    0.64497E-01        -0.51631E-03         0.00000E+00
    0.64417E-01        -0.20961E-03         0.00000E+00
    0.64278E-01         0.95846E-04         0.00000E+00
    0.64081E-01         0.39925E-03         0.00000E+00
    0.63825E-01         0.69980E-03         0.00000E+00
    0.63511E-01         0.99669E-03         0.00000E+00
    0.63138E-01         0.12891E-02         0.00000E+00
    0.62707E-01         0.15763E-02         0.00000E+00
    0.62218E-01         0.18574E-02         0.00000E+00
    0.61672E-01         0.21317E-02         0.00000E+00
    0.61067E-01         0.23983E-02         0.00000E+00
    0.60406E-01         0.26566E-02         0.00000E+00
    0.59688E-01         0.29057E-02         0.00000E+00
    0.58914E-01         0.31449E-02         0.00000E+00
    0.58083E-01         0.33735E-02         0.00000E+00
    0.57197E-01         0.35907E-02         0.00000E+00
    0.56257E-01         0.37958E-02         0.00000E+00
    0.55262E-01         0.39882E-02         0.00000E+00
    0.54214E-01         0.41670E-02         0.00000E+00
    0.53112E-01         0.43318E-02         0.00000E+00
    0.51959E-01         0.44816E-02         0.00000E+00
    0.50754E-01         0.46161E-02         0.00000E+00
    0.49498E-01         0.47344E-02         0.00000E+00
    0.48192E-01         0.48361E-02         0.00000E+00
    0.46837E-01         0.49204E-02         0.00000E+00
    0.45434E-01         0.49869E-02         0.00000E+00
    0.43984E-01         0.50349E-02         0.00000E+00
    0.42487E-01         0.50639E-02         0.00000E+00
    0.40944E-01         0.50734E-02         0.00000E+00
    0.39358E-01         0.50629E-02         0.00000E+00
    0.37727E-01         0.50318E-02         0.00000E+00
    0.36055E-01         0.49797E-02         0.00000E+00
    0.34341E-01         0.49061E-02         0.00000E+00
    0.32586E-01         0.48106E-02         0.00000E+00
    0.30793E-01         0.46927E-02         0.00000E+00
    0.28961E-01         0.45520E-02         0.00000E+00
    0.27093E-01         0.43882E-02         0.00000E+00
    0.25188E-01         0.42009E-02         0.00000E+00
    0.23249E-01         0.39896E-02         0.00000E+00
    0.21277E-01         0.37540E-02         0.00000E+00
    0.19273E-01         0.34939E-02         0.00000E+00
    0.17238E-01         0.32089E-02         0.00000E+00
    0.15173E-01         0.28987E-02         0.00000E+00
    0.13080E-01         0.25630E-02         0.00000E+00
    0.10959E-01         0.22015E-02         0.00000E+00
    0.88136E-02         0.18141E-02         0.00000E+00
    0.66433E-02         0.14004E-02         0.00000E+00
    0.44501E-02         0.96033E-03         0.00000E+00
    0.22352E-02         0.49358E-03         0.00000E+00
    0.00000E+00         0.00000E+00         0.00000E+00
    0.70998E-01        -0.76753E-03         0.00000E+00
    0.70981E-01        -0.42623E-03         0.00000E+00
    0.70899E-01        -0.85377E-04         0.00000E+00
    0.70753E-01         0.25410E-03         0.00000E+00
    0.70541E-01         0.59127E-03         0.00000E+00
    0.70264E-01         0.92522E-03         0.00000E+00
    0.69923E-01         0.12550E-02         0.00000E+00
    0.69516E-01         0.15798E-02         0.00000E+00
    0.69045E-01         0.18985E-02         0.00000E+00
    0.68510E-01         0.22105E-02         0.00000E+00
    0.67910E-01         0.25146E-02         0.00000E+00
    0.67247E-01         0.28101E-02         0.00000E+00
    0.66521E-01         0.30961E-02         0.00000E+00
    0.65731E-01         0.33717E-02         0.00000E+00
    0.64879E-01         0.36361E-02         0.00000E+00
    0.63965E-01         0.38885E-02         0.00000E+00
    0.62990E-01         0.41280E-02         0.00000E+00
    0.61954E-01         0.43539E-02         0.00000E+00
    0.60859E-01         0.45653E-02         0.00000E+00
    0.59704E-01         0.47614E-02         0.00000E+00
    0.58491E-01         0.49417E-02         0.00000E+00
    0.57219E-01         0.51052E-02         0.00000E+00
    0.55892E-01         0.52514E-02         0.00000E+00
    0.54508E-01         0.53795E-02         0.00000E+00
    0.53069E-01         0.54888E-02         0.00000E+00
    0.51576E-01         0.55786E-02         0.00000E+00
    0.50030E-01         0.56485E-02         0.00000E+00
    0.48432E-01         0.56977E-02         0.00000E+00
    0.46783E-01         0.57256E-02         0.00000E+00
    0.45084E-01         0.57316E-02         0.00000E+00
    0.43336E-01         0.57153E-02         0.00000E+00
    0.41540E-01         0.56761E-02         0.00000E+00
    0.39697E-01         0.56134E-02         0.00000E+00
    0.37810E-01         0.55268E-02         0.00000E+00
    0.35877E-01         0.54157E-02         0.00000E+00
    0.33902E-01         0.52798E-02         0.00000E+00
    0.31885E-01         0.51186E-02         0.00000E+00
    0.29828E-01         0.49317E-02         0.00000E+00
    0.27731E-01         0.47186E-02         0.00000E+00
    0.25597E-01         0.44790E-02         0.00000E+00
    0.23425E-01         0.42124E-02         0.00000E+00
    0.21219E-01         0.39187E-02         0.00000E+00
    0.18978E-01         0.35974E-02         0.00000E+00
    0.16705E-01         0.32482E-02         0.00000E+00
    0.14401E-01         0.28708E-02         0.00000E+00
    0.12067E-01         0.24650E-02         0.00000E+00
    0.97042E-02         0.20304E-02         0.00000E+00
    0.73148E-02         0.15668E-02         0.00000E+00
    0.49000E-02         0.10741E-02         0.00000E+00
    0.24613E-02         0.55185E-03         0.00000E+00
    0.00000E+00         0.00000E+00         0.00000E+00
    0.78197E-01        -0.66436E-03         0.00000E+00
    0.78187E-01        -0.28502E-03         0.00000E+00
    0.78105E-01         0.93837E-04         0.00000E+00
    0.77950E-01         0.47115E-03         0.00000E+00
    0.77723E-01         0.84586E-03         0.00000E+00
    0.77423E-01         0.12169E-02         0.00000E+00
    0.77051E-01         0.15832E-02         0.00000E+00
    0.76607E-01         0.19437E-02         0.00000E+00
    0.76091E-01         0.22974E-02         0.00000E+00
    0.75504E-01         0.26433E-02         0.00000E+00
    0.74845E-01         0.29804E-02         0.00000E+00
    0.74115E-01         0.33075E-02         0.00000E+00
    0.73315E-01         0.36239E-02         0.00000E+00
    0.72445E-01         0.39284E-02         0.00000E+00
    0.71506E-01         0.42202E-02         0.00000E+00
    0.70498E-01         0.44984E-02         0.00000E+00
    0.69422E-01         0.47619E-02         0.00000E+00
    0.68280E-01         0.50099E-02         0.00000E+00
    0.67070E-01         0.52416E-02         0.00000E+00
    0.65796E-01         0.54561E-02         0.00000E+00
    0.64457E-01         0.56526E-02         0.00000E+00
    0.63054E-01         0.58302E-02         0.00000E+00
    0.61588E-01         0.59882E-02         0.00000E+00
    0.60061E-01         0.61258E-02         0.00000E+00
    0.58474E-01         0.62424E-02         0.00000E+00
    0.56826E-01         0.63371E-02         0.00000E+00
    0.55121E-01         0.64093E-02         0.00000E+00
    0.53358E-01         0.64584E-02         0.00000E+00
    0.51538E-01         0.64836E-02         0.00000E+00
    0.49664E-01         0.64845E-02         0.00000E+00
    0.47737E-01         0.64603E-02         0.00000E+00
    0.45757E-01         0.64105E-02         0.00000E+00
    0.43726E-01         0.63346E-02         0.00000E+00
    0.41645E-01         0.62321E-02         0.00000E+00
    0.39515E-01         0.61024E-02         0.00000E+00
    0.37338E-01         0.59451E-02         0.00000E+00
    0.35116E-01         0.57596E-02         0.00000E+00
    0.32849E-01         0.55456E-02         0.00000E+00
    0.30539E-01         0.53027E-02         0.00000E+00
    0.28188E-01         0.50304E-02         0.00000E+00
    0.25796E-01         0.47283E-02         0.00000E+00
    0.23366E-01         0.43961E-02         0.00000E+00
    0.20899E-01         0.40335E-02         0.00000E+00
    0.18396E-01         0.36401E-02         0.00000E+00
    0.15858E-01         0.32156E-02         0.00000E+00
    0.13288E-01         0.27597E-02         0.00000E+00
    0.10686E-01         0.22721E-02         0.00000E+00
    0.80554E-02         0.17526E-02         0.00000E+00
    0.53963E-02         0.12009E-02         0.00000E+00
    0.27106E-02         0.61675E-03         0.00000E+00
    0.00000E+00         0.00000E+00         0.00000E+00
    0.86200E-01        -0.50218E-03         0.00000E+00
    0.86198E-01        -0.80344E-04         0.00000E+00
    0.86116E-01         0.34097E-03         0.00000E+00
    0.85953E-01         0.76052E-03         0.00000E+00
    0.85709E-01         0.11771E-02         0.00000E+00
    0.85383E-01         0.15894E-02         0.00000E+00
    0.84977E-01         0.19963E-02         0.00000E+00
    0.84491E-01         0.23965E-02         0.00000E+00
    0.83924E-01         0.27890E-02         0.00000E+00
    0.83277E-01         0.31724E-02         0.00000E+00
    0.82551E-01         0.35457E-02         0.00000E+00
    0.81745E-01         0.39077E-02         0.00000E+00
    0.80862E-01         0.42573E-02         0.00000E+00
    0.79901E-01         0.45934E-02         0.00000E+00
    0.78863E-01         0.49149E-02         0.00000E+00
    0.77749E-01         0.52209E-02         0.00000E+00
    0.76560E-01         0.55102E-02         0.00000E+00
    0.75296E-01         0.57820E-02         0.00000E+00
    0.73959E-01         0.60351E-02         0.00000E+00
    0.72550E-01         0.62688E-02         0.00000E+00
    0.71069E-01         0.64820E-02         0.00000E+00
    0.69518E-01         0.66739E-02         0.00000E+00
    0.67898E-01         0.68437E-02         0.00000E+00
    0.66209E-01         0.69905E-02         0.00000E+00
    0.64455E-01         0.71135E-02         0.00000E+00
    0.62634E-01         0.72120E-02         0.00000E+00
    0.60750E-01         0.72852E-02         0.00000E+00
    0.58802E-01         0.73325E-02         0.00000E+00
    0.56794E-01         0.73531E-02         0.00000E+00
    0.54725E-01         0.73463E-02         0.00000E+00
    0.52597E-01         0.73117E-02         0.00000E+00
    0.50411E-01         0.72484E-02         0.00000E+00
    0.48170E-01         0.71561E-02         0.00000E+00
    0.45875E-01         0.70341E-02         0.00000E+00
    0.43526E-01         0.68819E-02         0.00000E+00
    0.41126E-01         0.66991E-02         0.00000E+00
    0.38676E-01         0.64851E-02         0.00000E+00
    0.36178E-01         0.62395E-02         0.00000E+00
    0.33632E-01         0.59618E-02         0.00000E+00
    0.31041E-01         0.56517E-02         0.00000E+00
    0.28406E-01         0.53087E-02         0.00000E+00
    0.25730E-01         0.49326E-02         0.00000E+00
    0.23012E-01         0.45229E-02         0.00000E+00
    0.20255E-01         0.40792E-02         0.00000E+00
    0.17461E-01         0.36014E-02         0.00000E+00
    0.14631E-01         0.30890E-02         0.00000E+00
    0.11767E-01         0.25419E-02         0.00000E+00
    0.88696E-02         0.19597E-02         0.00000E+00
    0.59418E-02         0.13421E-02         0.00000E+00
    0.29847E-02         0.68895E-03         0.00000E+00
    0.00000E+00         0.00000E+00         0.00000E+00
    0.95103E-01        -0.26865E-03         0.00000E+00
    0.95112E-01         0.20088E-03         0.00000E+00
    0.95030E-01         0.66980E-03         0.00000E+00
    0.94857E-01         0.11367E-02         0.00000E+00
    0.94594E-01         0.16000E-02         0.00000E+00
    0.94239E-01         0.20585E-02         0.00000E+00
    0.93794E-01         0.25106E-02         0.00000E+00
    0.93258E-01         0.29551E-02         0.00000E+00
    0.92633E-01         0.33905E-02         0.00000E+00
    0.91918E-01         0.38155E-02         0.00000E+00
    0.91115E-01         0.42288E-02         0.00000E+00
    0.90223E-01         0.46291E-02         0.00000E+00
    0.89245E-01         0.50151E-02         0.00000E+00
    0.88180E-01         0.53857E-02         0.00000E+00
    0.87029E-01         0.57395E-02         0.00000E+00
    0.85794E-01         0.60755E-02         0.00000E+00
    0.84476E-01         0.63925E-02         0.00000E+00
    0.83075E-01         0.66894E-02         0.00000E+00
    0.81593E-01         0.69652E-02         0.00000E+00
    0.80030E-01         0.72188E-02         0.00000E+00
    0.78389E-01         0.74491E-02         0.00000E+00
    0.76671E-01         0.76554E-02         0.00000E+00
    0.74876E-01         0.78366E-02         0.00000E+00
    0.73007E-01         0.79918E-02         0.00000E+00
    0.71064E-01         0.81202E-02         0.00000E+00
    0.69050E-01         0.82209E-02         0.00000E+00
    0.66965E-01         0.82933E-02         0.00000E+00
    0.64811E-01         0.83365E-02         0.00000E+00
    0.62590E-01         0.83498E-02         0.00000E+00
    0.60303E-01         0.83326E-02         0.00000E+00
    0.57952E-01         0.82841E-02         0.00000E+00
    0.55538E-01         0.82038E-02         0.00000E+00
    0.53064E-01         0.80911E-02         0.00000E+00
    0.50530E-01         0.79455E-02         0.00000E+00
    0.47938E-01         0.77663E-02         0.00000E+00
    0.45291E-01         0.75531E-02         0.00000E+00
    0.42589E-01         0.73054E-02         0.00000E+00
    0.39834E-01         0.70228E-02         0.00000E+00
    0.37028E-01         0.67047E-02         0.00000E+00
    0.34173E-01         0.63510E-02         0.00000E+00
    0.31271E-01         0.59610E-02         0.00000E+00
    0.28322E-01         0.55345E-02         0.00000E+00
    0.25329E-01         0.50712E-02         0.00000E+00
    0.22294E-01         0.45706E-02         0.00000E+00
    0.19218E-01         0.40325E-02         0.00000E+00
    0.16102E-01         0.34565E-02         0.00000E+00
    0.12950E-01         0.28425E-02         0.00000E+00
    0.97614E-02         0.21901E-02         0.00000E+00
    0.65392E-02         0.14990E-02         0.00000E+00
    0.32848E-02         0.76908E-03         0.00000E+00
    0.00000E+00         0.00000E+00         0.00000E+00
    0.10502E+00         0.48163E-04         0.00000E+00
    0.10504E+00         0.57146E-03         0.00000E+00
    0.10496E+00         0.10940E-02         0.00000E+00
    0.10477E+00         0.16140E-02         0.00000E+00
    0.10449E+00         0.21300E-02         0.00000E+00
    0.10410E+00         0.26402E-02         0.00000E+00
    0.10361E+00         0.31429E-02         0.00000E+00
    0.10301E+00         0.36367E-02         0.00000E+00
    0.10232E+00         0.41199E-02         0.00000E+00
    0.10153E+00         0.45911E-02         0.00000E+00
    0.10063E+00         0.50486E-02         0.00000E+00
    0.99644E-01         0.54911E-02         0.00000E+00
    0.98556E-01         0.59170E-02         0.00000E+00
    0.97371E-01         0.63251E-02         0.00000E+00
    0.96091E-01         0.67140E-02         0.00000E+00
    0.94717E-01         0.70824E-02         0.00000E+00
    0.93251E-01         0.74290E-02         0.00000E+00
    0.91693E-01         0.77526E-02         0.00000E+00
    0.90045E-01         0.80520E-02         0.00000E+00
    0.88309E-01         0.83261E-02         0.00000E+00
    0.86486E-01         0.85738E-02         0.00000E+00
    0.84578E-01         0.87941E-02         0.00000E+00
    0.82586E-01         0.89860E-02         0.00000E+00
    0.80512E-01         0.91485E-02         0.00000E+00
    0.78357E-01         0.92807E-02         0.00000E+00
    0.76124E-01         0.93818E-02         0.00000E+00
    0.73814E-01         0.94509E-02         0.00000E+00
    0.71429E-01         0.94872E-02         0.00000E+00
    0.68970E-01         0.94900E-02         0.00000E+00
    0.66440E-01         0.94587E-02         0.00000E+00
    0.63840E-01         0.93925E-02         0.00000E+00
    0.61171E-01         0.92908E-02         0.00000E+00
    0.58437E-01         0.91531E-02         0.00000E+00
    0.55639E-01         0.89787E-02         0.00000E+00
    0.52778E-01         0.87672E-02         0.00000E+00
    0.49856E-01         0.85180E-02         0.00000E+00
    0.46875E-01         0.82307E-02         0.00000E+00
    0.43838E-01         0.79048E-02         0.00000E+00
    0.40745E-01         0.75400E-02         0.00000E+00
    0.37600E-01         0.71358E-02         0.00000E+00
    0.34402E-01         0.66919E-02         0.00000E+00
    0.31155E-01         0.62080E-02         0.00000E+00
    0.27861E-01         0.56836E-02         0.00000E+00
    0.24520E-01         0.51186E-02         0.00000E+00
    0.21135E-01         0.45125E-02         0.00000E+00
    0.17708E-01         0.38652E-02         0.00000E+00
    0.14240E-01         0.31763E-02         0.00000E+00
    0.10734E-01         0.24456E-02         0.00000E+00
    0.71906E-02         0.16728E-02         0.00000E+00
    0.36120E-02         0.85767E-03         0.00000E+00
    0.00000E+00         0.00000E+00         0.00000E+00
    0.11608E+00         0.45803E-03         0.00000E+00
    0.11611E+00         0.10422E-02         0.00000E+00
    0.11603E+00         0.16254E-02         0.00000E+00
    0.11583E+00         0.22055E-02         0.00000E+00
    0.11552E+00         0.27807E-02         0.00000E+00
    0.11508E+00         0.33490E-02         0.00000E+00
    0.11454E+00         0.39086E-02         0.00000E+00
    0.11388E+00         0.44576E-02         0.00000E+00
    0.11310E+00         0.49941E-02         0.00000E+00
    0.11222E+00         0.55165E-02         0.00000E+00
    0.11122E+00         0.60230E-02         0.00000E+00
    0.11011E+00         0.65120E-02         0.00000E+00
    0.10890E+00         0.69819E-02         0.00000E+00
    0.10757E+00         0.74310E-02         0.00000E+00
    0.10614E+00         0.78579E-02         0.00000E+00
    0.10461E+00         0.82611E-02         0.00000E+00
    0.10297E+00         0.86393E-02         0.00000E+00
    0.10124E+00         0.89910E-02         0.00000E+00
    0.99399E-01         0.93151E-02         0.00000E+00
    0.97464E-01         0.96102E-02         0.00000E+00
    0.95433E-01         0.98752E-02         0.00000E+00
    0.93309E-01         0.10109E-01         0.00000E+00
    0.91092E-01         0.10311E-01         0.00000E+00
    0.88786E-01         0.10479E-01         0.00000E+00
    0.86392E-01         0.10613E-01         0.00000E+00
    0.83912E-01         0.10712E-01         0.00000E+00
    0.81348E-01         0.10774E-01         0.00000E+00
    0.78702E-01         0.10801E-01         0.00000E+00
    0.75977E-01         0.10789E-01         0.00000E+00
    0.73174E-01         0.10739E-01         0.00000E+00
    0.70296E-01         0.10651E-01         0.00000E+00
    0.67344E-01         0.10522E-01         0.00000E+00
    0.64321E-01         0.10354E-01         0.00000E+00
    0.61228E-01         0.10145E-01         0.00000E+00
    0.58068E-01         0.98953E-02         0.00000E+00
    0.54844E-01         0.96036E-02         0.00000E+00
    0.51556E-01         0.92700E-02         0.00000E+00
    0.48206E-01         0.88939E-02         0.00000E+00
    0.44798E-01         0.84749E-02         0.00000E+00
    0.41333E-01         0.80129E-02         0.00000E+00
    0.37813E-01         0.75073E-02         0.00000E+00
    0.34239E-01         0.69580E-02         0.00000E+00
    0.30614E-01         0.63646E-02         0.00000E+00
    0.26940E-01         0.57268E-02         0.00000E+00
    0.23219E-01         0.50445E-02         0.00000E+00
    0.19452E-01         0.43173E-02         0.00000E+00
    0.15642E-01         0.35449E-02         0.00000E+00
    0.11789E-01         0.27273E-02         0.00000E+00
    0.78971E-02         0.18641E-02         0.00000E+00
    0.39667E-02         0.95505E-03         0.00000E+00
    0.00000E+00         0.00000E+00         0.00000E+00
    0.12844E+00         0.96595E-03         0.00000E+00
    0.12849E+00         0.16194E-02         0.00000E+00
    0.12840E+00         0.22714E-02         0.00000E+00
    0.12818E+00         0.29197E-02         0.00000E+00
    0.12783E+00         0.35619E-02         0.00000E+00
    0.12734E+00         0.41958E-02         0.00000E+00
    0.12673E+00         0.48193E-02         0.00000E+00
    0.12599E+00         0.54302E-02         0.00000E+00
    0.12512E+00         0.60265E-02         0.00000E+00
    0.12412E+00         0.66060E-02         0.00000E+00
    0.12300E+00         0.71669E-02         0.00000E+00
    0.12176E+00         0.77073E-02         0.00000E+00
    0.12039E+00         0.82253E-02         0.00000E+00
    0.11890E+00         0.87193E-02         0.00000E+00
    0.11730E+00         0.91874E-02         0.00000E+00
    0.11558E+00         0.96282E-02         0.00000E+00
    0.11374E+00         0.10040E-01         0.00000E+00
    0.11180E+00         0.10421E-01         0.00000E+00
    0.10974E+00         0.10771E-01         0.00000E+00
    0.10758E+00         0.11088E-01         0.00000E+00
    0.10531E+00         0.11370E-01         0.00000E+00
    0.10294E+00         0.11616E-01         0.00000E+00
    0.10046E+00         0.11826E-01         0.00000E+00
    0.97893E-01         0.11998E-01         0.00000E+00
    0.95227E-01         0.12131E-01         0.00000E+00
    0.92467E-01         0.12225E-01         0.00000E+00
    0.89617E-01         0.12278E-01         0.00000E+00
    0.86678E-01         0.12290E-01         0.00000E+00
    0.83653E-01         0.12259E-01         0.00000E+00
    0.80545E-01         0.12186E-01         0.00000E+00
    0.77355E-01         0.12070E-01         0.00000E+00
    0.74087E-01         0.11909E-01         0.00000E+00
    0.70742E-01         0.11704E-01         0.00000E+00
    0.67323E-01         0.11454E-01         0.00000E+00
    0.63832E-01         0.11159E-01         0.00000E+00
    0.60272E-01         0.10817E-01         0.00000E+00
    0.56645E-01         0.10430E-01         0.00000E+00
    0.52953E-01         0.99956E-02         0.00000E+00
    0.49198E-01         0.95146E-02         0.00000E+00
    0.45383E-01         0.89864E-02         0.00000E+00
    0.41509E-01         0.84109E-02         0.00000E+00
    0.37579E-01         0.77876E-02         0.00000E+00
    0.33595E-01         0.71165E-02         0.00000E+00
    0.29558E-01         0.63973E-02         0.00000E+00
    0.25471E-01         0.56298E-02         0.00000E+00
    0.21336E-01         0.48138E-02         0.00000E+00
    0.17154E-01         0.39491E-02         0.00000E+00
    0.12928E-01         0.30356E-02         0.00000E+00
    0.86590E-02         0.20731E-02         0.00000E+00
    0.43491E-02         0.10613E-02         0.00000E+00
    0.00000E+00         0.00000E+00         0.00000E+00
    0.14229E+00         0.15682E-02         0.00000E+00
    0.14234E+00         0.23008E-02         0.00000E+00
    0.14224E+00         0.30313E-02         0.00000E+00
    0.14199E+00         0.37571E-02         0.00000E+00
    0.14159E+00         0.44755E-02         0.00000E+00
    0.14104E+00         0.51837E-02         0.00000E+00
    0.14035E+00         0.58794E-02         0.00000E+00
    0.13950E+00         0.65600E-02         0.00000E+00
    0.13851E+00         0.72232E-02         0.00000E+00
    0.13738E+00         0.78666E-02         0.00000E+00
    0.13611E+00         0.84880E-02         0.00000E+00
    0.13471E+00         0.90853E-02         0.00000E+00
    0.13316E+00         0.96564E-02         0.00000E+00
    0.13148E+00         0.10199E-01         0.00000E+00
    0.12967E+00         0.10712E-01         0.00000E+00
    0.12773E+00         0.11194E-01         0.00000E+00
    0.12566E+00         0.11641E-01         0.00000E+00
    0.12348E+00         0.12054E-01         0.00000E+00
    0.12117E+00         0.12430E-01         0.00000E+00
    0.11874E+00         0.12768E-01         0.00000E+00
    0.11619E+00         0.13067E-01         0.00000E+00
    0.11354E+00         0.13325E-01         0.00000E+00
    0.11077E+00         0.13542E-01         0.00000E+00
    0.10790E+00         0.13715E-01         0.00000E+00
    0.10492E+00         0.13845E-01         0.00000E+00
    0.10185E+00         0.13930E-01         0.00000E+00
    0.98671E-01         0.13969E-01         0.00000E+00
    0.95401E-01         0.13962E-01         0.00000E+00
    0.92038E-01         0.13907E-01         0.00000E+00
    0.88587E-01         0.13805E-01         0.00000E+00
    0.85048E-01         0.13655E-01         0.00000E+00
    0.81427E-01         0.13456E-01         0.00000E+00
    0.77724E-01         0.13207E-01         0.00000E+00
    0.73942E-01         0.12909E-01         0.00000E+00
    0.70085E-01         0.12560E-01         0.00000E+00
    0.66155E-01         0.12162E-01         0.00000E+00
    0.62154E-01         0.11712E-01         0.00000E+00
    0.58085E-01         0.11212E-01         0.00000E+00
    0.53950E-01         0.10660E-01         0.00000E+00
    0.49752E-01         0.10057E-01         0.00000E+00
    0.45493E-01         0.94026E-02         0.00000E+00
    0.41175E-01         0.86965E-02         0.00000E+00
    0.36801E-01         0.79387E-02         0.00000E+00
    0.32371E-01         0.71290E-02         0.00000E+00
    0.27890E-01         0.62674E-02         0.00000E+00
    0.23357E-01         0.53537E-02         0.00000E+00
    0.18776E-01         0.43878E-02         0.00000E+00
    0.14148E-01         0.33696E-02         0.00000E+00
    0.94747E-02         0.22990E-02         0.00000E+00
    0.47582E-02         0.11759E-02         0.00000E+00
    0.00000E+00         0.00000E+00         0.00000E+00
    0.15784E+00         0.22467E-02         0.00000E+00
    0.15789E+00         0.30701E-02         0.00000E+00
    0.15777E+00         0.38906E-02         0.00000E+00
    0.15748E+00         0.47050E-02         0.00000E+00
    0.15701E+00         0.55100E-02         0.00000E+00
    0.15637E+00         0.63027E-02         0.00000E+00
    0.15557E+00         0.70801E-02         0.00000E+00
    0.15460E+00         0.78394E-02         0.00000E+00
    0.15347E+00         0.85778E-02         0.00000E+00
    0.15217E+00         0.92928E-02         0.00000E+00
    0.15072E+00         0.99817E-02         0.00000E+00
    0.14912E+00         0.10642E-01         0.00000E+00
    0.14736E+00         0.11272E-01         0.00000E+00
    0.14545E+00         0.11869E-01         0.00000E+00
    0.14339E+00         0.12431E-01         0.00000E+00
    0.14119E+00         0.12956E-01         0.00000E+00
    0.13886E+00         0.13442E-01         0.00000E+00
    0.13638E+00         0.13888E-01         0.00000E+00
    0.13377E+00         0.14291E-01         0.00000E+00
    0.13104E+00         0.14652E-01         0.00000E+00
    0.12818E+00         0.14967E-01         0.00000E+00
    0.12519E+00         0.15235E-01         0.00000E+00
    0.12209E+00         0.15456E-01         0.00000E+00
    0.11887E+00         0.15629E-01         0.00000E+00
    0.11554E+00         0.15752E-01         0.00000E+00
    0.11210E+00         0.15824E-01         0.00000E+00
    0.10856E+00         0.15845E-01         0.00000E+00
    0.10491E+00         0.15814E-01         0.00000E+00
    0.10117E+00         0.15731E-01         0.00000E+00
    0.97331E-01         0.15594E-01         0.00000E+00
    0.93402E-01         0.15403E-01         0.00000E+00
    0.89386E-01         0.15159E-01         0.00000E+00
    0.85284E-01         0.14859E-01         0.00000E+00
    0.81100E-01         0.14505E-01         0.00000E+00
    0.76837E-01         0.14096E-01         0.00000E+00
    0.72498E-01         0.13632E-01         0.00000E+00
    0.68087E-01         0.13112E-01         0.00000E+00
    0.63604E-01         0.12536E-01         0.00000E+00
    0.59054E-01         0.11906E-01         0.00000E+00
    0.54439E-01         0.11219E-01         0.00000E+00
    0.49761E-01         0.10477E-01         0.00000E+00
    0.45023E-01         0.96793E-02         0.00000E+00
    0.40227E-01         0.88260E-02         0.00000E+00
    0.35374E-01         0.79172E-02         0.00000E+00
    0.30468E-01         0.69527E-02         0.00000E+00
    0.25509E-01         0.59328E-02         0.00000E+00
    0.20501E-01         0.48574E-02         0.00000E+00
    0.15444E-01         0.37264E-02         0.00000E+00
    0.10341E-01         0.25399E-02         0.00000E+00
    0.51921E-02         0.12978E-02         0.00000E+00
    0.00000E+00         0.00000E+00         0.00000E+00
    0.17535E+00         0.29611E-02         0.00000E+00
    0.17539E+00         0.38892E-02         0.00000E+00
    0.17523E+00         0.48131E-02         0.00000E+00
    0.17487E+00         0.57289E-02         0.00000E+00
    0.17431E+00         0.66330E-02         0.00000E+00
    0.17356E+00         0.75218E-02         0.00000E+00
    0.17262E+00         0.83921E-02         0.00000E+00
    0.17149E+00         0.92404E-02         0.00000E+00
    0.17018E+00         0.10064E-01         0.00000E+00
    0.16868E+00         0.10859E-01         0.00000E+00
    0.16701E+00         0.11624E-01         0.00000E+00
    0.16516E+00         0.12355E-01         0.00000E+00
    0.16314E+00         0.13049E-01         0.00000E+00
    0.16095E+00         0.13706E-01         0.00000E+00
    0.15861E+00         0.14321E-01         0.00000E+00
    0.15610E+00         0.14894E-01         0.00000E+00
    0.15344E+00         0.15422E-01         0.00000E+00
    0.15063E+00         0.15903E-01         0.00000E+00
    0.14768E+00         0.16335E-01         0.00000E+00
    0.14458E+00         0.16718E-01         0.00000E+00
    0.14135E+00         0.17049E-01         0.00000E+00
    0.13798E+00         0.17327E-01         0.00000E+00
    0.13449E+00         0.17552E-01         0.00000E+00
    0.13087E+00         0.17721E-01         0.00000E+00
    0.12713E+00         0.17834E-01         0.00000E+00
    0.12328E+00         0.17890E-01         0.00000E+00
    0.11932E+00         0.17889E-01         0.00000E+00
    0.11525E+00         0.17830E-01         0.00000E+00
    0.11108E+00         0.17711E-01         0.00000E+00
    0.10680E+00         0.17534E-01         0.00000E+00
    0.10244E+00         0.17297E-01         0.00000E+00
    0.97978E-01         0.17000E-01         0.00000E+00
    0.93432E-01         0.16643E-01         0.00000E+00
    0.88801E-01         0.16226E-01         0.00000E+00
    0.84090E-01         0.15748E-01         0.00000E+00
    0.79301E-01         0.15210E-01         0.00000E+00
    0.74438E-01         0.14612E-01         0.00000E+00
    0.69503E-01         0.13954E-01         0.00000E+00
    0.64500E-01         0.13236E-01         0.00000E+00
    0.59432E-01         0.12458E-01         0.00000E+00
    0.54301E-01         0.11620E-01         0.00000E+00
    0.49109E-01         0.10723E-01         0.00000E+00
    0.43859E-01         0.97662E-02         0.00000E+00
    0.38553E-01         0.87504E-02         0.00000E+00
    0.33193E-01         0.76758E-02         0.00000E+00
    0.27781E-01         0.65424E-02         0.00000E+00
    0.22319E-01         0.53505E-02         0.00000E+00
    0.16809E-01         0.41002E-02         0.00000E+00
    0.11251E-01         0.27916E-02         0.00000E+00
    0.56477E-02         0.14249E-02         0.00000E+00
    0.00000E+00         0.00000E+00         0.00000E+00
    0.19512E+00         0.36381E-02         0.00000E+00
    0.19513E+00         0.46872E-02         0.00000E+00
    0.19490E+00         0.57301E-02         0.00000E+00
    0.19445E+00         0.67625E-02         0.00000E+00
    0.19377E+00         0.77801E-02         0.00000E+00
    0.19287E+00         0.87787E-02         0.00000E+00
    0.19175E+00         0.97546E-02         0.00000E+00
    0.19041E+00         0.10704E-01         0.00000E+00
    0.18887E+00         0.11623E-01         0.00000E+00
    0.18712E+00         0.12509E-01         0.00000E+00
    0.18517E+00         0.13359E-01         0.00000E+00
    0.18303E+00         0.14168E-01         0.00000E+00
    0.18069E+00         0.14936E-01         0.00000E+00
    0.17817E+00         0.15658E-01         0.00000E+00
    0.17547E+00         0.16333E-01         0.00000E+00
    0.17260E+00         0.16958E-01         0.00000E+00
    0.16956E+00         0.17531E-01         0.00000E+00
    0.16635E+00         0.18050E-01         0.00000E+00
    0.16299E+00         0.18514E-01         0.00000E+00
    0.15947E+00         0.18920E-01         0.00000E+00
    0.15580E+00         0.19268E-01         0.00000E+00
    0.15199E+00         0.19555E-01         0.00000E+00
    0.14805E+00         0.19782E-01         0.00000E+00
    0.14397E+00         0.19946E-01         0.00000E+00
    0.13976E+00         0.20047E-01         0.00000E+00
    0.13544E+00         0.20084E-01         0.00000E+00
    0.13100E+00         0.20057E-01         0.00000E+00
    0.12644E+00         0.19965E-01         0.00000E+00
    0.12178E+00         0.19808E-01         0.00000E+00
    0.11702E+00         0.19585E-01         0.00000E+00
    0.11216E+00         0.19296E-01         0.00000E+00
    0.10721E+00         0.18941E-01         0.00000E+00
    0.10217E+00         0.18520E-01         0.00000E+00
    0.97042E-01         0.18034E-01         0.00000E+00
    0.91834E-01         0.17482E-01         0.00000E+00
    0.86550E-01         0.16864E-01         0.00000E+00
    0.81192E-01         0.16182E-01         0.00000E+00
    0.75763E-01         0.15434E-01         0.00000E+00
    0.70268E-01         0.14622E-01         0.00000E+00
    0.64709E-01         0.13746E-01         0.00000E+00
    0.59088E-01         0.12806E-01         0.00000E+00
    0.53409E-01         0.11803E-01         0.00000E+00
    0.47674E-01         0.10737E-01         0.00000E+00
    0.41885E-01         0.96090E-02         0.00000E+00
    0.36045E-01         0.84190E-02         0.00000E+00
    0.30154E-01         0.71674E-02         0.00000E+00
    0.24215E-01         0.58548E-02         0.00000E+00
    0.18228E-01         0.44814E-02         0.00000E+00
    0.12197E-01         0.30477E-02         0.00000E+00
    0.61202E-02         0.15538E-02         0.00000E+00
    0.00000E+00         0.00000E+00         0.00000E+00
    0.21752E+00         0.41571E-02         0.00000E+00
    0.21746E+00         0.53462E-02         0.00000E+00
    0.21713E+00         0.65266E-02         0.00000E+00
    0.21654E+00         0.76930E-02         0.00000E+00
    0.21569E+00         0.88407E-02         0.00000E+00
    0.21458E+00         0.99649E-02         0.00000E+00
    0.21323E+00         0.11061E-01         0.00000E+00
    0.21163E+00         0.12125E-01         0.00000E+00
    0.20980E+00         0.13154E-01         0.00000E+00
    0.20773E+00         0.14142E-01         0.00000E+00
    0.20544E+00         0.15087E-01         0.00000E+00
    0.20293E+00         0.15985E-01         0.00000E+00
    0.20021E+00         0.16834E-01         0.00000E+00
    0.19729E+00         0.17630E-01         0.00000E+00
    0.19416E+00         0.18371E-01         0.00000E+00
    0.19085E+00         0.19054E-01         0.00000E+00
    0.18735E+00         0.19678E-01         0.00000E+00
    0.18367E+00         0.20239E-01         0.00000E+00
    0.17982E+00         0.20737E-01         0.00000E+00
    0.17580E+00         0.21170E-01         0.00000E+00
    0.17163E+00         0.21536E-01         0.00000E+00
    0.16730E+00         0.21834E-01         0.00000E+00
    0.16283E+00         0.22062E-01         0.00000E+00
    0.15822E+00         0.22221E-01         0.00000E+00
    0.15348E+00         0.22310E-01         0.00000E+00
    0.14861E+00         0.22327E-01         0.00000E+00
    0.14362E+00         0.22272E-01         0.00000E+00
    0.13852E+00         0.22145E-01         0.00000E+00
    0.13331E+00         0.21946E-01         0.00000E+00
    0.12799E+00         0.21674E-01         0.00000E+00
    0.12258E+00         0.21330E-01         0.00000E+00
    0.11708E+00         0.20914E-01         0.00000E+00
    0.11148E+00         0.20426E-01         0.00000E+00
    0.10581E+00         0.19867E-01         0.00000E+00
    0.10005E+00         0.19236E-01         0.00000E+00
    0.94221E-01         0.18535E-01         0.00000E+00
    0.88321E-01         0.17764E-01         0.00000E+00
    0.82355E-01         0.16923E-01         0.00000E+00
    0.76326E-01         0.16014E-01         0.00000E+00
    0.70237E-01         0.15037E-01         0.00000E+00
    0.64091E-01         0.13992E-01         0.00000E+00
    0.57892E-01         0.12881E-01         0.00000E+00
    0.51641E-01         0.11703E-01         0.00000E+00
    0.45341E-01         0.10461E-01         0.00000E+00
    0.38994E-01         0.91544E-02         0.00000E+00
    0.32602E-01         0.77841E-02         0.00000E+00
    0.26166E-01         0.63508E-02         0.00000E+00
    0.19686E-01         0.48553E-02         0.00000E+00
    0.13165E-01         0.32979E-02         0.00000E+00
    0.66030E-02         0.16794E-02         0.00000E+00
    0.00000E+00         0.00000E+00         0.00000E+00
    0.24296E+00         0.43307E-02         0.00000E+00
    0.24278E+00         0.56822E-02         0.00000E+00
    0.24230E+00         0.70212E-02         0.00000E+00
    0.24151E+00         0.83420E-02         0.00000E+00
    0.24042E+00         0.96390E-02         0.00000E+00
    0.23905E+00         0.10907E-01         0.00000E+00
    0.23739E+00         0.12141E-01         0.00000E+00
    0.23545E+00         0.13336E-01         0.00000E+00
    0.23325E+00         0.14487E-01         0.00000E+00
    0.23078E+00         0.15592E-01         0.00000E+00
    0.22807E+00         0.16645E-01         0.00000E+00
    0.22511E+00         0.17643E-01         0.00000E+00
    0.22192E+00         0.18584E-01         0.00000E+00
    0.21850E+00         0.19463E-01         0.00000E+00
    0.21486E+00         0.20279E-01         0.00000E+00
    0.21101E+00         0.21028E-01         0.00000E+00
    0.20697E+00         0.21708E-01         0.00000E+00
    0.20273E+00         0.22318E-01         0.00000E+00
    0.19830E+00         0.22856E-01         0.00000E+00
    0.19370E+00         0.23319E-01         0.00000E+00
    0.18893E+00         0.23708E-01         0.00000E+00
    0.18400E+00         0.24019E-01         0.00000E+00
    0.17892E+00         0.24254E-01         0.00000E+00
    0.17369E+00         0.24410E-01         0.00000E+00
    0.16833E+00         0.24487E-01         0.00000E+00
    0.16284E+00         0.24485E-01         0.00000E+00
    0.15722E+00         0.24404E-01         0.00000E+00
    0.15149E+00         0.24243E-01         0.00000E+00
    0.14566E+00         0.24003E-01         0.00000E+00
    0.13972E+00         0.23683E-01         0.00000E+00
    0.13368E+00         0.23285E-01         0.00000E+00
    0.12756E+00         0.22809E-01         0.00000E+00
    0.12135E+00         0.22254E-01         0.00000E+00
    0.11507E+00         0.21622E-01         0.00000E+00
    0.10871E+00         0.20914E-01         0.00000E+00
    0.10228E+00         0.20130E-01         0.00000E+00
    0.95787E-01         0.19272E-01         0.00000E+00
    0.89236E-01         0.18340E-01         0.00000E+00
    0.82630E-01         0.17335E-01         0.00000E+00
    0.75971E-01         0.16259E-01         0.00000E+00
    0.69265E-01         0.15112E-01         0.00000E+00
    0.62512E-01         0.13895E-01         0.00000E+00
    0.55717E-01         0.12610E-01         0.00000E+00
    0.48880E-01         0.11258E-01         0.00000E+00
    0.42005E-01         0.98401E-02         0.00000E+00
    0.35092E-01         0.83570E-02         0.00000E+00
    0.28144E-01         0.68099E-02         0.00000E+00
    0.21160E-01         0.51997E-02         0.00000E+00
    0.14141E-01         0.35275E-02         0.00000E+00
    0.70879E-02         0.17940E-02         0.00000E+00
    0.00000E+00         0.00000E+00         0.00000E+00
    0.27194E+00         0.38811E-02         0.00000E+00
    0.27158E+00         0.54205E-02         0.00000E+00
    0.27086E+00         0.69427E-02         0.00000E+00
    0.26979E+00         0.84410E-02         0.00000E+00
    0.26838E+00         0.99091E-02         0.00000E+00
    0.26664E+00         0.11341E-01         0.00000E+00
    0.26458E+00         0.12732E-01         0.00000E+00
    0.26221E+00         0.14075E-01         0.00000E+00
    0.25954E+00         0.15368E-01         0.00000E+00
    0.25657E+00         0.16604E-01         0.00000E+00
    0.25333E+00         0.17780E-01         0.00000E+00
    0.24981E+00         0.18892E-01         0.00000E+00
    0.24604E+00         0.19937E-01         0.00000E+00
    0.24202E+00         0.20911E-01         0.00000E+00
    0.23776E+00         0.21813E-01         0.00000E+00
    0.23327E+00         0.22638E-01         0.00000E+00
    0.22857E+00         0.23385E-01         0.00000E+00
    0.22366E+00         0.24052E-01         0.00000E+00
    0.21855E+00         0.24638E-01         0.00000E+00
    0.21326E+00         0.25140E-01         0.00000E+00
    0.20779E+00         0.25558E-01         0.00000E+00
    0.20216E+00         0.25891E-01         0.00000E+00
    0.19637E+00         0.26137E-01         0.00000E+00
    0.19043E+00         0.26297E-01         0.00000E+00
    0.18435E+00         0.26370E-01         0.00000E+00
    0.17814E+00         0.26356E-01         0.00000E+00
    0.17181E+00         0.26255E-01         0.00000E+00
    0.16537E+00         0.26067E-01         0.00000E+00
    0.15883E+00         0.25793E-01         0.00000E+00
    0.15218E+00         0.25432E-01         0.00000E+00
    0.14545E+00         0.24987E-01         0.00000E+00
    0.13864E+00         0.24457E-01         0.00000E+00
    0.13174E+00         0.23843E-01         0.00000E+00
    0.12478E+00         0.23147E-01         0.00000E+00
    0.11776E+00         0.22370E-01         0.00000E+00
    0.11067E+00         0.21512E-01         0.00000E+00
    0.10354E+00         0.20575E-01         0.00000E+00
    0.96353E-01         0.19561E-01         0.00000E+00
    0.89125E-01         0.18471E-01         0.00000E+00
    0.81857E-01         0.17306E-01         0.00000E+00
    0.74553E-01         0.16068E-01         0.00000E+00
    0.67216E-01         0.14759E-01         0.00000E+00
    0.59848E-01         0.13379E-01         0.00000E+00
    0.52453E-01         0.11931E-01         0.00000E+00
    0.45031E-01         0.10416E-01         0.00000E+00
    0.37585E-01         0.88354E-02         0.00000E+00
    0.30114E-01         0.71909E-02         0.00000E+00
    0.22621E-01         0.54838E-02         0.00000E+00
    0.15104E-01         0.37155E-02         0.00000E+00
    0.75644E-02         0.18872E-02         0.00000E+00
    0.00000E+00         0.00000E+00         0.00000E+00
    0.30501E+00         0.24084E-02         0.00000E+00
    0.30437E+00         0.41650E-02         0.00000E+00
    0.30331E+00         0.58979E-02         0.00000E+00
    0.30186E+00         0.75998E-02         0.00000E+00
    0.30001E+00         0.92636E-02         0.00000E+00
    0.29779E+00         0.10883E-01         0.00000E+00
    0.29521E+00         0.12452E-01         0.00000E+00
    0.29228E+00         0.13965E-01         0.00000E+00
    0.28901E+00         0.15417E-01         0.00000E+00
    0.28541E+00         0.16803E-01         0.00000E+00
    0.28151E+00         0.18119E-01         0.00000E+00
    0.27731E+00         0.19361E-01         0.00000E+00
    0.27283E+00         0.20526E-01         0.00000E+00
    0.26807E+00         0.21610E-01         0.00000E+00
    0.26306E+00         0.22611E-01         0.00000E+00
    0.25781E+00         0.23527E-01         0.00000E+00
    0.25232E+00         0.24354E-01         0.00000E+00
    0.24662E+00         0.25092E-01         0.00000E+00
    0.24070E+00         0.25738E-01         0.00000E+00
    0.23460E+00         0.26292E-01         0.00000E+00
    0.22831E+00         0.26753E-01         0.00000E+00
    0.22186E+00         0.27120E-01         0.00000E+00
    0.21524E+00         0.27392E-01         0.00000E+00
    0.20848E+00         0.27569E-01         0.00000E+00
    0.20157E+00         0.27652E-01         0.00000E+00
    0.19455E+00         0.27640E-01         0.00000E+00
    0.18740E+00         0.27534E-01         0.00000E+00
    0.18015E+00         0.27334E-01         0.00000E+00
    0.17281E+00         0.27041E-01         0.00000E+00
    0.16537E+00         0.26656E-01         0.00000E+00
    0.15785E+00         0.26180E-01         0.00000E+00
    0.15027E+00         0.25614E-01         0.00000E+00
    0.14262E+00         0.24959E-01         0.00000E+00
    0.13491E+00         0.24218E-01         0.00000E+00
    0.12715E+00         0.23390E-01         0.00000E+00
    0.11935E+00         0.22479E-01         0.00000E+00
    0.11151E+00         0.21485E-01         0.00000E+00
    0.10364E+00         0.20411E-01         0.00000E+00
    0.95748E-01         0.19258E-01         0.00000E+00
    0.87830E-01         0.18028E-01         0.00000E+00
    0.79892E-01         0.16724E-01         0.00000E+00
    0.71940E-01         0.15347E-01         0.00000E+00
    0.63976E-01         0.13898E-01         0.00000E+00
    0.56002E-01         0.12381E-01         0.00000E+00
    0.48020E-01         0.10797E-01         0.00000E+00
    0.40032E-01         0.91487E-02         0.00000E+00
    0.32038E-01         0.74372E-02         0.00000E+00
    0.24038E-01         0.56647E-02         0.00000E+00
    0.16033E-01         0.38332E-02         0.00000E+00
    0.80207E-02         0.19444E-02         0.00000E+00
    0.00000E+00         0.00000E+00         0.00000E+00
    0.34282E+00        -0.64734E-03         0.00000E+00
    0.34176E+00         0.13592E-02         0.00000E+00
    0.34023E+00         0.33336E-02         0.00000E+00
    0.33824E+00         0.52679E-02         0.00000E+00
    0.33581E+00         0.71546E-02         0.00000E+00
    0.33296E+00         0.89868E-02         0.00000E+00
    0.32970E+00         0.10758E-01         0.00000E+00
    0.32605E+00         0.12463E-01         0.00000E+00
    0.32203E+00         0.14097E-01         0.00000E+00
    0.31765E+00         0.15654E-01         0.00000E+00
    0.31293E+00         0.17130E-01         0.00000E+00
    0.30788E+00         0.18521E-01         0.00000E+00
    0.30253E+00         0.19825E-01         0.00000E+00
    0.29689E+00         0.21038E-01         0.00000E+00
    0.29097E+00         0.22157E-01         0.00000E+00
    0.28480E+00         0.23181E-01         0.00000E+00
    0.27838E+00         0.24107E-01         0.00000E+00
    0.27173E+00         0.24934E-01         0.00000E+00
    0.26488E+00         0.25661E-01         0.00000E+00
    0.25782E+00         0.26287E-01         0.00000E+00
    0.25058E+00         0.26812E-01         0.00000E+00
    0.24316E+00         0.27234E-01         0.00000E+00
    0.23559E+00         0.27554E-01         0.00000E+00
    0.22788E+00         0.27773E-01         0.00000E+00
    0.22004E+00         0.27890E-01         0.00000E+00
    0.21207E+00         0.27905E-01         0.00000E+00
    0.20400E+00         0.27821E-01         0.00000E+00
    0.19584E+00         0.27637E-01         0.00000E+00
    0.18758E+00         0.27355E-01         0.00000E+00
    0.17926E+00         0.26976E-01         0.00000E+00
    0.17087E+00         0.26501E-01         0.00000E+00
    0.16242E+00         0.25932E-01         0.00000E+00
    0.15393E+00         0.25271E-01         0.00000E+00
    0.14540E+00         0.24519E-01         0.00000E+00
    0.13684E+00         0.23678E-01         0.00000E+00
    0.12826E+00         0.22751E-01         0.00000E+00
    0.11966E+00         0.21739E-01         0.00000E+00
    0.11105E+00         0.20644E-01         0.00000E+00
    0.10244E+00         0.19469E-01         0.00000E+00
    0.93825E-01         0.18217E-01         0.00000E+00
    0.85219E-01         0.16889E-01         0.00000E+00
    0.76622E-01         0.15487E-01         0.00000E+00
    0.68039E-01         0.14015E-01         0.00000E+00
    0.59470E-01         0.12475E-01         0.00000E+00
    0.50919E-01         0.10870E-01         0.00000E+00
    0.42386E-01         0.92011E-02         0.00000E+00
    0.33872E-01         0.74720E-02         0.00000E+00
    0.25378E-01         0.56850E-02         0.00000E+00
    0.16903E-01         0.38424E-02         0.00000E+00
    0.84438E-02         0.19466E-02         0.00000E+00
    0.00000E+00         0.00000E+00         0.00000E+00
    0.38608E+00        -0.60525E-02         0.00000E+00
    0.38442E+00        -0.37603E-02         0.00000E+00
    0.38223E+00        -0.15110E-02         0.00000E+00
    0.37952E+00         0.68694E-03         0.00000E+00
    0.37632E+00         0.28258E-02         0.00000E+00
    0.37264E+00         0.48985E-02         0.00000E+00
    0.36851E+00         0.68987E-02         0.00000E+00
    0.36395E+00         0.88208E-02         0.00000E+00
    0.35898E+00         0.10660E-01         0.00000E+00
    0.35362E+00         0.12410E-01         0.00000E+00
    0.34789E+00         0.14070E-01         0.00000E+00
    0.34181E+00         0.15633E-01         0.00000E+00
    0.33541E+00         0.17099E-01         0.00000E+00
    0.32870E+00         0.18464E-01         0.00000E+00
    0.32170E+00         0.19725E-01         0.00000E+00
    0.31443E+00         0.20882E-01         0.00000E+00
    0.30691E+00         0.21934E-01         0.00000E+00
    0.29915E+00         0.22878E-01         0.00000E+00
    0.29118E+00         0.23714E-01         0.00000E+00
    0.28301E+00         0.24442E-01         0.00000E+00
    0.27466E+00         0.25062E-01         0.00000E+00
    0.26615E+00         0.25574E-01         0.00000E+00
    0.25748E+00         0.25979E-01         0.00000E+00
    0.24868E+00         0.26276E-01         0.00000E+00
    0.23976E+00         0.26467E-01         0.00000E+00
    0.23074E+00         0.26553E-01         0.00000E+00
    0.22162E+00         0.26535E-01         0.00000E+00
    0.21242E+00         0.26414E-01         0.00000E+00
    0.20316E+00         0.26191E-01         0.00000E+00
    0.19384E+00         0.25868E-01         0.00000E+00
    0.18447E+00         0.25448E-01         0.00000E+00
    0.17507E+00         0.24931E-01         0.00000E+00
    0.16565E+00         0.24320E-01         0.00000E+00
    0.15622E+00         0.23616E-01         0.00000E+00
    0.14678E+00         0.22823E-01         0.00000E+00
    0.13734E+00         0.21942E-01         0.00000E+00
    0.12792E+00         0.20975E-01         0.00000E+00
    0.11852E+00         0.19925E-01         0.00000E+00
    0.10914E+00         0.18795E-01         0.00000E+00
    0.99791E-01         0.17587E-01         0.00000E+00
    0.90480E-01         0.16304E-01         0.00000E+00
    0.81209E-01         0.14949E-01         0.00000E+00
    0.71984E-01         0.13525E-01         0.00000E+00
    0.62806E-01         0.12034E-01         0.00000E+00
    0.53679E-01         0.10480E-01         0.00000E+00
    0.44603E-01         0.88656E-02         0.00000E+00
    0.35580E-01         0.71943E-02         0.00000E+00
    0.26610E-01         0.54689E-02         0.00000E+00
    0.17691E-01         0.36926E-02         0.00000E+00
    0.88217E-02         0.18687E-02         0.00000E+00
    0.00000E+00         0.00000E+00         0.00000E+00
    0.43554E+00        -0.14835E-01         0.00000E+00
    0.43306E+00        -0.12219E-01         0.00000E+00
    0.42996E+00        -0.96598E-02         0.00000E+00
    0.42629E+00        -0.71656E-02         0.00000E+00
    0.42207E+00        -0.47441E-02         0.00000E+00
    0.41733E+00        -0.24022E-02         0.00000E+00
    0.41209E+00        -0.14579E-03         0.00000E+00
    0.40638E+00         0.20198E-02         0.00000E+00
    0.40023E+00         0.40901E-02         0.00000E+00
    0.39366E+00         0.60611E-02         0.00000E+00
    0.38670E+00         0.79295E-02         0.00000E+00
    0.37938E+00         0.96925E-02         0.00000E+00
    0.37170E+00         0.11348E-01         0.00000E+00
    0.36371E+00         0.12894E-01         0.00000E+00
    0.35542E+00         0.14329E-01         0.00000E+00
    0.34686E+00         0.15653E-01         0.00000E+00
    0.33804E+00         0.16864E-01         0.00000E+00
    0.32900E+00         0.17963E-01         0.00000E+00
    0.31974E+00         0.18950E-01         0.00000E+00
    0.31028E+00         0.19824E-01         0.00000E+00
    0.30066E+00         0.20587E-01         0.00000E+00
    0.29088E+00         0.21240E-01         0.00000E+00
    0.28097E+00         0.21783E-01         0.00000E+00
    0.27094E+00         0.22217E-01         0.00000E+00
    0.26080E+00         0.22544E-01         0.00000E+00
    0.25058E+00         0.22765E-01         0.00000E+00
    0.24028E+00         0.22881E-01         0.00000E+00
    0.22993E+00         0.22895E-01         0.00000E+00
    0.21954E+00         0.22808E-01         0.00000E+00
    0.20911E+00         0.22621E-01         0.00000E+00
    0.19867E+00         0.22337E-01         0.00000E+00
    0.18823E+00         0.21958E-01         0.00000E+00
    0.17779E+00         0.21486E-01         0.00000E+00
    0.16736E+00         0.20922E-01         0.00000E+00
    0.15697E+00         0.20270E-01         0.00000E+00
    0.14661E+00         0.19531E-01         0.00000E+00
    0.13629E+00         0.18708E-01         0.00000E+00
    0.12603E+00         0.17804E-01         0.00000E+00
    0.11584E+00         0.16820E-01         0.00000E+00
    0.10571E+00         0.15761E-01         0.00000E+00
    0.95651E-01         0.14628E-01         0.00000E+00
    0.85676E-01         0.13425E-01         0.00000E+00
    0.75785E-01         0.12156E-01         0.00000E+00
    0.65983E-01         0.10822E-01         0.00000E+00
    0.56273E-01         0.94277E-02         0.00000E+00
    0.46657E-01         0.79768E-02         0.00000E+00
    0.37136E-01         0.64726E-02         0.00000E+00
    0.27711E-01         0.49189E-02         0.00000E+00
    0.18381E-01         0.33197E-02         0.00000E+00
    0.91451E-02         0.16787E-02         0.00000E+00
    0.00000E+00         0.00000E+00         0.00000E+00
    0.49203E+00        -0.28347E-01         0.00000E+00
    0.48840E+00        -0.25369E-01         0.00000E+00
    0.48410E+00        -0.22464E-01         0.00000E+00
    0.47916E+00        -0.19641E-01         0.00000E+00
    0.47362E+00        -0.16907E-01         0.00000E+00
    0.46752E+00        -0.14267E-01         0.00000E+00
    0.46088E+00        -0.11727E-01         0.00000E+00
    0.45375E+00        -0.92910E-02         0.00000E+00
    0.44614E+00        -0.69620E-02         0.00000E+00
    0.43809E+00        -0.47430E-02         0.00000E+00
    0.42964E+00        -0.26362E-02         0.00000E+00
    0.42080E+00        -0.64305E-03         0.00000E+00
    0.41162E+00         0.12355E-02         0.00000E+00
    0.40211E+00         0.29990E-02         0.00000E+00
    0.39230E+00         0.46473E-02         0.00000E+00
    0.38223E+00         0.61808E-02         0.00000E+00
    0.37191E+00         0.76000E-02         0.00000E+00
    0.36137E+00         0.89060E-02         0.00000E+00
    0.35063E+00         0.10100E-01         0.00000E+00
    0.33971E+00         0.11183E-01         0.00000E+00
    0.32864E+00         0.12156E-01         0.00000E+00
    0.31743E+00         0.13022E-01         0.00000E+00
    0.30611E+00         0.13782E-01         0.00000E+00
    0.29470E+00         0.14438E-01         0.00000E+00
    0.28321E+00         0.14991E-01         0.00000E+00
    0.27165E+00         0.15443E-01         0.00000E+00
    0.26006E+00         0.15796E-01         0.00000E+00
    0.24843E+00         0.16053E-01         0.00000E+00
    0.23679E+00         0.16214E-01         0.00000E+00
    0.22516E+00         0.16282E-01         0.00000E+00
    0.21354E+00         0.16258E-01         0.00000E+00
    0.20195E+00         0.16145E-01         0.00000E+00
    0.19040E+00         0.15944E-01         0.00000E+00
    0.17890E+00         0.15657E-01         0.00000E+00
    0.16746E+00         0.15285E-01         0.00000E+00
    0.15611E+00         0.14832E-01         0.00000E+00
    0.14483E+00         0.14299E-01         0.00000E+00
    0.13365E+00         0.13689E-01         0.00000E+00
    0.12258E+00         0.13003E-01         0.00000E+00
    0.11162E+00         0.12244E-01         0.00000E+00
    0.10077E+00         0.11415E-01         0.00000E+00
    0.90055E-01         0.10518E-01         0.00000E+00
    0.79469E-01         0.95577E-02         0.00000E+00
    0.69022E-01         0.85358E-02         0.00000E+00
    0.58716E-01         0.74565E-02         0.00000E+00
    0.48556E-01         0.63233E-02         0.00000E+00
    0.38545E-01         0.51404E-02         0.00000E+00
    0.28683E-01         0.39119E-02         0.00000E+00
    0.18973E-01         0.26425E-02         0.00000E+00
    0.94123E-02         0.13369E-02         0.00000E+00
    0.00000E+00         0.00000E+00         0.00000E+00
    0.55633E+00        -0.48337E-01         0.00000E+00
    0.55117E+00        -0.44959E-01         0.00000E+00
    0.54527E+00        -0.41676E-01         0.00000E+00
    0.53869E+00        -0.38494E-01         0.00000E+00
    0.53147E+00        -0.35420E-01         0.00000E+00
    0.52365E+00        -0.32456E-01         0.00000E+00
    0.51527E+00        -0.29607E-01         0.00000E+00
    0.50636E+00        -0.26874E-01         0.00000E+00
    0.49697E+00        -0.24260E-01         0.00000E+00
    0.48713E+00        -0.21764E-01         0.00000E+00
    0.47688E+00        -0.19388E-01         0.00000E+00
    0.46626E+00        -0.17130E-01         0.00000E+00
    0.45529E+00        -0.14989E-01         0.00000E+00
    0.44400E+00        -0.12965E-01         0.00000E+00
    0.43244E+00        -0.11054E-01         0.00000E+00
    0.42062E+00        -0.92555E-02         0.00000E+00
    0.40858E+00        -0.75663E-02         0.00000E+00
    0.39634E+00        -0.59841E-02         0.00000E+00
    0.38392E+00        -0.45060E-02         0.00000E+00
    0.37136E+00        -0.31295E-02         0.00000E+00
    0.35867E+00        -0.18518E-02         0.00000E+00
    0.34588E+00        -0.67030E-03         0.00000E+00
    0.33301E+00         0.41767E-03         0.00000E+00
    0.32007E+00         0.14145E-02         0.00000E+00
    0.30709E+00         0.23226E-02         0.00000E+00
    0.29408E+00         0.31440E-02         0.00000E+00
    0.28106E+00         0.38808E-02         0.00000E+00
    0.26806E+00         0.45348E-02         0.00000E+00
    0.25507E+00         0.51075E-02         0.00000E+00
    0.24213E+00         0.56005E-02         0.00000E+00
    0.22923E+00         0.60152E-02         0.00000E+00
    0.21641E+00         0.63526E-02         0.00000E+00
    0.20366E+00         0.66139E-02         0.00000E+00
    0.19101E+00         0.68001E-02         0.00000E+00
    0.17846E+00         0.69122E-02         0.00000E+00
    0.16603E+00         0.69513E-02         0.00000E+00
    0.15372E+00         0.69184E-02         0.00000E+00
    0.14156E+00         0.68146E-02         0.00000E+00
    0.12954E+00         0.66412E-02         0.00000E+00
    0.11768E+00         0.63998E-02         0.00000E+00
    0.10600E+00         0.60920E-02         0.00000E+00
    0.94485E-01         0.57200E-02         0.00000E+00
    0.83161E-01         0.52859E-02         0.00000E+00
    0.72030E-01         0.47926E-02         0.00000E+00
    0.61100E-01         0.42431E-02         0.00000E+00
    0.50377E-01         0.36410E-02         0.00000E+00
    0.39865E-01         0.29903E-02         0.00000E+00
    0.29569E-01         0.22956E-02         0.00000E+00
    0.19491E-01         0.15619E-02         0.00000E+00
    0.96350E-02         0.79468E-03         0.00000E+00
    0.00000E+00         0.00000E+00         0.00000E+00
    0.62919E+00        -0.77022E-01         0.00000E+00
    0.62200E+00        -0.73213E-01         0.00000E+00
    0.61404E+00        -0.69525E-01         0.00000E+00
    0.60536E+00        -0.65961E-01         0.00000E+00
    0.59600E+00        -0.62524E-01         0.00000E+00
    0.58603E+00        -0.59216E-01         0.00000E+00
    0.57549E+00        -0.56037E-01         0.00000E+00
    0.56442E+00        -0.52986E-01         0.00000E+00
    0.55288E+00        -0.50063E-01         0.00000E+00
    0.54090E+00        -0.47264E-01         0.00000E+00
    0.52852E+00        -0.44587E-01         0.00000E+00
    0.51579E+00        -0.42028E-01         0.00000E+00
    0.50274E+00        -0.39582E-01         0.00000E+00
    0.48941E+00        -0.37245E-01         0.00000E+00
    0.47583E+00        -0.35013E-01         0.00000E+00
    0.46204E+00        -0.32881E-01         0.00000E+00
    0.44806E+00        -0.30843E-01         0.00000E+00
    0.43392E+00        -0.28894E-01         0.00000E+00
    0.41965E+00        -0.27030E-01         0.00000E+00
    0.40528E+00        -0.25246E-01         0.00000E+00
    0.39083E+00        -0.23538E-01         0.00000E+00
    0.37631E+00        -0.21902E-01         0.00000E+00
    0.36176E+00        -0.20333E-01         0.00000E+00
    0.34719E+00        -0.18829E-01         0.00000E+00
    0.33262E+00        -0.17387E-01         0.00000E+00
    0.31806E+00        -0.16004E-01         0.00000E+00
    0.30354E+00        -0.14679E-01         0.00000E+00
    0.28907E+00        -0.13410E-01         0.00000E+00
    0.27466E+00        -0.12197E-01         0.00000E+00
    0.26033E+00        -0.11038E-01         0.00000E+00
    0.24609E+00        -0.99345E-02         0.00000E+00
    0.23196E+00        -0.88857E-02         0.00000E+00
    0.21795E+00        -0.78925E-02         0.00000E+00
    0.20407E+00        -0.69556E-02         0.00000E+00
    0.19033E+00        -0.60760E-02         0.00000E+00
    0.17675E+00        -0.52548E-02         0.00000E+00
    0.16334E+00        -0.44930E-02         0.00000E+00
    0.15012E+00        -0.37918E-02         0.00000E+00
    0.13709E+00        -0.31520E-02         0.00000E+00
    0.12426E+00        -0.25742E-02         0.00000E+00
    0.11166E+00        -0.20587E-02         0.00000E+00
    0.99279E-01        -0.16054E-02         0.00000E+00
    0.87145E-01        -0.12137E-02         0.00000E+00
    0.75264E-01        -0.88246E-03         0.00000E+00
    0.63647E-01        -0.60976E-03         0.00000E+00
    0.52304E-01        -0.39303E-03         0.00000E+00
    0.41245E-01        -0.22890E-03         0.00000E+00
    0.30478E-01        -0.11312E-03         0.00000E+00
    0.20010E-01        -0.40571E-04         0.00000E+00
    0.98493E-02        -0.51987E-05         0.00000E+00
    0.00000E+00         0.00000E+00         0.00000E+00
    0.71121E+00        -0.11718E+00         0.00000E+00
    0.70139E+00        -0.11292E+00         0.00000E+00
    0.69078E+00        -0.10880E+00         0.00000E+00
    0.67943E+00        -0.10484E+00         0.00000E+00
    0.66742E+00        -0.10103E+00         0.00000E+00
    0.65479E+00        -0.97372E-01         0.00000E+00
    0.64161E+00        -0.93853E-01         0.00000E+00
    0.62793E+00        -0.90473E-01         0.00000E+00
    0.61381E+00        -0.87225E-01         0.00000E+00
    0.59929E+00        -0.84102E-01         0.00000E+00
    0.58442E+00        -0.81096E-01         0.00000E+00
    0.56926E+00        -0.78200E-01         0.00000E+00
    0.55383E+00        -0.75403E-01         0.00000E+00
    0.53818E+00        -0.72698E-01         0.00000E+00
    0.52235E+00        -0.70075E-01         0.00000E+00
    0.50636E+00        -0.67525E-01         0.00000E+00
    0.49025E+00        -0.65040E-01         0.00000E+00
    0.47406E+00        -0.62610E-01         0.00000E+00
    0.45779E+00        -0.60229E-01         0.00000E+00
    0.44149E+00        -0.57888E-01         0.00000E+00
    0.42517E+00        -0.55582E-01         0.00000E+00
    0.40885E+00        -0.53303E-01         0.00000E+00
    0.39255E+00        -0.51048E-01         0.00000E+00
    0.37629E+00        -0.48812E-01         0.00000E+00
    0.36008E+00        -0.46592E-01         0.00000E+00
    0.34394E+00        -0.44386E-01         0.00000E+00
    0.32788E+00        -0.42192E-01         0.00000E+00
    0.31192E+00        -0.40009E-01         0.00000E+00
    0.29606E+00        -0.37840E-01         0.00000E+00
    0.28032E+00        -0.35685E-01         0.00000E+00
    0.26470E+00        -0.33546E-01         0.00000E+00
    0.24923E+00        -0.31426E-01         0.00000E+00
    0.23391E+00        -0.29329E-01         0.00000E+00
    0.21876E+00        -0.27259E-01         0.00000E+00
    0.20378E+00        -0.25220E-01         0.00000E+00
    0.18900E+00        -0.23218E-01         0.00000E+00
    0.17441E+00        -0.21256E-01         0.00000E+00
    0.16004E+00        -0.19341E-01         0.00000E+00
    0.14590E+00        -0.17477E-01         0.00000E+00
    0.13201E+00        -0.15669E-01         0.00000E+00
    0.11838E+00        -0.13920E-01         0.00000E+00
    0.10503E+00        -0.12234E-01         0.00000E+00
    0.91965E-01        -0.10614E-01         0.00000E+00
    0.79213E-01        -0.90613E-02         0.00000E+00
    0.66787E-01        -0.75775E-02         0.00000E+00
    0.54705E-01        -0.61619E-02         0.00000E+00
    0.42982E-01        -0.48128E-02         0.00000E+00
    0.31635E-01        -0.35274E-02         0.00000E+00
    0.20680E-01        -0.23011E-02         0.00000E+00
    0.10130E-01        -0.11278E-02         0.00000E+00
    0.00000E+00         0.00000E+00         0.00000E+00
    0.80277E+00        -0.17223E+00         0.00000E+00
    0.78958E+00        -0.16750E+00         0.00000E+00
    0.77561E+00        -0.16297E+00         0.00000E+00
    0.76093E+00        -0.15861E+00         0.00000E+00
    0.74561E+00        -0.15444E+00         0.00000E+00
    0.72973E+00        -0.15043E+00         0.00000E+00
    0.71335E+00        -0.14658E+00         0.00000E+00
    0.69655E+00        -0.14287E+00         0.00000E+00
    0.67938E+00        -0.13930E+00         0.00000E+00
    0.66190E+00        -0.13584E+00         0.00000E+00
    0.64417E+00        -0.13249E+00         0.00000E+00
    0.62623E+00        -0.12922E+00         0.00000E+00
    0.60813E+00        -0.12603E+00         0.00000E+00
    0.58991E+00        -0.12289E+00         0.00000E+00
    0.57161E+00        -0.11980E+00         0.00000E+00
    0.55327E+00        -0.11673E+00         0.00000E+00
    0.53490E+00        -0.11368E+00         0.00000E+00
    0.51655E+00        -0.11063E+00         0.00000E+00
    0.49823E+00        -0.10756E+00         0.00000E+00
    0.47996E+00        -0.10447E+00         0.00000E+00
    0.46176E+00        -0.10134E+00         0.00000E+00
    0.44365E+00        -0.98174E-01         0.00000E+00
    0.42564E+00        -0.94958E-01         0.00000E+00
    0.40773E+00        -0.91689E-01         0.00000E+00
    0.38994E+00        -0.88363E-01         0.00000E+00
    0.37228E+00        -0.84979E-01         0.00000E+00
    0.35474E+00        -0.81536E-01         0.00000E+00
    0.33735E+00        -0.78036E-01         0.00000E+00
    0.32010E+00        -0.74484E-01         0.00000E+00
    0.30300E+00        -0.70883E-01         0.00000E+00
    0.28605E+00        -0.67240E-01         0.00000E+00
    0.26927E+00        -0.63562E-01         0.00000E+00
    0.25266E+00        -0.59858E-01         0.00000E+00
    0.23623E+00        -0.56137E-01         0.00000E+00
    0.21999E+00        -0.52410E-01         0.00000E+00
    0.20394E+00        -0.48688E-01         0.00000E+00
    0.18811E+00        -0.44982E-01         0.00000E+00
    0.17251E+00        -0.41303E-01         0.00000E+00
    0.15716E+00        -0.37664E-01         0.00000E+00
    0.14206E+00        -0.34074E-01         0.00000E+00
    0.12725E+00        -0.30545E-01         0.00000E+00
    0.11274E+00        -0.27086E-01         0.00000E+00
    0.98557E-01        -0.23706E-01         0.00000E+00
    0.84726E-01        -0.20412E-01         0.00000E+00
    0.71271E-01        -0.17210E-01         0.00000E+00
    0.58220E-01        -0.14103E-01         0.00000E+00
    0.45601E-01        -0.11095E-01         0.00000E+00
    0.33441E-01        -0.81840E-02         0.00000E+00
    0.21769E-01        -0.53685E-02         0.00000E+00
    0.10613E-01        -0.26430E-02         0.00000E+00
    0.00000E+00         0.00000E+00         0.00000E+00
    0.90391E+00        -0.24636E+00         0.00000E+00
    0.88645E+00        -0.24119E+00         0.00000E+00
    0.86825E+00        -0.23625E+00         0.00000E+00
    0.84942E+00        -0.23153E+00         0.00000E+00
    0.83004E+00        -0.22702E+00         0.00000E+00
    0.81020E+00        -0.22269E+00         0.00000E+00
    0.78999E+00        -0.21854E+00         0.00000E+00
    0.76948E+00        -0.21454E+00         0.00000E+00
    0.74874E+00        -0.21066E+00         0.00000E+00
    0.72785E+00        -0.20688E+00         0.00000E+00
    0.70686E+00        -0.20317E+00         0.00000E+00
    0.68583E+00        -0.19952E+00         0.00000E+00
    0.66480E+00        -0.19589E+00         0.00000E+00
    0.64382E+00        -0.19226E+00         0.00000E+00
    0.62293E+00        -0.18860E+00         0.00000E+00
    0.60215E+00        -0.18490E+00         0.00000E+00
    0.58151E+00        -0.18112E+00         0.00000E+00
    0.56103E+00        -0.17725E+00         0.00000E+00
    0.54072E+00        -0.17328E+00         0.00000E+00
    0.52060E+00        -0.16918E+00         0.00000E+00
    0.50067E+00        -0.16494E+00         0.00000E+00
    0.48093E+00        -0.16056E+00         0.00000E+00
    0.46139E+00        -0.15601E+00         0.00000E+00
    0.44205E+00        -0.15131E+00         0.00000E+00
    0.42290E+00        -0.14643E+00         0.00000E+00
    0.40393E+00        -0.14140E+00         0.00000E+00
    0.38515E+00        -0.13620E+00         0.00000E+00
    0.36654E+00        -0.13084E+00         0.00000E+00
    0.34810E+00        -0.12534E+00         0.00000E+00
    0.32982E+00        -0.11969E+00         0.00000E+00
    0.31170E+00        -0.11392E+00         0.00000E+00
    0.29374E+00        -0.10804E+00         0.00000E+00
    0.27593E+00        -0.10206E+00         0.00000E+00
    0.25829E+00        -0.96005E-01         0.00000E+00
    0.24080E+00        -0.89890E-01         0.00000E+00
    0.22349E+00        -0.83737E-01         0.00000E+00
    0.20636E+00        -0.77567E-01         0.00000E+00
    0.18943E+00        -0.71402E-01         0.00000E+00
    0.17271E+00        -0.65263E-01         0.00000E+00
    0.15622E+00        -0.59172E-01         0.00000E+00
    0.14000E+00        -0.53149E-01         0.00000E+00
    0.12406E+00        -0.47214E-01         0.00000E+00
    0.10845E+00        -0.41386E-01         0.00000E+00
    0.93193E-01        -0.35680E-01         0.00000E+00
    0.78333E-01        -0.30112E-01         0.00000E+00
    0.63912E-01        -0.24692E-01         0.00000E+00
    0.49973E-01        -0.19429E-01         0.00000E+00
    0.36564E-01        -0.14329E-01         0.00000E+00
    0.23733E-01        -0.93932E-02         0.00000E+00
    0.11528E-01        -0.46189E-02         0.00000E+00
    0.00000E+00         0.00000E+00         0.00000E+00
    0.10142E+01        -0.34473E+00         0.00000E+00
    0.99136E+00        -0.33915E+00         0.00000E+00
    0.96787E+00        -0.33386E+00         0.00000E+00
    0.94389E+00        -0.32883E+00         0.00000E+00
    0.91952E+00        -0.32406E+00         0.00000E+00
    0.89488E+00        -0.31949E+00         0.00000E+00
    0.87007E+00        -0.31511E+00         0.00000E+00
    0.84519E+00        -0.31087E+00         0.00000E+00
    0.82032E+00        -0.30673E+00         0.00000E+00
    0.79555E+00        -0.30266E+00         0.00000E+00
    0.77094E+00        -0.29862E+00         0.00000E+00
    0.74655E+00        -0.29456E+00         0.00000E+00
    0.72243E+00        -0.29044E+00         0.00000E+00
    0.69862E+00        -0.28623E+00         0.00000E+00
    0.67514E+00        -0.28188E+00         0.00000E+00
    0.65202E+00        -0.27737E+00         0.00000E+00
    0.62927E+00        -0.27265E+00         0.00000E+00
    0.60690E+00        -0.26771E+00         0.00000E+00
    0.58490E+00        -0.26252E+00         0.00000E+00
    0.56327E+00        -0.25705E+00         0.00000E+00
    0.54199E+00        -0.25129E+00         0.00000E+00
    0.52106E+00        -0.24523E+00         0.00000E+00
    0.50044E+00        -0.23886E+00         0.00000E+00
    0.48012E+00        -0.23217E+00         0.00000E+00
    0.46007E+00        -0.22516E+00         0.00000E+00
    0.44026E+00        -0.21784E+00         0.00000E+00
    0.42067E+00        -0.21021E+00         0.00000E+00
    0.40128E+00        -0.20229E+00         0.00000E+00
    0.38205E+00        -0.19409E+00         0.00000E+00
    0.36296E+00        -0.18562E+00         0.00000E+00
    0.34400E+00        -0.17691E+00         0.00000E+00
    0.32515E+00        -0.16799E+00         0.00000E+00
    0.30638E+00        -0.15887E+00         0.00000E+00
    0.28769E+00        -0.14960E+00         0.00000E+00
    0.26908E+00        -0.14020E+00         0.00000E+00
    0.25054E+00        -0.13071E+00         0.00000E+00
    0.23208E+00        -0.12115E+00         0.00000E+00
    0.21371E+00        -0.11157E+00         0.00000E+00
    0.19544E+00        -0.10201E+00         0.00000E+00
    0.17731E+00        -0.92498E-01         0.00000E+00
    0.15934E+00        -0.83073E-01         0.00000E+00
    0.14156E+00        -0.73770E-01         0.00000E+00
    0.12404E+00        -0.64623E-01         0.00000E+00
    0.10680E+00        -0.55662E-01         0.00000E+00
    0.89926E-01        -0.46917E-01         0.00000E+00
    0.73464E-01        -0.38412E-01         0.00000E+00
    0.57489E-01        -0.30166E-01         0.00000E+00
    0.42075E-01        -0.22195E-01         0.00000E+00
    0.27300E-01        -0.14509E-01         0.00000E+00
    0.13247E-01        -0.71118E-02         0.00000E+00
    0.00000E+00         0.00000E+00         0.00000E+00
    0.11328E+01        -0.47389E+00         0.00000E+00
    0.11030E+01        -0.46796E+00         0.00000E+00
    0.10729E+01        -0.46240E+00         0.00000E+00
    0.10424E+01        -0.45718E+00         0.00000E+00
    0.10119E+01        -0.45225E+00         0.00000E+00
    0.98141E+00        -0.44756E+00         0.00000E+00
    0.95110E+00        -0.44306E+00         0.00000E+00
    0.92109E+00        -0.43868E+00         0.00000E+00
    0.89150E+00        -0.43437E+00         0.00000E+00
    0.86241E+00        -0.43005E+00         0.00000E+00
    0.83389E+00        -0.42566E+00         0.00000E+00
    0.80602E+00        -0.42114E+00         0.00000E+00
    0.77882E+00        -0.41642E+00         0.00000E+00
    0.75232E+00        -0.41146E+00         0.00000E+00
    0.72653E+00        -0.40619E+00         0.00000E+00
    0.70147E+00        -0.40057E+00         0.00000E+00
    0.67710E+00        -0.39455E+00         0.00000E+00
    0.65341E+00        -0.38811E+00         0.00000E+00
    0.63036E+00        -0.38120E+00         0.00000E+00
    0.60793E+00        -0.37381E+00         0.00000E+00
    0.58605E+00        -0.36593E+00         0.00000E+00
    0.56469E+00        -0.35753E+00         0.00000E+00
    0.54379E+00        -0.34861E+00         0.00000E+00
    0.52329E+00        -0.33917E+00         0.00000E+00
    0.50314E+00        -0.32922E+00         0.00000E+00
    0.48328E+00        -0.31877E+00         0.00000E+00
    0.46364E+00        -0.30783E+00         0.00000E+00
    0.44419E+00        -0.29642E+00         0.00000E+00
    0.42485E+00        -0.28457E+00         0.00000E+00
    0.40559E+00        -0.27230E+00         0.00000E+00
    0.38636E+00        -0.25965E+00         0.00000E+00
    0.36710E+00        -0.24665E+00         0.00000E+00
    0.34780E+00        -0.23335E+00         0.00000E+00
    0.32840E+00        -0.21978E+00         0.00000E+00
    0.30890E+00        -0.20600E+00         0.00000E+00
    0.28927E+00        -0.19205E+00         0.00000E+00
    0.26951E+00        -0.17799E+00         0.00000E+00
    0.24962E+00        -0.16387E+00         0.00000E+00
    0.22960E+00        -0.14975E+00         0.00000E+00
    0.20949E+00        -0.13569E+00         0.00000E+00
    0.18932E+00        -0.12174E+00         0.00000E+00
    0.16912E+00        -0.10797E+00         0.00000E+00
    0.14897E+00        -0.94428E-01         0.00000E+00
    0.12892E+00        -0.81174E-01         0.00000E+00
    0.10907E+00        -0.68259E-01         0.00000E+00
    0.89504E-01        -0.55728E-01         0.00000E+00
    0.70330E-01        -0.43622E-01         0.00000E+00
    0.51663E-01        -0.31976E-01         0.00000E+00
    0.33629E-01        -0.20814E-01         0.00000E+00
    0.16362E-01        -0.10154E-01         0.00000E+00
    0.00000E+00         0.00000E+00         0.00000E+00
    0.12580E+01        -0.64271E+00         0.00000E+00
    0.12193E+01        -0.63653E+00         0.00000E+00
    0.11805E+01        -0.63083E+00         0.00000E+00
    0.11418E+01        -0.62556E+00         0.00000E+00
    0.11035E+01        -0.62064E+00         0.00000E+00
    0.10658E+01        -0.61599E+00         0.00000E+00
    0.10289E+01        -0.61150E+00         0.00000E+00
    0.99294E+00        -0.60707E+00         0.00000E+00
    0.95806E+00        -0.60259E+00         0.00000E+00
    0.92437E+00        -0.59796E+00         0.00000E+00
    0.89192E+00        -0.59308E+00         0.00000E+00
    0.86075E+00        -0.58785E+00         0.00000E+00
    0.83089E+00        -0.58219E+00         0.00000E+00
    0.80231E+00        -0.57602E+00         0.00000E+00
    0.77498E+00        -0.56928E+00         0.00000E+00
    0.74886E+00        -0.56190E+00         0.00000E+00
    0.72388E+00        -0.55385E+00         0.00000E+00
    0.69997E+00        -0.54509E+00         0.00000E+00
    0.67703E+00        -0.53559E+00         0.00000E+00
    0.65498E+00        -0.52534E+00         0.00000E+00
    0.63373E+00        -0.51433E+00         0.00000E+00
    0.61317E+00        -0.50256E+00         0.00000E+00
    0.59321E+00        -0.49003E+00         0.00000E+00
    0.57374E+00        -0.47676E+00         0.00000E+00
    0.55466E+00        -0.46277E+00         0.00000E+00
    0.53589E+00        -0.44806E+00         0.00000E+00
    0.51731E+00        -0.43268E+00         0.00000E+00
    0.49884E+00        -0.41665E+00         0.00000E+00
    0.48040E+00        -0.40001E+00         0.00000E+00
    0.46189E+00        -0.38279E+00         0.00000E+00
    0.44323E+00        -0.36504E+00         0.00000E+00
    0.42435E+00        -0.34680E+00         0.00000E+00
    0.40517E+00        -0.32812E+00         0.00000E+00
    0.38564E+00        -0.30907E+00         0.00000E+00
    0.36571E+00        -0.28969E+00         0.00000E+00
    0.34531E+00        -0.27006E+00         0.00000E+00
    0.32443E+00        -0.25024E+00         0.00000E+00
    0.30304E+00        -0.23031E+00         0.00000E+00
    0.28112E+00        -0.21034E+00         0.00000E+00
    0.25869E+00        -0.19044E+00         0.00000E+00
    0.23577E+00        -0.17067E+00         0.00000E+00
    0.21241E+00        -0.15113E+00         0.00000E+00
    0.18867E+00        -0.13192E+00         0.00000E+00
    0.16463E+00        -0.11312E+00         0.00000E+00
    0.14040E+00        -0.94831E-01         0.00000E+00
    0.11612E+00        -0.77136E-01         0.00000E+00
    0.91932E-01        -0.60116E-01         0.00000E+00
    0.68023E-01        -0.43841E-01         0.00000E+00
    0.44587E-01        -0.28370E-01         0.00000E+00
    0.21834E-01        -0.13746E-01         0.00000E+00
    0.00000E+00         0.00000E+00         0.00000E+00
    0.13871E+01        -0.86484E+00         0.00000E+00
    0.13361E+01        -0.85843E+00         0.00000E+00
    0.12855E+01        -0.85270E+00         0.00000E+00
    0.12359E+01        -0.84753E+00         0.00000E+00
    0.11877E+01        -0.84275E+00         0.00000E+00
    0.11411E+01        -0.83819E+00         0.00000E+00
    0.10964E+01        -0.83366E+00         0.00000E+00
    0.10538E+01        -0.82898E+00         0.00000E+00
    0.10135E+01        -0.82398E+00         0.00000E+00
    0.97549E+00        -0.81849E+00         0.00000E+00
    0.93977E+00        -0.81238E+00         0.00000E+00
    0.90630E+00        -0.80552E+00         0.00000E+00
    0.87502E+00        -0.79781E+00         0.00000E+00
    0.84581E+00        -0.78918E+00         0.00000E+00
    0.81854E+00        -0.77957E+00         0.00000E+00
    0.79307E+00        -0.76895E+00         0.00000E+00
    0.76923E+00        -0.75728E+00         0.00000E+00
    0.74686E+00        -0.74457E+00         0.00000E+00
    0.72580E+00        -0.73082E+00         0.00000E+00
    0.70589E+00        -0.71604E+00         0.00000E+00
    0.68696E+00        -0.70025E+00         0.00000E+00
    0.66886E+00        -0.68348E+00         0.00000E+00
    0.65143E+00        -0.66576E+00         0.00000E+00
    0.63453E+00        -0.64711E+00         0.00000E+00
    0.61801E+00        -0.62759E+00         0.00000E+00
    0.60173E+00        -0.60721E+00         0.00000E+00
    0.58557E+00        -0.58603E+00         0.00000E+00
    0.56938E+00        -0.56408E+00         0.00000E+00
    0.55306E+00        -0.54141E+00         0.00000E+00
    0.53647E+00        -0.51805E+00         0.00000E+00
    0.51950E+00        -0.49405E+00         0.00000E+00
    0.50203E+00        -0.46945E+00         0.00000E+00
    0.48396E+00        -0.44432E+00         0.00000E+00
    0.46518E+00        -0.41869E+00         0.00000E+00
    0.44559E+00        -0.39264E+00         0.00000E+00
    0.42509E+00        -0.36622E+00         0.00000E+00
    0.40359E+00        -0.33952E+00         0.00000E+00
    0.38104E+00        -0.31261E+00         0.00000E+00
    0.35735E+00        -0.28559E+00         0.00000E+00
    0.33250E+00        -0.25856E+00         0.00000E+00
    0.30645E+00        -0.23164E+00         0.00000E+00
    0.27921E+00        -0.20495E+00         0.00000E+00
    0.25082E+00        -0.17864E+00         0.00000E+00
    0.22136E+00        -0.15286E+00         0.00000E+00
    0.19092E+00        -0.12776E+00         0.00000E+00
    0.15967E+00        -0.10351E+00         0.00000E+00
    0.12781E+00        -0.80247E-01         0.00000E+00
    0.95587E-01        -0.58137E-01         0.00000E+00
    0.63304E-01        -0.37319E-01         0.00000E+00
    0.31322E-01        -0.17917E-01         0.00000E+00
    0.00000E+00         0.00000E+00         0.00000E+00
    0.15131E+01        -0.11643E+01         0.00000E+00
    0.14437E+01        -0.11573E+01         0.00000E+00
    0.13763E+01        -0.11513E+01         0.00000E+00
    0.13120E+01        -0.11459E+01         0.00000E+00
    0.12511E+01        -0.11408E+01         0.00000E+00
    0.11941E+01        -0.11355E+01         0.00000E+00
    0.11412E+01        -0.11298E+01         0.00000E+00
    0.10925E+01        -0.11234E+01         0.00000E+00
    0.10480E+01        -0.11160E+01         0.00000E+00
    0.10075E+01        -0.11074E+01         0.00000E+00
    0.97083E+00        -0.10974E+01         0.00000E+00
    0.93766E+00        -0.10861E+01         0.00000E+00
    0.90771E+00        -0.10733E+01         0.00000E+00
    0.88066E+00        -0.10591E+01         0.00000E+00
    0.85620E+00        -0.10434E+01         0.00000E+00
    0.83404E+00        -0.10263E+01         0.00000E+00
    0.81388E+00        -0.10079E+01         0.00000E+00
    0.79545E+00        -0.98817E+00         0.00000E+00
    0.77849E+00        -0.96724E+00         0.00000E+00
    0.76277E+00        -0.94516E+00         0.00000E+00
    0.74807E+00        -0.92200E+00         0.00000E+00
    0.73418E+00        -0.89782E+00         0.00000E+00
    0.72092E+00        -0.87270E+00         0.00000E+00
    0.70810E+00        -0.84667E+00         0.00000E+00
    0.69555E+00        -0.81981E+00         0.00000E+00
    0.68312E+00        -0.79215E+00         0.00000E+00
    0.67065E+00        -0.76375E+00         0.00000E+00
    0.65799E+00        -0.73463E+00         0.00000E+00
    0.64500E+00        -0.70484E+00         0.00000E+00
    0.63153E+00        -0.67442E+00         0.00000E+00
    0.61744E+00        -0.64338E+00         0.00000E+00
    0.60259E+00        -0.61175E+00         0.00000E+00
    0.58682E+00        -0.57957E+00         0.00000E+00
    0.56999E+00        -0.54687E+00         0.00000E+00
    0.55193E+00        -0.51367E+00         0.00000E+00
    0.53250E+00        -0.48002E+00         0.00000E+00
    0.51153E+00        -0.44596E+00         0.00000E+00
    0.48885E+00        -0.41155E+00         0.00000E+00
    0.46430E+00        -0.37685E+00         0.00000E+00
    0.43773E+00        -0.34197E+00         0.00000E+00
    0.40897E+00        -0.30701E+00         0.00000E+00
    0.37791E+00        -0.27211E+00         0.00000E+00
    0.34444E+00        -0.23745E+00         0.00000E+00
    0.30851E+00        -0.20324E+00         0.00000E+00
    0.27013E+00        -0.16972E+00         0.00000E+00
    0.22938E+00        -0.13717E+00         0.00000E+00
    0.18644E+00        -0.10591E+00         0.00000E+00
    0.14160E+00        -0.76239E-01         0.00000E+00
    0.95217E-01        -0.48485E-01         0.00000E+00
    0.47766E-01        -0.22949E-01         0.00000E+00
    0.00000E+00         0.00000E+00         0.00000E+00
    0.16109E+01        -0.15868E+01         0.00000E+00
    0.15125E+01        -0.15769E+01         0.00000E+00
    0.14215E+01        -0.15679E+01         0.00000E+00
    0.13384E+01        -0.15592E+01         0.00000E+00
    0.12638E+01        -0.15501E+01         0.00000E+00
    0.11976E+01        -0.15397E+01         0.00000E+00
    0.11396E+01        -0.15276E+01         0.00000E+00
    0.10890E+01        -0.15134E+01         0.00000E+00
    0.10453E+01        -0.14971E+01         0.00000E+00
    0.10075E+01        -0.14785E+01         0.00000E+00
    0.97498E+00        -0.14579E+01         0.00000E+00
    0.94694E+00        -0.14352E+01         0.00000E+00
    0.92277E+00        -0.14106E+01         0.00000E+00
    0.90187E+00        -0.13843E+01         0.00000E+00
    0.88374E+00        -0.13566E+01         0.00000E+00
    0.86794E+00        -0.13274E+01         0.00000E+00
    0.85408E+00        -0.12971E+01         0.00000E+00
    0.84180E+00        -0.12657E+01         0.00000E+00
    0.83082E+00        -0.12333E+01         0.00000E+00
    0.82087E+00        -0.12002E+01         0.00000E+00
    0.81172E+00        -0.11663E+01         0.00000E+00
    0.80316E+00        -0.11319E+01         0.00000E+00
    0.79500E+00        -0.10969E+01         0.00000E+00
    0.78708E+00        -0.10614E+01         0.00000E+00
    0.77925E+00        -0.10255E+01         0.00000E+00
    0.77135E+00        -0.98914E+00         0.00000E+00
    0.76324E+00        -0.95245E+00         0.00000E+00
    0.75480E+00        -0.91541E+00         0.00000E+00
    0.74587E+00        -0.87802E+00         0.00000E+00
    0.73633E+00        -0.84030E+00         0.00000E+00
    0.72603E+00        -0.80222E+00         0.00000E+00
    0.71481E+00        -0.76380E+00         0.00000E+00
    0.70252E+00        -0.72500E+00         0.00000E+00
    0.68898E+00        -0.68581E+00         0.00000E+00
    0.67399E+00        -0.64620E+00         0.00000E+00
    0.65734E+00        -0.60615E+00         0.00000E+00
    0.63879E+00        -0.56565E+00         0.00000E+00
    0.61809E+00        -0.52466E+00         0.00000E+00
    0.59492E+00        -0.48319E+00         0.00000E+00
    0.56897E+00        -0.44124E+00         0.00000E+00
    0.53988E+00        -0.39884E+00         0.00000E+00
    0.50724E+00        -0.35605E+00         0.00000E+00
    0.47065E+00        -0.31298E+00         0.00000E+00
    0.42966E+00        -0.26979E+00         0.00000E+00
    0.38387E+00        -0.22675E+00         0.00000E+00
    0.33291E+00        -0.18419E+00         0.00000E+00
    0.27653E+00        -0.14262E+00         0.00000E+00
    0.21471E+00        -0.10267E+00         0.00000E+00
    0.14769E+00        -0.65081E-01         0.00000E+00
    0.76025E-01        -0.30667E-01         0.00000E+00
    0.00000E+00         0.00000E+00         0.00000E+00
    0.15887E+01        -0.22051E+01         0.00000E+00
    0.14511E+01        -0.21816E+01         0.00000E+00
    0.13335E+01        -0.21589E+01         0.00000E+00
    0.12364E+01        -0.21341E+01         0.00000E+00
    0.11573E+01        -0.21061E+01         0.00000E+00
    0.10935E+01        -0.20746E+01         0.00000E+00
    0.10420E+01        -0.20397E+01         0.00000E+00
    0.10006E+01        -0.20017E+01         0.00000E+00
    0.96728E+00        -0.19612E+01         0.00000E+00
    0.94037E+00        -0.19185E+01         0.00000E+00
    0.91862E+00        -0.18742E+01         0.00000E+00
    0.90099E+00        -0.18286E+01         0.00000E+00
    0.88666E+00        -0.17820E+01         0.00000E+00
    0.87495E+00        -0.17349E+01         0.00000E+00
    0.86534E+00        -0.16873E+01         0.00000E+00
    0.85739E+00        -0.16395E+01         0.00000E+00
    0.85074E+00        -0.15916E+01         0.00000E+00
    0.84509E+00        -0.15438E+01         0.00000E+00
    0.84022E+00        -0.14962E+01         0.00000E+00
    0.83591E+00        -0.14489E+01         0.00000E+00
    0.83199E+00        -0.14018E+01         0.00000E+00
    0.82833E+00        -0.13551E+01         0.00000E+00
    0.82478E+00        -0.13088E+01         0.00000E+00
    0.82124E+00        -0.12628E+01         0.00000E+00
    0.81760E+00        -0.12172E+01         0.00000E+00
    0.81376E+00        -0.11719E+01         0.00000E+00
    0.80962E+00        -0.11270E+01         0.00000E+00
    0.80509E+00        -0.10823E+01         0.00000E+00
    0.80007E+00        -0.10380E+01         0.00000E+00
    0.79447E+00        -0.99379E+00         0.00000E+00
    0.78815E+00        -0.94981E+00         0.00000E+00
    0.78102E+00        -0.90594E+00         0.00000E+00
    0.77292E+00        -0.86211E+00         0.00000E+00
    0.76369E+00        -0.81826E+00         0.00000E+00
    0.75317E+00        -0.77431E+00         0.00000E+00
    0.74112E+00        -0.73017E+00         0.00000E+00
    0.72731E+00        -0.68574E+00         0.00000E+00
    0.71143E+00        -0.64092E+00         0.00000E+00
    0.69313E+00        -0.59559E+00         0.00000E+00
    0.67197E+00        -0.54964E+00         0.00000E+00
    0.64744E+00        -0.50293E+00         0.00000E+00
    0.61890E+00        -0.45534E+00         0.00000E+00
    0.58560E+00        -0.40677E+00         0.00000E+00
    0.54659E+00        -0.35711E+00         0.00000E+00
    0.50075E+00        -0.30632E+00         0.00000E+00
    0.44672E+00        -0.25445E+00         0.00000E+00
    0.38292E+00        -0.20171E+00         0.00000E+00
    0.30759E+00        -0.14857E+00         0.00000E+00
    0.21898E+00        -0.95942E-01         0.00000E+00
    0.11605E+00        -0.45477E-01         0.00000E+00
    0.00000E+00         0.00000E+00         0.00000E+00
    0.11869E+01        -0.30451E+01         0.00000E+00
    0.10326E+01        -0.29795E+01         0.00000E+00
    0.92753E+00        -0.29058E+01         0.00000E+00
    0.85400E+00        -0.28267E+01         0.00000E+00
    0.80150E+00        -0.27443E+01         0.00000E+00
    0.76342E+00        -0.26604E+01         0.00000E+00
    0.73545E+00        -0.25764E+01         0.00000E+00
    0.71472E+00        -0.24930E+01         0.00000E+00
    0.69925E+00        -0.24109E+01         0.00000E+00
    0.68765E+00        -0.23305E+01         0.00000E+00
    0.67893E+00        -0.22520E+01         0.00000E+00
    0.67236E+00        -0.21756E+01         0.00000E+00
    0.66740E+00        -0.21013E+01         0.00000E+00
    0.66366E+00        -0.20292E+01         0.00000E+00
    0.66083E+00        -0.19591E+01         0.00000E+00
    0.65867E+00        -0.18911E+01         0.00000E+00
    0.65702E+00        -0.18250E+01         0.00000E+00
    0.65573E+00        -0.17609E+01         0.00000E+00
    0.65468E+00        -0.16985E+01         0.00000E+00
    0.65378E+00        -0.16378E+01         0.00000E+00
    0.65296E+00        -0.15788E+01         0.00000E+00
    0.65216E+00        -0.15212E+01         0.00000E+00
    0.65131E+00        -0.14651E+01         0.00000E+00
    0.65037E+00        -0.14104E+01         0.00000E+00
    0.64930E+00        -0.13569E+01         0.00000E+00
    0.64805E+00        -0.13045E+01         0.00000E+00
    0.64658E+00        -0.12532E+01         0.00000E+00
    0.64484E+00        -0.12029E+01         0.00000E+00
    0.64279E+00        -0.11536E+01         0.00000E+00
    0.64038E+00        -0.11050E+01         0.00000E+00
    0.63754E+00        -0.10572E+01         0.00000E+00
    0.63421E+00        -0.10100E+01         0.00000E+00
    0.63031E+00        -0.96336E+00         0.00000E+00
    0.62576E+00        -0.91718E+00         0.00000E+00
    0.62044E+00        -0.87135E+00         0.00000E+00
    0.61421E+00        -0.82575E+00         0.00000E+00
    0.60692E+00        -0.78025E+00         0.00000E+00
    0.59836E+00        -0.73472E+00         0.00000E+00
    0.58829E+00        -0.68898E+00         0.00000E+00
    0.57638E+00        -0.64284E+00         0.00000E+00
    0.56224E+00        -0.59609E+00         0.00000E+00
    0.54534E+00        -0.54846E+00         0.00000E+00
    0.52500E+00        -0.49963E+00         0.00000E+00
    0.50033E+00        -0.44922E+00         0.00000E+00
    0.47011E+00        -0.39676E+00         0.00000E+00
    0.43266E+00        -0.34169E+00         0.00000E+00
    0.38564E+00        -0.28332E+00         0.00000E+00
    0.32564E+00        -0.22086E+00         0.00000E+00
    0.24753E+00        -0.15338E+00         0.00000E+00
    0.14334E+00        -0.79969E-01         0.00000E+00
    0.00000E+00         0.00000E+00         0.00000E+00
    0.00000E+00        -0.36991E+01         0.00000E+00
    0.00000E+00        -0.35390E+01         0.00000E+00
    0.00000E+00        -0.33839E+01         0.00000E+00
    0.00000E+00        -0.32364E+01         0.00000E+00
    0.00000E+00        -0.30973E+01         0.00000E+00
    0.00000E+00        -0.29663E+01         0.00000E+00
    0.00000E+00        -0.28431E+01         0.00000E+00
    0.00000E+00        -0.27270E+01         0.00000E+00
    0.00000E+00        -0.26175E+01         0.00000E+00
    0.00000E+00        -0.25139E+01         0.00000E+00
    0.00000E+00        -0.24157E+01         0.00000E+00
    0.00000E+00        -0.23225E+01         0.00000E+00
    0.00000E+00        -0.22337E+01         0.00000E+00
    0.00000E+00        -0.21490E+01         0.00000E+00
    0.00000E+00        -0.20681E+01         0.00000E+00
    0.00000E+00        -0.19906E+01         0.00000E+00
    0.00000E+00        -0.19162E+01         0.00000E+00
    0.00000E+00        -0.18447E+01         0.00000E+00
    0.00000E+00        -0.17759E+01         0.00000E+00
    0.00000E+00        -0.17096E+01         0.00000E+00
    0.00000E+00        -0.16455E+01         0.00000E+00
    0.00000E+00        -0.15835E+01         0.00000E+00
    0.00000E+00        -0.15234E+01         0.00000E+00
    0.00000E+00        -0.14651E+01         0.00000E+00
    0.00000E+00        -0.14085E+01         0.00000E+00
    0.00000E+00        -0.13534E+01         0.00000E+00
    0.00000E+00        -0.12997E+01         0.00000E+00
    0.00000E+00        -0.12473E+01         0.00000E+00
    0.00000E+00        -0.11961E+01         0.00000E+00
    0.00000E+00        -0.11460E+01         0.00000E+00
    0.00000E+00        -0.10968E+01         0.00000E+00
    0.00000E+00        -0.10486E+01         0.00000E+00
    0.00000E+00        -0.10011E+01         0.00000E+00
    0.00000E+00        -0.95434E+00         0.00000E+00
    0.00000E+00        -0.90813E+00         0.00000E+00
    0.00000E+00        -0.86239E+00         0.00000E+00
    0.00000E+00        -0.81697E+00         0.00000E+00
    0.00000E+00        -0.77174E+00         0.00000E+00
    0.00000E+00        -0.72654E+00         0.00000E+00
    0.00000E+00        -0.68116E+00         0.00000E+00
    0.00000E+00        -0.63538E+00         0.00000E+00
    0.00000E+00        -0.58889E+00         0.00000E+00
    0.00000E+00        -0.54134E+00         0.00000E+00
    0.00000E+00        -0.49223E+00         0.00000E+00
    0.00000E+00        -0.44094E+00         0.00000E+00
    0.00000E+00        -0.38659E+00         0.00000E+00
    0.00000E+00        -0.32798E+00         0.00000E+00
    0.00000E+00        -0.26339E+00         0.00000E+00
    0.00000E+00        -0.19024E+00         0.00000E+00
    0.00000E+00        -0.10458E+00         0.00000E+00
    0.00000E+00         0.00000E+00         0.00000E+00
CELL_DATA       5000
VECTORS vDarcy double 
    0.11216E-05         0.00000E+00         0.00000E+00
    0.11216E-05        -0.27940E-20         0.00000E+00
    0.11216E-05         0.00000E+00         0.00000E+00
    0.11216E-05         0.18626E-20         0.00000E+00
    0.11216E-05         0.60536E-20         0.00000E+00
    0.11216E-05         0.18626E-20         0.00000E+00
    0.11216E-05        -0.41910E-20         0.00000E+00
    0.11216E-05        -0.23283E-20         0.00000E+00
    0.11216E-05        -0.27940E-20         0.00000E+00
    0.11216E-05         0.00000E+00         0.00000E+00
    0.11216E-05        -0.41910E-20         0.00000E+00
    0.11216E-05        -0.27940E-20         0.00000E+00
    0.11216E-05        -0.88476E-20         0.00000E+00
    0.11216E-05         0.30268E-20         0.00000E+00
    0.11216E-05         0.25611E-20         0.00000E+00
    0.11216E-05        -0.46566E-20         0.00000E+00
    0.11216E-05         0.00000E+00         0.00000E+00
    0.11216E-05         0.27940E-20         0.00000E+00
    0.11216E-05         0.00000E+00         0.00000E+00
    0.11216E-05         0.00000E+00         0.00000E+00
    0.11216E-05         0.46566E-21         0.00000E+00
    0.11216E-05         0.46566E-20         0.00000E+00
    0.11216E-05         0.51223E-20         0.00000E+00
    0.11216E-05        -0.69849E-21         0.00000E+00
    0.11216E-05         0.23283E-20         0.00000E+00
    0.11216E-05        -0.37253E-20         0.00000E+00
    0.11216E-05         0.37253E-20         0.00000E+00
    0.11216E-05        -0.23283E-20         0.00000E+00
    0.11216E-05         0.23283E-20         0.00000E+00
    0.11216E-05        -0.23283E-20         0.00000E+00
    0.11216E-05         0.00000E+00         0.00000E+00
    0.11216E-05         0.74506E-20         0.00000E+00
    0.11216E-05         0.23283E-20         0.00000E+00
    0.11216E-05         0.69849E-20         0.00000E+00
    0.11216E-05         0.00000E+00         0.00000E+00
    0.11216E-05         0.46566E-20         0.00000E+00
    0.11216E-05        -0.23283E-20         0.00000E+00
    0.11216E-05        -0.23283E-20         0.00000E+00
    0.11216E-05        -0.41910E-20         0.00000E+00
    0.11216E-05         0.00000E+00         0.00000E+00
    0.11216E-05         0.18626E-20         0.00000E+00
    0.11216E-05         0.27940E-20         0.00000E+00
    0.11216E-05         0.00000E+00         0.00000E+00
    0.11216E-05         0.46566E-21         0.00000E+00
    0.11216E-05        -0.11642E-20         0.00000E+00
    0.11216E-05         0.00000E+00         0.00000E+00
    0.11216E-05         0.46566E-21         0.00000E+00
    0.11216E-05         0.00000E+00         0.00000E+00
    0.11216E-05        -0.27940E-20         0.00000E+00
    0.11216E-05        -0.46566E-21         0.00000E+00
    0.60721E-06         0.65193E-20         0.00000E+00
    0.60721E-06         0.18626E-20         0.00000E+00
    0.60721E-06        -0.69849E-20         0.00000E+00
    0.60721E-06        -0.32596E-20         0.00000E+00
    0.60721E-06         0.23283E-21         0.00000E+00
    0.60721E-06        -0.23283E-20         0.00000E+00
    0.60721E-06        -0.65193E-20         0.00000E+00
    0.60721E-06        -0.65193E-20         0.00000E+00
    0.60721E-06         0.13970E-20         0.00000E+00
    0.60721E-06        -0.13970E-19         0.00000E+00
    0.60721E-06         0.46566E-21         0.00000E+00
    0.60721E-06        -0.30268E-20         0.00000E+00
    0.60721E-06         0.23283E-20         0.00000E+00
    0.60721E-06         0.23283E-21         0.00000E+00
    0.60721E-06         0.37253E-20         0.00000E+00
    0.60721E-06        -0.37253E-20         0.00000E+00
    0.60721E-06         0.27940E-20         0.00000E+00
    0.60721E-06         0.37253E-20         0.00000E+00
    0.60721E-06         0.46566E-20         0.00000E+00
    0.60721E-06         0.46566E-20         0.00000E+00
    0.60721E-06         0.23283E-20         0.00000E+00
    0.60721E-06        -0.83819E-20         0.00000E+00
    0.60721E-06        -0.65193E-20         0.00000E+00
    0.60721E-06        -0.90804E-20         0.00000E+00
    0.60721E-06        -0.20955E-20         0.00000E+00
    0.60721E-06        -0.72177E-20         0.00000E+00
    0.60721E-06        -0.32596E-20         0.00000E+00
    0.60721E-06        -0.18626E-20         0.00000E+00
    0.60721E-06        -0.27940E-20         0.00000E+00
    0.60721E-06         0.12107E-19         0.00000E+00
    0.60721E-06         0.69849E-20         0.00000E+00
    0.60721E-06         0.18626E-19         0.00000E+00
    0.60721E-06         0.11642E-19         0.00000E+00
    0.60721E-06         0.46566E-20         0.00000E+00
    0.60721E-06         0.00000E+00         0.00000E+00
    0.60721E-06         0.32596E-20         0.00000E+00
    0.60721E-06        -0.18626E-20         0.00000E+00
    0.60721E-06         0.46566E-20         0.00000E+00
    0.60721E-06         0.55879E-20         0.00000E+00
    0.60721E-06         0.23283E-20         0.00000E+00
    0.60721E-06         0.67521E-20         0.00000E+00
    0.60721E-06         0.23283E-20         0.00000E+00
    0.60721E-06        -0.74506E-20         0.00000E+00
    0.60721E-06        -0.76834E-20         0.00000E+00
    0.60721E-06        -0.10943E-19         0.00000E+00
    0.60721E-06        -0.51223E-20         0.00000E+00
    0.60721E-06         0.18626E-20         0.00000E+00
    0.60721E-06        -0.27940E-20         0.00000E+00
    0.60721E-06        -0.37253E-20         0.00000E+00
    0.60721E-06        -0.39581E-20         0.00000E+00
    0.20579E-06        -0.18626E-20         0.00000E+00
    0.20579E-06        -0.23283E-21         0.00000E+00
    0.20579E-06        -0.11409E-19         0.00000E+00
    0.20579E-06        -0.93132E-20         0.00000E+00
    0.20579E-06        -0.88476E-20         0.00000E+00
    0.20579E-06        -0.10943E-19         0.00000E+00
    0.20579E-06        -0.16531E-19         0.00000E+00
    0.20579E-06        -0.34925E-20         0.00000E+00
    0.20579E-06         0.17695E-19         0.00000E+00
    0.20579E-06         0.76834E-20         0.00000E+00
    0.20579E-06         0.18161E-19         0.00000E+00
    0.20579E-06        -0.39581E-20         0.00000E+00
    0.20579E-06         0.83819E-20         0.00000E+00
    0.20579E-06        -0.23283E-20         0.00000E+00
    0.20579E-06         0.27940E-20         0.00000E+00
    0.20579E-06        -0.23283E-20         0.00000E+00
    0.20579E-06         0.55879E-20         0.00000E+00
    0.20579E-06         0.46566E-20         0.00000E+00
    0.20579E-06         0.88476E-20         0.00000E+00
    0.20579E-06         0.10245E-19         0.00000E+00
    0.20579E-06        -0.11642E-20         0.00000E+00
    0.20579E-06        -0.17229E-19         0.00000E+00
    0.20579E-06        -0.16298E-19         0.00000E+00
    0.20579E-06        -0.12806E-19         0.00000E+00
    0.20579E-06        -0.14901E-19         0.00000E+00
    0.20579E-06         0.27940E-20         0.00000E+00
    0.20579E-06        -0.48894E-20         0.00000E+00
    0.20579E-06         0.30268E-20         0.00000E+00
    0.20579E-06         0.79162E-20         0.00000E+00
    0.20579E-06         0.22817E-19         0.00000E+00
    0.20579E-06         0.74506E-20         0.00000E+00
    0.20579E-06         0.16065E-19         0.00000E+00
    0.20579E-06         0.69849E-20         0.00000E+00
    0.20579E-06         0.93132E-21         0.00000E+00
    0.20579E-06         0.46566E-21         0.00000E+00
    0.20579E-06        -0.93132E-20         0.00000E+00
    0.20579E-06        -0.16997E-19         0.00000E+00
    0.20579E-06        -0.32596E-20         0.00000E+00
    0.20579E-06        -0.46566E-21         0.00000E+00
    0.20579E-06        -0.51223E-20         0.00000E+00
    0.20579E-06         0.39581E-20         0.00000E+00
    0.20579E-06         0.46566E-21         0.00000E+00
    0.20579E-06        -0.46566E-21         0.00000E+00
    0.20579E-06        -0.15367E-19         0.00000E+00
    0.20579E-06        -0.88476E-20         0.00000E+00
    0.20579E-06        -0.16298E-20         0.00000E+00
    0.20579E-06         0.69849E-20         0.00000E+00
    0.20579E-06         0.16298E-20         0.00000E+00
    0.20579E-06         0.46566E-21         0.00000E+00
    0.20579E-06        -0.32596E-20         0.00000E+00
    0.51764E-07        -0.32596E-20         0.00000E+00
    0.51764E-07        -0.74506E-20         0.00000E+00
    0.51764E-07        -0.14435E-19         0.00000E+00
    0.51764E-07         0.00000E+00         0.00000E+00
    0.51764E-07        -0.32596E-20         0.00000E+00
    0.51764E-07        -0.93132E-21         0.00000E+00
    0.51764E-07         0.13970E-20         0.00000E+00
    0.51764E-07         0.37253E-20         0.00000E+00
    0.51764E-07         0.11176E-19         0.00000E+00
    0.51764E-07         0.13504E-19         0.00000E+00
    0.51764E-07         0.16764E-19         0.00000E+00
    0.51764E-07         0.93132E-21         0.00000E+00
    0.51764E-07         0.11642E-19         0.00000E+00
    0.51764E-07         0.83819E-20         0.00000E+00
    0.51764E-07         0.74506E-20         0.00000E+00
    0.51764E-07        -0.18626E-20         0.00000E+00
    0.51764E-07         0.00000E+00         0.00000E+00
    0.51764E-07         0.67521E-20         0.00000E+00
    0.51764E-07        -0.23283E-21         0.00000E+00
    0.51764E-07         0.37253E-20         0.00000E+00
    0.51764E-07        -0.10710E-19         0.00000E+00
    0.51764E-07        -0.18626E-20         0.00000E+00
    0.51764E-07         0.46566E-21         0.00000E+00
    0.51764E-07        -0.97789E-20         0.00000E+00
    0.51764E-07         0.13970E-20         0.00000E+00
    0.51764E-07         0.97789E-20         0.00000E+00
    0.51764E-07         0.93132E-20         0.00000E+00
    0.51764E-07        -0.46566E-21         0.00000E+00
    0.51764E-07         0.79162E-20         0.00000E+00
    0.51764E-07         0.18626E-20         0.00000E+00
    0.51764E-07         0.93132E-20         0.00000E+00
    0.51764E-07         0.10245E-19         0.00000E+00
    0.51764E-07        -0.93132E-21         0.00000E+00
    0.51764E-07        -0.60536E-20         0.00000E+00
    0.51764E-07         0.00000E+00         0.00000E+00
    0.51764E-07        -0.11642E-19         0.00000E+00
    0.51764E-07        -0.12107E-19         0.00000E+00
    0.51764E-07        -0.46566E-20         0.00000E+00
    0.51764E-07        -0.18626E-20         0.00000E+00
    0.51764E-07        -0.12107E-19         0.00000E+00
    0.51764E-07        -0.13504E-19         0.00000E+00
    0.51764E-07         0.23283E-20         0.00000E+00
    0.51764E-07        -0.93132E-21         0.00000E+00
    0.51764E-07        -0.41910E-20         0.00000E+00
    0.51764E-07        -0.27940E-20         0.00000E+00
    0.51764E-07         0.93132E-21         0.00000E+00
    0.51764E-07         0.93132E-21         0.00000E+00
    0.51764E-07        -0.13970E-20         0.00000E+00
    0.51764E-07         0.69849E-20         0.00000E+00
    0.51764E-07         0.18626E-20         0.00000E+00
    0.11066E-07        -0.93132E-21         0.00000E+00
    0.11066E-07        -0.23283E-20         0.00000E+00
    0.11066E-07         0.18626E-20         0.00000E+00
    0.11066E-07         0.72177E-20         0.00000E+00
    0.11066E-07         0.30268E-20         0.00000E+00
    0.11066E-07         0.10245E-19         0.00000E+00
    0.11066E-07         0.93132E-20         0.00000E+00
    0.11066E-07        -0.23283E-20         0.00000E+00
    0.11066E-07        -0.93132E-20         0.00000E+00
    0.11066E-07        -0.23283E-20         0.00000E+00
    0.11066E-07         0.46566E-20         0.00000E+00
    0.11066E-07        -0.34925E-20         0.00000E+00
    0.11066E-07         0.13504E-19         0.00000E+00
    0.11066E-07         0.14203E-19         0.00000E+00
    0.11066E-07         0.13039E-19         0.00000E+00
    0.11066E-07         0.13504E-19         0.00000E+00
    0.11066E-07         0.46566E-20         0.00000E+00
    0.11066E-07         0.00000E+00         0.00000E+00
    0.11066E-07        -0.13970E-20         0.00000E+00
    0.11066E-07        -0.18626E-20         0.00000E+00
    0.11066E-07        -0.51223E-20         0.00000E+00
    0.11066E-07         0.23283E-20         0.00000E+00
    0.11066E-07         0.32596E-20         0.00000E+00
    0.11066E-07        -0.51223E-20         0.00000E+00
    0.11066E-07         0.12107E-19         0.00000E+00
    0.11066E-07         0.11176E-19         0.00000E+00
    0.11066E-07         0.16298E-20         0.00000E+00
    0.11066E-07        -0.46566E-20         0.00000E+00
    0.11066E-07        -0.83819E-20         0.00000E+00
    0.11066E-07        -0.46566E-21         0.00000E+00
    0.11066E-07         0.11642E-19         0.00000E+00
    0.11066E-07        -0.93132E-21         0.00000E+00
    0.11066E-07        -0.93132E-21         0.00000E+00
    0.11066E-07        -0.65193E-20         0.00000E+00
    0.11066E-07        -0.51223E-20         0.00000E+00
    0.11066E-07        -0.83819E-20         0.00000E+00
    0.11066E-07         0.12573E-19         0.00000E+00
    0.11066E-07         0.14901E-19         0.00000E+00
    0.11066E-07         0.83819E-20         0.00000E+00
    0.11066E-07         0.27940E-20         0.00000E+00
    0.11066E-07        -0.55879E-20         0.00000E+00
    0.11066E-07        -0.13039E-19         0.00000E+00
    0.11066E-07        -0.24214E-19         0.00000E+00
    0.11066E-07        -0.74506E-20         0.00000E+00
    0.11066E-07        -0.12573E-19         0.00000E+00
    0.11066E-07        -0.55879E-20         0.00000E+00
    0.11066E-07        -0.11874E-19         0.00000E+00
    0.11066E-07        -0.16764E-19         0.00000E+00
    0.11066E-07        -0.18626E-20         0.00000E+00
    0.11066E-07         0.23283E-20         0.00000E+00
    0.21408E-08        -0.32596E-20         0.00000E+00
    0.21408E-08         0.27940E-20         0.00000E+00
    0.21408E-08         0.95461E-20         0.00000E+00
    0.21408E-08         0.13039E-19         0.00000E+00
    0.21408E-08         0.23283E-20         0.00000E+00
    0.21408E-08        -0.55879E-20         0.00000E+00
    0.21408E-08        -0.41910E-20         0.00000E+00
    0.21408E-08        -0.69849E-20         0.00000E+00
    0.21408E-08        -0.10245E-19         0.00000E+00
    0.21408E-08         0.41910E-20         0.00000E+00
    0.21408E-08         0.65193E-20         0.00000E+00
    0.21408E-08        -0.39581E-20         0.00000E+00
    0.21408E-08         0.18626E-20         0.00000E+00
    0.21408E-08         0.12573E-19         0.00000E+00
    0.21408E-08         0.12107E-19         0.00000E+00
    0.21408E-08         0.19092E-19         0.00000E+00
    0.21408E-08         0.14435E-19         0.00000E+00
    0.21408E-08         0.79162E-20         0.00000E+00
    0.21408E-08         0.13970E-20         0.00000E+00
    0.21408E-08         0.00000E+00         0.00000E+00
    0.21408E-08        -0.51223E-20         0.00000E+00
    0.21408E-08         0.13970E-20         0.00000E+00
    0.21408E-08        -0.23283E-20         0.00000E+00
    0.21408E-08        -0.93132E-21         0.00000E+00
    0.21408E-08         0.18626E-20         0.00000E+00
    0.21408E-08         0.11176E-19         0.00000E+00
    0.21408E-08        -0.93132E-21         0.00000E+00
    0.21408E-08         0.65193E-20         0.00000E+00
    0.21408E-08        -0.37253E-20         0.00000E+00
    0.21408E-08         0.65193E-20         0.00000E+00
    0.21408E-08        -0.32596E-20         0.00000E+00
    0.21408E-08        -0.93132E-21         0.00000E+00
    0.21408E-08         0.23283E-20         0.00000E+00
    0.21408E-08         0.10710E-19         0.00000E+00
    0.21408E-08        -0.11176E-19         0.00000E+00
    0.21408E-08        -0.10710E-19         0.00000E+00
    0.21408E-08         0.32596E-20         0.00000E+00
    0.21408E-08         0.18626E-20         0.00000E+00
    0.21408E-08         0.13970E-20         0.00000E+00
    0.21408E-08         0.13970E-20         0.00000E+00
    0.21408E-08         0.13970E-20         0.00000E+00
    0.21408E-08        -0.13504E-19         0.00000E+00
    0.21408E-08        -0.20955E-19         0.00000E+00
    0.21408E-08        -0.26543E-19         0.00000E+00
    0.21408E-08        -0.18394E-19         0.00000E+00
    0.21408E-08        -0.37253E-20         0.00000E+00
    0.21408E-08        -0.27940E-20         0.00000E+00
    0.21408E-08        -0.16298E-19         0.00000E+00
    0.21408E-08        -0.97789E-20         0.00000E+00
    0.21408E-08         0.32596E-20         0.00000E+00
    0.38719E-09         0.48894E-20         0.00000E+00
    0.38719E-09        -0.93132E-21         0.00000E+00
    0.38719E-09        -0.23283E-20         0.00000E+00
    0.38719E-09         0.32596E-20         0.00000E+00
    0.38719E-09         0.13970E-20         0.00000E+00
    0.38719E-09        -0.14435E-19         0.00000E+00
    0.38719E-09        -0.79162E-20         0.00000E+00
    0.38719E-09        -0.16764E-19         0.00000E+00
    0.38719E-09        -0.16298E-19         0.00000E+00
    0.38719E-09        -0.18626E-20         0.00000E+00
    0.38719E-09        -0.41910E-20         0.00000E+00
    0.38719E-09         0.12573E-19         0.00000E+00
    0.38719E-09         0.97789E-20         0.00000E+00
    0.38719E-09         0.16298E-19         0.00000E+00
    0.38719E-09         0.16298E-19         0.00000E+00
    0.38719E-09         0.65193E-20         0.00000E+00
    0.38719E-09         0.14435E-19         0.00000E+00
    0.38719E-09         0.46566E-20         0.00000E+00
    0.38719E-09        -0.23283E-20         0.00000E+00
    0.38719E-09        -0.93132E-20         0.00000E+00
    0.38719E-09        -0.11642E-19         0.00000E+00
    0.38719E-09        -0.23283E-20         0.00000E+00
    0.38719E-09         0.23283E-20         0.00000E+00
    0.38719E-09        -0.27940E-20         0.00000E+00
    0.38719E-09         0.18626E-20         0.00000E+00
    0.38719E-09         0.13970E-19         0.00000E+00
    0.38719E-09         0.28405E-19         0.00000E+00
    0.38719E-09         0.27940E-19         0.00000E+00
    0.38719E-09         0.65193E-20         0.00000E+00
    0.38719E-09        -0.46566E-20         0.00000E+00
    0.38719E-09        -0.93132E-21         0.00000E+00
    0.38719E-09        -0.79162E-20         0.00000E+00
    0.38719E-09        -0.12107E-19         0.00000E+00
    0.38719E-09        -0.51223E-20         0.00000E+00
    0.38719E-09        -0.14435E-19         0.00000E+00
    0.38719E-09        -0.46566E-20         0.00000E+00
    0.38719E-09        -0.69849E-20         0.00000E+00
    0.38719E-09        -0.12107E-19         0.00000E+00
    0.38719E-09         0.90804E-20         0.00000E+00
    0.38719E-09         0.81491E-20         0.00000E+00
    0.38719E-09        -0.93132E-21         0.00000E+00
    0.38719E-09         0.46566E-21         0.00000E+00
    0.38719E-09        -0.11409E-19         0.00000E+00
    0.38719E-09        -0.18161E-19         0.00000E+00
    0.38719E-09        -0.20955E-19         0.00000E+00
    0.38719E-09        -0.10710E-19         0.00000E+00
    0.38719E-09        -0.37253E-20         0.00000E+00
    0.38719E-09        -0.13039E-19         0.00000E+00
    0.38719E-09        -0.55879E-20         0.00000E+00
    0.38719E-09         0.37253E-20         0.00000E+00
    0.66734E-10         0.00000E+00         0.00000E+00
    0.66734E-10        -0.23283E-20         0.00000E+00
    0.66734E-10        -0.18626E-20         0.00000E+00
    0.66734E-10         0.41910E-20         0.00000E+00
    0.66734E-10        -0.55879E-20         0.00000E+00
    0.66734E-10        -0.12107E-19         0.00000E+00
    0.66734E-10        -0.17229E-19         0.00000E+00
    0.66734E-10        -0.69849E-20         0.00000E+00
    0.66734E-10        -0.14901E-19         0.00000E+00
    0.66734E-10        -0.69849E-20         0.00000E+00
    0.66734E-10        -0.13970E-20         0.00000E+00
    0.66734E-10         0.23283E-20         0.00000E+00
    0.66734E-10        -0.13970E-20         0.00000E+00
    0.66734E-10         0.12107E-19         0.00000E+00
    0.66734E-10         0.32596E-20         0.00000E+00
    0.66734E-10         0.83819E-20         0.00000E+00
    0.66734E-10         0.65193E-20         0.00000E+00
    0.66734E-10         0.51223E-20         0.00000E+00
    0.66734E-10        -0.41910E-20         0.00000E+00
    0.66734E-10        -0.93132E-20         0.00000E+00
    0.66734E-10        -0.88476E-20         0.00000E+00
    0.66734E-10        -0.41910E-20         0.00000E+00
    0.66734E-10         0.46566E-20         0.00000E+00
    0.66734E-10         0.10710E-19         0.00000E+00
    0.66734E-10         0.23283E-20         0.00000E+00
    0.66734E-10         0.76834E-20         0.00000E+00
    0.66734E-10         0.27940E-19         0.00000E+00
    0.66734E-10         0.30268E-19         0.00000E+00
    0.66734E-10         0.65193E-20         0.00000E+00
    0.66734E-10        -0.60536E-20         0.00000E+00
    0.66734E-10         0.93132E-21         0.00000E+00
    0.66734E-10        -0.13970E-19         0.00000E+00
    0.66734E-10        -0.29802E-19         0.00000E+00
    0.66734E-10        -0.69849E-20         0.00000E+00
    0.66734E-10        -0.51223E-20         0.00000E+00
    0.66734E-10         0.13970E-20         0.00000E+00
    0.66734E-10         0.65193E-20         0.00000E+00
    0.66734E-10         0.60536E-20         0.00000E+00
    0.66734E-10         0.74506E-20         0.00000E+00
    0.66734E-10         0.83819E-20         0.00000E+00
    0.66734E-10        -0.95461E-20         0.00000E+00
    0.66734E-10        -0.83819E-20         0.00000E+00
    0.66734E-10        -0.16298E-19         0.00000E+00
    0.66734E-10        -0.12340E-19         0.00000E+00
    0.66734E-10        -0.20489E-19         0.00000E+00
    0.66734E-10        -0.16764E-19         0.00000E+00
    0.66734E-10        -0.10710E-19         0.00000E+00
    0.66734E-10        -0.93132E-20         0.00000E+00
    0.66734E-10        -0.37253E-20         0.00000E+00
    0.66734E-10         0.46566E-20         0.00000E+00
    0.11093E-10         0.23283E-21         0.00000E+00
    0.11093E-10         0.46566E-20         0.00000E+00
    0.11093E-10         0.83819E-20         0.00000E+00
    0.11093E-10         0.65193E-20         0.00000E+00
    0.11093E-10        -0.27940E-20         0.00000E+00
    0.11093E-10        -0.58208E-20         0.00000E+00
    0.11093E-10        -0.15600E-19         0.00000E+00
    0.11093E-10        -0.12107E-19         0.00000E+00
    0.11093E-10        -0.69849E-20         0.00000E+00
    0.11093E-10        -0.14435E-19         0.00000E+00
    0.11093E-10        -0.97789E-20         0.00000E+00
    0.11093E-10        -0.46566E-20         0.00000E+00
    0.11093E-10        -0.14203E-19         0.00000E+00
    0.11093E-10        -0.23283E-20         0.00000E+00
    0.11093E-10        -0.23283E-21         0.00000E+00
    0.11093E-10        -0.55879E-20         0.00000E+00
    0.11093E-10         0.32596E-20         0.00000E+00
    0.11093E-10         0.65193E-20         0.00000E+00
    0.11093E-10         0.46566E-21         0.00000E+00
    0.11093E-10        -0.18626E-20         0.00000E+00
    0.11093E-10        -0.79162E-20         0.00000E+00
    0.11093E-10        -0.88476E-20         0.00000E+00
    0.11093E-10        -0.65193E-20         0.00000E+00
    0.11093E-10         0.53551E-20         0.00000E+00
    0.11093E-10         0.17229E-19         0.00000E+00
    0.11093E-10         0.12340E-19         0.00000E+00
    0.11093E-10         0.79162E-20         0.00000E+00
    0.11093E-10         0.26543E-19         0.00000E+00
    0.11093E-10         0.15367E-19         0.00000E+00
    0.11093E-10         0.55879E-20         0.00000E+00
    0.11093E-10        -0.18626E-20         0.00000E+00
    0.11093E-10        -0.97789E-20         0.00000E+00
    0.11093E-10        -0.76834E-20         0.00000E+00
    0.11093E-10         0.13970E-20         0.00000E+00
    0.11093E-10         0.18626E-20         0.00000E+00
    0.11093E-10        -0.18626E-20         0.00000E+00
    0.11093E-10        -0.51223E-20         0.00000E+00
    0.11093E-10         0.15832E-19         0.00000E+00
    0.11093E-10         0.46566E-20         0.00000E+00
    0.11093E-10        -0.46566E-21         0.00000E+00
    0.11093E-10        -0.74506E-20         0.00000E+00
    0.11093E-10        -0.16298E-20         0.00000E+00
    0.11093E-10        -0.11642E-19         0.00000E+00
    0.11093E-10        -0.17695E-19         0.00000E+00
    0.11093E-10        -0.24913E-19         0.00000E+00
    0.11093E-10        -0.11642E-19         0.00000E+00
    0.11093E-10        -0.23283E-21         0.00000E+00
    0.11093E-10        -0.55879E-20         0.00000E+00
    0.11093E-10        -0.46566E-21         0.00000E+00
    0.11093E-10         0.23283E-20         0.00000E+00
    0.17928E-11         0.23283E-21         0.00000E+00
    0.17928E-11         0.55879E-20         0.00000E+00
    0.17928E-11         0.12107E-19         0.00000E+00
    0.17928E-11         0.13271E-19         0.00000E+00
    0.17928E-11        -0.44238E-20         0.00000E+00
    0.17928E-11        -0.53551E-20         0.00000E+00
    0.17928E-11        -0.11642E-19         0.00000E+00
    0.17928E-11        -0.22352E-19         0.00000E+00
    0.17928E-11        -0.27940E-19         0.00000E+00
    0.17928E-11        -0.18161E-19         0.00000E+00
    0.17928E-11        -0.13737E-19         0.00000E+00
    0.17928E-11         0.48894E-20         0.00000E+00
    0.17928E-11        -0.10245E-19         0.00000E+00
    0.17928E-11        -0.46566E-20         0.00000E+00
    0.17928E-11        -0.74506E-20         0.00000E+00
    0.17928E-11        -0.69849E-20         0.00000E+00
    0.17928E-11         0.51223E-20         0.00000E+00
    0.17928E-11         0.60536E-20         0.00000E+00
    0.17928E-11         0.79162E-20         0.00000E+00
    0.17928E-11        -0.65193E-20         0.00000E+00
    0.17928E-11        -0.11176E-19         0.00000E+00
    0.17928E-11        -0.17229E-19         0.00000E+00
    0.17928E-11        -0.20023E-19         0.00000E+00
    0.17928E-11        -0.41910E-20         0.00000E+00
    0.17928E-11         0.19558E-19         0.00000E+00
    0.17928E-11         0.18161E-19         0.00000E+00
    0.17928E-11         0.12573E-19         0.00000E+00
    0.17928E-11         0.24680E-19         0.00000E+00
    0.17928E-11         0.11176E-19         0.00000E+00
    0.17928E-11         0.27940E-20         0.00000E+00
    0.17928E-11        -0.27940E-20         0.00000E+00
    0.17928E-11        -0.20955E-20         0.00000E+00
    0.17928E-11        -0.81491E-20         0.00000E+00
    0.17928E-11        -0.65193E-20         0.00000E+00
    0.17928E-11        -0.12107E-19         0.00000E+00
    0.17928E-11         0.74506E-20         0.00000E+00
    0.17928E-11        -0.37253E-20         0.00000E+00
    0.17928E-11         0.83819E-20         0.00000E+00
    0.17928E-11        -0.46566E-21         0.00000E+00
    0.17928E-11        -0.93132E-21         0.00000E+00
    0.17928E-11        -0.65193E-20         0.00000E+00
    0.17928E-11         0.25611E-20         0.00000E+00
    0.17928E-11        -0.13271E-19         0.00000E+00
    0.17928E-11        -0.23749E-19         0.00000E+00
    0.17928E-11        -0.12573E-19         0.00000E+00
    0.17928E-11        -0.10710E-19         0.00000E+00
    0.17928E-11         0.83819E-20         0.00000E+00
    0.17928E-11        -0.20955E-20         0.00000E+00
    0.17928E-11         0.27940E-20         0.00000E+00
    0.17928E-11        -0.46566E-21         0.00000E+00
    0.28328E-12         0.41910E-20         0.00000E+00
    0.28328E-12         0.14901E-19         0.00000E+00
    0.28328E-12         0.12573E-19         0.00000E+00
    0.28328E-12         0.17462E-19         0.00000E+00
    0.28328E-12         0.46566E-21         0.00000E+00
    0.28328E-12        -0.62864E-20         0.00000E+00
    0.28328E-12        -0.19558E-19         0.00000E+00
    0.28328E-12        -0.21188E-19         0.00000E+00
    0.28328E-12        -0.37719E-19         0.00000E+00
    0.28328E-12        -0.18161E-19         0.00000E+00
    0.28328E-12        -0.65193E-20         0.00000E+00
    0.28328E-12        -0.16298E-20         0.00000E+00
    0.28328E-12        -0.14435E-19         0.00000E+00
    0.28328E-12         0.93132E-21         0.00000E+00
    0.28328E-12        -0.12107E-19         0.00000E+00
    0.28328E-12         0.86147E-20         0.00000E+00
    0.28328E-12         0.41910E-20         0.00000E+00
    0.28328E-12         0.13970E-19         0.00000E+00
    0.28328E-12         0.74506E-20         0.00000E+00
    0.28328E-12        -0.83819E-20         0.00000E+00
    0.28328E-12        -0.93132E-20         0.00000E+00
    0.28328E-12        -0.13970E-19         0.00000E+00
    0.28328E-12        -0.16764E-19         0.00000E+00
    0.28328E-12        -0.79162E-20         0.00000E+00
    0.28328E-12         0.86147E-20         0.00000E+00
    0.28328E-12         0.74506E-20         0.00000E+00
    0.28328E-12         0.65193E-20         0.00000E+00
    0.28328E-12         0.13504E-19         0.00000E+00
    0.28328E-12         0.74506E-20         0.00000E+00
    0.28328E-12        -0.37253E-20         0.00000E+00
    0.28328E-12        -0.46566E-20         0.00000E+00
    0.28328E-12         0.55879E-20         0.00000E+00
    0.28328E-12        -0.74506E-20         0.00000E+00
    0.28328E-12        -0.79162E-20         0.00000E+00
    0.28328E-12        -0.10245E-19         0.00000E+00
    0.28328E-12         0.74506E-20         0.00000E+00
    0.28328E-12         0.93132E-21         0.00000E+00
    0.28328E-12        -0.51223E-20         0.00000E+00
    0.28328E-12         0.16298E-20         0.00000E+00
    0.28328E-12        -0.46566E-20         0.00000E+00
    0.28328E-12        -0.16298E-19         0.00000E+00
    0.28328E-12        -0.37253E-20         0.00000E+00
    0.28328E-12        -0.17229E-19         0.00000E+00
    0.28328E-12        -0.16298E-19         0.00000E+00
    0.28328E-12        -0.10710E-19         0.00000E+00
    0.28328E-12        -0.12573E-19         0.00000E+00
    0.28328E-12         0.69849E-21         0.00000E+00
    0.28328E-12        -0.18626E-20         0.00000E+00
    0.28328E-12         0.13970E-20         0.00000E+00
    0.28328E-12         0.88476E-20         0.00000E+00
    0.43943E-13         0.11642E-19         0.00000E+00
    0.43943E-13         0.60536E-20         0.00000E+00
    0.43943E-13         0.13970E-19         0.00000E+00
    0.43943E-13         0.51223E-20         0.00000E+00
    0.43943E-13        -0.93132E-21         0.00000E+00
    0.43943E-13        -0.10943E-19         0.00000E+00
    0.43943E-13        -0.24680E-19         0.00000E+00
    0.43943E-13        -0.24680E-19         0.00000E+00
    0.43943E-13        -0.32829E-19         0.00000E+00
    0.43943E-13        -0.11642E-19         0.00000E+00
    0.43943E-13        -0.13970E-19         0.00000E+00
    0.43943E-13        -0.69849E-20         0.00000E+00
    0.43943E-13        -0.16298E-19         0.00000E+00
    0.43943E-13         0.11176E-19         0.00000E+00
    0.43943E-13        -0.16298E-20         0.00000E+00
    0.43943E-13         0.41910E-20         0.00000E+00
    0.43943E-13         0.46566E-21         0.00000E+00
    0.43943E-13         0.11176E-19         0.00000E+00
    0.43943E-13         0.10477E-19         0.00000E+00
    0.43943E-13        -0.11176E-19         0.00000E+00
    0.43943E-13        -0.32596E-20         0.00000E+00
    0.43943E-13        -0.79162E-20         0.00000E+00
    0.43943E-13        -0.88476E-20         0.00000E+00
    0.43943E-13        -0.90804E-20         0.00000E+00
    0.43943E-13        -0.93132E-21         0.00000E+00
    0.43943E-13        -0.27940E-20         0.00000E+00
    0.43943E-13         0.30268E-20         0.00000E+00
    0.43943E-13         0.13271E-19         0.00000E+00
    0.43943E-13         0.11642E-19         0.00000E+00
    0.43943E-13         0.00000E+00         0.00000E+00
    0.43943E-13        -0.37253E-20         0.00000E+00
    0.43943E-13         0.81491E-20         0.00000E+00
    0.43943E-13         0.11642E-20         0.00000E+00
    0.43943E-13         0.55879E-20         0.00000E+00
    0.43943E-13         0.60536E-20         0.00000E+00
    0.43943E-13        -0.69849E-20         0.00000E+00
    0.43943E-13        -0.83819E-20         0.00000E+00
    0.43943E-13        -0.72177E-20         0.00000E+00
    0.43943E-13         0.93132E-21         0.00000E+00
    0.43943E-13        -0.14901E-19         0.00000E+00
    0.43943E-13        -0.16764E-19         0.00000E+00
    0.43943E-13        -0.69849E-20         0.00000E+00
    0.43943E-13        -0.22352E-19         0.00000E+00
    0.43943E-13        -0.17695E-19         0.00000E+00
    0.43943E-13        -0.24680E-19         0.00000E+00
    0.43943E-13        -0.76834E-20         0.00000E+00
    0.43943E-13        -0.13970E-20         0.00000E+00
    0.43943E-13        -0.32596E-20         0.00000E+00
    0.43943E-13        -0.93132E-21         0.00000E+00
    0.43943E-13         0.23283E-21         0.00000E+00
    0.67129E-14         0.74506E-20         0.00000E+00
    0.67129E-14         0.46566E-20         0.00000E+00
    0.67129E-14         0.41910E-20         0.00000E+00
    0.67129E-14         0.46566E-21         0.00000E+00
    0.67129E-14        -0.60536E-20         0.00000E+00
    0.67129E-14        -0.20489E-19         0.00000E+00
    0.67129E-14        -0.16298E-19         0.00000E+00
    0.67129E-14        -0.26077E-19         0.00000E+00
    0.67129E-14        -0.18161E-19         0.00000E+00
    0.67129E-14        -0.14901E-19         0.00000E+00
    0.67129E-14        -0.13970E-19         0.00000E+00
    0.67129E-14         0.23283E-20         0.00000E+00
    0.67129E-14        -0.12806E-19         0.00000E+00
    0.67129E-14         0.10943E-19         0.00000E+00
    0.67129E-14        -0.41910E-20         0.00000E+00
    0.67129E-14         0.27940E-20         0.00000E+00
    0.67129E-14         0.65193E-20         0.00000E+00
    0.67129E-14         0.19558E-19         0.00000E+00
    0.67129E-14         0.15367E-19         0.00000E+00
    0.67129E-14        -0.10710E-19         0.00000E+00
    0.67129E-14        -0.88476E-20         0.00000E+00
    0.67129E-14        -0.11176E-19         0.00000E+00
    0.67129E-14        -0.14901E-19         0.00000E+00
    0.67129E-14        -0.13970E-19         0.00000E+00
    0.67129E-14        -0.51223E-20         0.00000E+00
    0.67129E-14        -0.69849E-20         0.00000E+00
    0.67129E-14         0.65193E-20         0.00000E+00
    0.67129E-14         0.18626E-19         0.00000E+00
    0.67129E-14         0.37253E-20         0.00000E+00
    0.67129E-14        -0.11642E-19         0.00000E+00
    0.67129E-14        -0.11176E-19         0.00000E+00
    0.67129E-14         0.37253E-20         0.00000E+00
    0.67129E-14         0.46566E-20         0.00000E+00
    0.67129E-14         0.97789E-20         0.00000E+00
    0.67129E-14         0.90804E-20         0.00000E+00
    0.67129E-14        -0.51223E-20         0.00000E+00
    0.67129E-14        -0.83819E-20         0.00000E+00
    0.67129E-14        -0.67521E-20         0.00000E+00
    0.67129E-14        -0.74506E-20         0.00000E+00
    0.67129E-14        -0.16298E-19         0.00000E+00
    0.67129E-14        -0.20955E-19         0.00000E+00
    0.67129E-14        -0.12107E-19         0.00000E+00
    0.67129E-14        -0.14901E-19         0.00000E+00
    0.67129E-14        -0.24680E-19         0.00000E+00
    0.67129E-14        -0.11176E-19         0.00000E+00
    0.67129E-14        -0.74506E-20         0.00000E+00
    0.67129E-14         0.93132E-21         0.00000E+00
    0.67129E-14        -0.23283E-20         0.00000E+00
    0.67129E-14        -0.41910E-20         0.00000E+00
    0.67129E-14        -0.32596E-20         0.00000E+00
    0.10122E-14         0.23283E-20         0.00000E+00
    0.10122E-14         0.10477E-19         0.00000E+00
    0.10122E-14        -0.46566E-21         0.00000E+00
    0.10122E-14         0.13970E-20         0.00000E+00
    0.10123E-14        -0.46566E-20         0.00000E+00
    0.10122E-14        -0.15832E-19         0.00000E+00
    0.10122E-14        -0.19092E-19         0.00000E+00
    0.10123E-14        -0.25611E-19         0.00000E+00
    0.10123E-14        -0.18626E-19         0.00000E+00
    0.10123E-14        -0.14435E-19         0.00000E+00
    0.10123E-14        -0.10710E-19         0.00000E+00
    0.10123E-14         0.88476E-20         0.00000E+00
    0.10123E-14         0.23283E-20         0.00000E+00
    0.10123E-14         0.37253E-20         0.00000E+00
    0.10123E-14        -0.37253E-20         0.00000E+00
    0.10122E-14         0.79162E-20         0.00000E+00
    0.10122E-14         0.88476E-20         0.00000E+00
    0.10122E-14         0.23749E-19         0.00000E+00
    0.10122E-14         0.16531E-19         0.00000E+00
    0.10122E-14        -0.90804E-20         0.00000E+00
    0.10122E-14        -0.14901E-19         0.00000E+00
    0.10122E-14        -0.16298E-19         0.00000E+00
    0.10122E-14        -0.30734E-19         0.00000E+00
    0.10123E-14        -0.13039E-19         0.00000E+00
    0.10123E-14         0.13970E-20         0.00000E+00
    0.10123E-14        -0.93132E-21         0.00000E+00
    0.10123E-14         0.23283E-20         0.00000E+00
    0.10123E-14         0.13970E-19         0.00000E+00
    0.10123E-14         0.13970E-20         0.00000E+00
    0.10123E-14        -0.14435E-19         0.00000E+00
    0.10123E-14        -0.12107E-19         0.00000E+00
    0.10123E-14         0.00000E+00         0.00000E+00
    0.10123E-14         0.10710E-19         0.00000E+00
    0.10122E-14         0.65193E-20         0.00000E+00
    0.10123E-14         0.97789E-20         0.00000E+00
    0.10123E-14         0.13970E-20         0.00000E+00
    0.10123E-14        -0.27940E-20         0.00000E+00
    0.10122E-14        -0.88476E-20         0.00000E+00
    0.10122E-14        -0.69849E-20         0.00000E+00
    0.10122E-14        -0.93132E-20         0.00000E+00
    0.10122E-14        -0.16997E-19         0.00000E+00
    0.10122E-14        -0.93132E-20         0.00000E+00
    0.10122E-14        -0.19558E-19         0.00000E+00
    0.10122E-14        -0.22817E-19         0.00000E+00
    0.10122E-14        -0.46566E-20         0.00000E+00
    0.10122E-14        -0.79162E-20         0.00000E+00
    0.10122E-14         0.23283E-20         0.00000E+00
    0.10122E-14        -0.25611E-20         0.00000E+00
    0.10122E-14         0.93132E-21         0.00000E+00
    0.10122E-14         0.18626E-20         0.00000E+00
    0.15094E-15         0.46566E-20         0.00000E+00
    0.15095E-15         0.51223E-20         0.00000E+00
    0.15095E-15        -0.30268E-20         0.00000E+00
    0.15095E-15        -0.18626E-20         0.00000E+00
    0.15095E-15        -0.88476E-20         0.00000E+00
    0.15095E-15        -0.16298E-19         0.00000E+00
    0.15095E-15        -0.22817E-19         0.00000E+00
    0.15095E-15        -0.29337E-19         0.00000E+00
    0.15095E-15        -0.21653E-19         0.00000E+00
    0.15095E-15        -0.14901E-19         0.00000E+00
    0.15095E-15        -0.88476E-20         0.00000E+00
    0.15095E-15         0.27940E-20         0.00000E+00
    0.15096E-15        -0.32596E-20         0.00000E+00
    0.15096E-15         0.93132E-20         0.00000E+00
    0.15096E-15         0.69849E-21         0.00000E+00
    0.15095E-15         0.18161E-19         0.00000E+00
    0.15095E-15         0.16764E-19         0.00000E+00
    0.15095E-15         0.25611E-19         0.00000E+00
    0.15095E-15         0.12107E-19         0.00000E+00
    0.15095E-15        -0.37253E-20         0.00000E+00
    0.15095E-15        -0.15134E-19         0.00000E+00
    0.15095E-15        -0.10245E-19         0.00000E+00
    0.15095E-15        -0.27474E-19         0.00000E+00
    0.15094E-15        -0.18626E-19         0.00000E+00
    0.15094E-15        -0.11176E-19         0.00000E+00
    0.15095E-15         0.69849E-20         0.00000E+00
    0.15095E-15        -0.23283E-20         0.00000E+00
    0.15095E-15         0.10710E-19         0.00000E+00
    0.15095E-15         0.46566E-21         0.00000E+00
    0.15095E-15        -0.11874E-19         0.00000E+00
    0.15095E-15        -0.88476E-20         0.00000E+00
    0.15094E-15         0.69849E-20         0.00000E+00
    0.15094E-15         0.13970E-19         0.00000E+00
    0.15094E-15         0.79162E-20         0.00000E+00
    0.15094E-15         0.69849E-20         0.00000E+00
    0.15094E-15        -0.23283E-20         0.00000E+00
    0.15094E-15         0.65193E-20         0.00000E+00
    0.15094E-15        -0.27940E-20         0.00000E+00
    0.15094E-15        -0.41910E-20         0.00000E+00
    0.15094E-15        -0.13271E-19         0.00000E+00
    0.15094E-15        -0.18394E-19         0.00000E+00
    0.15095E-15        -0.83819E-20         0.00000E+00
    0.15095E-15        -0.25146E-19         0.00000E+00
    0.15095E-15        -0.22352E-19         0.00000E+00
    0.15095E-15        -0.17695E-19         0.00000E+00
    0.15095E-15        -0.69849E-20         0.00000E+00
    0.15095E-15         0.58208E-20         0.00000E+00
    0.15095E-15         0.18626E-20         0.00000E+00
    0.15095E-15         0.37253E-20         0.00000E+00
    0.15095E-15         0.00000E+00         0.00000E+00
    0.22294E-16         0.41910E-20         0.00000E+00
    0.22293E-16         0.44238E-20         0.00000E+00
    0.22293E-16        -0.25611E-20         0.00000E+00
    0.22294E-16        -0.32596E-20         0.00000E+00
    0.22295E-16        -0.15134E-19         0.00000E+00
    0.22295E-16        -0.21420E-19         0.00000E+00
    0.22295E-16        -0.19325E-19         0.00000E+00
    0.22293E-16        -0.21886E-19         0.00000E+00
    0.22290E-16        -0.22585E-19         0.00000E+00
    0.22289E-16        -0.15832E-19         0.00000E+00
    0.22290E-16        -0.18859E-19         0.00000E+00
    0.22291E-16        -0.39581E-20         0.00000E+00
    0.22291E-16        -0.15832E-19         0.00000E+00
    0.22292E-16         0.83819E-20         0.00000E+00
    0.22293E-16         0.25611E-20         0.00000E+00
    0.22292E-16         0.24680E-19         0.00000E+00
    0.22294E-16         0.15832E-19         0.00000E+00
    0.22294E-16         0.27707E-19         0.00000E+00
    0.22289E-16         0.19558E-19         0.00000E+00
    0.22288E-16         0.00000E+00         0.00000E+00
    0.22287E-16        -0.11176E-19         0.00000E+00
    0.22287E-16        -0.11176E-19         0.00000E+00
    0.22289E-16        -0.20023E-19         0.00000E+00
    0.22291E-16        -0.18161E-19         0.00000E+00
    0.22291E-16        -0.88476E-20         0.00000E+00
    0.22292E-16        -0.69849E-20         0.00000E+00
    0.22292E-16         0.46566E-21         0.00000E+00
    0.22291E-16         0.14435E-19         0.00000E+00
    0.22291E-16        -0.27940E-20         0.00000E+00
    0.22292E-16        -0.65193E-20         0.00000E+00
    0.22290E-16        -0.37253E-20         0.00000E+00
    0.22290E-16         0.97789E-20         0.00000E+00
    0.22293E-16         0.69849E-20         0.00000E+00
    0.22295E-16         0.46566E-20         0.00000E+00
    0.22296E-16         0.79162E-20         0.00000E+00
    0.22296E-16         0.23283E-20         0.00000E+00
    0.22297E-16         0.93132E-21         0.00000E+00
    0.22299E-16        -0.44238E-20         0.00000E+00
    0.22299E-16        -0.37253E-20         0.00000E+00
    0.22297E-16        -0.14435E-19         0.00000E+00
    0.22295E-16        -0.20955E-19         0.00000E+00
    0.22295E-16        -0.83819E-20         0.00000E+00
    0.22294E-16        -0.23749E-19         0.00000E+00
    0.22296E-16        -0.27940E-19         0.00000E+00
    0.22296E-16        -0.22119E-19         0.00000E+00
    0.22295E-16        -0.12573E-19         0.00000E+00
    0.22295E-16         0.25611E-20         0.00000E+00
    0.22294E-16         0.23283E-20         0.00000E+00
    0.22294E-16         0.00000E+00         0.00000E+00
    0.22293E-16         0.00000E+00         0.00000E+00
    0.32659E-17         0.79162E-20         0.00000E+00
    0.32666E-17         0.74506E-20         0.00000E+00
    0.32663E-17        -0.46566E-20         0.00000E+00
    0.32638E-17         0.93132E-21         0.00000E+00
    0.32610E-17        -0.12573E-19         0.00000E+00
    0.32596E-17        -0.20955E-19         0.00000E+00
    0.32614E-17        -0.22585E-19         0.00000E+00
    0.32636E-17        -0.19092E-19         0.00000E+00
    0.32638E-17        -0.13504E-19         0.00000E+00
    0.32634E-17        -0.11176E-19         0.00000E+00
    0.32609E-17        -0.20955E-19         0.00000E+00
    0.32589E-17         0.13970E-20         0.00000E+00
    0.32598E-17        -0.16764E-19         0.00000E+00
    0.32605E-17         0.13970E-20         0.00000E+00
    0.32627E-17        -0.55879E-20         0.00000E+00
    0.32652E-17         0.17695E-19         0.00000E+00
    0.32656E-17         0.11176E-19         0.00000E+00
    0.32668E-17         0.27474E-19         0.00000E+00
    0.32692E-17         0.26543E-19         0.00000E+00
    0.32700E-17         0.23283E-21         0.00000E+00
    0.32721E-17        -0.16065E-19         0.00000E+00
    0.32742E-17        -0.15134E-19         0.00000E+00
    0.32729E-17        -0.23283E-19         0.00000E+00
    0.32721E-17        -0.10710E-19         0.00000E+00
    0.32707E-17        -0.10012E-19         0.00000E+00
    0.32676E-17         0.16298E-20         0.00000E+00
    0.32657E-17         0.20955E-20         0.00000E+00
    0.32659E-17         0.17229E-19         0.00000E+00
    0.32644E-17         0.46566E-21         0.00000E+00
    0.32642E-17        -0.51223E-20         0.00000E+00
    0.32655E-17        -0.18626E-20         0.00000E+00
    0.32650E-17         0.83819E-20         0.00000E+00
    0.32621E-17         0.69849E-20         0.00000E+00
    0.32615E-17         0.51223E-20         0.00000E+00
    0.32606E-17         0.83819E-20         0.00000E+00
    0.32600E-17         0.34925E-20         0.00000E+00
    0.32598E-17        -0.18626E-20         0.00000E+00
    0.32592E-17        -0.55879E-20         0.00000E+00
    0.32611E-17        -0.17229E-19         0.00000E+00
    0.32635E-17        -0.88476E-20         0.00000E+00
    0.32663E-17        -0.27940E-19         0.00000E+00
    0.32689E-17        -0.14901E-19         0.00000E+00
    0.32710E-17        -0.26077E-19         0.00000E+00
    0.32717E-17        -0.32363E-19         0.00000E+00
    0.32716E-17        -0.17928E-19         0.00000E+00
    0.32721E-17        -0.10710E-19         0.00000E+00
    0.32727E-17         0.46566E-21         0.00000E+00
    0.32734E-17         0.32596E-20         0.00000E+00
    0.32742E-17         0.23283E-20         0.00000E+00
    0.32746E-17         0.16298E-20         0.00000E+00
    0.48050E-18         0.37253E-20         0.00000E+00
    0.47975E-18         0.69849E-20         0.00000E+00
    0.47887E-18        -0.46566E-21         0.00000E+00
    0.48080E-18         0.46566E-20         0.00000E+00
    0.48324E-18        -0.14435E-19         0.00000E+00
    0.48563E-18        -0.27474E-19         0.00000E+00
    0.48598E-18        -0.23982E-19         0.00000E+00
    0.48405E-18        -0.18161E-19         0.00000E+00
    0.48394E-18        -0.18626E-19         0.00000E+00
    0.48400E-18        -0.41910E-20         0.00000E+00
    0.48248E-18        -0.18626E-20         0.00000E+00
    0.47934E-18         0.69849E-20         0.00000E+00
    0.47626E-18        -0.13970E-19         0.00000E+00
    0.47369E-18         0.51223E-20         0.00000E+00
    0.47201E-18        -0.74506E-20         0.00000E+00
    0.46898E-18         0.17229E-19         0.00000E+00
    0.46921E-18         0.74506E-20         0.00000E+00
    0.47177E-18         0.17695E-19         0.00000E+00
    0.47282E-18         0.13970E-19         0.00000E+00
    0.47567E-18        -0.32596E-20         0.00000E+00
    0.47585E-18        -0.26077E-19         0.00000E+00
    0.47509E-18        -0.97789E-20         0.00000E+00
    0.47270E-18        -0.18161E-19         0.00000E+00
    0.47212E-18        -0.88476E-20         0.00000E+00
    0.47282E-18        -0.83819E-20         0.00000E+00
    0.47515E-18         0.23283E-20         0.00000E+00
    0.47701E-18         0.18626E-20         0.00000E+00
    0.47561E-18         0.25146E-19         0.00000E+00
    0.47521E-18         0.18626E-20         0.00000E+00
    0.47556E-18        -0.69849E-20         0.00000E+00
    0.47544E-18        -0.88476E-20         0.00000E+00
    0.47457E-18         0.20023E-19         0.00000E+00
    0.47393E-18         0.14901E-19         0.00000E+00
    0.47369E-18         0.53551E-20         0.00000E+00
    0.47369E-18         0.79162E-20         0.00000E+00
    0.47497E-18        -0.13970E-20         0.00000E+00
    0.47596E-18        -0.46566E-20         0.00000E+00
    0.47783E-18        -0.69849E-20         0.00000E+00
    0.47742E-18        -0.18626E-19         0.00000E+00
    0.47690E-18        -0.20722E-19         0.00000E+00
    0.47538E-18        -0.27707E-19         0.00000E+00
    0.47270E-18        -0.12107E-19         0.00000E+00
    0.47171E-18        -0.31199E-19         0.00000E+00
    0.47142E-18        -0.30966E-19         0.00000E+00
    0.47166E-18        -0.23982E-19         0.00000E+00
    0.47375E-18        -0.14901E-19         0.00000E+00
    0.47480E-18        -0.27940E-20         0.00000E+00
    0.47614E-18        -0.67521E-20         0.00000E+00
    0.47637E-18         0.20955E-20         0.00000E+00
    0.47660E-18         0.46566E-21         0.00000E+00
    0.70548E-19         0.65193E-20         0.00000E+00
    0.69384E-19         0.12107E-19         0.00000E+00
    0.66939E-19         0.74506E-20         0.00000E+00
    0.64436E-19         0.20955E-20         0.00000E+00
    0.62515E-19        -0.16764E-19         0.00000E+00
    0.61409E-19        -0.26077E-19         0.00000E+00
    0.60420E-19        -0.17695E-19         0.00000E+00
    0.60594E-19        -0.16764E-19         0.00000E+00
    0.61933E-19        -0.27008E-19         0.00000E+00
    0.65193E-19        -0.14435E-19         0.00000E+00
    0.71828E-19        -0.15832E-19         0.00000E+00
    0.74855E-19         0.10943E-19         0.00000E+00
    0.74971E-19         0.27940E-20         0.00000E+00
    0.72585E-19         0.15600E-19         0.00000E+00
    0.68510E-19         0.13039E-19         0.00000E+00
    0.67579E-19         0.23283E-19         0.00000E+00
    0.65833E-19         0.12107E-19         0.00000E+00
    0.62981E-19         0.14435E-19         0.00000E+00
    0.62049E-19         0.79162E-20         0.00000E+00
    0.62515E-19        -0.83819E-20         0.00000E+00
    0.62922E-19        -0.20955E-19         0.00000E+00
    0.63679E-19        -0.12573E-19         0.00000E+00
    0.65775E-19        -0.19558E-19         0.00000E+00
    0.68394E-19        -0.19092E-19         0.00000E+00
    0.68685E-19        -0.12107E-19         0.00000E+00
    0.68976E-19        -0.20955E-20         0.00000E+00
    0.70315E-19        -0.51223E-20         0.00000E+00
    0.74448E-19         0.19092E-19         0.00000E+00
    0.76659E-19         0.00000E+00         0.00000E+00
    0.75903E-19        -0.79162E-20         0.00000E+00
    0.75670E-19        -0.37253E-20         0.00000E+00
    0.76194E-19         0.14901E-19         0.00000E+00
    0.78639E-19         0.79162E-20         0.00000E+00
    0.80734E-19         0.44238E-20         0.00000E+00
    0.81025E-19         0.27940E-20         0.00000E+00
    0.79744E-19         0.46566E-20         0.00000E+00
    0.78173E-19        -0.65193E-20         0.00000E+00
    0.76834E-19        -0.97789E-20         0.00000E+00
    0.75786E-19        -0.90804E-20         0.00000E+00
    0.74797E-19        -0.15832E-19         0.00000E+00
    0.72177E-19        -0.19092E-19         0.00000E+00
    0.72410E-19        -0.60536E-20         0.00000E+00
    0.72643E-19        -0.27008E-19         0.00000E+00
    0.71130E-19        -0.26543E-19         0.00000E+00
    0.70024E-19        -0.29802E-19         0.00000E+00
    0.68976E-19        -0.11642E-19         0.00000E+00
    0.67870E-19        -0.44238E-20         0.00000E+00
    0.66822E-19        -0.76834E-20         0.00000E+00
    0.67113E-19         0.00000E+00         0.00000E+00
    0.66415E-19         0.23283E-20         0.00000E+00
    0.11991E-19         0.18626E-20         0.00000E+00
    0.13388E-19         0.13504E-19         0.00000E+00
    0.14901E-19         0.13504E-19         0.00000E+00
    0.13737E-19         0.16764E-19         0.00000E+00
    0.96625E-20        -0.46566E-21         0.00000E+00
    0.56461E-20        -0.16764E-19         0.00000E+00
    0.51223E-20        -0.23283E-19         0.00000E+00
    0.59954E-20        -0.18626E-19         0.00000E+00
    0.54133E-20        -0.28405E-19         0.00000E+00
    0.18626E-20        -0.19092E-19         0.00000E+00
   -0.12806E-20        -0.25379E-19         0.00000E+00
    0.00000E+00        -0.23283E-20         0.00000E+00
    0.41327E-20        -0.37253E-20         0.00000E+00
    0.62282E-20         0.20955E-19         0.00000E+00
    0.77998E-20         0.13970E-19         0.00000E+00
    0.98371E-20         0.16298E-19         0.00000E+00
    0.10536E-19         0.22352E-19         0.00000E+00
    0.11350E-19         0.18626E-19         0.00000E+00
    0.10128E-19         0.11642E-19         0.00000E+00
    0.93132E-20        -0.11176E-19         0.00000E+00
    0.11234E-19        -0.27474E-19         0.00000E+00
    0.12806E-19        -0.14901E-19         0.00000E+00
    0.11525E-19        -0.22352E-19         0.00000E+00
    0.10186E-19        -0.13970E-19         0.00000E+00
    0.87311E-20        -0.12573E-19         0.00000E+00
    0.10536E-19        -0.88476E-20         0.00000E+00
    0.10768E-19        -0.10245E-19         0.00000E+00
    0.85565E-20         0.11642E-19         0.00000E+00
    0.50641E-20         0.69849E-20         0.00000E+00
    0.48312E-20        -0.88476E-20         0.00000E+00
    0.78580E-20        -0.97789E-20         0.00000E+00
    0.97207E-20         0.41910E-20         0.00000E+00
    0.10477E-19         0.37253E-20         0.00000E+00
    0.10419E-19         0.46566E-21         0.00000E+00
    0.10536E-19         0.79162E-20         0.00000E+00
    0.11350E-19         0.23283E-20         0.00000E+00
    0.11758E-19         0.69849E-21         0.00000E+00
    0.10827E-19        -0.18626E-20         0.00000E+00
    0.10245E-19        -0.69849E-20         0.00000E+00
    0.10885E-19        -0.14435E-19         0.00000E+00
    0.11583E-19        -0.18626E-19         0.00000E+00
    0.10768E-19        -0.55879E-20         0.00000E+00
    0.98371E-20        -0.23283E-19         0.00000E+00
    0.97207E-20        -0.22817E-19         0.00000E+00
    0.10070E-19        -0.27008E-19         0.00000E+00
    0.11350E-19        -0.13039E-19         0.00000E+00
    0.13330E-19        -0.83819E-20         0.00000E+00
    0.15600E-19        -0.10710E-19         0.00000E+00
    0.15425E-19         0.23283E-20         0.00000E+00
    0.15483E-19         0.51223E-20         0.00000E+00
   -0.20955E-20         0.00000E+00         0.00000E+00
   -0.18626E-20         0.34925E-20         0.00000E+00
   -0.46566E-21         0.10710E-19         0.00000E+00
    0.10477E-20         0.15367E-19         0.00000E+00
    0.48894E-20         0.46566E-21         0.00000E+00
    0.65193E-20        -0.10245E-19         0.00000E+00
    0.39581E-20        -0.15367E-19         0.00000E+00
    0.22119E-20        -0.16298E-19         0.00000E+00
    0.11059E-20        -0.18161E-19         0.00000E+00
   -0.11642E-21        -0.51223E-20         0.00000E+00
    0.58208E-22        -0.17695E-19         0.00000E+00
   -0.17462E-20        -0.23283E-20         0.00000E+00
   -0.32596E-20        -0.16764E-19         0.00000E+00
   -0.12224E-20         0.79162E-20         0.00000E+00
    0.34925E-20         0.27940E-20         0.00000E+00
    0.39581E-20         0.18626E-19         0.00000E+00
    0.40163E-20         0.10245E-19         0.00000E+00
    0.52387E-20         0.13970E-19         0.00000E+00
    0.62282E-20         0.15134E-19         0.00000E+00
    0.59372E-20        -0.93132E-20         0.00000E+00
    0.23865E-20        -0.23749E-19         0.00000E+00
   -0.34925E-21        -0.12573E-19         0.00000E+00
    0.15716E-20        -0.21653E-19         0.00000E+00
    0.29686E-20        -0.15832E-19         0.00000E+00
    0.33760E-20        -0.74506E-20         0.00000E+00
   -0.98953E-21        -0.27940E-20         0.00000E+00
   -0.31432E-20        -0.83819E-20         0.00000E+00
   -0.17462E-20         0.18161E-19         0.00000E+00
    0.75670E-21         0.51223E-20         0.00000E+00
    0.14552E-20        -0.12107E-19         0.00000E+00
   -0.81491E-21        -0.10477E-19         0.00000E+00
   -0.18626E-20         0.18626E-20         0.00000E+00
   -0.23865E-20         0.51223E-20         0.00000E+00
   -0.28522E-20        -0.46566E-21         0.00000E+00
   -0.20955E-20         0.00000E+00         0.00000E+00
   -0.18626E-20         0.46566E-20         0.00000E+00
   -0.32596E-20         0.41910E-20         0.00000E+00
   -0.48894E-20         0.00000E+00         0.00000E+00
   -0.45984E-20        -0.46566E-20         0.00000E+00
   -0.45984E-20        -0.13039E-19         0.00000E+00
   -0.34925E-20        -0.25611E-19         0.00000E+00
   -0.52387E-21        -0.60536E-20         0.00000E+00
    0.75670E-21        -0.25146E-19         0.00000E+00
    0.15716E-20        -0.23283E-19         0.00000E+00
   -0.11642E-21        -0.21886E-19         0.00000E+00
   -0.21537E-20        -0.13970E-19         0.00000E+00
   -0.27940E-20        -0.11642E-19         0.00000E+00
   -0.35507E-20        -0.10710E-19         0.00000E+00
   -0.29686E-20         0.13970E-20         0.00000E+00
   -0.24447E-20        -0.13970E-20         0.00000E+00
    0.20955E-20         0.46566E-20         0.00000E+00
    0.12806E-20         0.88476E-20         0.00000E+00
    0.17462E-20         0.13970E-20         0.00000E+00
    0.30268E-20         0.60536E-20         0.00000E+00
    0.25029E-20        -0.60536E-20         0.00000E+00
    0.49477E-20        -0.16065E-19         0.00000E+00
    0.84983E-20        -0.13039E-19         0.00000E+00
    0.83237E-20        -0.14901E-19         0.00000E+00
    0.77998E-20        -0.14901E-19         0.00000E+00
    0.89058E-20        -0.72177E-20         0.00000E+00
    0.91968E-20        -0.16997E-19         0.00000E+00
    0.81491E-20         0.23283E-20         0.00000E+00
    0.83237E-20        -0.17229E-19         0.00000E+00
    0.79744E-20         0.58208E-20         0.00000E+00
    0.74506E-20        -0.10477E-19         0.00000E+00
    0.86729E-20         0.17462E-19         0.00000E+00
    0.90804E-20         0.88476E-20         0.00000E+00
    0.76252E-20         0.19558E-19         0.00000E+00
    0.48894E-20         0.18161E-19         0.00000E+00
    0.20955E-20         0.34925E-20         0.00000E+00
    0.75670E-21        -0.10245E-19         0.00000E+00
   -0.29104E-21        -0.83819E-20         0.00000E+00
   -0.28522E-20        -0.18161E-19         0.00000E+00
   -0.69849E-20        -0.11176E-19         0.00000E+00
   -0.80909E-20        -0.37253E-20         0.00000E+00
   -0.54133E-20        -0.41910E-20         0.00000E+00
   -0.34925E-20        -0.60536E-20         0.00000E+00
   -0.29686E-20         0.12107E-19         0.00000E+00
   -0.30268E-20         0.23283E-20         0.00000E+00
   -0.38417E-20        -0.60536E-20         0.00000E+00
   -0.37253E-20        -0.69849E-20         0.00000E+00
   -0.30850E-20         0.00000E+00         0.00000E+00
   -0.27940E-20         0.11642E-19         0.00000E+00
   -0.32014E-20         0.27940E-20         0.00000E+00
   -0.44820E-20         0.00000E+00         0.00000E+00
   -0.36089E-20         0.55879E-20         0.00000E+00
   -0.16880E-20        -0.93132E-21         0.00000E+00
    0.34925E-21        -0.41910E-20         0.00000E+00
    0.81491E-21        -0.65193E-20         0.00000E+00
    0.52387E-21        -0.13970E-19         0.00000E+00
   -0.75670E-21        -0.27474E-19         0.00000E+00
   -0.26193E-20        -0.14203E-19         0.00000E+00
   -0.34343E-20        -0.20489E-19         0.00000E+00
   -0.30850E-20        -0.29337E-19         0.00000E+00
   -0.58208E-22        -0.26543E-19         0.00000E+00
    0.87311E-21        -0.83819E-20         0.00000E+00
    0.52387E-21        -0.79162E-20         0.00000E+00
    0.40745E-21        -0.97789E-20         0.00000E+00
   -0.23283E-21         0.00000E+00         0.00000E+00
   -0.81491E-21         0.93132E-21         0.00000E+00
   -0.12806E-20         0.41910E-20         0.00000E+00
    0.93132E-21         0.37253E-20         0.00000E+00
    0.28522E-20        -0.34925E-20         0.00000E+00
    0.26776E-20         0.67521E-20         0.00000E+00
    0.22119E-20        -0.41910E-20         0.00000E+00
    0.23283E-21        -0.19092E-19         0.00000E+00
   -0.75670E-21        -0.18161E-19         0.00000E+00
   -0.11642E-21        -0.15600E-19         0.00000E+00
    0.17462E-20        -0.19092E-19         0.00000E+00
    0.24447E-20        -0.13039E-19         0.00000E+00
    0.30268E-20        -0.15832E-19         0.00000E+00
    0.32596E-20         0.46566E-20         0.00000E+00
    0.46566E-21        -0.11176E-19         0.00000E+00
    0.00000E+00        -0.13970E-20         0.00000E+00
    0.34925E-21         0.93132E-21         0.00000E+00
   -0.26193E-20         0.16531E-19         0.00000E+00
   -0.40163E-20         0.15134E-19         0.00000E+00
   -0.31432E-20         0.18161E-19         0.00000E+00
   -0.13388E-20         0.16298E-19         0.00000E+00
    0.13970E-20         0.83819E-20         0.00000E+00
    0.34925E-21        -0.79162E-20         0.00000E+00
    0.58208E-21        -0.60536E-20         0.00000E+00
    0.11642E-20        -0.13970E-19         0.00000E+00
    0.47730E-20        -0.67521E-20         0.00000E+00
    0.51223E-20        -0.27940E-20         0.00000E+00
    0.31432E-20        -0.74506E-20         0.00000E+00
    0.10477E-20        -0.20955E-20         0.00000E+00
   -0.98953E-21         0.18161E-19         0.00000E+00
   -0.17462E-20         0.13970E-20         0.00000E+00
   -0.18044E-20        -0.46566E-20         0.00000E+00
   -0.18626E-20        -0.97789E-20         0.00000E+00
   -0.29104E-20         0.65193E-20         0.00000E+00
   -0.52969E-20         0.12573E-19         0.00000E+00
   -0.38417E-20        -0.69849E-21         0.00000E+00
   -0.34343E-20         0.53551E-20         0.00000E+00
   -0.46566E-20         0.93132E-21         0.00000E+00
   -0.48312E-20        -0.10245E-19         0.00000E+00
   -0.47148E-20        -0.65193E-20         0.00000E+00
   -0.44820E-20        -0.62864E-20         0.00000E+00
   -0.40163E-20        -0.10710E-19         0.00000E+00
   -0.41910E-20        -0.20256E-19         0.00000E+00
   -0.29104E-20        -0.15832E-19         0.00000E+00
   -0.12224E-20        -0.22585E-19         0.00000E+00
   -0.15134E-20        -0.30734E-19         0.00000E+00
   -0.34925E-20        -0.29569E-19         0.00000E+00
   -0.37835E-20        -0.11176E-19         0.00000E+00
   -0.27940E-20        -0.10245E-19         0.00000E+00
   -0.23865E-20        -0.88476E-20         0.00000E+00
   -0.14552E-20         0.00000E+00         0.00000E+00
   -0.20955E-20         0.18626E-20         0.00000E+00
   -0.89640E-20         0.46566E-20         0.00000E+00
   -0.10128E-19        -0.39581E-20         0.00000E+00
   -0.10536E-19        -0.18626E-20         0.00000E+00
   -0.93132E-20         0.13970E-20         0.00000E+00
   -0.82655E-20        -0.41910E-20         0.00000E+00
   -0.74506E-20        -0.16298E-19         0.00000E+00
   -0.68685E-20        -0.19558E-19         0.00000E+00
   -0.60536E-20        -0.22352E-19         0.00000E+00
   -0.55297E-20        -0.24214E-19         0.00000E+00
   -0.37253E-20        -0.20489E-19         0.00000E+00
   -0.19791E-20        -0.20489E-19         0.00000E+00
   -0.58208E-21         0.11409E-19         0.00000E+00
   -0.34925E-21        -0.46566E-20         0.00000E+00
   -0.15716E-20         0.23283E-20         0.00000E+00
   -0.17462E-20         0.37253E-20         0.00000E+00
    0.58208E-22         0.15367E-19         0.00000E+00
    0.16880E-20         0.88476E-20         0.00000E+00
    0.36671E-20         0.14435E-19         0.00000E+00
    0.19209E-20         0.18161E-19         0.00000E+00
    0.12806E-20         0.18626E-20         0.00000E+00
    0.37835E-20        -0.12573E-19         0.00000E+00
    0.46566E-20        -0.23283E-20         0.00000E+00
    0.33760E-20        -0.18859E-19         0.00000E+00
    0.16298E-20        -0.10245E-19         0.00000E+00
    0.10477E-20         0.13970E-20         0.00000E+00
    0.15716E-20        -0.60536E-20         0.00000E+00
    0.40745E-20        -0.41910E-20         0.00000E+00
    0.47730E-20         0.19325E-19         0.00000E+00
    0.25611E-20         0.83819E-20         0.00000E+00
    0.18044E-20        -0.32596E-20         0.00000E+00
    0.10477E-20        -0.51223E-20         0.00000E+00
    0.69849E-21         0.10710E-19         0.00000E+00
    0.15716E-20         0.15134E-19         0.00000E+00
   -0.87311E-21         0.23283E-20         0.00000E+00
   -0.29104E-20         0.60536E-20         0.00000E+00
   -0.22119E-20        -0.25611E-20         0.00000E+00
   -0.22701E-20        -0.44238E-20         0.00000E+00
   -0.30850E-20        -0.34925E-20         0.00000E+00
   -0.37253E-20        -0.76834E-20         0.00000E+00
   -0.52387E-20        -0.13970E-20         0.00000E+00
   -0.54133E-20        -0.24447E-19         0.00000E+00
   -0.53551E-20        -0.17695E-19         0.00000E+00
   -0.57044E-20        -0.29337E-19         0.00000E+00
   -0.40163E-20        -0.30734E-19         0.00000E+00
   -0.26193E-20        -0.25611E-19         0.00000E+00
   -0.22119E-20        -0.12573E-19         0.00000E+00
   -0.47148E-20        -0.46566E-21         0.00000E+00
   -0.83237E-20        -0.58208E-20         0.00000E+00
   -0.97207E-20         0.11642E-20         0.00000E+00
   -0.94878E-20        -0.46566E-21         0.00000E+00
   -0.33760E-20         0.46566E-20         0.00000E+00
   -0.40745E-20         0.72177E-20         0.00000E+00
   -0.61118E-20        -0.93132E-21         0.00000E+00
   -0.84401E-20         0.46566E-20         0.00000E+00
   -0.73342E-20        -0.13039E-19         0.00000E+00
   -0.49477E-20        -0.19558E-19         0.00000E+00
   -0.31432E-20        -0.25146E-19         0.00000E+00
   -0.19791E-20        -0.25146E-19         0.00000E+00
   -0.12806E-20        -0.25146E-19         0.00000E+00
   -0.93132E-21        -0.24214E-19         0.00000E+00
   -0.30268E-20        -0.22352E-19         0.00000E+00
   -0.36089E-20         0.11642E-19         0.00000E+00
   -0.10477E-20        -0.11176E-19         0.00000E+00
    0.17462E-21         0.60536E-20         0.00000E+00
    0.75670E-21        -0.18626E-20         0.00000E+00
    0.11642E-21         0.12573E-19         0.00000E+00
   -0.16880E-20         0.10710E-19         0.00000E+00
   -0.45402E-20         0.17695E-19         0.00000E+00
   -0.28522E-20         0.20023E-19         0.00000E+00
   -0.20955E-20        -0.23283E-20         0.00000E+00
   -0.15134E-20        -0.16764E-19         0.00000E+00
   -0.23283E-20        -0.39581E-20         0.00000E+00
   -0.15134E-20        -0.19092E-19         0.00000E+00
   -0.12224E-20        -0.37253E-20         0.00000E+00
   -0.11059E-20         0.41910E-20         0.00000E+00
   -0.17462E-20        -0.51223E-20         0.00000E+00
   -0.54715E-20         0.00000E+00         0.00000E+00
   -0.73924E-20         0.25146E-19         0.00000E+00
   -0.62282E-20         0.88476E-20         0.00000E+00
   -0.47148E-20        -0.65193E-20         0.00000E+00
   -0.40745E-20        -0.46566E-20         0.00000E+00
   -0.40163E-20         0.10710E-19         0.00000E+00
   -0.38999E-20         0.12107E-19         0.00000E+00
   -0.16298E-20         0.74506E-20         0.00000E+00
   -0.93132E-21         0.53551E-20         0.00000E+00
   -0.20955E-20         0.27940E-20         0.00000E+00
   -0.29686E-20         0.00000E+00         0.00000E+00
   -0.29686E-20        -0.41910E-20         0.00000E+00
   -0.93132E-21        -0.88476E-20         0.00000E+00
    0.24447E-20        -0.14901E-19         0.00000E+00
    0.39581E-20        -0.23516E-19         0.00000E+00
    0.33760E-20        -0.14901E-19         0.00000E+00
    0.14552E-20        -0.21886E-19         0.00000E+00
   -0.20373E-20        -0.27940E-19         0.00000E+00
   -0.54133E-20        -0.21886E-19         0.00000E+00
   -0.72760E-20        -0.79162E-20         0.00000E+00
   -0.55297E-20        -0.27940E-20         0.00000E+00
   -0.75670E-21        -0.55879E-20         0.00000E+00
    0.34925E-21         0.27940E-20         0.00000E+00
   -0.93132E-21         0.13970E-20         0.00000E+00
   -0.27940E-20         0.13970E-20         0.00000E+00
   -0.46566E-21         0.37253E-20         0.00000E+00
    0.13970E-20         0.46566E-21         0.00000E+00
    0.41910E-20         0.55879E-20         0.00000E+00
    0.26776E-20        -0.11642E-19         0.00000E+00
    0.46566E-21        -0.22817E-19         0.00000E+00
   -0.11642E-21        -0.25146E-19         0.00000E+00
   -0.87311E-21        -0.22817E-19         0.00000E+00
   -0.25611E-20        -0.22352E-19         0.00000E+00
   -0.50059E-20        -0.15832E-19         0.00000E+00
   -0.53551E-20        -0.19558E-19         0.00000E+00
   -0.37253E-20        -0.46566E-21         0.00000E+00
   -0.25611E-20        -0.20955E-19         0.00000E+00
   -0.14552E-20         0.32596E-20         0.00000E+00
   -0.17462E-21        -0.18626E-20         0.00000E+00
   -0.11059E-20         0.17695E-19         0.00000E+00
    0.81491E-21         0.97789E-20         0.00000E+00
    0.22701E-20         0.20489E-19         0.00000E+00
    0.27940E-20         0.14668E-19         0.00000E+00
    0.23283E-20        -0.53551E-20         0.00000E+00
    0.40745E-20        -0.20955E-19         0.00000E+00
    0.41910E-20         0.46566E-21         0.00000E+00
    0.32596E-20        -0.18626E-19         0.00000E+00
    0.34343E-20        -0.46566E-20         0.00000E+00
    0.30268E-20         0.00000E+00         0.00000E+00
    0.37835E-20         0.13970E-20         0.00000E+00
    0.65193E-20         0.13970E-20         0.00000E+00
    0.90222E-20         0.20023E-19         0.00000E+00
    0.11234E-19        -0.46566E-20         0.00000E+00
    0.13155E-19        -0.13039E-19         0.00000E+00
    0.13621E-19        -0.83819E-20         0.00000E+00
    0.13097E-19         0.14435E-19         0.00000E+00
    0.11583E-19         0.18161E-19         0.00000E+00
    0.82073E-20         0.69849E-20         0.00000E+00
    0.60536E-20         0.79162E-20         0.00000E+00
    0.68685E-20         0.55879E-20         0.00000E+00
    0.79744E-20        -0.46566E-20         0.00000E+00
    0.86729E-20        -0.37253E-20         0.00000E+00
    0.58208E-20        -0.48894E-20         0.00000E+00
    0.17462E-21        -0.12107E-19         0.00000E+00
   -0.16880E-20        -0.23283E-19         0.00000E+00
   -0.32596E-20        -0.74506E-20         0.00000E+00
   -0.34343E-20        -0.21886E-19         0.00000E+00
    0.11059E-20        -0.27940E-19         0.00000E+00
    0.36671E-20        -0.19558E-19         0.00000E+00
    0.40163E-20        -0.23283E-20         0.00000E+00
    0.12806E-20        -0.79162E-20         0.00000E+00
    0.29104E-21        -0.14435E-19         0.00000E+00
    0.93132E-21         0.18626E-20         0.00000E+00
    0.27940E-20         0.93132E-21         0.00000E+00
   -0.12806E-20         0.46566E-21         0.00000E+00
   -0.27358E-20         0.13970E-20         0.00000E+00
   -0.46566E-20        -0.37253E-20         0.00000E+00
   -0.33760E-20        -0.46566E-20         0.00000E+00
   -0.69849E-21        -0.11176E-19         0.00000E+00
    0.34925E-21        -0.20955E-19         0.00000E+00
    0.81491E-21        -0.25146E-19         0.00000E+00
    0.12806E-20        -0.23050E-19         0.00000E+00
    0.26193E-20        -0.24447E-19         0.00000E+00
    0.46566E-20        -0.19092E-19         0.00000E+00
    0.60536E-20        -0.20955E-19         0.00000E+00
    0.50059E-20         0.18626E-20         0.00000E+00
    0.34925E-20        -0.16298E-19         0.00000E+00
    0.10477E-20         0.46566E-21         0.00000E+00
    0.13970E-20        -0.23283E-20         0.00000E+00
    0.34343E-20         0.83819E-20         0.00000E+00
    0.32014E-20         0.81491E-20         0.00000E+00
    0.22119E-20         0.16298E-19         0.00000E+00
    0.45984E-20         0.60536E-20         0.00000E+00
    0.55879E-20        -0.88476E-20         0.00000E+00
    0.46566E-20        -0.14435E-19         0.00000E+00
    0.51223E-20        -0.69849E-20         0.00000E+00
    0.65193E-20        -0.13970E-19         0.00000E+00
    0.63446E-20        -0.10245E-19         0.00000E+00
    0.76252E-20        -0.32596E-20         0.00000E+00
    0.83819E-20        -0.18626E-20         0.00000E+00
    0.56461E-20        -0.46566E-21         0.00000E+00
    0.25029E-20         0.19092E-19         0.00000E+00
   -0.52387E-21         0.18626E-20         0.00000E+00
   -0.24447E-20        -0.14435E-19         0.00000E+00
   -0.25611E-20        -0.10245E-19         0.00000E+00
   -0.17462E-20         0.12573E-19         0.00000E+00
    0.58208E-22         0.18626E-19         0.00000E+00
    0.87311E-21         0.14435E-19         0.00000E+00
    0.58208E-22         0.14435E-19         0.00000E+00
   -0.69849E-21         0.69849E-20         0.00000E+00
   -0.25029E-20        -0.60536E-20         0.00000E+00
   -0.12806E-20        -0.69849E-20         0.00000E+00
    0.18626E-20        -0.32596E-20         0.00000E+00
    0.54715E-20        -0.86147E-20         0.00000E+00
    0.65775E-20        -0.20722E-19         0.00000E+00
    0.77998E-20        -0.51223E-20         0.00000E+00
    0.84401E-20        -0.29337E-19         0.00000E+00
    0.82655E-20        -0.30734E-19         0.00000E+00
    0.59372E-20        -0.17695E-19         0.00000E+00
    0.62864E-20        -0.95461E-20         0.00000E+00
    0.73924E-20         0.69849E-20         0.00000E+00
    0.44238E-20        -0.74506E-20         0.00000E+00
    0.34343E-20        -0.93132E-21         0.00000E+00
    0.16298E-20         0.93132E-21         0.00000E+00
    0.27358E-20         0.37253E-20         0.00000E+00
    0.29104E-20         0.46566E-20         0.00000E+00
    0.29686E-20         0.23283E-20         0.00000E+00
    0.19209E-20        -0.79162E-20         0.00000E+00
    0.40745E-21        -0.15600E-19         0.00000E+00
   -0.34925E-21        -0.22817E-19         0.00000E+00
    0.29104E-21        -0.28405E-19         0.00000E+00
    0.26776E-20        -0.33993E-19         0.00000E+00
    0.31432E-20        -0.23516E-19         0.00000E+00
   -0.75670E-21        -0.13504E-19         0.00000E+00
   -0.27358E-20        -0.16298E-19         0.00000E+00
   -0.32014E-20        -0.46566E-21         0.00000E+00
   -0.17462E-20        -0.11176E-19         0.00000E+00
   -0.19209E-20         0.10245E-19         0.00000E+00
   -0.28522E-20        -0.18626E-20         0.00000E+00
   -0.50059E-20         0.53551E-20         0.00000E+00
   -0.47148E-20         0.81491E-20         0.00000E+00
   -0.28522E-20         0.13970E-19         0.00000E+00
   -0.44820E-20         0.69849E-20         0.00000E+00
   -0.64028E-20        -0.60536E-20         0.00000E+00
   -0.40163E-20        -0.19558E-19         0.00000E+00
   -0.32596E-20        -0.11642E-19         0.00000E+00
   -0.16880E-20        -0.20023E-19         0.00000E+00
   -0.34925E-21        -0.83819E-20         0.00000E+00
   -0.11642E-21        -0.14901E-19         0.00000E+00
    0.11059E-20        -0.23283E-20         0.00000E+00
    0.22701E-20         0.93132E-20         0.00000E+00
    0.26193E-20         0.23283E-19         0.00000E+00
    0.27940E-20         0.14901E-19         0.00000E+00
    0.17462E-21        -0.46566E-20         0.00000E+00
   -0.35507E-20        -0.13970E-20         0.00000E+00
   -0.54715E-20         0.14203E-19         0.00000E+00
   -0.61118E-20         0.14901E-19         0.00000E+00
   -0.49477E-20         0.12107E-19         0.00000E+00
   -0.33760E-20         0.97789E-20         0.00000E+00
   -0.10477E-20         0.32596E-20         0.00000E+00
    0.11059E-20        -0.46566E-20         0.00000E+00
    0.10477E-20        -0.13504E-19         0.00000E+00
    0.11642E-21        -0.15600E-19         0.00000E+00
    0.12224E-20        -0.18394E-19         0.00000E+00
    0.22701E-20        -0.23283E-19         0.00000E+00
    0.33178E-20        -0.97789E-20         0.00000E+00
    0.22119E-20        -0.26543E-19         0.00000E+00
    0.15716E-20        -0.28871E-19         0.00000E+00
    0.22701E-20        -0.12573E-19         0.00000E+00
   -0.29104E-21        -0.23283E-20         0.00000E+00
   -0.75670E-21         0.13970E-20         0.00000E+00
    0.33178E-20        -0.72177E-20         0.00000E+00
    0.45402E-20        -0.27940E-20         0.00000E+00
    0.57626E-20         0.41910E-20         0.00000E+00
    0.16880E-19         0.11642E-20         0.00000E+00
    0.15716E-19         0.95461E-20         0.00000E+00
    0.14203E-19         0.65193E-20         0.00000E+00
    0.10303E-19         0.93132E-20         0.00000E+00
    0.60536E-20        -0.62864E-20         0.00000E+00
    0.40745E-20        -0.20489E-19         0.00000E+00
    0.38417E-20        -0.28405E-19         0.00000E+00
   -0.23283E-21        -0.31665E-19         0.00000E+00
   -0.12806E-20        -0.21886E-19         0.00000E+00
    0.17462E-20        -0.15832E-19         0.00000E+00
    0.43074E-20        -0.13970E-19         0.00000E+00
    0.15716E-20         0.60536E-20         0.00000E+00
   -0.22701E-20        -0.65193E-20         0.00000E+00
   -0.48312E-20         0.67521E-20         0.00000E+00
   -0.30268E-20        -0.27940E-20         0.00000E+00
   -0.29686E-20         0.13504E-19         0.00000E+00
   -0.31432E-20         0.65193E-20         0.00000E+00
   -0.29104E-20         0.60536E-20         0.00000E+00
   -0.27358E-20         0.14435E-19         0.00000E+00
   -0.43074E-20         0.00000E+00         0.00000E+00
   -0.70431E-20        -0.24214E-19         0.00000E+00
   -0.69849E-20        -0.10710E-19         0.00000E+00
   -0.76252E-20        -0.26543E-19         0.00000E+00
   -0.89058E-20        -0.10710E-19         0.00000E+00
   -0.10594E-19        -0.46566E-20         0.00000E+00
   -0.12456E-19        -0.46566E-20         0.00000E+00
   -0.10827E-19        -0.46566E-20         0.00000E+00
   -0.78580E-20         0.17695E-19         0.00000E+00
   -0.54715E-20         0.97789E-20         0.00000E+00
   -0.27940E-20        -0.13970E-20         0.00000E+00
   -0.13388E-20         0.37253E-20         0.00000E+00
   -0.10477E-20         0.18626E-19         0.00000E+00
   -0.12806E-20         0.13970E-19         0.00000E+00
   -0.34925E-21         0.41910E-20         0.00000E+00
    0.58208E-21         0.41910E-20         0.00000E+00
    0.00000E+00        -0.34925E-20         0.00000E+00
   -0.11642E-21        -0.88476E-20         0.00000E+00
    0.12806E-20        -0.10710E-19         0.00000E+00
    0.52387E-21        -0.11642E-19         0.00000E+00
   -0.23865E-20        -0.12573E-19         0.00000E+00
   -0.63446E-20        -0.21886E-19         0.00000E+00
   -0.58208E-20        -0.14435E-19         0.00000E+00
   -0.45984E-20        -0.21420E-19         0.00000E+00
   -0.47730E-20        -0.26543E-19         0.00000E+00
   -0.54133E-20        -0.18626E-19         0.00000E+00
   -0.93132E-21        -0.41910E-20         0.00000E+00
    0.23283E-20        -0.11642E-19         0.00000E+00
    0.29686E-20        -0.14901E-19         0.00000E+00
    0.27358E-20        -0.18626E-20         0.00000E+00
    0.27940E-20         0.00000E+00         0.00000E+00
   -0.66357E-20         0.72177E-20         0.00000E+00
   -0.69849E-20         0.10012E-19         0.00000E+00
   -0.49477E-20         0.12107E-19         0.00000E+00
   -0.38417E-20         0.16997E-19         0.00000E+00
    0.17462E-21        -0.76834E-20         0.00000E+00
    0.81491E-21        -0.16065E-19         0.00000E+00
   -0.11642E-20        -0.16764E-19         0.00000E+00
   -0.25611E-20        -0.20955E-19         0.00000E+00
   -0.12806E-20        -0.29569E-19         0.00000E+00
   -0.12806E-20        -0.22585E-19         0.00000E+00
   -0.10477E-20        -0.17695E-19         0.00000E+00
    0.16298E-20         0.12107E-19         0.00000E+00
    0.43656E-20        -0.32596E-20         0.00000E+00
    0.52969E-20         0.10245E-19         0.00000E+00
    0.35507E-20         0.13970E-20         0.00000E+00
    0.23865E-20         0.12340E-19         0.00000E+00
    0.36671E-20         0.55879E-20         0.00000E+00
    0.44820E-20         0.10477E-19         0.00000E+00
    0.41910E-20         0.12107E-19         0.00000E+00
    0.51223E-20         0.51223E-20         0.00000E+00
    0.55879E-20        -0.15600E-19         0.00000E+00
    0.52387E-20        -0.14435E-19         0.00000E+00
    0.42492E-20        -0.16764E-19         0.00000E+00
    0.25611E-20        -0.74506E-20         0.00000E+00
    0.17462E-20         0.34925E-20         0.00000E+00
    0.21537E-20        -0.55879E-20         0.00000E+00
    0.10477E-20        -0.18626E-20         0.00000E+00
   -0.87311E-21         0.13039E-19         0.00000E+00
   -0.75670E-21         0.30268E-20         0.00000E+00
    0.11642E-20        -0.76834E-20         0.00000E+00
    0.28522E-20        -0.51223E-20         0.00000E+00
    0.47148E-20         0.16764E-19         0.00000E+00
    0.52969E-20         0.88476E-20         0.00000E+00
    0.55297E-20         0.65193E-20         0.00000E+00
    0.50641E-20         0.46566E-20         0.00000E+00
    0.29104E-20         0.69849E-20         0.00000E+00
    0.23283E-21        -0.46566E-20         0.00000E+00
   -0.19209E-20        -0.93132E-20         0.00000E+00
   -0.32596E-20        -0.58208E-20         0.00000E+00
   -0.11059E-20        -0.53551E-20         0.00000E+00
    0.40745E-21        -0.14435E-19         0.00000E+00
   -0.20373E-20        -0.74506E-20         0.00000E+00
   -0.45402E-20        -0.26077E-19         0.00000E+00
   -0.32014E-20        -0.29802E-19         0.00000E+00
   -0.10477E-20        -0.25146E-19         0.00000E+00
   -0.52387E-21        -0.18161E-19         0.00000E+00
   -0.21537E-20        -0.12107E-19         0.00000E+00
   -0.30268E-20        -0.14203E-19         0.00000E+00
   -0.32596E-20         0.00000E+00         0.00000E+00
   -0.32014E-20        -0.18626E-20         0.00000E+00
   -0.47730E-20         0.74506E-20         0.00000E+00
   -0.32596E-20         0.46566E-20         0.00000E+00
   -0.22701E-20         0.60536E-20         0.00000E+00
   -0.34925E-21        -0.46566E-21         0.00000E+00
    0.23283E-21        -0.13970E-19         0.00000E+00
    0.12224E-20        -0.16298E-19         0.00000E+00
    0.40745E-20        -0.20023E-19         0.00000E+00
    0.64028E-20        -0.26543E-19         0.00000E+00
    0.75670E-20        -0.33295E-19         0.00000E+00
    0.65193E-20        -0.18394E-19         0.00000E+00
    0.48894E-20        -0.12573E-19         0.00000E+00
    0.30850E-20         0.32596E-20         0.00000E+00
    0.93132E-21        -0.51223E-20         0.00000E+00
   -0.21537E-20         0.19092E-19         0.00000E+00
   -0.18044E-20        -0.18626E-20         0.00000E+00
   -0.12224E-20         0.12806E-19         0.00000E+00
   -0.22701E-20         0.74506E-20         0.00000E+00
   -0.45984E-20         0.13737E-19         0.00000E+00
   -0.61118E-20         0.13737E-19         0.00000E+00
   -0.52969E-20        -0.44238E-20         0.00000E+00
   -0.37253E-20        -0.19558E-19         0.00000E+00
   -0.20955E-20        -0.16997E-19         0.00000E+00
   -0.58208E-21        -0.21420E-19         0.00000E+00
    0.23283E-20        -0.62864E-20         0.00000E+00
    0.43074E-20        -0.55879E-20         0.00000E+00
    0.37835E-20         0.53551E-20         0.00000E+00
    0.22119E-20         0.27940E-20         0.00000E+00
    0.52387E-21         0.20489E-19         0.00000E+00
   -0.18626E-20         0.46566E-21         0.00000E+00
   -0.34925E-20        -0.69849E-20         0.00000E+00
   -0.48894E-20        -0.97789E-20         0.00000E+00
   -0.50059E-20         0.15600E-19         0.00000E+00
   -0.47148E-20         0.44238E-20         0.00000E+00
   -0.46566E-20         0.41910E-20         0.00000E+00
   -0.45984E-20         0.60536E-20         0.00000E+00
   -0.11642E-20         0.51223E-20         0.00000E+00
    0.18626E-20        -0.88476E-20         0.00000E+00
    0.45984E-20        -0.79162E-20         0.00000E+00
    0.72177E-20        -0.13504E-19         0.00000E+00
    0.82073E-20        -0.13970E-19         0.00000E+00
    0.85565E-20        -0.19092E-19         0.00000E+00
    0.10128E-19        -0.93132E-21         0.00000E+00
    0.87894E-20        -0.13504E-19         0.00000E+00
    0.38417E-20        -0.25844E-19         0.00000E+00
    0.17462E-21        -0.21886E-19         0.00000E+00
   -0.19209E-20        -0.13271E-19         0.00000E+00
   -0.22119E-20        -0.60536E-20         0.00000E+00
   -0.40745E-20        -0.95461E-20         0.00000E+00
   -0.57626E-20         0.46566E-21         0.00000E+00
   -0.55879E-20        -0.27940E-20         0.00000E+00
   -0.45984E-20        -0.46566E-21         0.00000E+00
   -0.34925E-20        -0.23283E-20         0.00000E+00
   -0.23283E-20         0.00000E+00         0.00000E+00
   -0.34925E-20        -0.23283E-21         0.00000E+00
   -0.33760E-20        -0.14435E-19         0.00000E+00
   -0.17462E-20        -0.24214E-19         0.00000E+00
   -0.81491E-21        -0.27940E-19         0.00000E+00
   -0.22119E-20        -0.22585E-19         0.00000E+00
   -0.45402E-20        -0.28638E-19         0.00000E+00
   -0.66939E-20        -0.11642E-19         0.00000E+00
   -0.71013E-20        -0.88476E-20         0.00000E+00
   -0.55879E-20         0.27940E-20         0.00000E+00
   -0.38417E-20         0.27940E-20         0.00000E+00
   -0.16880E-20         0.14901E-19         0.00000E+00
   -0.20955E-20         0.53551E-20         0.00000E+00
   -0.36671E-20         0.11409E-19         0.00000E+00
   -0.11642E-20         0.46566E-20         0.00000E+00
    0.24447E-20         0.72177E-20         0.00000E+00
    0.58790E-20         0.10245E-19         0.00000E+00
    0.69849E-20        -0.93132E-20         0.00000E+00
    0.65193E-20        -0.15832E-19         0.00000E+00
    0.26776E-20        -0.90804E-20         0.00000E+00
   -0.29104E-21        -0.18626E-19         0.00000E+00
   -0.13388E-20        -0.17229E-19         0.00000E+00
   -0.13970E-20        -0.86147E-20         0.00000E+00
   -0.64028E-21         0.41910E-20         0.00000E+00
    0.81491E-21         0.46566E-20         0.00000E+00
    0.15134E-20         0.28871E-19         0.00000E+00
    0.10477E-20         0.65193E-20         0.00000E+00
    0.46566E-21        -0.18626E-20         0.00000E+00
   -0.16880E-20         0.93132E-21         0.00000E+00
   -0.41910E-20         0.16531E-19         0.00000E+00
   -0.54133E-20         0.13504E-19         0.00000E+00
   -0.69267E-20         0.41910E-20         0.00000E+00
   -0.74506E-20         0.60536E-20         0.00000E+00
   -0.84983E-20        -0.37253E-20         0.00000E+00
   -0.94878E-20        -0.10245E-19         0.00000E+00
   -0.11700E-19        -0.11642E-19         0.00000E+00
   -0.12922E-19        -0.13970E-19         0.00000E+00
   -0.14610E-19        -0.79162E-20         0.00000E+00
   -0.14901E-19        -0.20955E-19         0.00000E+00
   -0.15134E-19        -0.10245E-19         0.00000E+00
   -0.13330E-19        -0.88476E-20         0.00000E+00
   -0.10245E-19        -0.22817E-19         0.00000E+00
   -0.60536E-20        -0.22817E-19         0.00000E+00
   -0.18044E-20        -0.19325E-19         0.00000E+00
    0.11059E-20        -0.11642E-19         0.00000E+00
    0.46566E-20        -0.10710E-19         0.00000E+00
    0.71595E-20        -0.69849E-20         0.00000E+00
    0.79162E-20        -0.27940E-20         0.00000E+00
   -0.52387E-20         0.37253E-20         0.00000E+00
   -0.55879E-20        -0.51223E-20         0.00000E+00
   -0.34925E-20        -0.74506E-20         0.00000E+00
   -0.34925E-21        -0.13970E-20         0.00000E+00
   -0.58208E-21        -0.18161E-19         0.00000E+00
   -0.32014E-20        -0.20023E-19         0.00000E+00
   -0.52387E-20        -0.26543E-19         0.00000E+00
   -0.36089E-20        -0.26543E-19         0.00000E+00
   -0.69849E-21        -0.26077E-19         0.00000E+00
    0.16298E-20        -0.11176E-19         0.00000E+00
    0.26776E-20        -0.16764E-19         0.00000E+00
    0.19791E-20         0.39581E-20         0.00000E+00
    0.21537E-20        -0.30268E-20         0.00000E+00
    0.26193E-20         0.79162E-20         0.00000E+00
    0.56461E-20        -0.13970E-20         0.00000E+00
    0.84983E-20         0.83819E-20         0.00000E+00
    0.53551E-20         0.37253E-20         0.00000E+00
    0.13970E-20         0.97789E-20         0.00000E+00
   -0.12224E-20         0.65193E-20         0.00000E+00
   -0.50059E-20        -0.46566E-21         0.00000E+00
   -0.52969E-20        -0.13504E-19         0.00000E+00
   -0.40745E-20        -0.46566E-20         0.00000E+00
   -0.16880E-20        -0.19092E-19         0.00000E+00
   -0.36089E-20        -0.81491E-20         0.00000E+00
   -0.54715E-20         0.93132E-21         0.00000E+00
   -0.66939E-20        -0.30268E-20         0.00000E+00
   -0.47730E-20        -0.74506E-20         0.00000E+00
   -0.11059E-20         0.20489E-19         0.00000E+00
   -0.29104E-21         0.79162E-20         0.00000E+00
   -0.40745E-21         0.00000E+00         0.00000E+00
    0.93132E-21         0.37253E-20         0.00000E+00
    0.15716E-20         0.22119E-19         0.00000E+00
    0.24447E-20         0.13039E-19         0.00000E+00
    0.33178E-20         0.60536E-20         0.00000E+00
    0.17462E-20         0.88476E-20         0.00000E+00
    0.10477E-20         0.32596E-20         0.00000E+00
   -0.93132E-21        -0.27940E-20         0.00000E+00
   -0.27358E-20        -0.37253E-20         0.00000E+00
   -0.38417E-20        -0.18626E-20         0.00000E+00
   -0.37835E-20        -0.11642E-19         0.00000E+00
   -0.26193E-20        -0.27940E-19         0.00000E+00
   -0.11642E-21        -0.12107E-19         0.00000E+00
    0.93132E-21        -0.16764E-19         0.00000E+00
    0.11059E-20        -0.32131E-19         0.00000E+00
    0.46566E-21        -0.31199E-19         0.00000E+00
   -0.18044E-20        -0.24680E-19         0.00000E+00
   -0.45984E-20        -0.14901E-19         0.00000E+00
   -0.56461E-20        -0.18626E-19         0.00000E+00
   -0.69267E-20        -0.79162E-20         0.00000E+00
   -0.77998E-20         0.00000E+00         0.00000E+00
    0.12689E-19         0.60536E-20         0.00000E+00
    0.10943E-19         0.69849E-21         0.00000E+00
    0.65193E-20         0.93132E-21         0.00000E+00
    0.17462E-20         0.27940E-20         0.00000E+00
   -0.23283E-21        -0.97789E-20         0.00000E+00
   -0.29104E-21        -0.17229E-19         0.00000E+00
    0.93132E-21        -0.20955E-19         0.00000E+00
   -0.22701E-20        -0.25611E-19         0.00000E+00
   -0.58208E-20        -0.24680E-19         0.00000E+00
   -0.61700E-20        -0.17462E-19         0.00000E+00
   -0.68103E-20        -0.21188E-19         0.00000E+00
   -0.53551E-20         0.32596E-20         0.00000E+00
   -0.37835E-20        -0.90804E-20         0.00000E+00
   -0.25029E-20         0.74506E-20         0.00000E+00
   -0.27940E-20        -0.10012E-19         0.00000E+00
   -0.51805E-20         0.13504E-19         0.00000E+00
   -0.43656E-20         0.12806E-19         0.00000E+00
   -0.27940E-20         0.20722E-19         0.00000E+00
   -0.29686E-20         0.79162E-20         0.00000E+00
   -0.17462E-20         0.27940E-20         0.00000E+00
   -0.52387E-21        -0.14203E-19         0.00000E+00
   -0.11642E-20        -0.10477E-19         0.00000E+00
   -0.15716E-20        -0.19558E-19         0.00000E+00
   -0.11642E-20        -0.18626E-20         0.00000E+00
   -0.81491E-21         0.53551E-20         0.00000E+00
   -0.75670E-21        -0.30268E-20         0.00000E+00
   -0.32014E-20        -0.74506E-20         0.00000E+00
   -0.43656E-20         0.15600E-19         0.00000E+00
   -0.35507E-20        -0.46566E-21         0.00000E+00
   -0.13970E-20        -0.44238E-20         0.00000E+00
    0.11642E-21        -0.69849E-20         0.00000E+00
    0.22119E-20         0.17695E-19         0.00000E+00
    0.23865E-20         0.11409E-19         0.00000E+00
    0.22119E-20         0.46566E-20         0.00000E+00
    0.45402E-20         0.83819E-20         0.00000E+00
    0.65193E-20         0.58208E-20         0.00000E+00
    0.65193E-20         0.27940E-20         0.00000E+00
    0.48312E-20         0.00000E+00         0.00000E+00
    0.68103E-20        -0.81491E-20         0.00000E+00
    0.70431E-20        -0.93132E-20         0.00000E+00
    0.41327E-20        -0.22119E-19         0.00000E+00
    0.12806E-20        -0.11642E-19         0.00000E+00
    0.98953E-21        -0.23283E-19         0.00000E+00
    0.18044E-20        -0.32131E-19         0.00000E+00
    0.27358E-20        -0.31199E-19         0.00000E+00
    0.25611E-20        -0.13970E-19         0.00000E+00
    0.22701E-20        -0.10245E-19         0.00000E+00
    0.16298E-20        -0.12107E-19         0.00000E+00
    0.10477E-20        -0.55879E-20         0.00000E+00
    0.21537E-20        -0.11642E-20         0.00000E+00
   -0.87311E-21         0.18626E-20         0.00000E+00
    0.23283E-21         0.25611E-20         0.00000E+00
    0.32014E-20         0.12340E-19         0.00000E+00
    0.52387E-20         0.55879E-20         0.00000E+00
    0.62864E-20        -0.37253E-20         0.00000E+00
    0.52387E-20        -0.15832E-19         0.00000E+00
    0.34925E-20        -0.16531E-19         0.00000E+00
    0.37253E-20        -0.19092E-19         0.00000E+00
    0.53551E-20        -0.27707E-19         0.00000E+00
    0.52969E-20        -0.10710E-19         0.00000E+00
    0.34343E-20        -0.19325E-19         0.00000E+00
    0.27358E-20         0.18626E-20         0.00000E+00
    0.69849E-21        -0.10943E-19         0.00000E+00
    0.17462E-21         0.13970E-20         0.00000E+00
    0.11642E-20        -0.53551E-20         0.00000E+00
    0.11642E-20         0.14668E-19         0.00000E+00
    0.16298E-20         0.58208E-20         0.00000E+00
    0.25611E-20         0.19325E-19         0.00000E+00
    0.17462E-20         0.14901E-19         0.00000E+00
    0.64028E-21        -0.20955E-20         0.00000E+00
    0.16298E-20        -0.18394E-19         0.00000E+00
    0.31432E-20        -0.11176E-19         0.00000E+00
    0.31432E-20        -0.18161E-19         0.00000E+00
    0.32014E-20        -0.34925E-20         0.00000E+00
    0.46566E-20        -0.25611E-20         0.00000E+00
    0.58790E-20         0.00000E+00         0.00000E+00
    0.52387E-20         0.48894E-20         0.00000E+00
    0.37835E-20         0.19092E-19         0.00000E+00
    0.58208E-22         0.97789E-20         0.00000E+00
   -0.18044E-20        -0.11409E-19         0.00000E+00
   -0.52387E-21        -0.11642E-19         0.00000E+00
   -0.75670E-21         0.14901E-19         0.00000E+00
   -0.10477E-20         0.17229E-19         0.00000E+00
   -0.30850E-20         0.72177E-20         0.00000E+00
   -0.54715E-20         0.34925E-20         0.00000E+00
   -0.68685E-20         0.32596E-20         0.00000E+00
   -0.64028E-20        -0.46566E-21         0.00000E+00
   -0.37253E-20        -0.41910E-20         0.00000E+00
   -0.38417E-20        -0.93132E-20         0.00000E+00
   -0.47148E-20        -0.34925E-20         0.00000E+00
   -0.40745E-20        -0.19558E-19         0.00000E+00
   -0.20955E-20        -0.81491E-20         0.00000E+00
   -0.52387E-21        -0.28173E-19         0.00000E+00
    0.52387E-21        -0.35390E-19         0.00000E+00
   -0.98953E-21        -0.28405E-19         0.00000E+00
   -0.64028E-21        -0.14901E-19         0.00000E+00
    0.23283E-21        -0.13970E-19         0.00000E+00
   -0.17462E-21        -0.81491E-20         0.00000E+00
   -0.75670E-21        -0.25611E-20         0.00000E+00
   -0.15134E-20        -0.11642E-20         0.00000E+00
    0.10070E-19         0.46566E-21         0.00000E+00
    0.84983E-20         0.44238E-20         0.00000E+00
    0.89058E-20         0.93132E-21         0.00000E+00
    0.80327E-20         0.37253E-20         0.00000E+00
    0.65193E-20        -0.55879E-20         0.00000E+00
    0.69267E-20        -0.11176E-19         0.00000E+00
    0.84401E-20        -0.13271E-19         0.00000E+00
    0.59954E-20        -0.13970E-19         0.00000E+00
    0.28522E-20        -0.25611E-19         0.00000E+00
    0.20955E-20        -0.14435E-19         0.00000E+00
    0.24447E-20        -0.74506E-20         0.00000E+00
    0.75670E-21         0.93132E-20         0.00000E+00
    0.34925E-21        -0.74506E-20         0.00000E+00
   -0.52387E-21         0.93132E-20         0.00000E+00
   -0.33178E-20        -0.13970E-20         0.00000E+00
   -0.46566E-20         0.14901E-19         0.00000E+00
   -0.44820E-20         0.46566E-20         0.00000E+00
   -0.55879E-20         0.20955E-19         0.00000E+00
   -0.52969E-20         0.16764E-19         0.00000E+00
   -0.41910E-20        -0.69849E-20         0.00000E+00
   -0.39581E-20        -0.20489E-19         0.00000E+00
   -0.50059E-20        -0.83819E-20         0.00000E+00
   -0.59954E-20        -0.16764E-19         0.00000E+00
   -0.52387E-20        -0.10710E-19         0.00000E+00
   -0.44238E-20        -0.60536E-20         0.00000E+00
   -0.34925E-20        -0.27940E-20         0.00000E+00
   -0.17462E-20         0.00000E+00         0.00000E+00
    0.14552E-20         0.20023E-19         0.00000E+00
    0.48312E-20         0.11642E-19         0.00000E+00
    0.48894E-20        -0.97789E-20         0.00000E+00
    0.20955E-20        -0.51223E-20         0.00000E+00
    0.64028E-21         0.14668E-19         0.00000E+00
    0.14552E-20         0.16065E-19         0.00000E+00
    0.32596E-20         0.10710E-19         0.00000E+00
    0.37835E-20         0.97789E-20         0.00000E+00
    0.33760E-20         0.65193E-20         0.00000E+00
    0.18626E-20         0.27940E-20         0.00000E+00
    0.58208E-22        -0.41910E-20         0.00000E+00
    0.12806E-20        -0.11176E-19         0.00000E+00
    0.35507E-20        -0.13737E-19         0.00000E+00
    0.51223E-20        -0.26776E-19         0.00000E+00
    0.60536E-20        -0.13504E-19         0.00000E+00
    0.44238E-20        -0.22119E-19         0.00000E+00
    0.21537E-20        -0.32829E-19         0.00000E+00
    0.23865E-20        -0.24680E-19         0.00000E+00
    0.17462E-20        -0.10710E-19         0.00000E+00
   -0.81491E-21        -0.11176E-19         0.00000E+00
   -0.64028E-21        -0.10245E-19         0.00000E+00
   -0.58208E-22         0.23283E-20         0.00000E+00
   -0.93132E-21         0.34925E-20         0.00000E+00
    0.68685E-20         0.41910E-20         0.00000E+00
    0.60536E-20         0.86147E-20         0.00000E+00
    0.40745E-20         0.93132E-20         0.00000E+00
    0.11642E-20         0.11874E-19         0.00000E+00
    0.46566E-21        -0.41910E-20         0.00000E+00
    0.40745E-21        -0.13504E-19         0.00000E+00
    0.64028E-21        -0.13737E-19         0.00000E+00
    0.31432E-20        -0.15367E-19         0.00000E+00
    0.48312E-20        -0.16764E-19         0.00000E+00
    0.32596E-20        -0.13737E-19         0.00000E+00
    0.35507E-20        -0.11642E-19         0.00000E+00
    0.65193E-20         0.14901E-19         0.00000E+00
    0.45984E-20        -0.97789E-20         0.00000E+00
    0.43656E-20         0.13970E-19         0.00000E+00
    0.56461E-20         0.23283E-20         0.00000E+00
    0.42492E-20         0.16764E-19         0.00000E+00
    0.42492E-20         0.83819E-20         0.00000E+00
    0.47730E-20         0.19092E-19         0.00000E+00
    0.51805E-20         0.12107E-19         0.00000E+00
    0.39581E-20        -0.51223E-20         0.00000E+00
    0.22701E-20        -0.16298E-19         0.00000E+00
    0.13970E-20        -0.65193E-20         0.00000E+00
    0.12806E-20        -0.14435E-19         0.00000E+00
    0.69849E-21        -0.11176E-19         0.00000E+00
   -0.34925E-21        -0.62864E-20         0.00000E+00
   -0.11642E-20        -0.37253E-20         0.00000E+00
   -0.23283E-20        -0.79162E-20         0.00000E+00
   -0.30850E-20         0.19558E-19         0.00000E+00
   -0.50059E-20         0.23283E-20         0.00000E+00
   -0.51805E-20        -0.46566E-21         0.00000E+00
   -0.38999E-20        -0.23283E-20         0.00000E+00
   -0.19209E-20         0.12340E-19         0.00000E+00
   -0.12806E-20         0.11176E-19         0.00000E+00
   -0.22119E-20         0.69849E-20         0.00000E+00
   -0.23283E-20         0.14435E-19         0.00000E+00
   -0.22119E-20         0.88476E-20         0.00000E+00
   -0.22119E-20         0.46566E-21         0.00000E+00
    0.17462E-21        -0.69849E-20         0.00000E+00
   -0.34925E-21        -0.12806E-19         0.00000E+00
   -0.29104E-21        -0.19791E-19         0.00000E+00
   -0.64028E-21        -0.32363E-19         0.00000E+00
   -0.58208E-22        -0.12573E-19         0.00000E+00
    0.52387E-21        -0.19558E-19         0.00000E+00
    0.20373E-20        -0.31665E-19         0.00000E+00
    0.17462E-20        -0.25611E-19         0.00000E+00
    0.14552E-20        -0.46566E-20         0.00000E+00
    0.75670E-21         0.93132E-21         0.00000E+00
   -0.75670E-21        -0.10245E-19         0.00000E+00
   -0.10477E-20        -0.46566E-21         0.00000E+00
    0.23283E-21         0.32596E-20         0.00000E+00
   -0.10885E-19         0.83819E-20         0.00000E+00
   -0.11409E-19         0.13737E-19         0.00000E+00
   -0.97789E-20         0.93132E-20         0.00000E+00
   -0.60536E-20         0.93132E-20         0.00000E+00
   -0.36671E-20        -0.12573E-19         0.00000E+00
   -0.12806E-20        -0.16997E-19         0.00000E+00
   -0.46566E-21        -0.16298E-19         0.00000E+00
   -0.24447E-20        -0.16298E-19         0.00000E+00
   -0.32596E-20        -0.19092E-19         0.00000E+00
   -0.37835E-20         0.00000E+00         0.00000E+00
   -0.52387E-20        -0.19325E-19         0.00000E+00
   -0.39581E-20         0.69849E-20         0.00000E+00
   -0.11642E-20        -0.69849E-20         0.00000E+00
   -0.98953E-21         0.13737E-19         0.00000E+00
   -0.10477E-20         0.27940E-20         0.00000E+00
   -0.52387E-21         0.17695E-19         0.00000E+00
   -0.64028E-21         0.93132E-20         0.00000E+00
   -0.98953E-21         0.20489E-19         0.00000E+00
   -0.25611E-20         0.15832E-19         0.00000E+00
   -0.32014E-20        -0.93132E-21         0.00000E+00
   -0.25611E-20        -0.10245E-19         0.00000E+00
   -0.11642E-20        -0.15367E-19         0.00000E+00
    0.58208E-21        -0.20955E-19         0.00000E+00
    0.34343E-20        -0.16065E-19         0.00000E+00
    0.37835E-20        -0.58208E-20         0.00000E+00
    0.41910E-20        -0.46566E-21         0.00000E+00
    0.44238E-20        -0.51223E-20         0.00000E+00
    0.32014E-20         0.22817E-19         0.00000E+00
    0.44820E-20         0.37253E-20         0.00000E+00
    0.47148E-20        -0.18626E-20         0.00000E+00
    0.38999E-20        -0.37253E-20         0.00000E+00
    0.18044E-20         0.15367E-19         0.00000E+00
    0.52387E-21         0.12107E-19         0.00000E+00
    0.98953E-21         0.10012E-19         0.00000E+00
    0.13970E-20         0.11874E-19         0.00000E+00
    0.15716E-20         0.97789E-20         0.00000E+00
    0.13970E-20        -0.46566E-21         0.00000E+00
   -0.58208E-21        -0.55879E-20         0.00000E+00
   -0.10477E-20        -0.10245E-19         0.00000E+00
   -0.64028E-21        -0.18161E-19         0.00000E+00
   -0.20955E-20        -0.26543E-19         0.00000E+00
   -0.43656E-20        -0.10245E-19         0.00000E+00
   -0.44820E-20        -0.20955E-19         0.00000E+00
   -0.43656E-20        -0.34925E-19         0.00000E+00
   -0.51805E-20        -0.18626E-19         0.00000E+00
   -0.49477E-20        -0.17229E-19         0.00000E+00
    0.52387E-21        -0.90804E-20         0.00000E+00
    0.25029E-20        -0.41910E-20         0.00000E+00
    0.18044E-20        -0.13970E-20         0.00000E+00
    0.46566E-21         0.23283E-20         0.00000E+00
   -0.45402E-20         0.60536E-20         0.00000E+00
   -0.50059E-20         0.12573E-19         0.00000E+00
   -0.65775E-20         0.88476E-20         0.00000E+00
   -0.86147E-20         0.74506E-20         0.00000E+00
   -0.11467E-19        -0.97789E-20         0.00000E+00
   -0.12398E-19        -0.25844E-19         0.00000E+00
   -0.11118E-19        -0.18161E-19         0.00000E+00
   -0.65193E-20        -0.24680E-19         0.00000E+00
   -0.26776E-20        -0.20955E-19         0.00000E+00
   -0.75670E-21        -0.10710E-19         0.00000E+00
    0.21537E-20        -0.17462E-19         0.00000E+00
   -0.11642E-21         0.69849E-20         0.00000E+00
   -0.23283E-20        -0.12107E-19         0.00000E+00
   -0.64028E-21         0.44238E-20         0.00000E+00
    0.13388E-20        -0.46566E-21         0.00000E+00
    0.15134E-20         0.15367E-19         0.00000E+00
    0.15716E-20         0.17229E-19         0.00000E+00
    0.00000E+00         0.24214E-19         0.00000E+00
    0.17462E-21         0.21886E-19         0.00000E+00
   -0.93132E-21         0.46566E-21         0.00000E+00
   -0.22119E-20        -0.12573E-19         0.00000E+00
   -0.42492E-20        -0.93132E-20         0.00000E+00
   -0.58790E-20        -0.22817E-19         0.00000E+00
   -0.72177E-20        -0.16298E-19         0.00000E+00
   -0.68103E-20        -0.51223E-20         0.00000E+00
   -0.57626E-20        -0.83819E-20         0.00000E+00
   -0.48312E-20        -0.41910E-20         0.00000E+00
   -0.37835E-20         0.18161E-19         0.00000E+00
   -0.42492E-20         0.74506E-20         0.00000E+00
   -0.44238E-20        -0.69849E-20         0.00000E+00
   -0.31432E-20         0.00000E+00         0.00000E+00
   -0.23865E-20         0.18626E-19         0.00000E+00
   -0.29686E-20         0.13504E-19         0.00000E+00
   -0.52387E-20         0.13737E-19         0.00000E+00
   -0.49477E-20         0.11874E-19         0.00000E+00
   -0.40163E-20         0.13970E-20         0.00000E+00
   -0.27358E-20        -0.23283E-20         0.00000E+00
   -0.40745E-21        -0.69849E-20         0.00000E+00
    0.10477E-20        -0.13271E-19         0.00000E+00
    0.15716E-20        -0.16764E-19         0.00000E+00
    0.12224E-20        -0.24680E-19         0.00000E+00
    0.27358E-20        -0.97789E-20         0.00000E+00
    0.29686E-20        -0.20023E-19         0.00000E+00
    0.27358E-20        -0.33062E-19         0.00000E+00
    0.19791E-20        -0.18626E-19         0.00000E+00
    0.34925E-21        -0.13504E-19         0.00000E+00
   -0.29686E-20        -0.14435E-19         0.00000E+00
   -0.53551E-20        -0.23283E-20         0.00000E+00
   -0.52387E-20         0.72177E-20         0.00000E+00
   -0.54715E-20         0.69849E-21         0.00000E+00
   -0.71013E-20         0.18626E-20         0.00000E+00
   -0.60536E-20         0.97789E-20         0.00000E+00
   -0.17462E-20         0.30268E-20         0.00000E+00
    0.19791E-20         0.27940E-20         0.00000E+00
    0.42492E-20        -0.81491E-20         0.00000E+00
    0.31432E-20        -0.18161E-19         0.00000E+00
    0.29104E-20        -0.31199E-19         0.00000E+00
    0.58208E-21        -0.27940E-19         0.00000E+00
    0.75670E-21        -0.27241E-19         0.00000E+00
   -0.40745E-21        -0.15134E-19         0.00000E+00
   -0.93132E-21        -0.21188E-19         0.00000E+00
    0.24447E-20         0.46566E-20         0.00000E+00
    0.39581E-20        -0.10245E-19         0.00000E+00
    0.20373E-20         0.34925E-20         0.00000E+00
    0.23865E-20        -0.23283E-20         0.00000E+00
    0.15716E-20         0.16764E-19         0.00000E+00
    0.30268E-20         0.13970E-19         0.00000E+00
    0.48312E-20         0.24214E-19         0.00000E+00
    0.52387E-20         0.22817E-19         0.00000E+00
    0.55879E-20         0.18626E-20         0.00000E+00
    0.68685E-20        -0.15832E-19         0.00000E+00
    0.86147E-20        -0.46566E-20         0.00000E+00
    0.90804E-20        -0.19558E-19         0.00000E+00
    0.89640E-20        -0.90804E-20         0.00000E+00
    0.69849E-20        -0.44238E-20         0.00000E+00
    0.51805E-20        -0.10245E-19         0.00000E+00
    0.43074E-20        -0.16298E-20         0.00000E+00
    0.12224E-20         0.21886E-19         0.00000E+00
   -0.11642E-21         0.13737E-19         0.00000E+00
   -0.12806E-20        -0.74506E-20         0.00000E+00
   -0.31432E-20         0.00000E+00         0.00000E+00
   -0.44820E-20         0.24680E-19         0.00000E+00
   -0.57044E-20         0.16298E-19         0.00000E+00
   -0.28522E-20         0.74506E-20         0.00000E+00
    0.52387E-21         0.00000E+00         0.00000E+00
    0.20373E-20        -0.23283E-20         0.00000E+00
    0.24447E-20        -0.12573E-19         0.00000E+00
    0.37253E-20        -0.17229E-19         0.00000E+00
    0.54133E-20        -0.16065E-19         0.00000E+00
    0.52387E-20        -0.13970E-19         0.00000E+00
    0.45402E-20        -0.28871E-19         0.00000E+00
    0.50059E-20        -0.11409E-19         0.00000E+00
    0.37253E-20        -0.22817E-19         0.00000E+00
    0.39581E-20        -0.24680E-19         0.00000E+00
    0.25029E-20        -0.16065E-19         0.00000E+00
    0.21537E-20        -0.39581E-20         0.00000E+00
   -0.58208E-22        -0.11642E-20         0.00000E+00
   -0.87311E-21        -0.46566E-20         0.00000E+00
    0.75670E-21         0.37253E-20         0.00000E+00
    0.16880E-20        -0.46566E-21         0.00000E+00
    0.66939E-20         0.51223E-20         0.00000E+00
    0.45402E-20         0.95461E-20         0.00000E+00
    0.28522E-20        -0.25611E-20         0.00000E+00
    0.46566E-21         0.93132E-21         0.00000E+00
   -0.93132E-21        -0.12806E-19         0.00000E+00
    0.22701E-20        -0.25379E-19         0.00000E+00
    0.45402E-20        -0.30966E-19         0.00000E+00
    0.48312E-20        -0.19325E-19         0.00000E+00
    0.34925E-20        -0.24913E-19         0.00000E+00
    0.23283E-20        -0.10710E-19         0.00000E+00
    0.14552E-20        -0.13970E-19         0.00000E+00
   -0.27940E-20         0.60536E-20         0.00000E+00
   -0.52969E-20        -0.60536E-20         0.00000E+00
   -0.65193E-20         0.60536E-20         0.00000E+00
   -0.63446E-20        -0.93132E-21         0.00000E+00
   -0.72760E-20         0.18626E-19         0.00000E+00
   -0.84401E-20         0.12573E-19         0.00000E+00
   -0.82655E-20         0.16764E-19         0.00000E+00
   -0.57626E-20         0.11176E-19         0.00000E+00
   -0.22119E-20        -0.69849E-20         0.00000E+00
   -0.46566E-21        -0.20955E-19         0.00000E+00
    0.58208E-22        -0.65193E-20         0.00000E+00
   -0.87311E-21        -0.18626E-19         0.00000E+00
    0.23283E-21        -0.13970E-19         0.00000E+00
    0.31432E-20        -0.39581E-20         0.00000E+00
    0.38999E-20        -0.34925E-20         0.00000E+00
    0.26776E-20         0.37253E-20         0.00000E+00
    0.23283E-20         0.29802E-19         0.00000E+00
    0.18626E-20         0.14435E-19         0.00000E+00
    0.23283E-20        -0.23283E-20         0.00000E+00
    0.25029E-20         0.23283E-20         0.00000E+00
    0.44820E-20         0.19558E-19         0.00000E+00
    0.66357E-20         0.14203E-19         0.00000E+00
    0.75088E-20         0.00000E+00         0.00000E+00
    0.44820E-20         0.13970E-20         0.00000E+00
    0.23283E-20        -0.23283E-21         0.00000E+00
   -0.93132E-21        -0.32596E-20         0.00000E+00
   -0.40745E-20        -0.13504E-19         0.00000E+00
   -0.84401E-20        -0.48894E-20         0.00000E+00
   -0.10827E-19        -0.13504E-19         0.00000E+00
   -0.10186E-19        -0.26543E-19         0.00000E+00
   -0.10594E-19        -0.11176E-19         0.00000E+00
   -0.95461E-20        -0.20955E-19         0.00000E+00
   -0.78580E-20        -0.29337E-19         0.00000E+00
   -0.45984E-20        -0.22119E-19         0.00000E+00
    0.58208E-22        -0.14435E-19         0.00000E+00
    0.34925E-20        -0.16298E-20         0.00000E+00
    0.70431E-20        -0.10710E-19         0.00000E+00
    0.77998E-20        -0.23283E-20         0.00000E+00
    0.81491E-20        -0.93132E-21         0.00000E+00
    0.20955E-20         0.55879E-20         0.00000E+00
    0.39581E-20         0.79162E-20         0.00000E+00
    0.48312E-20         0.44238E-20         0.00000E+00
    0.36089E-20         0.10245E-19         0.00000E+00
    0.27940E-20        -0.10710E-19         0.00000E+00
    0.93132E-21        -0.28405E-19         0.00000E+00
   -0.20373E-20        -0.27241E-19         0.00000E+00
   -0.40745E-20        -0.20023E-19         0.00000E+00
   -0.22119E-20        -0.21420E-19         0.00000E+00
   -0.64028E-21        -0.16764E-19         0.00000E+00
    0.12806E-20        -0.93132E-20         0.00000E+00
    0.38417E-20         0.13504E-19         0.00000E+00
    0.44238E-20        -0.23283E-20         0.00000E+00
    0.39581E-20         0.90804E-20         0.00000E+00
    0.33178E-20        -0.69849E-21         0.00000E+00
    0.52387E-20         0.16298E-19         0.00000E+00
    0.56461E-20         0.19092E-19         0.00000E+00
    0.35507E-20         0.19558E-19         0.00000E+00
    0.52387E-21         0.81491E-20         0.00000E+00
   -0.34925E-20        -0.37253E-20         0.00000E+00
   -0.54133E-20        -0.19558E-19         0.00000E+00
   -0.51223E-20        -0.11176E-19         0.00000E+00
   -0.19791E-20        -0.27474E-19         0.00000E+00
   -0.23865E-20        -0.13504E-19         0.00000E+00
   -0.34343E-20        -0.93132E-20         0.00000E+00
   -0.32014E-20         0.00000E+00         0.00000E+00
   -0.47148E-20         0.23283E-20         0.00000E+00
   -0.19791E-20         0.25611E-19         0.00000E+00
   -0.17462E-21         0.12107E-19         0.00000E+00
    0.17462E-21        -0.18626E-20         0.00000E+00
    0.29104E-21         0.20955E-20         0.00000E+00
   -0.17462E-21         0.15367E-19         0.00000E+00
   -0.25029E-20         0.14668E-19         0.00000E+00
   -0.36671E-20         0.46566E-20         0.00000E+00
   -0.34925E-20         0.13970E-19         0.00000E+00
   -0.22119E-20         0.60536E-20         0.00000E+00
    0.23283E-21        -0.93132E-21         0.00000E+00
   -0.58208E-22        -0.13970E-20         0.00000E+00
    0.87311E-21        -0.69849E-20         0.00000E+00
    0.38999E-20        -0.11642E-19         0.00000E+00
    0.25029E-20        -0.24913E-19         0.00000E+00
    0.16880E-20        -0.74506E-20         0.00000E+00
    0.21537E-20        -0.31898E-19         0.00000E+00
    0.37253E-20        -0.37020E-19         0.00000E+00
    0.35507E-20        -0.32596E-19         0.00000E+00
    0.26776E-20        -0.16531E-19         0.00000E+00
    0.12224E-20        -0.12573E-19         0.00000E+00
    0.69849E-21        -0.12107E-19         0.00000E+00
   -0.23283E-21        -0.13970E-20         0.00000E+00
   -0.69849E-21         0.18626E-20         0.00000E+00
   -0.23865E-20         0.23283E-20         0.00000E+00
   -0.37253E-20         0.48894E-20         0.00000E+00
   -0.40163E-20         0.44238E-20         0.00000E+00
   -0.37253E-20         0.83819E-20         0.00000E+00
   -0.26776E-20        -0.72177E-20         0.00000E+00
   -0.29104E-20        -0.16298E-19         0.00000E+00
   -0.37253E-20        -0.20955E-19         0.00000E+00
   -0.26776E-20        -0.23283E-19         0.00000E+00
   -0.29104E-20        -0.21653E-19         0.00000E+00
   -0.74506E-20        -0.93132E-20         0.00000E+00
   -0.87311E-20        -0.17695E-19         0.00000E+00
   -0.83819E-20         0.27940E-20         0.00000E+00
   -0.62864E-20        -0.67521E-20         0.00000E+00
   -0.44820E-20         0.88476E-20         0.00000E+00
   -0.32596E-20        -0.13970E-20         0.00000E+00
   -0.59954E-20         0.21886E-19         0.00000E+00
   -0.50641E-20         0.13970E-19         0.00000E+00
   -0.15716E-20         0.16997E-19         0.00000E+00
   -0.11059E-20         0.20023E-19         0.00000E+00
   -0.16298E-20         0.18626E-20         0.00000E+00
    0.58208E-21        -0.19325E-19         0.00000E+00
    0.11642E-21        -0.16298E-19         0.00000E+00
   -0.22701E-20        -0.23050E-19         0.00000E+00
   -0.40163E-20        -0.86147E-20         0.00000E+00
   -0.44820E-20        -0.67521E-20         0.00000E+00
   -0.35507E-20        -0.27940E-20         0.00000E+00
   -0.34343E-20         0.74506E-20         0.00000E+00
   -0.42492E-20         0.21886E-19         0.00000E+00
   -0.56461E-20         0.41910E-20         0.00000E+00
   -0.59372E-20         0.00000E+00         0.00000E+00
   -0.57626E-20        -0.51223E-20         0.00000E+00
   -0.30268E-20         0.88476E-20         0.00000E+00
   -0.11642E-21         0.14901E-19         0.00000E+00
    0.19791E-20         0.81491E-20         0.00000E+00
    0.18626E-20         0.46566E-20         0.00000E+00
    0.11642E-20         0.69849E-20         0.00000E+00
   -0.29104E-20        -0.93132E-21         0.00000E+00
   -0.21537E-20        -0.72177E-20         0.00000E+00
   -0.22119E-20        -0.12806E-19         0.00000E+00
   -0.36671E-20        -0.25611E-20         0.00000E+00
   -0.37835E-20        -0.25146E-19         0.00000E+00
   -0.32014E-20        -0.11409E-19         0.00000E+00
   -0.40163E-20        -0.30268E-19         0.00000E+00
   -0.51805E-20        -0.37719E-19         0.00000E+00
   -0.80909E-20        -0.24680E-19         0.00000E+00
   -0.10012E-19        -0.12107E-19         0.00000E+00
   -0.10885E-19        -0.79162E-20         0.00000E+00
   -0.11118E-19        -0.83819E-20         0.00000E+00
   -0.13330E-19         0.48894E-20         0.00000E+00
   -0.13504E-19         0.11642E-20         0.00000E+00
    0.11642E-21         0.18626E-20         0.00000E+00
    0.23283E-21         0.88476E-20         0.00000E+00
    0.10477E-20         0.32596E-20         0.00000E+00
    0.17462E-20         0.16298E-20         0.00000E+00
    0.13970E-20        -0.79162E-20         0.00000E+00
    0.64028E-21        -0.11409E-19         0.00000E+00
   -0.64028E-21        -0.13970E-19         0.00000E+00
   -0.41327E-20        -0.21653E-19         0.00000E+00
   -0.45402E-20        -0.15600E-19         0.00000E+00
   -0.25611E-20        -0.88476E-20         0.00000E+00
   -0.52387E-21        -0.18626E-19         0.00000E+00
   -0.22701E-20         0.74506E-20         0.00000E+00
   -0.41910E-20        -0.11176E-19         0.00000E+00
   -0.44238E-20        -0.46566E-21         0.00000E+00
   -0.36089E-20        -0.46566E-20         0.00000E+00
   -0.13388E-20         0.21886E-19         0.00000E+00
   -0.10477E-20         0.11176E-19         0.00000E+00
   -0.26776E-20         0.12107E-19         0.00000E+00
   -0.19209E-20         0.16997E-19         0.00000E+00
   -0.13970E-20         0.41910E-20         0.00000E+00
   -0.32596E-20        -0.18161E-19         0.00000E+00
   -0.25611E-20        -0.15367E-19         0.00000E+00
   -0.13388E-20        -0.16764E-19         0.00000E+00
   -0.98953E-21        -0.79162E-20         0.00000E+00
   -0.13388E-20        -0.16298E-20         0.00000E+00
   -0.44820E-20        -0.69849E-21         0.00000E+00
   -0.58790E-20         0.88476E-20         0.00000E+00
   -0.43656E-20         0.21886E-19         0.00000E+00
   -0.33178E-20         0.72177E-20         0.00000E+00
   -0.26193E-20        -0.93132E-21         0.00000E+00
   -0.15716E-20        -0.55879E-20         0.00000E+00
   -0.26193E-20         0.44238E-20         0.00000E+00
   -0.62282E-20         0.11176E-19         0.00000E+00
   -0.59372E-20         0.93132E-21         0.00000E+00
   -0.40745E-20         0.46566E-20         0.00000E+00
   -0.12806E-20         0.72177E-20         0.00000E+00
    0.20373E-20         0.46566E-21         0.00000E+00
    0.19791E-20        -0.69849E-20         0.00000E+00
    0.69849E-21        -0.12107E-19         0.00000E+00
    0.44820E-20        -0.15367E-19         0.00000E+00
    0.69849E-20        -0.23749E-19         0.00000E+00
    0.62864E-20        -0.10245E-19         0.00000E+00
    0.64028E-20        -0.25146E-19         0.00000E+00
    0.57626E-20        -0.29104E-19         0.00000E+00
    0.48312E-20        -0.18859E-19         0.00000E+00
    0.59372E-20        -0.62864E-20         0.00000E+00
    0.51805E-20        -0.18626E-20         0.00000E+00
    0.33178E-20        -0.23283E-20         0.00000E+00
    0.36089E-20         0.65193E-20         0.00000E+00
    0.44238E-20         0.23283E-20         0.00000E+00
   -0.11642E-21         0.00000E+00         0.00000E+00
    0.46566E-21         0.97789E-20         0.00000E+00
   -0.23283E-21         0.72177E-20         0.00000E+00
   -0.36671E-20         0.97789E-20         0.00000E+00
   -0.75670E-20         0.30268E-20         0.00000E+00
   -0.74506E-20        -0.12107E-19         0.00000E+00
   -0.44238E-20        -0.19092E-19         0.00000E+00
   -0.18626E-20        -0.15134E-19         0.00000E+00
   -0.64028E-21        -0.23050E-19         0.00000E+00
   -0.18044E-20        -0.10943E-19         0.00000E+00
   -0.22119E-20        -0.16065E-19         0.00000E+00
   -0.16298E-20         0.88476E-20         0.00000E+00
   -0.12806E-20        -0.30268E-20         0.00000E+00
   -0.41910E-20         0.12107E-19         0.00000E+00
   -0.77998E-20        -0.18626E-20         0.00000E+00
   -0.10128E-19         0.15832E-19         0.00000E+00
   -0.94878E-20         0.17229E-19         0.00000E+00
   -0.87894E-20         0.16764E-19         0.00000E+00
   -0.84983E-20         0.41910E-20         0.00000E+00
   -0.55879E-20        -0.55879E-20         0.00000E+00
   -0.25611E-20        -0.19092E-19         0.00000E+00
   -0.19791E-20        -0.16764E-19         0.00000E+00
   -0.13970E-20        -0.26543E-19         0.00000E+00
    0.34925E-21        -0.97789E-20         0.00000E+00
    0.13970E-20        -0.93132E-21         0.00000E+00
    0.40163E-20         0.20955E-20         0.00000E+00
    0.64028E-20         0.69849E-21         0.00000E+00
    0.71595E-20         0.20256E-19         0.00000E+00
    0.55297E-20         0.81491E-20         0.00000E+00
    0.56461E-20        -0.10012E-19         0.00000E+00
    0.50641E-20        -0.41910E-20         0.00000E+00
    0.50641E-20         0.11642E-19         0.00000E+00
    0.84983E-20         0.93132E-20         0.00000E+00
    0.95461E-20        -0.46566E-20         0.00000E+00
    0.83237E-20         0.46566E-20         0.00000E+00
    0.60536E-20         0.37253E-20         0.00000E+00
    0.42492E-20        -0.48894E-20         0.00000E+00
    0.64611E-20        -0.69849E-20         0.00000E+00
    0.71013E-20        -0.14668E-19         0.00000E+00
    0.46566E-20        -0.15367E-19         0.00000E+00
    0.69849E-21        -0.19325E-19         0.00000E+00
   -0.10477E-20        -0.32596E-20         0.00000E+00
   -0.25611E-20        -0.26543E-19         0.00000E+00
   -0.16880E-20        -0.28405E-19         0.00000E+00
    0.46566E-21        -0.25611E-19         0.00000E+00
    0.14552E-20        -0.12573E-19         0.00000E+00
    0.40163E-20        -0.60536E-20         0.00000E+00
    0.55297E-20        -0.13970E-20         0.00000E+00
    0.47148E-20         0.53551E-20         0.00000E+00
    0.38417E-20         0.67521E-20         0.00000E+00
   -0.49477E-20         0.53551E-20         0.00000E+00
   -0.57044E-20         0.39581E-20         0.00000E+00
   -0.40163E-20         0.97789E-20         0.00000E+00
   -0.93132E-21         0.11176E-19         0.00000E+00
    0.28522E-20         0.46566E-21         0.00000E+00
    0.48894E-20        -0.19325E-19         0.00000E+00
    0.45402E-20        -0.22817E-19         0.00000E+00
    0.18044E-20        -0.16065E-19         0.00000E+00
    0.52387E-21        -0.20722E-19         0.00000E+00
    0.81491E-21        -0.97789E-20         0.00000E+00
    0.11642E-20        -0.13271E-19         0.00000E+00
   -0.11642E-21         0.41910E-20         0.00000E+00
    0.87311E-21        -0.65193E-20         0.00000E+00
    0.33178E-20         0.13737E-19         0.00000E+00
    0.54715E-20         0.27940E-20         0.00000E+00
    0.51223E-20         0.19092E-19         0.00000E+00
    0.61118E-20         0.83819E-20         0.00000E+00
    0.82655E-20         0.97789E-20         0.00000E+00
    0.76834E-20         0.88476E-20         0.00000E+00
    0.53551E-20        -0.11642E-19         0.00000E+00
    0.42492E-20        -0.18394E-19         0.00000E+00
    0.37253E-20        -0.19092E-19         0.00000E+00
    0.26193E-20        -0.23749E-19         0.00000E+00
    0.13388E-20        -0.15367E-19         0.00000E+00
    0.15134E-20        -0.65193E-20         0.00000E+00
    0.15134E-20        -0.46566E-21         0.00000E+00
   -0.69849E-21         0.37253E-20         0.00000E+00
   -0.25029E-20         0.22352E-19         0.00000E+00
    0.00000E+00         0.30268E-20         0.00000E+00
    0.11059E-20        -0.95461E-20         0.00000E+00
    0.43074E-20        -0.93132E-20         0.00000E+00
    0.52969E-20         0.10710E-19         0.00000E+00
    0.25611E-20         0.46566E-20         0.00000E+00
    0.58208E-21         0.46566E-20         0.00000E+00
    0.23283E-21         0.32596E-20         0.00000E+00
    0.24447E-20         0.53551E-20         0.00000E+00
    0.37253E-20        -0.79162E-20         0.00000E+00
    0.29686E-20        -0.37253E-20         0.00000E+00
   -0.22119E-20        -0.39581E-20         0.00000E+00
   -0.34925E-20        -0.25611E-20         0.00000E+00
   -0.35507E-20        -0.15367E-19         0.00000E+00
   -0.26776E-20        -0.32596E-20         0.00000E+00
   -0.13388E-20        -0.25146E-19         0.00000E+00
   -0.18044E-20        -0.30734E-19         0.00000E+00
   -0.29686E-20        -0.25146E-19         0.00000E+00
   -0.50059E-20        -0.83819E-20         0.00000E+00
   -0.82073E-20        -0.83819E-20         0.00000E+00
   -0.80327E-20        -0.65193E-20         0.00000E+00
   -0.50641E-20        -0.27940E-20         0.00000E+00
   -0.16298E-20         0.32596E-20         0.00000E+00
   -0.23283E-21         0.23283E-20         0.00000E+00
   -0.34925E-21         0.76834E-20         0.00000E+00
   -0.81491E-21         0.46566E-20         0.00000E+00
   -0.20955E-20         0.41910E-20         0.00000E+00
   -0.25611E-20        -0.10710E-19         0.00000E+00
   -0.10477E-20        -0.22352E-19         0.00000E+00
   -0.93132E-21        -0.18859E-19         0.00000E+00
    0.29104E-21        -0.14668E-19         0.00000E+00
    0.69849E-21        -0.18859E-19         0.00000E+00
    0.34925E-21        -0.13504E-19         0.00000E+00
    0.19791E-20        -0.22352E-19         0.00000E+00
    0.38999E-20         0.18626E-20         0.00000E+00
    0.34343E-20        -0.51223E-20         0.00000E+00
    0.14552E-20         0.14435E-19         0.00000E+00
    0.11642E-21        -0.27940E-20         0.00000E+00
    0.46566E-21         0.13970E-19         0.00000E+00
    0.38999E-20        -0.25611E-20         0.00000E+00
    0.46566E-20         0.79162E-20         0.00000E+00
    0.40163E-20         0.14435E-19         0.00000E+00
    0.38417E-20        -0.23283E-20         0.00000E+00
    0.41910E-20        -0.16531E-19         0.00000E+00
    0.29104E-20        -0.13970E-19         0.00000E+00
    0.18626E-20        -0.16531E-19         0.00000E+00
    0.46566E-21        -0.97789E-20         0.00000E+00
   -0.11059E-20        -0.74506E-20         0.00000E+00
   -0.23865E-20         0.37253E-20         0.00000E+00
   -0.81491E-21         0.37253E-20         0.00000E+00
    0.16880E-20         0.16298E-19         0.00000E+00
    0.87311E-21         0.55879E-20         0.00000E+00
   -0.26776E-20        -0.79162E-20         0.00000E+00
   -0.36671E-20        -0.18394E-19         0.00000E+00
   -0.26776E-20         0.93132E-20         0.00000E+00
   -0.34925E-21         0.10012E-19         0.00000E+00
    0.12806E-20         0.00000E+00         0.00000E+00
    0.36089E-20         0.11642E-20         0.00000E+00
    0.29104E-20         0.30268E-20         0.00000E+00
    0.13970E-20        -0.67521E-20         0.00000E+00
    0.33760E-20        -0.44238E-20         0.00000E+00
    0.82073E-20        -0.34925E-20         0.00000E+00
    0.10768E-19        -0.60536E-20         0.00000E+00
    0.10186E-19        -0.12340E-19         0.00000E+00
    0.97789E-20        -0.46566E-21         0.00000E+00
    0.62282E-20        -0.20955E-19         0.00000E+00
    0.57044E-20        -0.27474E-19         0.00000E+00
    0.48312E-20        -0.16997E-19         0.00000E+00
    0.37835E-20        -0.20955E-20         0.00000E+00
    0.32014E-20        -0.55879E-20         0.00000E+00
    0.35507E-20        -0.97789E-20         0.00000E+00
    0.34925E-20        -0.74506E-20         0.00000E+00
    0.20955E-20        -0.34925E-20         0.00000E+00
    0.81491E-21         0.46566E-21         0.00000E+00
    0.46566E-21         0.74506E-20         0.00000E+00
    0.20373E-20         0.58208E-20         0.00000E+00
    0.20955E-20         0.83819E-20         0.00000E+00
    0.34925E-21        -0.60536E-20         0.00000E+00
   -0.27940E-20        -0.13271E-19         0.00000E+00
   -0.50059E-20        -0.17462E-19         0.00000E+00
   -0.41910E-20        -0.21420E-19         0.00000E+00
   -0.13388E-20        -0.25379E-19         0.00000E+00
    0.13970E-20        -0.21420E-19         0.00000E+00
    0.20373E-20        -0.27008E-19         0.00000E+00
    0.20955E-20         0.93132E-21         0.00000E+00
    0.28522E-20        -0.83819E-20         0.00000E+00
    0.57626E-20         0.15600E-19         0.00000E+00
    0.69849E-20         0.58208E-20         0.00000E+00
    0.54133E-20         0.60536E-20         0.00000E+00
    0.42492E-20         0.13970E-20         0.00000E+00
    0.17462E-20         0.16065E-19         0.00000E+00
    0.98953E-21         0.10245E-19         0.00000E+00
    0.22119E-20        -0.74506E-20         0.00000E+00
    0.31432E-20        -0.14203E-19         0.00000E+00
    0.17462E-20        -0.79162E-20         0.00000E+00
    0.15134E-20        -0.15600E-19         0.00000E+00
    0.13970E-20        -0.62864E-20         0.00000E+00
    0.16298E-20        -0.13970E-20         0.00000E+00
    0.27358E-20         0.48894E-20         0.00000E+00
    0.25029E-20        -0.23283E-20         0.00000E+00
    0.93132E-21         0.17229E-19         0.00000E+00
    0.25029E-20         0.79162E-20         0.00000E+00
    0.58790E-20        -0.16531E-19         0.00000E+00
    0.63446E-20        -0.11409E-19         0.00000E+00
    0.49477E-20         0.51223E-20         0.00000E+00
    0.32014E-20         0.74506E-20         0.00000E+00
    0.27358E-20        -0.37253E-20         0.00000E+00
    0.12224E-20         0.51223E-20         0.00000E+00
   -0.93132E-21         0.10477E-19         0.00000E+00
   -0.13970E-20        -0.46566E-20         0.00000E+00
   -0.18044E-20        -0.10710E-19         0.00000E+00
   -0.33760E-20        -0.11409E-19         0.00000E+00
   -0.41910E-20        -0.83819E-20         0.00000E+00
   -0.29104E-20        -0.20955E-19         0.00000E+00
    0.17462E-21        -0.67521E-20         0.00000E+00
    0.25029E-20        -0.12806E-19         0.00000E+00
    0.37253E-20        -0.34692E-19         0.00000E+00
    0.55879E-20        -0.15832E-19         0.00000E+00
    0.72177E-20        -0.60536E-20         0.00000E+00
    0.83819E-20        -0.23283E-20         0.00000E+00
    0.70431E-20        -0.48894E-20         0.00000E+00
    0.26193E-20         0.10477E-19         0.00000E+00
    0.46566E-21        -0.18626E-20         0.00000E+00
    0.98371E-20         0.27940E-20         0.00000E+00
    0.90804E-20         0.12107E-19         0.00000E+00
    0.72760E-20         0.60536E-20         0.00000E+00
    0.74506E-20         0.27940E-20         0.00000E+00
    0.89640E-20        -0.32596E-20         0.00000E+00
    0.11525E-19        -0.12107E-19         0.00000E+00
    0.13155E-19        -0.17229E-19         0.00000E+00
    0.11874E-19        -0.20256E-19         0.00000E+00
    0.77416E-20        -0.22119E-19         0.00000E+00
    0.37253E-20        -0.19558E-19         0.00000E+00
    0.22119E-20        -0.18626E-19         0.00000E+00
    0.29104E-20        -0.69849E-20         0.00000E+00
    0.40163E-20        -0.14435E-19         0.00000E+00
    0.37253E-20         0.48894E-20         0.00000E+00
    0.71595E-20        -0.55879E-20         0.00000E+00
    0.73924E-20         0.15832E-19         0.00000E+00
    0.40163E-20         0.20023E-19         0.00000E+00
    0.22701E-20         0.18161E-19         0.00000E+00
    0.16298E-20         0.13504E-19         0.00000E+00
   -0.13970E-20        -0.51223E-20         0.00000E+00
   -0.25611E-20        -0.13271E-19         0.00000E+00
   -0.93132E-21        -0.88476E-20         0.00000E+00
    0.98953E-21        -0.22585E-19         0.00000E+00
    0.30850E-20        -0.11409E-19         0.00000E+00
    0.40163E-20         0.20955E-20         0.00000E+00
    0.25611E-20         0.27940E-20         0.00000E+00
    0.15716E-20        -0.65193E-20         0.00000E+00
    0.33178E-20         0.17229E-19         0.00000E+00
    0.47148E-20        -0.46566E-20         0.00000E+00
    0.30850E-20        -0.15832E-19         0.00000E+00
    0.25029E-20        -0.69849E-20         0.00000E+00
    0.26776E-20         0.10710E-19         0.00000E+00
    0.17462E-20         0.14435E-19         0.00000E+00
   -0.46566E-21         0.53551E-20         0.00000E+00
   -0.16880E-20         0.65193E-20         0.00000E+00
    0.16298E-20         0.74506E-20         0.00000E+00
    0.25029E-20        -0.37253E-20         0.00000E+00
    0.93132E-21        -0.58208E-20         0.00000E+00
    0.69849E-21        -0.53551E-20         0.00000E+00
    0.87311E-21        -0.97789E-20         0.00000E+00
    0.81491E-21        -0.23982E-19         0.00000E+00
   -0.11642E-21        -0.13039E-19         0.00000E+00
   -0.69849E-21        -0.17229E-19         0.00000E+00
   -0.12224E-20        -0.28173E-19         0.00000E+00
   -0.40163E-20        -0.19791E-19         0.00000E+00
   -0.44820E-20        -0.60536E-20         0.00000E+00
   -0.63446E-20        -0.46566E-21         0.00000E+00
   -0.65193E-20         0.32596E-20         0.00000E+00
   -0.37835E-20         0.83819E-20         0.00000E+00
   -0.27940E-20         0.13970E-20         0.00000E+00
    0.58790E-20         0.48894E-20         0.00000E+00
    0.59372E-20         0.13039E-19         0.00000E+00
    0.75670E-20         0.39581E-20         0.00000E+00
    0.61700E-20         0.76834E-20         0.00000E+00
    0.45402E-20        -0.10245E-19         0.00000E+00
    0.40745E-20        -0.18859E-19         0.00000E+00
    0.27358E-20        -0.16298E-19         0.00000E+00
    0.43656E-20        -0.15367E-19         0.00000E+00
    0.47730E-20        -0.10245E-19         0.00000E+00
    0.47730E-20        -0.12573E-19         0.00000E+00
    0.53551E-20        -0.16764E-19         0.00000E+00
    0.34925E-20        -0.51223E-20         0.00000E+00
    0.13388E-20        -0.12573E-19         0.00000E+00
    0.23865E-20         0.00000E+00         0.00000E+00
    0.11059E-20        -0.74506E-20         0.00000E+00
    0.87311E-21         0.18626E-19         0.00000E+00
    0.50059E-20         0.14901E-19         0.00000E+00
    0.69849E-20         0.17229E-19         0.00000E+00
    0.63446E-20         0.17462E-19         0.00000E+00
    0.80327E-20        -0.16298E-20         0.00000E+00
    0.90804E-20        -0.14435E-19         0.00000E+00
    0.87311E-20        -0.12573E-19         0.00000E+00
    0.65193E-20        -0.19558E-19         0.00000E+00
    0.29104E-20        -0.51223E-20         0.00000E+00
    0.13970E-20         0.18626E-20         0.00000E+00
    0.27940E-20        -0.27940E-20         0.00000E+00
    0.32596E-20        -0.18626E-20         0.00000E+00
    0.11059E-20         0.20023E-19         0.00000E+00
   -0.18044E-20         0.46566E-21         0.00000E+00
   -0.49477E-20        -0.32596E-20         0.00000E+00
   -0.62864E-20        -0.10245E-19         0.00000E+00
   -0.76252E-20         0.19558E-19         0.00000E+00
   -0.83237E-20         0.17462E-19         0.00000E+00
   -0.82655E-20         0.10477E-19         0.00000E+00
   -0.77998E-20        -0.46566E-21         0.00000E+00
   -0.79162E-20         0.23283E-20         0.00000E+00
   -0.62864E-20        -0.97789E-20         0.00000E+00
   -0.33760E-20        -0.10710E-19         0.00000E+00
   -0.12806E-20        -0.93132E-20         0.00000E+00
    0.29104E-21        -0.14435E-19         0.00000E+00
   -0.11642E-20        -0.17229E-19         0.00000E+00
   -0.17462E-20        -0.12573E-19         0.00000E+00
   -0.69849E-21        -0.23283E-19         0.00000E+00
    0.00000E+00        -0.20955E-19         0.00000E+00
   -0.11642E-20        -0.11642E-19         0.00000E+00
   -0.14552E-20         0.46566E-21         0.00000E+00
   -0.15134E-20        -0.30268E-20         0.00000E+00
    0.81491E-21        -0.23283E-20         0.00000E+00
    0.14552E-20         0.23283E-21         0.00000E+00
    0.18626E-20         0.46566E-20         0.00000E+00
   -0.52387E-20         0.55879E-20         0.00000E+00
   -0.41910E-20         0.86147E-20         0.00000E+00
   -0.40163E-20         0.67521E-20         0.00000E+00
   -0.34925E-20         0.88476E-20         0.00000E+00
   -0.17462E-20        -0.95461E-20         0.00000E+00
   -0.46566E-21        -0.18161E-19         0.00000E+00
    0.11059E-20        -0.17229E-19         0.00000E+00
   -0.29104E-21        -0.15367E-19         0.00000E+00
    0.40745E-21        -0.17462E-19         0.00000E+00
    0.10477E-20        -0.14435E-19         0.00000E+00
    0.58208E-21        -0.16298E-19         0.00000E+00
    0.46566E-21         0.81491E-20         0.00000E+00
   -0.10477E-20        -0.12107E-19         0.00000E+00
   -0.23865E-20         0.23283E-20         0.00000E+00
   -0.21537E-20        -0.23283E-20         0.00000E+00
   -0.16298E-20         0.15600E-19         0.00000E+00
   -0.29686E-20         0.81491E-20         0.00000E+00
   -0.44238E-20         0.19325E-19         0.00000E+00
   -0.33760E-20         0.17229E-19         0.00000E+00
   -0.68103E-20         0.27940E-20         0.00000E+00
   -0.92550E-20        -0.14435E-19         0.00000E+00
   -0.89058E-20        -0.13039E-19         0.00000E+00
   -0.64028E-20        -0.24214E-19         0.00000E+00
   -0.17462E-20        -0.32596E-20         0.00000E+00
    0.64028E-21        -0.11642E-20         0.00000E+00
   -0.40745E-21        -0.37253E-20         0.00000E+00
   -0.98953E-21         0.23283E-20         0.00000E+00
   -0.69849E-21         0.24680E-19         0.00000E+00
   -0.11059E-20         0.15367E-19         0.00000E+00
   -0.16298E-20        -0.32596E-20         0.00000E+00
   -0.15134E-20        -0.93132E-21         0.00000E+00
   -0.27940E-20         0.16298E-19         0.00000E+00
   -0.69849E-21         0.13970E-19         0.00000E+00
   -0.11642E-21         0.90804E-20         0.00000E+00
   -0.58208E-22         0.00000E+00         0.00000E+00
   -0.23283E-21         0.46566E-21         0.00000E+00
   -0.25029E-20        -0.88476E-20         0.00000E+00
   -0.51805E-20        -0.12107E-19         0.00000E+00
   -0.58208E-20        -0.16531E-19         0.00000E+00
   -0.55297E-20        -0.16531E-19         0.00000E+00
   -0.51223E-20        -0.19092E-19         0.00000E+00
   -0.50641E-20        -0.10245E-19         0.00000E+00
   -0.50059E-20        -0.28173E-19         0.00000E+00
   -0.34343E-20        -0.25611E-19         0.00000E+00
   -0.75670E-21        -0.19791E-19         0.00000E+00
    0.37835E-20        -0.10710E-19         0.00000E+00
    0.53551E-20        -0.46566E-20         0.00000E+00
    0.49477E-20        -0.86147E-20         0.00000E+00
    0.48312E-20         0.23283E-20         0.00000E+00
    0.41327E-20         0.39581E-20         0.00000E+00
   -0.41327E-20         0.23283E-20         0.00000E+00
   -0.43074E-20         0.10245E-19         0.00000E+00
   -0.40745E-20         0.51223E-20         0.00000E+00
   -0.36089E-20         0.30268E-20         0.00000E+00
   -0.42492E-20        -0.12107E-19         0.00000E+00
   -0.41910E-20        -0.23283E-19         0.00000E+00
   -0.46566E-20        -0.18161E-19         0.00000E+00
   -0.42492E-20        -0.14901E-19         0.00000E+00
   -0.35507E-20        -0.17928E-19         0.00000E+00
   -0.53551E-20        -0.10012E-19         0.00000E+00
   -0.64028E-20        -0.14901E-19         0.00000E+00
   -0.59372E-20         0.46566E-20         0.00000E+00
   -0.55879E-20        -0.88476E-20         0.00000E+00
   -0.60536E-20         0.37253E-20         0.00000E+00
   -0.58208E-20        -0.18626E-20         0.00000E+00
   -0.51223E-20         0.97789E-20         0.00000E+00
   -0.45984E-20         0.15134E-19         0.00000E+00
   -0.50641E-20         0.20955E-19         0.00000E+00
   -0.55297E-20         0.18626E-19         0.00000E+00
   -0.33760E-20         0.74506E-20         0.00000E+00
   -0.17462E-20        -0.14901E-19         0.00000E+00
   -0.31432E-20        -0.13970E-19         0.00000E+00
   -0.44238E-20        -0.28871E-19         0.00000E+00
   -0.46566E-20        -0.15134E-19         0.00000E+00
   -0.44238E-20        -0.55879E-20         0.00000E+00
   -0.35507E-20        -0.23283E-20         0.00000E+00
   -0.20373E-20        -0.46566E-21         0.00000E+00
   -0.13388E-20         0.22817E-19         0.00000E+00
    0.64028E-21         0.93132E-20         0.00000E+00
    0.75670E-21        -0.32596E-20         0.00000E+00
    0.15716E-20        -0.13970E-20         0.00000E+00
    0.44820E-20         0.14203E-19         0.00000E+00
    0.40163E-20         0.10245E-19         0.00000E+00
    0.32014E-20         0.10943E-19         0.00000E+00
    0.18044E-20         0.69849E-20         0.00000E+00
   -0.52387E-21         0.13970E-19         0.00000E+00
   -0.18626E-20         0.93132E-21         0.00000E+00
   -0.25029E-20        -0.60536E-20         0.00000E+00
   -0.41327E-20        -0.69849E-20         0.00000E+00
   -0.51805E-20        -0.20256E-19         0.00000E+00
   -0.26776E-20        -0.30268E-19         0.00000E+00
   -0.58208E-21        -0.11176E-19         0.00000E+00
    0.00000E+00        -0.25844E-19         0.00000E+00
   -0.64028E-21        -0.29569E-19         0.00000E+00
   -0.24447E-20        -0.23050E-19         0.00000E+00
   -0.32596E-20        -0.18859E-19         0.00000E+00
   -0.29686E-20        -0.44238E-20         0.00000E+00
   -0.29686E-20        -0.90804E-20         0.00000E+00
   -0.38417E-20         0.41910E-20         0.00000E+00
   -0.37835E-20        -0.69849E-21         0.00000E+00
   -0.80327E-20         0.18626E-20         0.00000E+00
   -0.79162E-20         0.10245E-19         0.00000E+00
   -0.64611E-20         0.00000E+00         0.00000E+00
   -0.65193E-20         0.18626E-20         0.00000E+00
   -0.66939E-20        -0.10245E-19         0.00000E+00
   -0.71013E-20        -0.22817E-19         0.00000E+00
   -0.60536E-20        -0.19092E-19         0.00000E+00
   -0.39581E-20        -0.25611E-19         0.00000E+00
   -0.13388E-20        -0.23749E-19         0.00000E+00
    0.98953E-21        -0.93132E-20         0.00000E+00
    0.36089E-20        -0.17695E-19         0.00000E+00
    0.32014E-20         0.74506E-20         0.00000E+00
    0.23283E-20        -0.11176E-19         0.00000E+00
    0.19209E-20         0.88476E-20         0.00000E+00
    0.87311E-21        -0.60536E-20         0.00000E+00
    0.23283E-21         0.13504E-19         0.00000E+00
   -0.15716E-20         0.16298E-19         0.00000E+00
    0.93132E-21         0.17229E-19         0.00000E+00
    0.23283E-20         0.16298E-19         0.00000E+00
    0.15134E-20         0.23283E-20         0.00000E+00
   -0.58208E-22        -0.11642E-19         0.00000E+00
    0.69849E-21        -0.13504E-19         0.00000E+00
    0.11642E-20        -0.18626E-19         0.00000E+00
   -0.58208E-21        -0.12573E-19         0.00000E+00
   -0.10477E-20        -0.41910E-20         0.00000E+00
   -0.12224E-20        -0.46566E-20         0.00000E+00
   -0.12224E-20         0.00000E+00         0.00000E+00
    0.58208E-22         0.15832E-19         0.00000E+00
    0.69849E-21         0.23283E-20         0.00000E+00
    0.46566E-21         0.30268E-20         0.00000E+00
    0.17462E-21        -0.79162E-20         0.00000E+00
   -0.52387E-21         0.12107E-19         0.00000E+00
   -0.16880E-20         0.18859E-19         0.00000E+00
   -0.25029E-20         0.55879E-20         0.00000E+00
   -0.29104E-21         0.65193E-20         0.00000E+00
    0.27940E-20         0.69849E-20         0.00000E+00
    0.51223E-20         0.18626E-20         0.00000E+00
    0.59372E-20        -0.23283E-20         0.00000E+00
    0.69267E-20        -0.74506E-20         0.00000E+00
    0.82073E-20        -0.18161E-19         0.00000E+00
    0.50641E-20        -0.26077E-19         0.00000E+00
    0.29104E-20        -0.14435E-19         0.00000E+00
    0.16880E-20        -0.20955E-19         0.00000E+00
    0.87311E-21        -0.30734E-19         0.00000E+00
   -0.98953E-21        -0.14901E-19         0.00000E+00
   -0.26193E-20        -0.11874E-19         0.00000E+00
   -0.43656E-20        -0.55879E-20         0.00000E+00
   -0.58790E-20        -0.18626E-20         0.00000E+00
   -0.56461E-20         0.18626E-20         0.00000E+00
   -0.58790E-20         0.46566E-21         0.00000E+00
   -0.41910E-20         0.00000E+00         0.00000E+00
   -0.44238E-20         0.10245E-19         0.00000E+00
   -0.51223E-20         0.27940E-20         0.00000E+00
   -0.68685E-20         0.65193E-20         0.00000E+00
   -0.71595E-20        -0.15367E-19         0.00000E+00
   -0.61700E-20        -0.21420E-19         0.00000E+00
   -0.53551E-20        -0.27474E-19         0.00000E+00
   -0.41910E-20        -0.33993E-19         0.00000E+00
   -0.29104E-20        -0.31199E-19         0.00000E+00
   -0.24447E-20        -0.17695E-19         0.00000E+00
   -0.12806E-20        -0.22352E-19         0.00000E+00
   -0.29104E-21         0.74506E-20         0.00000E+00
    0.87311E-21        -0.10012E-19         0.00000E+00
    0.00000E+00         0.55879E-20         0.00000E+00
    0.23283E-21         0.37253E-20         0.00000E+00
   -0.64028E-21         0.18626E-19         0.00000E+00
    0.11642E-20         0.12107E-19         0.00000E+00
    0.81491E-21         0.83819E-20         0.00000E+00
    0.87311E-21         0.13504E-19         0.00000E+00
    0.25611E-20         0.32596E-20         0.00000E+00
    0.44238E-20        -0.17695E-19         0.00000E+00
    0.41910E-20        -0.12107E-19         0.00000E+00
    0.37253E-20        -0.19092E-19         0.00000E+00
    0.45984E-20        -0.10245E-19         0.00000E+00
    0.16880E-20         0.51223E-20         0.00000E+00
   -0.46566E-21        -0.37253E-20         0.00000E+00
   -0.14552E-20         0.00000E+00         0.00000E+00
   -0.42492E-20         0.15832E-19         0.00000E+00
   -0.43074E-20        -0.93132E-21         0.00000E+00
   -0.69849E-21        -0.53551E-20         0.00000E+00
    0.11642E-21        -0.23283E-20         0.00000E+00
    0.52387E-21         0.79162E-20         0.00000E+00
    0.36671E-20         0.18394E-19         0.00000E+00
    0.47730E-20         0.74506E-20         0.00000E+00
    0.10477E-20         0.11642E-19         0.00000E+00
   -0.13388E-20        -0.23283E-21         0.00000E+00
   -0.12806E-20        -0.37253E-20         0.00000E+00
   -0.64028E-21        -0.88476E-20         0.00000E+00
    0.16298E-20        -0.19092E-19         0.00000E+00
    0.16880E-20        -0.12107E-19         0.00000E+00
    0.18044E-20        -0.22817E-19         0.00000E+00
    0.23865E-20        -0.79162E-20         0.00000E+00
    0.21537E-20        -0.17695E-19         0.00000E+00
    0.29686E-20        -0.30734E-19         0.00000E+00
    0.33178E-20        -0.13504E-19         0.00000E+00
    0.37835E-20        -0.18626E-20         0.00000E+00
    0.25611E-20         0.00000E+00         0.00000E+00
    0.16298E-20         0.46566E-20         0.00000E+00
    0.12806E-20         0.93132E-21         0.00000E+00
    0.15716E-20         0.65193E-20         0.00000E+00
    0.79744E-20         0.55879E-20         0.00000E+00
    0.69849E-20         0.74506E-20         0.00000E+00
    0.67521E-20         0.55879E-20         0.00000E+00
    0.75088E-20         0.12107E-19         0.00000E+00
    0.55879E-20        -0.74506E-20         0.00000E+00
    0.41910E-20        -0.24913E-19         0.00000E+00
    0.48312E-20        -0.33528E-19         0.00000E+00
    0.36089E-20        -0.32596E-19         0.00000E+00
    0.27940E-20        -0.22817E-19         0.00000E+00
    0.11642E-21        -0.15367E-19         0.00000E+00
   -0.28522E-20        -0.13970E-19         0.00000E+00
   -0.54715E-20         0.46566E-20         0.00000E+00
   -0.52969E-20        -0.10710E-19         0.00000E+00
   -0.30268E-20        -0.41910E-20         0.00000E+00
   -0.17462E-20         0.41910E-20         0.00000E+00
   -0.12224E-20         0.14435E-19         0.00000E+00
    0.52387E-21         0.37253E-20         0.00000E+00
    0.20373E-20         0.11409E-19         0.00000E+00
    0.26193E-20         0.88476E-20         0.00000E+00
    0.16298E-20        -0.34925E-20         0.00000E+00
    0.12224E-20        -0.16298E-19         0.00000E+00
    0.17462E-21        -0.55879E-20         0.00000E+00
   -0.93132E-21        -0.20489E-19         0.00000E+00
   -0.23283E-20        -0.18626E-20         0.00000E+00
    0.46566E-21         0.46566E-21         0.00000E+00
    0.21537E-20         0.27940E-20         0.00000E+00
    0.23283E-20        -0.23283E-20         0.00000E+00
    0.47148E-20         0.20023E-19         0.00000E+00
    0.30850E-20         0.41910E-20         0.00000E+00
    0.11642E-21        -0.83819E-20         0.00000E+00
   -0.52387E-21        -0.18626E-20         0.00000E+00
   -0.16880E-20         0.93132E-20         0.00000E+00
   -0.40163E-20         0.93132E-20         0.00000E+00
   -0.34343E-20         0.74506E-20         0.00000E+00
    0.11642E-20         0.11176E-19         0.00000E+00
    0.40163E-20        -0.46566E-20         0.00000E+00
    0.44238E-20        -0.18626E-20         0.00000E+00
    0.29104E-20        -0.12107E-19         0.00000E+00
    0.12806E-20        -0.18161E-19         0.00000E+00
    0.87311E-21        -0.10710E-19         0.00000E+00
    0.64028E-21        -0.27707E-19         0.00000E+00
    0.16880E-20        -0.51223E-20         0.00000E+00
    0.22119E-20        -0.26776E-19         0.00000E+00
    0.24447E-20        -0.26077E-19         0.00000E+00
    0.13970E-20        -0.13970E-19         0.00000E+00
    0.15716E-20        -0.11642E-20         0.00000E+00
    0.12224E-20         0.13970E-20         0.00000E+00
    0.52387E-21         0.55879E-20         0.00000E+00
    0.12224E-20         0.76834E-20         0.00000E+00
    0.93132E-21         0.39581E-20         0.00000E+00
   -0.14552E-20         0.74506E-20         0.00000E+00
   -0.13970E-20         0.93132E-20         0.00000E+00
   -0.29104E-21         0.41910E-20         0.00000E+00
    0.40745E-21         0.32596E-20         0.00000E+00
    0.55879E-20        -0.11874E-19         0.00000E+00
    0.89640E-20        -0.30734E-19         0.00000E+00
    0.78580E-20        -0.29802E-19         0.00000E+00
    0.76834E-20        -0.25844E-19         0.00000E+00
    0.76834E-20        -0.21886E-19         0.00000E+00
    0.79162E-20        -0.11874E-19         0.00000E+00
    0.10710E-19        -0.16531E-19         0.00000E+00
    0.12806E-19         0.32596E-20         0.00000E+00
    0.12340E-19        -0.10245E-19         0.00000E+00
    0.89058E-20         0.79162E-20         0.00000E+00
    0.65775E-20         0.00000E+00         0.00000E+00
    0.49477E-20         0.17695E-19         0.00000E+00
    0.22701E-20         0.69849E-20         0.00000E+00
   -0.12224E-20         0.17695E-19         0.00000E+00
   -0.20955E-20         0.11176E-19         0.00000E+00
   -0.22119E-20        -0.27940E-20         0.00000E+00
   -0.18044E-20        -0.14435E-19         0.00000E+00
   -0.93132E-21        -0.11176E-19         0.00000E+00
    0.93132E-21        -0.20955E-19         0.00000E+00
    0.33178E-20        -0.51223E-20         0.00000E+00
    0.18626E-20        -0.69849E-20         0.00000E+00
    0.69849E-21         0.37253E-20         0.00000E+00
    0.81491E-21        -0.83819E-20         0.00000E+00
    0.11059E-20         0.12573E-19         0.00000E+00
    0.27358E-20         0.74506E-20         0.00000E+00
    0.50641E-20        -0.60536E-20         0.00000E+00
    0.44238E-20         0.00000E+00         0.00000E+00
    0.43074E-20         0.14901E-19         0.00000E+00
    0.35507E-20         0.19092E-19         0.00000E+00
    0.28522E-20         0.27940E-20         0.00000E+00
    0.15716E-20         0.23283E-20         0.00000E+00
   -0.98953E-21         0.32596E-20         0.00000E+00
   -0.36089E-20         0.27940E-20         0.00000E+00
   -0.40745E-20        -0.65193E-20         0.00000E+00
   -0.47730E-20        -0.12107E-19         0.00000E+00
   -0.43656E-20        -0.14901E-19         0.00000E+00
   -0.45402E-20        -0.22817E-19         0.00000E+00
   -0.50641E-20        -0.18626E-20         0.00000E+00
   -0.87311E-20        -0.16298E-19         0.00000E+00
   -0.11583E-19        -0.19791E-19         0.00000E+00
   -0.11758E-19        -0.19791E-19         0.00000E+00
   -0.96043E-20        -0.46566E-20         0.00000E+00
   -0.77416E-20        -0.11642E-20         0.00000E+00
   -0.47148E-20        -0.69849E-20         0.00000E+00
   -0.33760E-20         0.79162E-20         0.00000E+00
   -0.28522E-20         0.23283E-20         0.00000E+00
    0.63446E-20         0.34925E-20         0.00000E+00
    0.76834E-20         0.30268E-20         0.00000E+00
    0.86729E-20         0.41910E-20         0.00000E+00
    0.74506E-20         0.39581E-20         0.00000E+00
    0.25611E-20        -0.14435E-19         0.00000E+00
   -0.16298E-20        -0.20722E-19         0.00000E+00
   -0.40745E-20        -0.21420E-19         0.00000E+00
   -0.48894E-20        -0.28871E-19         0.00000E+00
   -0.33760E-20        -0.26543E-19         0.00000E+00
   -0.20373E-20        -0.16531E-19         0.00000E+00
   -0.29104E-20        -0.21420E-19         0.00000E+00
   -0.34925E-20         0.00000E+00         0.00000E+00
   -0.28522E-20        -0.86147E-20         0.00000E+00
   -0.98953E-21         0.13504E-19         0.00000E+00
    0.20373E-20        -0.23283E-20         0.00000E+00
    0.34343E-20         0.18859E-19         0.00000E+00
    0.48312E-20         0.14203E-19         0.00000E+00
    0.47730E-20         0.23749E-19         0.00000E+00
    0.34925E-20         0.16298E-19         0.00000E+00
    0.00000E+00         0.69849E-20         0.00000E+00
    0.87311E-21        -0.23283E-19         0.00000E+00
    0.12224E-20        -0.14901E-19         0.00000E+00
    0.24447E-20        -0.23283E-19         0.00000E+00
    0.23865E-20        -0.12573E-19         0.00000E+00
    0.44820E-20        -0.32596E-20         0.00000E+00
    0.62864E-20        -0.23283E-20         0.00000E+00
    0.68685E-20        -0.18626E-20         0.00000E+00
    0.43656E-20         0.23749E-19         0.00000E+00
   -0.69849E-21         0.11642E-19         0.00000E+00
   -0.48894E-20         0.11642E-20         0.00000E+00
   -0.51805E-20         0.23283E-20         0.00000E+00
   -0.58208E-20         0.14668E-19         0.00000E+00
   -0.57626E-20         0.20955E-19         0.00000E+00
   -0.62282E-20         0.90804E-20         0.00000E+00
   -0.62282E-20         0.65193E-20         0.00000E+00
   -0.58208E-20         0.69849E-20         0.00000E+00
   -0.39581E-20         0.37253E-20         0.00000E+00
   -0.34343E-20        -0.37253E-20         0.00000E+00
   -0.65193E-20        -0.23283E-21         0.00000E+00
   -0.90804E-20        -0.12107E-19         0.00000E+00
   -0.10943E-19        -0.20722E-19         0.00000E+00
   -0.10477E-19        -0.69849E-20         0.00000E+00
   -0.71595E-20        -0.13039E-19         0.00000E+00
   -0.32014E-20        -0.27707E-19         0.00000E+00
   -0.20373E-20        -0.20489E-19         0.00000E+00
   -0.28522E-20        -0.69849E-20         0.00000E+00
   -0.28522E-20        -0.74506E-20         0.00000E+00
   -0.28522E-20        -0.13504E-19         0.00000E+00
   -0.16298E-20         0.13970E-20         0.00000E+00
   -0.64028E-21        -0.18626E-20         0.00000E+00
   -0.12398E-19         0.65193E-20         0.00000E+00
   -0.13970E-19         0.13970E-20         0.00000E+00
   -0.14785E-19         0.18626E-20         0.00000E+00
   -0.12573E-19         0.48894E-20         0.00000E+00
   -0.11001E-19        -0.20955E-20         0.00000E+00
   -0.10128E-19        -0.20489E-19         0.00000E+00
   -0.65193E-20        -0.25146E-19         0.00000E+00
   -0.54133E-20        -0.21886E-19         0.00000E+00
   -0.80327E-20        -0.30501E-19         0.00000E+00
   -0.79162E-20        -0.20955E-19         0.00000E+00
   -0.66939E-20        -0.21420E-19         0.00000E+00
   -0.57626E-20         0.23283E-20         0.00000E+00
   -0.59954E-20        -0.13504E-19         0.00000E+00
   -0.50641E-20         0.51223E-20         0.00000E+00
   -0.45984E-20        -0.18626E-20         0.00000E+00
   -0.64028E-20         0.16298E-19         0.00000E+00
   -0.62282E-20         0.14901E-19         0.00000E+00
   -0.41910E-20         0.17695E-19         0.00000E+00
   -0.33760E-20         0.24680E-19         0.00000E+00
   -0.81491E-21         0.18626E-20         0.00000E+00
    0.75670E-21        -0.22352E-19         0.00000E+00
    0.58208E-21        -0.19092E-19         0.00000E+00
    0.10477E-20        -0.28871E-19         0.00000E+00
    0.23283E-20        -0.13039E-19         0.00000E+00
    0.12806E-20        -0.60536E-20         0.00000E+00
   -0.14552E-20         0.13970E-20         0.00000E+00
   -0.54133E-20         0.97789E-20         0.00000E+00
   -0.57626E-20         0.22352E-19         0.00000E+00
   -0.11059E-20         0.13970E-19         0.00000E+00
    0.40745E-20        -0.62864E-20         0.00000E+00
    0.62864E-20         0.20955E-20         0.00000E+00
    0.55879E-20         0.20023E-19         0.00000E+00
    0.47148E-20         0.23749E-19         0.00000E+00
    0.39581E-20         0.12107E-19         0.00000E+00
    0.32014E-20         0.60536E-20         0.00000E+00
    0.31432E-20         0.88476E-20         0.00000E+00
    0.58208E-21         0.32596E-20         0.00000E+00
   -0.69849E-21        -0.23283E-20         0.00000E+00
    0.12806E-20        -0.46566E-21         0.00000E+00
    0.41910E-20        -0.10245E-19         0.00000E+00
    0.47730E-20        -0.23050E-19         0.00000E+00
    0.52387E-20        -0.12573E-19         0.00000E+00
    0.62864E-20        -0.23283E-19         0.00000E+00
    0.53551E-20        -0.30734E-19         0.00000E+00
    0.37835E-20        -0.16764E-19         0.00000E+00
    0.50059E-20        -0.79162E-20         0.00000E+00
    0.51223E-20        -0.44238E-20         0.00000E+00
    0.30850E-20        -0.76834E-20         0.00000E+00
   -0.52387E-21         0.74506E-20         0.00000E+00
   -0.16298E-20        -0.37253E-20         0.00000E+00
    0.12282E-19         0.46566E-20         0.00000E+00
    0.13388E-19         0.60536E-20         0.00000E+00
    0.12456E-19         0.23283E-20         0.00000E+00
    0.10827E-19         0.46566E-21         0.00000E+00
    0.10594E-19        -0.65193E-20         0.00000E+00
    0.10827E-19        -0.18626E-19         0.00000E+00
    0.69267E-20        -0.25611E-19         0.00000E+00
    0.55879E-20        -0.18161E-19         0.00000E+00
    0.48894E-20        -0.18394E-19         0.00000E+00
    0.17462E-20        -0.14435E-19         0.00000E+00
   -0.87311E-21        -0.17229E-19         0.00000E+00
   -0.19791E-20         0.23283E-20         0.00000E+00
   -0.43074E-20        -0.53551E-20         0.00000E+00
   -0.77416E-20         0.88476E-20         0.00000E+00
   -0.86729E-20        -0.23283E-20         0.00000E+00
   -0.84401E-20         0.17229E-19         0.00000E+00
   -0.62282E-20         0.41910E-20         0.00000E+00
   -0.46566E-20         0.15832E-19         0.00000E+00
   -0.29686E-20         0.11176E-19         0.00000E+00
   -0.16298E-20        -0.74506E-20         0.00000E+00
   -0.29104E-20        -0.15832E-19         0.00000E+00
   -0.57044E-20        -0.15832E-19         0.00000E+00
   -0.69267E-20        -0.31665E-19         0.00000E+00
   -0.69849E-20        -0.15832E-19         0.00000E+00
   -0.72177E-20         0.20955E-20         0.00000E+00
   -0.57626E-20        -0.18626E-20         0.00000E+00
   -0.14552E-20         0.11176E-19         0.00000E+00
   -0.29104E-21         0.18161E-19         0.00000E+00
   -0.39581E-20         0.97789E-20         0.00000E+00
   -0.90804E-20        -0.27940E-20         0.00000E+00
   -0.12224E-19         0.27940E-20         0.00000E+00
   -0.10768E-19         0.17229E-19         0.00000E+00
   -0.72177E-20         0.12340E-19         0.00000E+00
   -0.31432E-20         0.60536E-20         0.00000E+00
   -0.23865E-20         0.44238E-20         0.00000E+00
   -0.64028E-21         0.46566E-21         0.00000E+00
    0.26193E-20         0.79162E-20         0.00000E+00
    0.25611E-20         0.20955E-20         0.00000E+00
   -0.17462E-21         0.11642E-20         0.00000E+00
   -0.18044E-20        -0.14435E-19         0.00000E+00
   -0.21537E-20        -0.23050E-19         0.00000E+00
   -0.20955E-20        -0.13504E-19         0.00000E+00
   -0.30268E-20        -0.22352E-19         0.00000E+00
   -0.31432E-20        -0.25844E-19         0.00000E+00
   -0.20955E-20        -0.19558E-19         0.00000E+00
   -0.19209E-20        -0.12107E-19         0.00000E+00
   -0.12224E-20        -0.65193E-20         0.00000E+00
   -0.17462E-21         0.69849E-21         0.00000E+00
    0.18044E-20         0.79162E-20         0.00000E+00
    0.18626E-20        -0.93132E-21         0.00000E+00
   -0.12806E-20         0.23283E-20         0.00000E+00
   -0.13970E-20         0.69849E-20         0.00000E+00
   -0.75670E-21         0.34925E-20         0.00000E+00
    0.11642E-21         0.55879E-20         0.00000E+00
   -0.93132E-21        -0.32596E-20         0.00000E+00
   -0.32596E-20        -0.97789E-20         0.00000E+00
   -0.30268E-20        -0.17229E-19         0.00000E+00
   -0.36089E-20        -0.19558E-19         0.00000E+00
   -0.34925E-20        -0.12107E-19         0.00000E+00
   -0.27358E-20        -0.74506E-20         0.00000E+00
   -0.22119E-20        -0.17695E-19         0.00000E+00
   -0.19791E-20         0.11642E-19         0.00000E+00
   -0.24447E-20        -0.46566E-20         0.00000E+00
   -0.11642E-20         0.16764E-19         0.00000E+00
   -0.27940E-20         0.74506E-20         0.00000E+00
   -0.54715E-20         0.12340E-19         0.00000E+00
   -0.55879E-20         0.46566E-20         0.00000E+00
   -0.58208E-20         0.97789E-20         0.00000E+00
   -0.72760E-20         0.93132E-20         0.00000E+00
   -0.81491E-20        -0.69849E-20         0.00000E+00
   -0.54133E-20        -0.16531E-19         0.00000E+00
   -0.24447E-20        -0.17695E-19         0.00000E+00
   -0.16298E-20        -0.28405E-19         0.00000E+00
   -0.11059E-20        -0.19092E-19         0.00000E+00
    0.46566E-21        -0.11642E-20         0.00000E+00
   -0.69849E-21        -0.46566E-21         0.00000E+00
   -0.22701E-20        -0.65193E-20         0.00000E+00
   -0.64028E-21         0.22585E-19         0.00000E+00
    0.23865E-20         0.83819E-20         0.00000E+00
    0.64028E-20         0.51223E-20         0.00000E+00
    0.93714E-20        -0.34925E-20         0.00000E+00
    0.10361E-19         0.10245E-19         0.00000E+00
    0.87311E-20         0.13271E-19         0.00000E+00
    0.39581E-20         0.10477E-19         0.00000E+00
    0.69849E-21         0.10710E-19         0.00000E+00
   -0.23865E-20         0.58208E-20         0.00000E+00
   -0.57626E-20         0.11642E-20         0.00000E+00
   -0.51805E-20         0.53551E-20         0.00000E+00
   -0.31432E-20        -0.27940E-20         0.00000E+00
   -0.18044E-20        -0.10245E-19         0.00000E+00
   -0.75670E-21        -0.27474E-19         0.00000E+00
    0.29104E-21        -0.12573E-19         0.00000E+00
    0.16880E-20        -0.25146E-19         0.00000E+00
    0.31432E-20        -0.31199E-19         0.00000E+00
    0.36671E-20        -0.24214E-19         0.00000E+00
    0.45984E-20        -0.13039E-19         0.00000E+00
    0.53551E-20        -0.11642E-19         0.00000E+00
    0.77416E-20        -0.12806E-19         0.00000E+00
    0.11350E-19         0.11642E-20         0.00000E+00
    0.10477E-19         0.46566E-20         0.00000E+00
   -0.47730E-20         0.18626E-20         0.00000E+00
   -0.45402E-20         0.60536E-20         0.00000E+00
   -0.41327E-20         0.16298E-20         0.00000E+00
   -0.51223E-20         0.69849E-20         0.00000E+00
   -0.48894E-20         0.00000E+00         0.00000E+00
   -0.26776E-20        -0.12573E-19         0.00000E+00
   -0.98953E-21        -0.20955E-19         0.00000E+00
    0.58208E-22        -0.18161E-19         0.00000E+00
    0.00000E+00        -0.18626E-19         0.00000E+00
    0.12806E-20        -0.11176E-19         0.00000E+00
    0.16298E-20        -0.20489E-19         0.00000E+00
    0.30268E-20         0.79162E-20         0.00000E+00
    0.40745E-20        -0.55879E-20         0.00000E+00
    0.30850E-20         0.12340E-19         0.00000E+00
    0.60536E-20         0.79162E-20         0.00000E+00
    0.68685E-20         0.15134E-19         0.00000E+00
    0.54133E-20         0.11642E-19         0.00000E+00
    0.42492E-20         0.95461E-20         0.00000E+00
    0.33760E-20         0.14435E-19         0.00000E+00
    0.31432E-20        -0.79162E-20         0.00000E+00
    0.39581E-20        -0.25611E-19         0.00000E+00
    0.27940E-20        -0.20023E-19         0.00000E+00
    0.22701E-20        -0.25611E-19         0.00000E+00
    0.10477E-20        -0.12573E-19         0.00000E+00
   -0.11642E-21        -0.11642E-20         0.00000E+00
    0.40745E-21        -0.13970E-20         0.00000E+00
    0.15716E-20        -0.37253E-20         0.00000E+00
    0.12224E-20         0.16764E-19         0.00000E+00
    0.17462E-21         0.23283E-20         0.00000E+00
    0.58208E-22        -0.58208E-20         0.00000E+00
   -0.11642E-21        -0.83819E-20         0.00000E+00
   -0.64028E-21         0.16997E-19         0.00000E+00
   -0.15134E-20         0.20023E-19         0.00000E+00
   -0.58208E-22         0.10943E-19         0.00000E+00
    0.14552E-20         0.14435E-19         0.00000E+00
    0.33760E-20         0.60536E-20         0.00000E+00
    0.55297E-20         0.32596E-20         0.00000E+00
    0.59954E-20         0.46566E-21         0.00000E+00
    0.48312E-20        -0.55879E-20         0.00000E+00
    0.44238E-20        -0.10943E-19         0.00000E+00
    0.29104E-20        -0.32596E-19         0.00000E+00
    0.19791E-20        -0.13039E-19         0.00000E+00
    0.14552E-20        -0.29802E-19         0.00000E+00
    0.27940E-20        -0.40513E-19         0.00000E+00
    0.38999E-20        -0.26077E-19         0.00000E+00
    0.45984E-20        -0.20955E-19         0.00000E+00
    0.35507E-20        -0.93132E-20         0.00000E+00
    0.46566E-21        -0.13039E-19         0.00000E+00
   -0.16880E-20         0.27940E-20         0.00000E+00
   -0.18626E-20         0.37253E-20         0.00000E+00
    0.23865E-20         0.00000E+00         0.00000E+00
    0.16298E-20         0.62864E-20         0.00000E+00
   -0.58208E-21         0.69849E-20         0.00000E+00
   -0.17462E-20         0.11176E-19         0.00000E+00
   -0.32014E-20        -0.60536E-20         0.00000E+00
   -0.30268E-20        -0.18394E-19         0.00000E+00
   -0.32014E-20        -0.22352E-19         0.00000E+00
   -0.23283E-20        -0.21420E-19         0.00000E+00
   -0.69849E-21        -0.28405E-19         0.00000E+00
    0.75670E-21        -0.11642E-19         0.00000E+00
   -0.15134E-20        -0.13970E-19         0.00000E+00
   -0.29104E-20         0.23283E-20         0.00000E+00
   -0.19209E-20        -0.46566E-20         0.00000E+00
   -0.52387E-21         0.79162E-20         0.00000E+00
    0.17462E-21        -0.67521E-20         0.00000E+00
   -0.69849E-21         0.23749E-19         0.00000E+00
    0.17462E-21         0.15367E-19         0.00000E+00
    0.15716E-20         0.14901E-19         0.00000E+00
    0.52387E-21         0.20023E-19         0.00000E+00
   -0.93132E-21        -0.65193E-20         0.00000E+00
   -0.19791E-20        -0.24214E-19         0.00000E+00
   -0.40745E-20        -0.69849E-20         0.00000E+00
   -0.83237E-20        -0.22352E-19         0.00000E+00
   -0.97789E-20        -0.10245E-19         0.00000E+00
   -0.91386E-20        -0.20955E-20         0.00000E+00
   -0.10303E-19        -0.18626E-20         0.00000E+00
   -0.89058E-20        -0.46566E-20         0.00000E+00
   -0.79744E-20         0.12107E-19         0.00000E+00
   -0.61118E-20        -0.23283E-20         0.00000E+00
   -0.29686E-20        -0.17229E-19         0.00000E+00
   -0.18626E-20        -0.83819E-20         0.00000E+00
   -0.22119E-20         0.20023E-19         0.00000E+00
   -0.14552E-20         0.22352E-19         0.00000E+00
   -0.19209E-20         0.69849E-20         0.00000E+00
   -0.23865E-20         0.11642E-19         0.00000E+00
   -0.12806E-20         0.34925E-20         0.00000E+00
   -0.24447E-20        -0.69849E-21         0.00000E+00
   -0.30268E-20         0.00000E+00         0.00000E+00
   -0.58208E-21        -0.11642E-19         0.00000E+00
    0.15716E-20        -0.97789E-20         0.00000E+00
    0.11642E-20        -0.21886E-19         0.00000E+00
    0.12806E-20        -0.11642E-19         0.00000E+00
    0.23283E-21        -0.21420E-19         0.00000E+00
   -0.32014E-20        -0.34925E-19         0.00000E+00
   -0.48312E-20        -0.25146E-19         0.00000E+00
   -0.70431E-20        -0.88476E-20         0.00000E+00
   -0.10012E-19        -0.37253E-20         0.00000E+00
   -0.84983E-20        -0.10245E-19         0.00000E+00
   -0.70431E-20         0.37253E-20         0.00000E+00
   -0.74506E-20         0.27940E-20         0.00000E+00
   -0.61118E-20         0.46566E-20         0.00000E+00
   -0.72177E-20         0.14435E-19         0.00000E+00
   -0.61118E-20         0.12107E-19         0.00000E+00
   -0.65193E-20         0.17695E-19         0.00000E+00
   -0.61700E-20        -0.74506E-20         0.00000E+00
   -0.40745E-20        -0.23749E-19         0.00000E+00
   -0.21537E-20        -0.24913E-19         0.00000E+00
   -0.81491E-21        -0.24680E-19         0.00000E+00
   -0.27358E-20        -0.27940E-19         0.00000E+00
   -0.34343E-20        -0.11642E-19         0.00000E+00
   -0.31432E-20        -0.14901E-19         0.00000E+00
   -0.17462E-20         0.27940E-20         0.00000E+00
   -0.29104E-20        -0.97789E-20         0.00000E+00
   -0.44820E-20         0.32596E-20         0.00000E+00
   -0.58208E-20        -0.16298E-20         0.00000E+00
   -0.58208E-20         0.21420E-19         0.00000E+00
   -0.23865E-20         0.18626E-20         0.00000E+00
   -0.17462E-20         0.14435E-19         0.00000E+00
   -0.98953E-21         0.18161E-19         0.00000E+00
   -0.46566E-21        -0.37253E-20         0.00000E+00
   -0.58208E-22        -0.18626E-19         0.00000E+00
    0.14552E-20        -0.83819E-20         0.00000E+00
    0.44820E-20        -0.20955E-19         0.00000E+00
    0.58208E-20        -0.93132E-20         0.00000E+00
    0.64611E-20        -0.51223E-20         0.00000E+00
    0.83237E-20        -0.27940E-20         0.00000E+00
    0.73924E-20        -0.51223E-20         0.00000E+00
    0.46566E-20         0.16065E-19         0.00000E+00
    0.29686E-20        -0.93132E-21         0.00000E+00
   -0.17462E-21        -0.13970E-19         0.00000E+00
   -0.32014E-20         0.93132E-21         0.00000E+00
   -0.39581E-20         0.14435E-19         0.00000E+00
   -0.20955E-20         0.13039E-19         0.00000E+00
   -0.29104E-21         0.10943E-19         0.00000E+00
    0.81491E-21         0.51223E-20         0.00000E+00
    0.19791E-20         0.18626E-20         0.00000E+00
    0.30268E-20        -0.93132E-21         0.00000E+00
    0.44820E-20         0.00000E+00         0.00000E+00
    0.87311E-21        -0.23283E-20         0.00000E+00
   -0.22701E-20        -0.60536E-20         0.00000E+00
   -0.13388E-20        -0.31665E-19         0.00000E+00
   -0.46566E-21        -0.10710E-19         0.00000E+00
    0.46566E-21        -0.20489E-19         0.00000E+00
    0.11059E-20        -0.24680E-19         0.00000E+00
   -0.64028E-21        -0.19092E-19         0.00000E+00
    0.93132E-21        -0.51223E-20         0.00000E+00
    0.28522E-20        -0.55879E-20         0.00000E+00
    0.16298E-20        -0.60536E-20         0.00000E+00
    0.34925E-21        -0.23283E-20         0.00000E+00
    0.16298E-20         0.13970E-20         0.00000E+00
   -0.29104E-21         0.37253E-20         0.00000E+00
    0.10477E-20         0.12107E-19         0.00000E+00
    0.29686E-20         0.18626E-20         0.00000E+00
    0.62864E-20         0.69849E-20         0.00000E+00
    0.75088E-20        -0.60536E-20         0.00000E+00
    0.54715E-20        -0.24680E-19         0.00000E+00
    0.50641E-20        -0.28405E-19         0.00000E+00
    0.38417E-20        -0.27008E-19         0.00000E+00
    0.37253E-20        -0.19558E-19         0.00000E+00
    0.37253E-20        -0.12340E-19         0.00000E+00
    0.32596E-20        -0.16764E-19         0.00000E+00
    0.33178E-20         0.23283E-20         0.00000E+00
    0.35507E-20        -0.18626E-20         0.00000E+00
    0.22701E-20         0.10710E-19         0.00000E+00
    0.29686E-20        -0.46566E-21         0.00000E+00
    0.32014E-20         0.10710E-19         0.00000E+00
    0.24447E-20         0.46566E-20         0.00000E+00
    0.23283E-20         0.10245E-19         0.00000E+00
    0.36089E-20         0.14901E-19         0.00000E+00
    0.45984E-20        -0.65193E-20         0.00000E+00
    0.44238E-20        -0.12107E-19         0.00000E+00
    0.40745E-20        -0.19092E-19         0.00000E+00
    0.29104E-20        -0.22352E-19         0.00000E+00
    0.18626E-20        -0.83819E-20         0.00000E+00
    0.19209E-20        -0.51223E-20         0.00000E+00
    0.20955E-20        -0.11642E-19         0.00000E+00
    0.26193E-20         0.00000E+00         0.00000E+00
    0.20955E-20         0.27940E-19         0.00000E+00
   -0.16298E-20         0.13504E-19         0.00000E+00
   -0.42492E-20        -0.32596E-20         0.00000E+00
   -0.36671E-20         0.13970E-20         0.00000E+00
   -0.14552E-20         0.46566E-20         0.00000E+00
    0.17462E-21         0.83819E-20         0.00000E+00
   -0.23283E-21         0.65193E-20         0.00000E+00
   -0.13388E-20         0.67521E-20         0.00000E+00
   -0.22119E-20         0.41910E-20         0.00000E+00
   -0.46566E-20         0.46566E-21         0.00000E+00
   -0.44820E-20        -0.69849E-20         0.00000E+00
   -0.64028E-21        -0.13970E-20         0.00000E+00
    0.29686E-20        -0.60536E-20         0.00000E+00
    0.52387E-21        -0.23283E-19         0.00000E+00
   -0.31432E-20        -0.10245E-19         0.00000E+00
   -0.45402E-20        -0.20722E-19         0.00000E+00
   -0.34343E-20        -0.33062E-19         0.00000E+00
   -0.40745E-21        -0.22817E-19         0.00000E+00
   -0.17462E-21        -0.88476E-20         0.00000E+00
   -0.12806E-20        -0.41910E-20         0.00000E+00
   -0.29104E-21        -0.69849E-20         0.00000E+00
    0.11059E-20        -0.46566E-20         0.00000E+00
    0.93132E-21         0.00000E+00         0.00000E+00
    0.53551E-20         0.23283E-20         0.00000E+00
    0.43074E-20         0.93132E-20         0.00000E+00
    0.15134E-20         0.83819E-20         0.00000E+00
   -0.27940E-20         0.11642E-19         0.00000E+00
   -0.68685E-20         0.16298E-20         0.00000E+00
   -0.77998E-20        -0.21886E-19         0.00000E+00
   -0.88476E-20        -0.20489E-19         0.00000E+00
   -0.93714E-20        -0.17928E-19         0.00000E+00
   -0.10361E-19        -0.23283E-19         0.00000E+00
   -0.92550E-20        -0.13970E-19         0.00000E+00
   -0.73924E-20        -0.16065E-19         0.00000E+00
   -0.65193E-20        -0.23283E-20         0.00000E+00
   -0.55297E-20        -0.46566E-20         0.00000E+00
   -0.37835E-20         0.97789E-20         0.00000E+00
   -0.33178E-20        -0.65193E-20         0.00000E+00
   -0.25029E-20         0.15832E-19         0.00000E+00
   -0.49477E-20         0.12573E-19         0.00000E+00
   -0.69267E-20         0.10943E-19         0.00000E+00
   -0.73924E-20         0.10245E-19         0.00000E+00
   -0.73342E-20        -0.10710E-19         0.00000E+00
   -0.56461E-20        -0.20023E-19         0.00000E+00
   -0.38417E-20        -0.18626E-19         0.00000E+00
   -0.33178E-20        -0.21886E-19         0.00000E+00
   -0.18626E-20        -0.12573E-19         0.00000E+00
   -0.21537E-20        -0.39581E-20         0.00000E+00
   -0.34925E-20        -0.13970E-20         0.00000E+00
   -0.62282E-20         0.46566E-21         0.00000E+00
   -0.55297E-20         0.26077E-19         0.00000E+00
   -0.18044E-20         0.15367E-19         0.00000E+00
    0.24447E-20        -0.79162E-20         0.00000E+00
    0.33178E-20        -0.13970E-20         0.00000E+00
    0.16880E-20         0.65193E-20         0.00000E+00
    0.29104E-21         0.41910E-20         0.00000E+00
    0.14552E-20         0.46566E-20         0.00000E+00
    0.35507E-20         0.69849E-20         0.00000E+00
    0.42492E-20         0.55879E-20         0.00000E+00
    0.61118E-20        -0.23283E-20         0.00000E+00
    0.52387E-20        -0.46566E-20         0.00000E+00
    0.15134E-20        -0.51223E-20         0.00000E+00
    0.23283E-21        -0.10710E-19         0.00000E+00
    0.23865E-20        -0.21420E-19         0.00000E+00
    0.38417E-20        -0.55879E-20         0.00000E+00
    0.48894E-20        -0.25146E-19         0.00000E+00
    0.40163E-20        -0.29104E-19         0.00000E+00
    0.15716E-20        -0.22119E-19         0.00000E+00
    0.15134E-20        -0.11874E-19         0.00000E+00
    0.46566E-20        -0.74506E-20         0.00000E+00
    0.64028E-20        -0.14435E-19         0.00000E+00
    0.50059E-20        -0.13970E-20         0.00000E+00
    0.37253E-20         0.11642E-20         0.00000E+00
    0.81491E-21         0.18626E-20         0.00000E+00
    0.22119E-20         0.13504E-19         0.00000E+00
    0.57626E-20         0.11176E-19         0.00000E+00
    0.96625E-20         0.11176E-19         0.00000E+00
    0.12340E-19        -0.18626E-20         0.00000E+00
    0.12456E-19        -0.12573E-19         0.00000E+00
    0.10477E-19        -0.13504E-19         0.00000E+00
    0.82655E-20        -0.15367E-19         0.00000E+00
    0.63446E-20        -0.14435E-19         0.00000E+00
    0.18626E-20        -0.10477E-19         0.00000E+00
   -0.11642E-21        -0.14901E-19         0.00000E+00
   -0.11642E-21        -0.13970E-20         0.00000E+00
   -0.12224E-20        -0.65193E-20         0.00000E+00
   -0.20955E-20         0.93132E-20         0.00000E+00
   -0.35507E-20        -0.23283E-20         0.00000E+00
   -0.58208E-20         0.19092E-19         0.00000E+00
   -0.28522E-20         0.41910E-20         0.00000E+00
    0.19791E-20         0.13970E-19         0.00000E+00
    0.29104E-20         0.12573E-19         0.00000E+00
    0.98953E-21        -0.60536E-20         0.00000E+00
   -0.11059E-20        -0.20489E-19         0.00000E+00
   -0.25611E-20        -0.12573E-19         0.00000E+00
   -0.28522E-20        -0.23283E-19         0.00000E+00
   -0.39581E-20        -0.97789E-20         0.00000E+00
   -0.45402E-20        -0.62864E-20         0.00000E+00
   -0.33178E-20         0.44238E-20         0.00000E+00
   -0.12806E-20         0.69849E-21         0.00000E+00
    0.34925E-21         0.16298E-19         0.00000E+00
   -0.29104E-21         0.65193E-20         0.00000E+00
   -0.64028E-21        -0.16298E-19         0.00000E+00
    0.12806E-20        -0.88476E-20         0.00000E+00
    0.25611E-20         0.13039E-19         0.00000E+00
    0.17462E-20         0.93132E-20         0.00000E+00
   -0.29104E-21         0.23283E-20         0.00000E+00
   -0.81491E-21         0.37253E-20         0.00000E+00
    0.17462E-21         0.00000E+00         0.00000E+00
   -0.13970E-20        -0.27940E-20         0.00000E+00
    0.75670E-21         0.27940E-20         0.00000E+00
    0.17462E-20         0.93132E-21         0.00000E+00
    0.87311E-21        -0.83819E-20         0.00000E+00
   -0.13388E-20        -0.27008E-19         0.00000E+00
   -0.18044E-20        -0.48894E-20         0.00000E+00
   -0.25029E-20        -0.19092E-19         0.00000E+00
   -0.12224E-20        -0.34925E-19         0.00000E+00
    0.18044E-20        -0.24214E-19         0.00000E+00
    0.29686E-20        -0.16298E-19         0.00000E+00
    0.75670E-21        -0.74506E-20         0.00000E+00
   -0.32014E-20        -0.27940E-20         0.00000E+00
   -0.50059E-20         0.18626E-20         0.00000E+00
   -0.57044E-20         0.41910E-20         0.00000E+00
   -0.52387E-20         0.46566E-20         0.00000E+00
   -0.64028E-20         0.83819E-20         0.00000E+00
   -0.55297E-20        -0.23283E-20         0.00000E+00
   -0.53551E-20         0.23283E-20         0.00000E+00
   -0.67521E-20        -0.18626E-20         0.00000E+00
   -0.71013E-20        -0.83819E-20         0.00000E+00
   -0.54715E-20        -0.13504E-19         0.00000E+00
   -0.20955E-20        -0.17695E-19         0.00000E+00
    0.21537E-20        -0.18161E-19         0.00000E+00
    0.62282E-20        -0.74506E-20         0.00000E+00
    0.72177E-20        -0.14901E-19         0.00000E+00
    0.71013E-20         0.46566E-20         0.00000E+00
    0.71595E-20        -0.12573E-19         0.00000E+00
    0.72760E-20         0.12573E-19         0.00000E+00
    0.67521E-20         0.18626E-20         0.00000E+00
    0.73342E-20         0.18161E-19         0.00000E+00
    0.60536E-20        -0.51223E-20         0.00000E+00
    0.45984E-20         0.69849E-20         0.00000E+00
    0.43656E-20         0.16764E-19         0.00000E+00
    0.37253E-20         0.93132E-21         0.00000E+00
    0.22119E-20        -0.17229E-19         0.00000E+00
    0.22119E-20        -0.10245E-19         0.00000E+00
   -0.46566E-21        -0.15832E-19         0.00000E+00
   -0.32596E-20        -0.69849E-21         0.00000E+00
   -0.38999E-20        -0.69849E-20         0.00000E+00
   -0.18044E-20        -0.10477E-19         0.00000E+00
    0.29104E-21        -0.10710E-19         0.00000E+00
    0.23865E-20         0.12107E-19         0.00000E+00
    0.27358E-20         0.12107E-19         0.00000E+00
   -0.98953E-21        -0.27940E-20         0.00000E+00
   -0.45984E-20        -0.93132E-20         0.00000E+00
   -0.48312E-20         0.11176E-19         0.00000E+00
   -0.31432E-20         0.12573E-19         0.00000E+00
   -0.23283E-20         0.37253E-20         0.00000E+00
   -0.58208E-22        -0.69849E-20         0.00000E+00
    0.13388E-20        -0.46566E-21         0.00000E+00
    0.15716E-20         0.00000E+00         0.00000E+00
    0.40745E-21        -0.32596E-20         0.00000E+00
    0.58208E-21        -0.65193E-20         0.00000E+00
    0.32014E-20        -0.69849E-20         0.00000E+00
    0.43074E-20        -0.25146E-19         0.00000E+00
    0.54715E-20        -0.10710E-19         0.00000E+00
    0.60536E-20        -0.15832E-19         0.00000E+00
    0.48312E-20        -0.36322E-19         0.00000E+00
    0.27940E-20        -0.27940E-19         0.00000E+00
    0.52387E-21        -0.74506E-20         0.00000E+00
   -0.13388E-20         0.00000E+00         0.00000E+00
    0.29104E-21         0.13970E-20         0.00000E+00
    0.11642E-20         0.00000E+00         0.00000E+00
    0.19791E-20         0.27940E-20         0.00000E+00
    0.53551E-20         0.83819E-20         0.00000E+00
    0.51223E-20         0.10710E-19         0.00000E+00
    0.29104E-20         0.18626E-20         0.00000E+00
    0.18626E-20         0.65193E-20         0.00000E+00
    0.20955E-20        -0.46566E-20         0.00000E+00
    0.31432E-20        -0.14435E-19         0.00000E+00
    0.54715E-20        -0.19558E-19         0.00000E+00
    0.47730E-20        -0.22817E-19         0.00000E+00
    0.69849E-21        -0.21886E-19         0.00000E+00
   -0.18044E-20        -0.74506E-20         0.00000E+00
   -0.26776E-20        -0.15832E-19         0.00000E+00
   -0.23865E-20         0.37253E-20         0.00000E+00
   -0.15716E-20        -0.14203E-19         0.00000E+00
    0.52387E-21         0.27940E-20         0.00000E+00
    0.42492E-20        -0.93132E-21         0.00000E+00
    0.38999E-20         0.18161E-19         0.00000E+00
    0.20373E-20         0.11176E-19         0.00000E+00
   -0.23283E-21         0.10245E-19         0.00000E+00
   -0.26193E-20         0.21420E-19         0.00000E+00
   -0.39581E-20         0.10245E-19         0.00000E+00
   -0.38417E-20        -0.14668E-19         0.00000E+00
   -0.27940E-20        -0.11642E-19         0.00000E+00
   -0.34925E-21        -0.15600E-19         0.00000E+00
    0.22119E-20        -0.10477E-19         0.00000E+00
    0.49477E-20        -0.74506E-20         0.00000E+00
    0.39581E-20        -0.95461E-20         0.00000E+00
    0.58208E-22        -0.13970E-20         0.00000E+00
   -0.42492E-20         0.15367E-19         0.00000E+00
   -0.50641E-20         0.10477E-19         0.00000E+00
   -0.14552E-20        -0.93132E-21         0.00000E+00
    0.14552E-20        -0.55879E-20         0.00000E+00
    0.15134E-20         0.88476E-20         0.00000E+00
    0.81491E-21         0.79162E-20         0.00000E+00
    0.40745E-21         0.51223E-20         0.00000E+00
   -0.25029E-20        -0.27940E-20         0.00000E+00
   -0.48894E-20         0.00000E+00         0.00000E+00
   -0.56461E-20        -0.69849E-21         0.00000E+00
   -0.37253E-20        -0.74506E-20         0.00000E+00
   -0.23865E-20        -0.97789E-20         0.00000E+00
   -0.26193E-20        -0.12573E-19         0.00000E+00
   -0.29686E-20        -0.24680E-19         0.00000E+00
   -0.29104E-20        -0.16764E-19         0.00000E+00
   -0.12224E-20        -0.25844E-19         0.00000E+00
    0.26193E-20        -0.37253E-19         0.00000E+00
    0.29686E-20        -0.22352E-19         0.00000E+00
    0.34343E-20        -0.32596E-20         0.00000E+00
    0.45402E-20         0.00000E+00         0.00000E+00
    0.37835E-20        -0.51223E-20         0.00000E+00
    0.27940E-20         0.11642E-20         0.00000E+00
    0.20955E-20         0.41910E-20         0.00000E+00
   -0.81491E-21        -0.23283E-21         0.00000E+00
    0.19791E-20         0.14203E-19         0.00000E+00
    0.34925E-20         0.51223E-20         0.00000E+00
    0.22119E-20         0.93132E-20         0.00000E+00
    0.29104E-21        -0.46566E-20         0.00000E+00
   -0.81491E-21        -0.16764E-19         0.00000E+00
   -0.25611E-20        -0.16764E-19         0.00000E+00
   -0.52969E-20        -0.10710E-19         0.00000E+00
   -0.52387E-20        -0.10710E-19         0.00000E+00
   -0.43074E-20        -0.12107E-19         0.00000E+00
   -0.29104E-20        -0.15367E-19         0.00000E+00
   -0.27940E-20        -0.93132E-21         0.00000E+00
   -0.29686E-20        -0.15832E-19         0.00000E+00
   -0.44820E-20         0.27940E-20         0.00000E+00
   -0.65775E-20        -0.41910E-20         0.00000E+00
   -0.45984E-20         0.13271E-19         0.00000E+00
   -0.58208E-22         0.12107E-19         0.00000E+00
    0.46566E-21         0.17229E-19         0.00000E+00
    0.17462E-20         0.17695E-19         0.00000E+00
    0.48312E-20         0.65193E-20         0.00000E+00
    0.50641E-20        -0.17462E-19         0.00000E+00
    0.48894E-20        -0.11409E-19         0.00000E+00
    0.37253E-20        -0.21886E-19         0.00000E+00
    0.32596E-20        -0.13970E-19         0.00000E+00
    0.29104E-20        -0.11176E-19         0.00000E+00
    0.26193E-20        -0.13970E-20         0.00000E+00
    0.60536E-20         0.93132E-21         0.00000E+00
    0.84401E-20         0.18626E-19         0.00000E+00
    0.75088E-20         0.88476E-20         0.00000E+00
    0.43656E-20        -0.41910E-20         0.00000E+00
    0.35507E-20        -0.13970E-19         0.00000E+00
    0.59372E-20         0.30268E-20         0.00000E+00
    0.67521E-20         0.10245E-19         0.00000E+00
    0.64611E-20         0.79162E-20         0.00000E+00
    0.55297E-20         0.74506E-20         0.00000E+00
    0.47730E-20         0.97789E-20         0.00000E+00
    0.45402E-20        -0.34925E-20         0.00000E+00
    0.26193E-20        -0.18626E-20         0.00000E+00
    0.10477E-20        -0.51223E-20         0.00000E+00
    0.64028E-21        -0.13504E-19         0.00000E+00
    0.58208E-21        -0.20023E-19         0.00000E+00
   -0.87311E-21        -0.13970E-19         0.00000E+00
   -0.35507E-20        -0.30966E-19         0.00000E+00
   -0.44820E-20        -0.42375E-19         0.00000E+00
   -0.37253E-20        -0.19092E-19         0.00000E+00
   -0.44820E-20        -0.76834E-20         0.00000E+00
   -0.35507E-20        -0.32596E-20         0.00000E+00
   -0.18626E-20        -0.13970E-20         0.00000E+00
   -0.20955E-20         0.23283E-20         0.00000E+00
   -0.19791E-20         0.65193E-20         0.00000E+00
    0.25611E-20         0.37253E-20         0.00000E+00
    0.11642E-21         0.51223E-20         0.00000E+00
    0.11642E-21         0.60536E-20         0.00000E+00
    0.11642E-20         0.88476E-20         0.00000E+00
    0.15716E-20         0.23283E-20         0.00000E+00
    0.81491E-21        -0.12107E-19         0.00000E+00
    0.10477E-20        -0.14668E-19         0.00000E+00
    0.50641E-20        -0.16298E-19         0.00000E+00
    0.77998E-20        -0.18859E-19         0.00000E+00
    0.87311E-20        -0.14901E-19         0.00000E+00
    0.10536E-19        -0.21886E-19         0.00000E+00
    0.12398E-19         0.13970E-20         0.00000E+00
    0.10652E-19        -0.55879E-20         0.00000E+00
    0.82073E-20         0.11409E-19         0.00000E+00
    0.63446E-20         0.93132E-21         0.00000E+00
    0.34925E-20         0.93132E-20         0.00000E+00
    0.87311E-21         0.93132E-20         0.00000E+00
    0.40745E-21         0.19092E-19         0.00000E+00
   -0.11642E-21         0.12107E-19         0.00000E+00
   -0.58208E-22        -0.46566E-21         0.00000E+00
   -0.34925E-21        -0.13970E-19         0.00000E+00
   -0.87311E-21        -0.83819E-20         0.00000E+00
   -0.11059E-20        -0.18626E-19         0.00000E+00
   -0.14552E-20        -0.13970E-19         0.00000E+00
   -0.17462E-20        -0.67521E-20         0.00000E+00
   -0.27940E-20        -0.62864E-20         0.00000E+00
   -0.33178E-20        -0.23283E-20         0.00000E+00
   -0.55297E-20         0.17229E-19         0.00000E+00
   -0.42492E-20         0.74506E-20         0.00000E+00
   -0.18044E-20         0.93132E-21         0.00000E+00
   -0.32596E-20        -0.60536E-20         0.00000E+00
   -0.69267E-20         0.41910E-20         0.00000E+00
   -0.86729E-20         0.12107E-19         0.00000E+00
   -0.96625E-20         0.10710E-19         0.00000E+00
   -0.10070E-19         0.60536E-20         0.00000E+00
   -0.82655E-20         0.55879E-20         0.00000E+00
   -0.75670E-20         0.46566E-21         0.00000E+00
   -0.75088E-20        -0.23283E-20         0.00000E+00
   -0.47730E-20        -0.79162E-20         0.00000E+00
   -0.32596E-20        -0.13504E-19         0.00000E+00
   -0.30850E-20        -0.25146E-19         0.00000E+00
   -0.23283E-21        -0.10245E-19         0.00000E+00
    0.11059E-20        -0.28638E-19         0.00000E+00
   -0.11059E-20        -0.31665E-19         0.00000E+00
   -0.22119E-20        -0.24680E-19         0.00000E+00
    0.23865E-20        -0.19558E-19         0.00000E+00
    0.43656E-20        -0.65193E-20         0.00000E+00
    0.50059E-20        -0.10710E-19         0.00000E+00
    0.74506E-20         0.44238E-20         0.00000E+00
    0.76834E-20         0.23283E-20         0.00000E+00
   -0.45984E-20         0.12573E-19         0.00000E+00
   -0.37253E-20         0.79162E-20         0.00000E+00
   -0.29104E-20         0.27940E-20         0.00000E+00
   -0.11642E-21        -0.41910E-20         0.00000E+00
    0.28522E-20        -0.46566E-20         0.00000E+00
    0.57044E-20        -0.15367E-19         0.00000E+00
    0.61700E-20        -0.19558E-19         0.00000E+00
    0.54715E-20        -0.25611E-19         0.00000E+00
    0.37835E-20        -0.17229E-19         0.00000E+00
    0.15134E-20        -0.15367E-19         0.00000E+00
   -0.58208E-21        -0.24214E-19         0.00000E+00
   -0.15134E-20         0.18626E-20         0.00000E+00
   -0.34925E-21        -0.32596E-20         0.00000E+00
    0.18044E-20         0.81491E-20         0.00000E+00
    0.32014E-20         0.74506E-20         0.00000E+00
    0.23865E-20         0.14435E-19         0.00000E+00
    0.38999E-20         0.10710E-19         0.00000E+00
    0.43074E-20         0.26310E-19         0.00000E+00
    0.27358E-20         0.15367E-19         0.00000E+00
    0.16880E-20        -0.37253E-20         0.00000E+00
    0.23283E-20        -0.12573E-19         0.00000E+00
    0.29104E-20        -0.12573E-19         0.00000E+00
    0.39581E-20        -0.20955E-19         0.00000E+00
    0.37253E-20        -0.13271E-19         0.00000E+00
    0.27358E-20        -0.27940E-20         0.00000E+00
    0.34925E-20        -0.88476E-20         0.00000E+00
    0.35507E-20         0.46566E-20         0.00000E+00
    0.42492E-20         0.18161E-19         0.00000E+00
    0.22701E-20         0.13970E-19         0.00000E+00
   -0.12224E-20         0.46566E-21         0.00000E+00
   -0.27358E-20         0.27940E-20         0.00000E+00
   -0.37835E-20         0.21653E-19         0.00000E+00
   -0.53551E-20         0.18394E-19         0.00000E+00
   -0.44820E-20         0.10245E-19         0.00000E+00
   -0.39581E-20         0.34925E-20         0.00000E+00
   -0.45402E-20         0.46566E-20         0.00000E+00
   -0.38417E-20        -0.18626E-20         0.00000E+00
   -0.36089E-20        -0.60536E-20         0.00000E+00
   -0.32014E-20        -0.13039E-19         0.00000E+00
   -0.29104E-21        -0.24680E-19         0.00000E+00
    0.21537E-20        -0.32363E-19         0.00000E+00
    0.23283E-20        -0.11642E-19         0.00000E+00
    0.87311E-21        -0.31199E-19         0.00000E+00
    0.42492E-20        -0.32596E-19         0.00000E+00
    0.45984E-20        -0.22817E-19         0.00000E+00
    0.64028E-21        -0.20023E-19         0.00000E+00
   -0.12224E-20        -0.60536E-20         0.00000E+00
   -0.24447E-20        -0.13504E-19         0.00000E+00
   -0.25029E-20        -0.65193E-20         0.00000E+00
   -0.11642E-20        -0.32596E-20         0.00000E+00
   -0.12806E-20         0.60536E-20         0.00000E+00
   -0.81491E-21         0.65193E-20         0.00000E+00
   -0.11642E-20        -0.93132E-21         0.00000E+00
   -0.24447E-20        -0.41910E-20         0.00000E+00
   -0.37253E-20        -0.12573E-19         0.00000E+00
   -0.45402E-20        -0.20489E-19         0.00000E+00
   -0.46566E-20        -0.15832E-19         0.00000E+00
   -0.52387E-20        -0.17695E-19         0.00000E+00
   -0.40163E-20        -0.18161E-19         0.00000E+00
   -0.24447E-20        -0.11642E-19         0.00000E+00
   -0.30268E-20        -0.19092E-19         0.00000E+00
   -0.28522E-20         0.93132E-21         0.00000E+00
   -0.25611E-20        -0.10245E-19         0.00000E+00
   -0.39581E-20         0.55879E-20         0.00000E+00
   -0.29104E-20        -0.16298E-20         0.00000E+00
   -0.17462E-20         0.14435E-19         0.00000E+00
   -0.21537E-20         0.13504E-19         0.00000E+00
   -0.22119E-20         0.18161E-19         0.00000E+00
    0.58208E-21         0.15832E-19         0.00000E+00
    0.12806E-20        -0.18626E-20         0.00000E+00
    0.24447E-20        -0.17229E-19         0.00000E+00
    0.29104E-20        -0.16298E-19         0.00000E+00
    0.23283E-20        -0.20023E-19         0.00000E+00
    0.13970E-20        -0.60536E-20         0.00000E+00
    0.18044E-20        -0.65193E-20         0.00000E+00
    0.12224E-20        -0.32596E-20         0.00000E+00
    0.19209E-20        -0.55879E-20         0.00000E+00
    0.34925E-20         0.19092E-19         0.00000E+00
    0.37835E-20         0.18161E-19         0.00000E+00
    0.55879E-20         0.00000E+00         0.00000E+00
    0.70431E-20         0.41910E-20         0.00000E+00
    0.78580E-20         0.19325E-19         0.00000E+00
    0.83819E-20         0.23982E-19         0.00000E+00
    0.79162E-20         0.69849E-20         0.00000E+00
    0.64028E-20         0.53551E-20         0.00000E+00
    0.73342E-20         0.93132E-21         0.00000E+00
    0.96043E-20        -0.93132E-20         0.00000E+00
    0.11700E-19        -0.79162E-20         0.00000E+00
    0.12747E-19        -0.18859E-19         0.00000E+00
    0.10594E-19        -0.26776E-19         0.00000E+00
    0.67521E-20        -0.31898E-19         0.00000E+00
    0.66357E-20        -0.10245E-19         0.00000E+00
    0.74506E-20        -0.27940E-19         0.00000E+00
    0.41327E-20        -0.27008E-19         0.00000E+00
    0.28522E-20        -0.22817E-19         0.00000E+00
    0.60536E-20        -0.15134E-19         0.00000E+00
    0.94878E-20        -0.15134E-19         0.00000E+00
    0.11118E-19        -0.11409E-19         0.00000E+00
    0.11118E-19        -0.37253E-20         0.00000E+00
    0.95461E-20         0.20955E-20         0.00000E+00
   -0.34925E-20         0.10710E-19         0.00000E+00
   -0.34925E-20         0.65193E-20         0.00000E+00
   -0.38999E-20         0.00000E+00         0.00000E+00
   -0.43074E-20         0.23283E-20         0.00000E+00
   -0.46566E-20        -0.79162E-20         0.00000E+00
   -0.51223E-20        -0.20023E-19         0.00000E+00
   -0.39581E-20        -0.17695E-19         0.00000E+00
   -0.13388E-20        -0.24913E-19         0.00000E+00
   -0.58208E-22        -0.24214E-19         0.00000E+00
    0.18626E-20        -0.15367E-19         0.00000E+00
    0.32596E-20        -0.18161E-19         0.00000E+00
    0.26776E-20         0.18626E-20         0.00000E+00
    0.20373E-20        -0.93132E-21         0.00000E+00
   -0.29104E-21         0.97789E-20         0.00000E+00
   -0.22701E-20        -0.23283E-20         0.00000E+00
   -0.35507E-20         0.16764E-19         0.00000E+00
   -0.49477E-20         0.18161E-19         0.00000E+00
   -0.64028E-20         0.18394E-19         0.00000E+00
   -0.83237E-20         0.17695E-19         0.00000E+00
   -0.93714E-20        -0.41910E-20         0.00000E+00
   -0.94878E-20        -0.20955E-19         0.00000E+00
   -0.97789E-20        -0.10245E-19         0.00000E+00
   -0.94296E-20        -0.21420E-19         0.00000E+00
   -0.73342E-20        -0.11642E-19         0.00000E+00
   -0.71013E-20        -0.10710E-19         0.00000E+00
   -0.45984E-20        -0.76834E-20         0.00000E+00
   -0.46566E-20        -0.51223E-20         0.00000E+00
   -0.61700E-20         0.20489E-19         0.00000E+00
   -0.43656E-20         0.74506E-20         0.00000E+00
   -0.20955E-20        -0.93132E-20         0.00000E+00
   -0.58208E-22         0.18626E-20         0.00000E+00
   -0.81491E-21         0.25611E-19         0.00000E+00
    0.58208E-22         0.16764E-19         0.00000E+00
    0.22119E-20         0.55879E-20         0.00000E+00
    0.32014E-20         0.74506E-20         0.00000E+00
    0.25611E-20        -0.37253E-20         0.00000E+00
    0.21537E-20        -0.16298E-19         0.00000E+00
    0.22701E-20        -0.14435E-19         0.00000E+00
    0.87311E-21        -0.15832E-19         0.00000E+00
   -0.58208E-22        -0.14901E-19         0.00000E+00
   -0.29104E-21        -0.25146E-19         0.00000E+00
   -0.25611E-20        -0.97789E-20         0.00000E+00
   -0.50641E-20        -0.16764E-19         0.00000E+00
   -0.48312E-20        -0.24680E-19         0.00000E+00
   -0.47148E-20        -0.27474E-19         0.00000E+00
   -0.65775E-20        -0.15367E-19         0.00000E+00
   -0.92550E-20        -0.18626E-19         0.00000E+00
   -0.11525E-19        -0.79162E-20         0.00000E+00
   -0.12922E-19         0.23283E-20         0.00000E+00
   -0.12980E-19         0.37253E-20         0.00000E+00
   -0.17462E-20         0.48894E-20         0.00000E+00
    0.34925E-21         0.18626E-20         0.00000E+00
    0.24447E-20        -0.13970E-20         0.00000E+00
    0.24447E-20         0.23283E-20         0.00000E+00
    0.20955E-20        -0.60536E-20         0.00000E+00
    0.81491E-21        -0.18161E-19         0.00000E+00
   -0.58208E-22        -0.22817E-19         0.00000E+00
   -0.75670E-21        -0.28871E-19         0.00000E+00
   -0.10477E-20        -0.30734E-19         0.00000E+00
   -0.16298E-20        -0.18161E-19         0.00000E+00
   -0.20373E-20        -0.19092E-19         0.00000E+00
   -0.87311E-21        -0.41910E-20         0.00000E+00
    0.26776E-20        -0.46566E-20         0.00000E+00
    0.43074E-20         0.17695E-19         0.00000E+00
    0.36089E-20         0.18626E-20         0.00000E+00
    0.28522E-20         0.21420E-19         0.00000E+00
    0.29104E-20         0.16764E-19         0.00000E+00
    0.39581E-20         0.20489E-19         0.00000E+00
    0.54715E-20         0.20955E-19         0.00000E+00
    0.50641E-20        -0.18626E-20         0.00000E+00
    0.38417E-20        -0.20023E-19         0.00000E+00
    0.33760E-20        -0.10245E-19         0.00000E+00
    0.27358E-20        -0.22817E-19         0.00000E+00
    0.18626E-20        -0.10245E-19         0.00000E+00
    0.69849E-21        -0.65193E-20         0.00000E+00
   -0.75670E-21        -0.13504E-19         0.00000E+00
    0.11642E-21        -0.60536E-20         0.00000E+00
    0.37253E-20         0.10245E-19         0.00000E+00
    0.43656E-20         0.00000E+00         0.00000E+00
    0.28522E-20        -0.74506E-20         0.00000E+00
    0.12224E-20         0.00000E+00         0.00000E+00
    0.34925E-20         0.18394E-19         0.00000E+00
    0.69267E-20         0.41910E-20         0.00000E+00
    0.81491E-20         0.23283E-20         0.00000E+00
    0.68103E-20         0.10710E-19         0.00000E+00
    0.50059E-20         0.46566E-21         0.00000E+00
    0.27940E-20        -0.88476E-20         0.00000E+00
    0.22119E-20        -0.10710E-19         0.00000E+00
    0.25029E-20        -0.10245E-19         0.00000E+00
    0.58208E-21        -0.74506E-20         0.00000E+00
    0.58208E-22        -0.20489E-19         0.00000E+00
    0.00000E+00        -0.46566E-20         0.00000E+00
    0.12806E-20        -0.19558E-19         0.00000E+00
    0.36671E-20        -0.30734E-19         0.00000E+00
    0.37253E-20        -0.22817E-19         0.00000E+00
    0.32014E-20        -0.95461E-20         0.00000E+00
    0.23283E-21         0.23283E-20         0.00000E+00
   -0.22119E-20        -0.86147E-20         0.00000E+00
   -0.23283E-21         0.41910E-20         0.00000E+00
   -0.11642E-20        -0.13970E-20         0.00000E+00
    0.11642E-19         0.60536E-20         0.00000E+00
    0.94296E-20        -0.93132E-21         0.00000E+00
    0.62864E-20         0.74506E-20         0.00000E+00
    0.27358E-20         0.93132E-20         0.00000E+00
    0.18044E-20        -0.46566E-20         0.00000E+00
    0.30268E-20        -0.19092E-19         0.00000E+00
    0.44820E-20        -0.20955E-19         0.00000E+00
    0.34925E-20        -0.20023E-19         0.00000E+00
    0.13970E-20        -0.22817E-19         0.00000E+00
    0.29686E-20        -0.23283E-19         0.00000E+00
    0.25029E-20        -0.15832E-19         0.00000E+00
    0.58208E-21        -0.18626E-20         0.00000E+00
   -0.23865E-20        -0.18626E-20         0.00000E+00
   -0.47148E-20         0.12573E-19         0.00000E+00
   -0.33760E-20         0.41910E-20         0.00000E+00
   -0.15716E-20         0.21886E-19         0.00000E+00
   -0.87311E-21         0.12107E-19         0.00000E+00
    0.87311E-21         0.13970E-19         0.00000E+00
    0.28522E-20         0.11642E-19         0.00000E+00
    0.47730E-20        -0.51223E-20         0.00000E+00
    0.65193E-20        -0.18626E-19         0.00000E+00
    0.64028E-20        -0.83819E-20         0.00000E+00
    0.72760E-20        -0.22817E-19         0.00000E+00
    0.72177E-20        -0.60536E-20         0.00000E+00
    0.77998E-20        -0.46566E-20         0.00000E+00
    0.71013E-20        -0.51223E-20         0.00000E+00
    0.43656E-20        -0.51223E-20         0.00000E+00
   -0.69849E-21         0.16298E-19         0.00000E+00
   -0.26193E-20         0.23283E-20         0.00000E+00
   -0.20373E-20        -0.51223E-20         0.00000E+00
    0.11642E-20        -0.93132E-20         0.00000E+00
    0.26193E-20         0.97789E-20         0.00000E+00
    0.11642E-20         0.51223E-20         0.00000E+00
   -0.87311E-21         0.41910E-20         0.00000E+00
    0.75670E-21         0.74506E-20         0.00000E+00
    0.87311E-21         0.10710E-19         0.00000E+00
   -0.22701E-20         0.60536E-20         0.00000E+00
   -0.55297E-20        -0.93132E-20         0.00000E+00
   -0.71595E-20        -0.41910E-20         0.00000E+00
   -0.68685E-20        -0.23283E-20         0.00000E+00
   -0.78580E-20        -0.18394E-19         0.00000E+00
   -0.81491E-20        -0.18626E-20         0.00000E+00
   -0.93714E-20        -0.20489E-19         0.00000E+00
   -0.11467E-19        -0.28871E-19         0.00000E+00
   -0.11118E-19        -0.26077E-19         0.00000E+00
   -0.96043E-20        -0.88476E-20         0.00000E+00
   -0.46566E-20         0.32596E-20         0.00000E+00
   -0.34925E-20        -0.67521E-20         0.00000E+00
   -0.37253E-20        -0.27940E-20         0.00000E+00
   -0.29104E-20        -0.23283E-21         0.00000E+00
    0.19791E-20         0.60536E-20         0.00000E+00
    0.15134E-20         0.83819E-20         0.00000E+00
    0.46566E-20         0.48894E-20         0.00000E+00
    0.81491E-20         0.95461E-20         0.00000E+00
    0.89640E-20        -0.46566E-20         0.00000E+00
    0.81491E-20        -0.18161E-19         0.00000E+00
    0.72760E-20        -0.20955E-19         0.00000E+00
    0.80909E-20        -0.19092E-19         0.00000E+00
    0.74506E-20        -0.12806E-19         0.00000E+00
    0.40163E-20        -0.13039E-19         0.00000E+00
   -0.46566E-21        -0.60536E-20         0.00000E+00
   -0.21537E-20         0.11176E-19         0.00000E+00
   -0.33178E-20         0.79162E-20         0.00000E+00
   -0.45402E-20         0.14901E-19         0.00000E+00
   -0.47148E-20        -0.51223E-20         0.00000E+00
   -0.36089E-20         0.16764E-19         0.00000E+00
   -0.40163E-20         0.10710E-19         0.00000E+00
   -0.55879E-20         0.14901E-19         0.00000E+00
   -0.61118E-20         0.60536E-20         0.00000E+00
   -0.47148E-20        -0.14901E-19         0.00000E+00
   -0.37253E-20        -0.25611E-19         0.00000E+00
   -0.15134E-20        -0.14435E-19         0.00000E+00
   -0.81491E-21        -0.25611E-19         0.00000E+00
    0.17462E-21        -0.13039E-19         0.00000E+00
    0.40745E-21        -0.74506E-20         0.00000E+00
    0.58208E-22         0.18626E-20         0.00000E+00
   -0.11642E-21         0.65193E-20         0.00000E+00
    0.87311E-21         0.21886E-19         0.00000E+00
    0.15716E-20         0.46566E-20         0.00000E+00
    0.52387E-21        -0.79162E-20         0.00000E+00
   -0.19791E-20        -0.11642E-19         0.00000E+00
   -0.27940E-20         0.65193E-20         0.00000E+00
   -0.19209E-20         0.10245E-19         0.00000E+00
   -0.17462E-20         0.60536E-20         0.00000E+00
   -0.32596E-20         0.37253E-20         0.00000E+00
   -0.17462E-20         0.74506E-20         0.00000E+00
    0.93132E-21         0.97789E-20         0.00000E+00
    0.30850E-20        -0.69849E-20         0.00000E+00
    0.40163E-20        -0.41910E-20         0.00000E+00
    0.50641E-20        -0.65193E-20         0.00000E+00
    0.39581E-20        -0.10245E-19         0.00000E+00
    0.38417E-20        -0.23283E-20         0.00000E+00
    0.49477E-20        -0.16764E-19         0.00000E+00
    0.62282E-20        -0.30268E-19         0.00000E+00
    0.50059E-20        -0.24214E-19         0.00000E+00
    0.16880E-20        -0.74506E-20         0.00000E+00
    0.11642E-21        -0.13970E-19         0.00000E+00
    0.16880E-20        -0.93132E-20         0.00000E+00
    0.19209E-20        -0.37253E-20         0.00000E+00
    0.13970E-20         0.44238E-20         0.00000E+00
    0.12340E-19         0.18626E-20         0.00000E+00
    0.12631E-19         0.10710E-19         0.00000E+00
    0.10245E-19         0.46566E-21         0.00000E+00
    0.81491E-20         0.51223E-20         0.00000E+00
    0.79162E-20        -0.55879E-20         0.00000E+00
    0.52387E-20        -0.74506E-20         0.00000E+00
    0.16298E-20        -0.97789E-20         0.00000E+00
   -0.27940E-20        -0.13504E-19         0.00000E+00
   -0.54133E-20        -0.48894E-20         0.00000E+00
   -0.58208E-20         0.11642E-20         0.00000E+00
   -0.64028E-20        -0.18626E-20         0.00000E+00
   -0.47148E-20         0.15367E-19         0.00000E+00
   -0.34925E-20         0.23283E-20         0.00000E+00
   -0.13388E-20         0.97789E-20         0.00000E+00
   -0.87311E-21        -0.13970E-20         0.00000E+00
   -0.26776E-20         0.19092E-19         0.00000E+00
   -0.34343E-20         0.16764E-19         0.00000E+00
   -0.51223E-20         0.18626E-19         0.00000E+00
   -0.48894E-20         0.65193E-20         0.00000E+00
   -0.66357E-20        -0.12107E-19         0.00000E+00
   -0.87311E-20        -0.24214E-19         0.00000E+00
   -0.88476E-20        -0.21420E-19         0.00000E+00
   -0.76252E-20        -0.29337E-19         0.00000E+00
   -0.79162E-20        -0.14435E-19         0.00000E+00
   -0.65193E-20        -0.46566E-20         0.00000E+00
   -0.58790E-20         0.00000E+00         0.00000E+00
   -0.45984E-20        -0.93132E-21         0.00000E+00
   -0.41910E-20         0.19092E-19         0.00000E+00
   -0.27358E-20         0.93132E-21         0.00000E+00
    0.17462E-21        -0.11642E-19         0.00000E+00
    0.30850E-20        -0.46566E-20         0.00000E+00
    0.37835E-20         0.60536E-20         0.00000E+00
    0.26193E-20         0.88476E-20         0.00000E+00
    0.28522E-20         0.69849E-20         0.00000E+00
    0.24447E-20         0.69849E-20         0.00000E+00
    0.19209E-20         0.65193E-20         0.00000E+00
    0.17462E-21         0.46566E-20         0.00000E+00
   -0.16298E-20        -0.32596E-20         0.00000E+00
   -0.38999E-20        -0.37253E-20         0.00000E+00
   -0.38999E-20        -0.83819E-20         0.00000E+00
   -0.26776E-20        -0.17229E-19         0.00000E+00
   -0.46566E-21        -0.83819E-20         0.00000E+00
   -0.46566E-21        -0.22352E-19         0.00000E+00
   -0.17462E-21        -0.29337E-19         0.00000E+00
    0.40745E-21        -0.19092E-19         0.00000E+00
    0.32596E-20        -0.74506E-20         0.00000E+00
    0.38417E-20        -0.10245E-19         0.00000E+00
    0.22119E-20        -0.11874E-19         0.00000E+00
    0.15716E-20         0.00000E+00         0.00000E+00
    0.81491E-21         0.46566E-20         0.00000E+00
   -0.16880E-19         0.46566E-21         0.00000E+00
   -0.16415E-19         0.83819E-20         0.00000E+00
   -0.14435E-19         0.27940E-20         0.00000E+00
   -0.11292E-19        -0.27940E-20         0.00000E+00
   -0.10070E-19        -0.23283E-20         0.00000E+00
   -0.82655E-20        -0.74506E-20         0.00000E+00
   -0.31432E-20        -0.88476E-20         0.00000E+00
    0.75670E-21        -0.97789E-20         0.00000E+00
    0.27940E-20        -0.90804E-20         0.00000E+00
    0.50059E-20         0.00000E+00         0.00000E+00
    0.46566E-20        -0.41910E-20         0.00000E+00
    0.43074E-20         0.19092E-19         0.00000E+00
    0.20373E-20         0.46566E-20         0.00000E+00
   -0.64028E-21         0.97789E-20         0.00000E+00
   -0.18626E-20         0.76834E-20         0.00000E+00
   -0.27358E-20         0.19092E-19         0.00000E+00
   -0.19209E-20         0.11642E-19         0.00000E+00
   -0.23283E-21         0.20955E-19         0.00000E+00
   -0.17462E-21         0.10245E-19         0.00000E+00
    0.17462E-21        -0.65193E-20         0.00000E+00
    0.20373E-20        -0.27940E-19         0.00000E+00
    0.19791E-20        -0.21886E-19         0.00000E+00
    0.34925E-21        -0.26543E-19         0.00000E+00
   -0.11642E-21        -0.14901E-19         0.00000E+00
   -0.87311E-21        -0.37253E-20         0.00000E+00
   -0.29104E-21        -0.93132E-20         0.00000E+00
    0.11642E-20        -0.83819E-20         0.00000E+00
    0.22701E-20         0.16298E-19         0.00000E+00
    0.11059E-20         0.51223E-20         0.00000E+00
   -0.22701E-20        -0.12107E-19         0.00000E+00
   -0.34343E-20        -0.12573E-19         0.00000E+00
   -0.18044E-20         0.13970E-20         0.00000E+00
    0.64028E-21         0.74506E-20         0.00000E+00
    0.23865E-20         0.37253E-20         0.00000E+00
    0.28522E-20         0.23283E-20         0.00000E+00
    0.22701E-20         0.10710E-19         0.00000E+00
    0.20955E-20         0.88476E-20         0.00000E+00
    0.19791E-20         0.65193E-20         0.00000E+00
    0.22119E-20        -0.55879E-20         0.00000E+00
    0.30268E-20        -0.60536E-20         0.00000E+00
    0.22119E-20        -0.26543E-19         0.00000E+00
    0.58208E-21        -0.51223E-20         0.00000E+00
   -0.29104E-21        -0.19558E-19         0.00000E+00
   -0.46566E-21        -0.24913E-19         0.00000E+00
   -0.22119E-20        -0.16298E-19         0.00000E+00
   -0.36089E-20        -0.14203E-19         0.00000E+00
   -0.55297E-20        -0.13970E-20         0.00000E+00
   -0.55879E-20        -0.10245E-19         0.00000E+00
   -0.60536E-20        -0.32596E-20         0.00000E+00
   -0.47148E-20         0.93132E-21         0.00000E+00
   -0.35507E-20         0.46566E-21         0.00000E+00
   -0.34925E-20         0.10710E-19         0.00000E+00
   -0.38417E-20        -0.32596E-20         0.00000E+00
   -0.59372E-20        -0.93132E-21         0.00000E+00
   -0.58790E-20        -0.95461E-20         0.00000E+00
   -0.33760E-20        -0.24680E-19         0.00000E+00
   -0.23283E-20        -0.26077E-19         0.00000E+00
   -0.64028E-21        -0.15832E-19         0.00000E+00
    0.64028E-21        -0.17462E-19         0.00000E+00
    0.46566E-21        -0.46566E-20         0.00000E+00
    0.13970E-20        -0.10245E-19         0.00000E+00
    0.23865E-20         0.18626E-19         0.00000E+00
    0.32596E-20         0.60536E-20         0.00000E+00
    0.42492E-20         0.12107E-19         0.00000E+00
    0.54133E-20         0.83819E-20         0.00000E+00
    0.51805E-20         0.24913E-19         0.00000E+00
    0.41910E-20         0.11176E-19         0.00000E+00
    0.38417E-20         0.18161E-19         0.00000E+00
    0.44238E-20         0.65193E-20         0.00000E+00
    0.54715E-20        -0.10245E-19         0.00000E+00
    0.42492E-20        -0.30268E-19         0.00000E+00
    0.41910E-20        -0.15367E-19         0.00000E+00
    0.60536E-20        -0.31199E-19         0.00000E+00
    0.41910E-20        -0.97789E-20         0.00000E+00
    0.40745E-20        -0.18626E-20         0.00000E+00
    0.25029E-20        -0.46566E-20         0.00000E+00
   -0.19209E-20         0.46566E-20         0.00000E+00
   -0.40163E-20         0.16764E-19         0.00000E+00
   -0.33178E-20         0.55879E-20         0.00000E+00
   -0.40745E-21        -0.15832E-19         0.00000E+00
    0.19791E-20        -0.14435E-19         0.00000E+00
    0.11059E-20         0.23283E-20         0.00000E+00
   -0.15716E-20         0.69849E-20         0.00000E+00
   -0.30268E-20         0.65193E-20         0.00000E+00
   -0.52969E-20         0.93132E-20         0.00000E+00
   -0.55297E-20         0.10245E-19         0.00000E+00
   -0.35507E-20         0.23283E-20         0.00000E+00
   -0.18626E-20         0.37253E-20         0.00000E+00
   -0.58208E-21        -0.69849E-20         0.00000E+00
    0.40745E-21        -0.11409E-19         0.00000E+00
    0.29104E-21        -0.15367E-19         0.00000E+00
    0.11642E-21        -0.65193E-20         0.00000E+00
    0.20955E-20        -0.25146E-19         0.00000E+00
    0.28522E-20        -0.24447E-19         0.00000E+00
    0.21537E-20        -0.13970E-19         0.00000E+00
   -0.23510E-37        -0.46566E-21         0.00000E+00
   -0.15134E-20        -0.46566E-21         0.00000E+00
   -0.12224E-20        -0.10245E-19         0.00000E+00
   -0.10477E-20         0.16298E-20         0.00000E+00
   -0.27358E-20         0.13970E-20         0.00000E+00
   -0.75670E-21         0.55879E-20         0.00000E+00
   -0.15134E-20         0.93132E-21         0.00000E+00
   -0.58208E-22         0.51223E-20         0.00000E+00
   -0.11642E-21         0.27940E-20         0.00000E+00
   -0.12806E-20        -0.13970E-19         0.00000E+00
   -0.36089E-20        -0.19092E-19         0.00000E+00
   -0.58208E-20        -0.25379E-19         0.00000E+00
   -0.51805E-20        -0.27474E-19         0.00000E+00
   -0.34343E-20        -0.21886E-19         0.00000E+00
   -0.46566E-21        -0.88476E-20         0.00000E+00
    0.11642E-20        -0.13504E-19         0.00000E+00
    0.44238E-20         0.74506E-20         0.00000E+00
    0.75670E-20         0.00000E+00         0.00000E+00
    0.64611E-20         0.19558E-19         0.00000E+00
    0.36671E-20         0.10477E-19         0.00000E+00
    0.44820E-20         0.18161E-19         0.00000E+00
    0.79744E-20         0.51223E-20         0.00000E+00
    0.98371E-20         0.14435E-19         0.00000E+00
    0.95461E-20         0.76834E-20         0.00000E+00
    0.64611E-20        -0.32596E-20         0.00000E+00
    0.44820E-20        -0.18161E-19         0.00000E+00
    0.40745E-21        -0.11176E-19         0.00000E+00
   -0.20955E-20        -0.24680E-19         0.00000E+00
   -0.29104E-20        -0.46566E-20         0.00000E+00
   -0.25029E-20        -0.18626E-20         0.00000E+00
   -0.18044E-20         0.13970E-20         0.00000E+00
    0.93132E-21         0.32596E-20         0.00000E+00
    0.22701E-20         0.16764E-19         0.00000E+00
    0.21537E-20         0.23283E-20         0.00000E+00
   -0.75670E-21        -0.17695E-19         0.00000E+00
   -0.48312E-20        -0.74506E-20         0.00000E+00
   -0.48312E-20         0.18626E-20         0.00000E+00
   -0.27940E-20         0.74506E-20         0.00000E+00
   -0.23283E-20         0.12573E-19         0.00000E+00
   -0.28522E-20         0.14435E-19         0.00000E+00
   -0.27940E-20         0.76834E-20         0.00000E+00
   -0.39581E-20         0.46566E-20         0.00000E+00
   -0.47148E-20        -0.27940E-20         0.00000E+00
   -0.37835E-20        -0.13970E-19         0.00000E+00
   -0.23283E-20        -0.19092E-19         0.00000E+00
    0.15134E-20        -0.25611E-19         0.00000E+00
    0.41327E-20        -0.83819E-20         0.00000E+00
    0.23865E-20        -0.20489E-19         0.00000E+00
    0.15716E-20        -0.26077E-19         0.00000E+00
    0.15716E-20        -0.65193E-20         0.00000E+00
    0.38999E-20        -0.88476E-20         0.00000E+00
    0.79162E-20        -0.13970E-20         0.00000E+00
    0.79744E-20        -0.37253E-20         0.00000E+00
    0.74506E-20        -0.93132E-21         0.00000E+00
    0.73924E-20         0.72177E-20         0.00000E+00
    0.15134E-19         0.69849E-20         0.00000E+00
    0.13853E-19         0.93132E-20         0.00000E+00
    0.10361E-19         0.10245E-19         0.00000E+00
    0.94296E-20         0.27940E-20         0.00000E+00
    0.86147E-20        -0.74506E-20         0.00000E+00
    0.84983E-20        -0.15367E-19         0.00000E+00
    0.95461E-20        -0.23283E-19         0.00000E+00
    0.85565E-20        -0.25146E-19         0.00000E+00
    0.75088E-20        -0.31199E-19         0.00000E+00
    0.81491E-20        -0.19092E-19         0.00000E+00
    0.90804E-20        -0.25611E-19         0.00000E+00
    0.91386E-20         0.23283E-20         0.00000E+00
    0.94296E-20        -0.10710E-19         0.00000E+00
    0.13912E-19         0.12107E-19         0.00000E+00
    0.17637E-19         0.58208E-20         0.00000E+00
    0.18685E-19         0.14901E-19         0.00000E+00
    0.16240E-19         0.46566E-21         0.00000E+00
    0.14552E-19         0.14901E-19         0.00000E+00
    0.14901E-19         0.14435E-19         0.00000E+00
    0.14144E-19         0.48894E-20         0.00000E+00
    0.13504E-19        -0.60536E-20         0.00000E+00
    0.15134E-19        -0.69849E-20         0.00000E+00
    0.17113E-19        -0.25146E-19         0.00000E+00
    0.17637E-19        -0.46566E-20         0.00000E+00
    0.17579E-19        -0.23283E-20         0.00000E+00
    0.15949E-19         0.74506E-20         0.00000E+00
    0.14028E-19        -0.37253E-20         0.00000E+00
    0.13795E-19         0.20955E-19         0.00000E+00
    0.12573E-19         0.93132E-20         0.00000E+00
    0.12689E-19        -0.14901E-19         0.00000E+00
    0.14552E-19        -0.74506E-20         0.00000E+00
    0.15250E-19         0.51223E-20         0.00000E+00
    0.14144E-19         0.23283E-20         0.00000E+00
    0.14319E-19         0.88476E-20         0.00000E+00
    0.16415E-19         0.88476E-20         0.00000E+00
    0.18568E-19         0.37253E-20         0.00000E+00
    0.20198E-19         0.37253E-20         0.00000E+00
    0.20373E-19        -0.93132E-20         0.00000E+00
    0.20489E-19        -0.10245E-19         0.00000E+00
    0.18685E-19        -0.18161E-19         0.00000E+00
    0.15658E-19        -0.28405E-19         0.00000E+00
    0.13679E-19        -0.97789E-20         0.00000E+00
    0.14552E-19        -0.16997E-19         0.00000E+00
    0.15658E-19        -0.28871E-19         0.00000E+00
    0.18044E-19        -0.17229E-19         0.00000E+00
    0.17579E-19        -0.10245E-19         0.00000E+00
    0.12515E-19        -0.30268E-20         0.00000E+00
    0.12107E-19        -0.13970E-20         0.00000E+00
    0.13795E-19        -0.18626E-20         0.00000E+00
    0.15076E-19         0.30268E-20         0.00000E+00
    0.95461E-19         0.53551E-20         0.00000E+00
    0.96275E-19         0.10477E-19         0.00000E+00
    0.97731E-19         0.13970E-19         0.00000E+00
    0.97265E-19         0.88476E-20         0.00000E+00
    0.96974E-19        -0.60536E-20         0.00000E+00
    0.97556E-19        -0.20489E-19         0.00000E+00
    0.99652E-19        -0.24214E-19         0.00000E+00
    0.99069E-19        -0.17695E-19         0.00000E+00
    0.98255E-19        -0.31665E-19         0.00000E+00
    0.98371E-19        -0.19558E-19         0.00000E+00
    0.97672E-19        -0.24447E-19         0.00000E+00
    0.99768E-19        -0.13970E-20         0.00000E+00
    0.99244E-19        -0.14901E-19         0.00000E+00
    0.97847E-19         0.27940E-20         0.00000E+00
    0.95810E-19         0.27940E-20         0.00000E+00
    0.95170E-19         0.16298E-19         0.00000E+00
    0.96043E-19         0.46566E-20         0.00000E+00
    0.96450E-19         0.16531E-19         0.00000E+00
    0.96101E-19         0.14435E-19         0.00000E+00
    0.97440E-19         0.51223E-20         0.00000E+00
    0.99128E-19        -0.19558E-19         0.00000E+00
    0.10198E-18        -0.19092E-19         0.00000E+00
    0.10245E-18        -0.28871E-19         0.00000E+00
    0.10303E-18        -0.69849E-20         0.00000E+00
    0.10303E-18         0.00000E+00         0.00000E+00
    0.10495E-18         0.51223E-20         0.00000E+00
    0.10541E-18         0.51223E-20         0.00000E+00
    0.10274E-18         0.25146E-19         0.00000E+00
    0.10297E-18         0.10245E-19         0.00000E+00
    0.10268E-18        -0.11642E-19         0.00000E+00
    0.10006E-18        -0.41910E-20         0.00000E+00
    0.98138E-19         0.93132E-21         0.00000E+00
    0.99360E-19         0.18626E-20         0.00000E+00
    0.10140E-18        -0.11642E-20         0.00000E+00
    0.10157E-18         0.41910E-20         0.00000E+00
    0.99826E-19         0.12573E-19         0.00000E+00
    0.97149E-19         0.37253E-20         0.00000E+00
    0.94471E-19        -0.41910E-20         0.00000E+00
    0.93190E-19        -0.13970E-20         0.00000E+00
    0.92899E-19        -0.15134E-19         0.00000E+00
    0.93016E-19        -0.18626E-19         0.00000E+00
    0.92317E-19        -0.86147E-20         0.00000E+00
    0.91211E-19        -0.13039E-19         0.00000E+00
    0.89000E-19        -0.23283E-19         0.00000E+00
    0.87079E-19        -0.21886E-19         0.00000E+00
    0.89174E-19        -0.69849E-20         0.00000E+00
    0.92434E-19        -0.58208E-20         0.00000E+00
    0.95170E-19        -0.97789E-20         0.00000E+00
    0.95111E-19        -0.18626E-20         0.00000E+00
    0.93947E-19         0.20955E-20         0.00000E+00
    0.71258E-18         0.23283E-20         0.00000E+00
    0.71293E-18         0.18626E-20         0.00000E+00
    0.71491E-18         0.93132E-21         0.00000E+00
    0.71886E-18         0.41910E-20         0.00000E+00
    0.71997E-18        -0.93132E-21         0.00000E+00
    0.71817E-18        -0.18626E-19         0.00000E+00
    0.71665E-18        -0.28405E-19         0.00000E+00
    0.71910E-18        -0.26077E-19         0.00000E+00
    0.72148E-18        -0.33062E-19         0.00000E+00
    0.72061E-18        -0.17229E-19         0.00000E+00
    0.71886E-18        -0.16298E-19         0.00000E+00
    0.71665E-18        -0.18626E-20         0.00000E+00
    0.71450E-18        -0.18626E-20         0.00000E+00
    0.71328E-18         0.83819E-20         0.00000E+00
    0.71333E-18         0.41910E-20         0.00000E+00
    0.71357E-18         0.13970E-19         0.00000E+00
    0.71217E-18         0.97789E-20         0.00000E+00
    0.71072E-18         0.18626E-19         0.00000E+00
    0.70926E-18         0.88476E-20         0.00000E+00
    0.71118E-18        -0.93132E-21         0.00000E+00
    0.71118E-18        -0.26077E-19         0.00000E+00
    0.70978E-18        -0.20955E-19         0.00000E+00
    0.70862E-18        -0.18161E-19         0.00000E+00
    0.70641E-18        -0.97789E-20         0.00000E+00
    0.70763E-18        -0.74506E-20         0.00000E+00
    0.71008E-18        -0.93132E-20         0.00000E+00
    0.71275E-18         0.69849E-20         0.00000E+00
    0.71514E-18         0.20489E-19         0.00000E+00
    0.71625E-18         0.41910E-20         0.00000E+00
    0.71636E-18        -0.27940E-20         0.00000E+00
    0.71793E-18        -0.27940E-20         0.00000E+00
    0.71706E-18         0.13504E-19         0.00000E+00
    0.71462E-18         0.13970E-20         0.00000E+00
    0.71194E-18        -0.18626E-20         0.00000E+00
    0.71136E-18         0.88476E-20         0.00000E+00
    0.71374E-18         0.32596E-20         0.00000E+00
    0.71921E-18         0.27940E-20         0.00000E+00
    0.72079E-18        -0.46566E-21         0.00000E+00
    0.72026E-18         0.27940E-20         0.00000E+00
    0.71770E-18        -0.27940E-20         0.00000E+00
    0.71450E-18        -0.18626E-19         0.00000E+00
    0.71467E-18        -0.41910E-20         0.00000E+00
    0.71584E-18        -0.15367E-19         0.00000E+00
    0.71869E-18        -0.21886E-19         0.00000E+00
    0.71945E-18        -0.20023E-19         0.00000E+00
    0.71741E-18        -0.14435E-19         0.00000E+00
    0.71491E-18        -0.74506E-20         0.00000E+00
    0.71432E-18        -0.16764E-19         0.00000E+00
    0.71526E-18        -0.23283E-20         0.00000E+00
    0.71659E-18         0.55879E-20         0.00000E+00
    0.49075E-17         0.74506E-20         0.00000E+00
    0.49047E-17         0.11176E-19         0.00000E+00
    0.49020E-17         0.69849E-20         0.00000E+00
    0.48982E-17         0.13970E-20         0.00000E+00
    0.48964E-17        -0.27940E-20         0.00000E+00
    0.48991E-17        -0.19558E-19         0.00000E+00
    0.49010E-17        -0.27474E-19         0.00000E+00
    0.49002E-17        -0.32131E-19         0.00000E+00
    0.48988E-17        -0.28871E-19         0.00000E+00
    0.48986E-17        -0.12573E-19         0.00000E+00
    0.48990E-17        -0.16764E-19         0.00000E+00
    0.49011E-17         0.93132E-21         0.00000E+00
    0.49022E-17        -0.23283E-20         0.00000E+00
    0.49023E-17         0.14901E-19         0.00000E+00
    0.49024E-17         0.13970E-20         0.00000E+00
    0.49039E-17         0.88476E-20         0.00000E+00
    0.49052E-17         0.16764E-19         0.00000E+00
    0.49045E-17         0.22817E-19         0.00000E+00
    0.49034E-17         0.14901E-19         0.00000E+00
    0.48993E-17         0.83819E-20         0.00000E+00
    0.48958E-17        -0.16298E-19         0.00000E+00
    0.48936E-17        -0.15832E-19         0.00000E+00
    0.48953E-17        -0.23749E-19         0.00000E+00
    0.48995E-17        -0.17695E-19         0.00000E+00
    0.49012E-17        -0.15367E-19         0.00000E+00
    0.49004E-17        -0.97789E-20         0.00000E+00
    0.48993E-17         0.00000E+00         0.00000E+00
    0.48997E-17         0.13970E-19         0.00000E+00
    0.49024E-17         0.37253E-20         0.00000E+00
    0.49028E-17        -0.10710E-19         0.00000E+00
    0.49041E-17        -0.10710E-19         0.00000E+00
    0.49055E-17         0.18161E-19         0.00000E+00
    0.49053E-17         0.17229E-19         0.00000E+00
    0.49038E-17         0.79162E-20         0.00000E+00
    0.49031E-17         0.90804E-20         0.00000E+00
    0.49012E-17        -0.18626E-20         0.00000E+00
    0.48967E-17         0.23283E-20         0.00000E+00
    0.48942E-17        -0.34925E-20         0.00000E+00
    0.48961E-17        -0.46566E-21         0.00000E+00
    0.48989E-17        -0.27940E-20         0.00000E+00
    0.49015E-17        -0.23516E-19         0.00000E+00
    0.49029E-17        -0.23283E-20         0.00000E+00
    0.49022E-17        -0.21886E-19         0.00000E+00
    0.49020E-17        -0.27008E-19         0.00000E+00
    0.49014E-17        -0.23283E-19         0.00000E+00
    0.49030E-17        -0.13504E-19         0.00000E+00
    0.49037E-17        -0.23283E-20         0.00000E+00
    0.49034E-17        -0.13970E-19         0.00000E+00
    0.49029E-17        -0.46566E-20         0.00000E+00
    0.49036E-17        -0.32596E-20         0.00000E+00
    0.33449E-16         0.74506E-20         0.00000E+00
    0.33452E-16         0.10477E-19         0.00000E+00
    0.33453E-16         0.10245E-19         0.00000E+00
    0.33453E-16         0.21420E-19         0.00000E+00
    0.33451E-16        -0.46566E-20         0.00000E+00
    0.33449E-16        -0.17695E-19         0.00000E+00
    0.33446E-16        -0.29337E-19         0.00000E+00
    0.33446E-16        -0.28871E-19         0.00000E+00
    0.33448E-16        -0.32363E-19         0.00000E+00
    0.33450E-16        -0.18161E-19         0.00000E+00
    0.33450E-16        -0.17229E-19         0.00000E+00
    0.33449E-16        -0.46566E-21         0.00000E+00
    0.33448E-16        -0.65193E-20         0.00000E+00
    0.33449E-16         0.11642E-19         0.00000E+00
    0.33450E-16         0.18626E-20         0.00000E+00
    0.33447E-16         0.17462E-19         0.00000E+00
    0.33444E-16         0.21420E-19         0.00000E+00
    0.33443E-16         0.25611E-19         0.00000E+00
    0.33440E-16         0.24913E-19         0.00000E+00
    0.33442E-16         0.12340E-19         0.00000E+00
    0.33444E-16        -0.12573E-19         0.00000E+00
    0.33446E-16        -0.12107E-19         0.00000E+00
    0.33445E-16        -0.28173E-19         0.00000E+00
    0.33444E-16        -0.25611E-19         0.00000E+00
    0.33442E-16        -0.46566E-20         0.00000E+00
    0.33441E-16        -0.51223E-20         0.00000E+00
    0.33440E-16         0.46566E-20         0.00000E+00
    0.33439E-16         0.88476E-20         0.00000E+00
    0.33438E-16        -0.93132E-21         0.00000E+00
    0.33438E-16        -0.12573E-19         0.00000E+00
    0.33439E-16        -0.11176E-19         0.00000E+00
    0.33439E-16         0.23283E-20         0.00000E+00
    0.33443E-16         0.88476E-20         0.00000E+00
    0.33446E-16         0.79162E-20         0.00000E+00
    0.33445E-16         0.11176E-19         0.00000E+00
    0.33447E-16         0.18626E-20         0.00000E+00
    0.33449E-16         0.83819E-20         0.00000E+00
    0.33449E-16         0.41910E-20         0.00000E+00
    0.33446E-16         0.00000E+00         0.00000E+00
    0.33444E-16        -0.97789E-20         0.00000E+00
    0.33443E-16        -0.24214E-19         0.00000E+00
    0.33442E-16        -0.86147E-20         0.00000E+00
    0.33445E-16        -0.24214E-19         0.00000E+00
    0.33446E-16        -0.22817E-19         0.00000E+00
    0.33444E-16        -0.19092E-19         0.00000E+00
    0.33443E-16        -0.93132E-20         0.00000E+00
    0.33443E-16        -0.55879E-20         0.00000E+00
    0.33442E-16        -0.67521E-20         0.00000E+00
    0.33441E-16        -0.32596E-20         0.00000E+00
    0.33439E-16        -0.20955E-20         0.00000E+00
    0.22643E-15         0.46566E-21         0.00000E+00
    0.22643E-15         0.53551E-20         0.00000E+00
    0.22643E-15         0.53551E-20         0.00000E+00
    0.22643E-15         0.11642E-19         0.00000E+00
    0.22643E-15         0.27940E-20         0.00000E+00
    0.22643E-15        -0.76834E-20         0.00000E+00
    0.22643E-15        -0.20955E-19         0.00000E+00
    0.22643E-15        -0.17695E-19         0.00000E+00
    0.22642E-15        -0.26543E-19         0.00000E+00
    0.22642E-15        -0.19325E-19         0.00000E+00
    0.22642E-15        -0.23749E-19         0.00000E+00
    0.22642E-15         0.51223E-20         0.00000E+00
    0.22642E-15        -0.88476E-20         0.00000E+00
    0.22642E-15         0.60536E-20         0.00000E+00
    0.22642E-15        -0.93132E-21         0.00000E+00
    0.22642E-15         0.24680E-19         0.00000E+00
    0.22643E-15         0.17229E-19         0.00000E+00
    0.22643E-15         0.29337E-19         0.00000E+00
    0.22643E-15         0.27940E-19         0.00000E+00
    0.22643E-15         0.23283E-21         0.00000E+00
    0.22643E-15        -0.60536E-20         0.00000E+00
    0.22643E-15        -0.14901E-19         0.00000E+00
    0.22643E-15        -0.26077E-19         0.00000E+00
    0.22643E-15        -0.19092E-19         0.00000E+00
    0.22643E-15        -0.11642E-19         0.00000E+00
    0.22643E-15        -0.58208E-20         0.00000E+00
    0.22643E-15         0.79162E-20         0.00000E+00
    0.22643E-15         0.24214E-19         0.00000E+00
    0.22642E-15         0.16764E-19         0.00000E+00
    0.22642E-15         0.13970E-20         0.00000E+00
    0.22641E-15        -0.88476E-20         0.00000E+00
    0.22641E-15        -0.32596E-20         0.00000E+00
    0.22641E-15        -0.41910E-20         0.00000E+00
    0.22641E-15         0.30268E-20         0.00000E+00
    0.22641E-15         0.88476E-20         0.00000E+00
    0.22641E-15         0.00000E+00         0.00000E+00
    0.22641E-15         0.51223E-20         0.00000E+00
    0.22642E-15         0.18626E-20         0.00000E+00
    0.22642E-15        -0.55879E-20         0.00000E+00
    0.22642E-15        -0.79162E-20         0.00000E+00
    0.22643E-15        -0.22817E-19         0.00000E+00
    0.22643E-15        -0.79162E-20         0.00000E+00
    0.22642E-15        -0.27008E-19         0.00000E+00
    0.22642E-15        -0.17229E-19         0.00000E+00
    0.22642E-15        -0.19558E-19         0.00000E+00
    0.22642E-15        -0.11642E-19         0.00000E+00
    0.22642E-15        -0.37253E-20         0.00000E+00
    0.22642E-15        -0.46566E-20         0.00000E+00
    0.22642E-15         0.88476E-20         0.00000E+00
    0.22642E-15         0.20955E-20         0.00000E+00
    0.15184E-14         0.18626E-20         0.00000E+00
    0.15184E-14         0.37253E-20         0.00000E+00
    0.15184E-14         0.27940E-20         0.00000E+00
    0.15184E-14         0.10710E-19         0.00000E+00
    0.15184E-14         0.60536E-20         0.00000E+00
    0.15184E-14        -0.10710E-19         0.00000E+00
    0.15184E-14        -0.16764E-19         0.00000E+00
    0.15184E-14        -0.13504E-19         0.00000E+00
    0.15184E-14        -0.27474E-19         0.00000E+00
    0.15184E-14        -0.14901E-19         0.00000E+00
    0.15184E-14        -0.26776E-19         0.00000E+00
    0.15184E-14        -0.93132E-21         0.00000E+00
    0.15184E-14        -0.11409E-19         0.00000E+00
    0.15184E-14         0.93132E-20         0.00000E+00
    0.15184E-14         0.69849E-20         0.00000E+00
    0.15184E-14         0.18626E-19         0.00000E+00
    0.15184E-14         0.16997E-19         0.00000E+00
    0.15184E-14         0.23283E-19         0.00000E+00
    0.15184E-14         0.16298E-19         0.00000E+00
    0.15184E-14        -0.30268E-20         0.00000E+00
    0.15184E-14         0.23283E-20         0.00000E+00
    0.15184E-14        -0.12107E-19         0.00000E+00
    0.15184E-14        -0.28871E-19         0.00000E+00
    0.15184E-14        -0.20256E-19         0.00000E+00
    0.15184E-14        -0.10943E-19         0.00000E+00
    0.15184E-14        -0.97789E-20         0.00000E+00
    0.15184E-14         0.12573E-19         0.00000E+00
    0.15184E-14         0.34226E-19         0.00000E+00
    0.15184E-14         0.33062E-19         0.00000E+00
    0.15184E-14         0.41910E-20         0.00000E+00
    0.15184E-14        -0.83819E-20         0.00000E+00
    0.15184E-14        -0.34925E-20         0.00000E+00
    0.15184E-14        -0.37253E-20         0.00000E+00
    0.15184E-14        -0.23283E-20         0.00000E+00
    0.15184E-14         0.79162E-20         0.00000E+00
    0.15184E-14         0.46566E-20         0.00000E+00
    0.15184E-14        -0.93132E-21         0.00000E+00
    0.15184E-14        -0.93132E-20         0.00000E+00
    0.15184E-14        -0.55879E-20         0.00000E+00
    0.15184E-14        -0.11642E-19         0.00000E+00
    0.15184E-14        -0.27008E-19         0.00000E+00
    0.15184E-14        -0.60536E-20         0.00000E+00
    0.15184E-14        -0.22352E-19         0.00000E+00
    0.15184E-14        -0.15832E-19         0.00000E+00
    0.15184E-14        -0.18626E-19         0.00000E+00
    0.15184E-14        -0.97789E-20         0.00000E+00
    0.15184E-14        -0.51223E-20         0.00000E+00
    0.15184E-14        -0.41910E-20         0.00000E+00
    0.15184E-14         0.44238E-20         0.00000E+00
    0.15184E-14         0.34925E-20         0.00000E+00
    0.10069E-13         0.23283E-20         0.00000E+00
    0.10069E-13         0.93132E-20         0.00000E+00
    0.10069E-13        -0.46566E-20         0.00000E+00
    0.10069E-13         0.93132E-20         0.00000E+00
    0.10069E-13         0.13970E-20         0.00000E+00
    0.10069E-13        -0.10710E-19         0.00000E+00
    0.10069E-13        -0.14435E-19         0.00000E+00
    0.10069E-13        -0.19558E-19         0.00000E+00
    0.10069E-13        -0.26310E-19         0.00000E+00
    0.10069E-13        -0.16298E-19         0.00000E+00
    0.10069E-13        -0.15832E-19         0.00000E+00
    0.10069E-13        -0.79162E-20         0.00000E+00
    0.10069E-13        -0.74506E-20         0.00000E+00
    0.10069E-13         0.93132E-20         0.00000E+00
    0.10069E-13         0.97789E-20         0.00000E+00
    0.10069E-13         0.10012E-19         0.00000E+00
    0.10069E-13         0.16764E-19         0.00000E+00
    0.10069E-13         0.23749E-19         0.00000E+00
    0.10069E-13         0.55879E-20         0.00000E+00
    0.10069E-13        -0.30268E-20         0.00000E+00
    0.10069E-13        -0.97789E-20         0.00000E+00
    0.10069E-13        -0.11176E-19         0.00000E+00
    0.10069E-13        -0.29802E-19         0.00000E+00
    0.10069E-13        -0.13970E-19         0.00000E+00
    0.10069E-13        -0.86147E-20         0.00000E+00
    0.10069E-13        -0.48894E-20         0.00000E+00
    0.10069E-13         0.97789E-20         0.00000E+00
    0.10069E-13         0.20722E-19         0.00000E+00
    0.10069E-13         0.10710E-19         0.00000E+00
    0.10069E-13         0.69849E-21         0.00000E+00
    0.10069E-13        -0.37253E-20         0.00000E+00
    0.10069E-13         0.60536E-20         0.00000E+00
    0.10069E-13         0.53551E-20         0.00000E+00
    0.10069E-13        -0.48894E-20         0.00000E+00
    0.10069E-13         0.88476E-20         0.00000E+00
    0.10069E-13         0.69849E-20         0.00000E+00
    0.10069E-13        -0.37253E-20         0.00000E+00
    0.10069E-13         0.46566E-21         0.00000E+00
    0.10069E-13         0.13970E-20         0.00000E+00
    0.10069E-13        -0.17695E-19         0.00000E+00
    0.10069E-13        -0.23516E-19         0.00000E+00
    0.10069E-13        -0.74506E-20         0.00000E+00
    0.10069E-13        -0.22585E-19         0.00000E+00
    0.10069E-13        -0.17229E-19         0.00000E+00
    0.10069E-13        -0.13039E-19         0.00000E+00
    0.10069E-13        -0.10710E-19         0.00000E+00
    0.10069E-13        -0.46566E-21         0.00000E+00
    0.10069E-13        -0.10710E-19         0.00000E+00
    0.10069E-13        -0.46566E-20         0.00000E+00
    0.10069E-13         0.46566E-21         0.00000E+00
    0.65915E-13         0.46566E-20         0.00000E+00
    0.65915E-13         0.13970E-19         0.00000E+00
    0.65915E-13         0.18626E-20         0.00000E+00
    0.65915E-13         0.69849E-20         0.00000E+00
    0.65915E-13        -0.67521E-20         0.00000E+00
    0.65915E-13        -0.90804E-20         0.00000E+00
    0.65915E-13        -0.14901E-19         0.00000E+00
    0.65915E-13        -0.16764E-19         0.00000E+00
    0.65915E-13        -0.19791E-19         0.00000E+00
    0.65915E-13        -0.14901E-19         0.00000E+00
    0.65915E-13        -0.12107E-19         0.00000E+00
    0.65915E-13        -0.53551E-20         0.00000E+00
    0.65915E-13        -0.83819E-20         0.00000E+00
    0.65915E-13         0.46566E-21         0.00000E+00
    0.65915E-13        -0.51223E-20         0.00000E+00
    0.65915E-13         0.25611E-20         0.00000E+00
    0.65915E-13         0.74506E-20         0.00000E+00
    0.65915E-13         0.15832E-19         0.00000E+00
    0.65915E-13         0.12107E-19         0.00000E+00
    0.65915E-13         0.13970E-20         0.00000E+00
    0.65915E-13        -0.14435E-19         0.00000E+00
    0.65915E-13        -0.10245E-19         0.00000E+00
    0.65915E-13        -0.17229E-19         0.00000E+00
    0.65915E-13        -0.55879E-20         0.00000E+00
    0.65915E-13        -0.18626E-20         0.00000E+00
    0.65915E-13        -0.67521E-20         0.00000E+00
    0.65915E-13         0.12573E-19         0.00000E+00
    0.65915E-13         0.21886E-19         0.00000E+00
    0.65915E-13        -0.11642E-20         0.00000E+00
    0.65915E-13        -0.34925E-20         0.00000E+00
    0.65915E-13        -0.51223E-20         0.00000E+00
    0.65915E-13         0.16764E-19         0.00000E+00
    0.65915E-13         0.11874E-19         0.00000E+00
    0.65915E-13        -0.20955E-20         0.00000E+00
    0.65915E-13         0.11176E-19         0.00000E+00
    0.65915E-13         0.48894E-20         0.00000E+00
    0.65915E-13         0.25611E-20         0.00000E+00
    0.65915E-13        -0.46566E-20         0.00000E+00
    0.65915E-13        -0.13970E-20         0.00000E+00
    0.65915E-13        -0.14435E-19         0.00000E+00
    0.65915E-13        -0.15832E-19         0.00000E+00
    0.65915E-13        -0.10710E-19         0.00000E+00
    0.65915E-13        -0.14435E-19         0.00000E+00
    0.65915E-13        -0.20023E-19         0.00000E+00
    0.65915E-13        -0.19092E-19         0.00000E+00
    0.65915E-13        -0.41910E-20         0.00000E+00
    0.65915E-13         0.12573E-19         0.00000E+00
    0.65915E-13        -0.14668E-19         0.00000E+00
    0.65915E-13        -0.93132E-21         0.00000E+00
    0.65915E-13        -0.39581E-20         0.00000E+00
    0.42491E-12         0.41910E-20         0.00000E+00
    0.42491E-12         0.37253E-20         0.00000E+00
    0.42491E-12         0.93132E-20         0.00000E+00
    0.42491E-12         0.97789E-20         0.00000E+00
    0.42491E-12        -0.48894E-20         0.00000E+00
    0.42491E-12        -0.16065E-19         0.00000E+00
    0.42491E-12        -0.16298E-19         0.00000E+00
    0.42491E-12        -0.21653E-19         0.00000E+00
    0.42491E-12        -0.27940E-19         0.00000E+00
    0.42491E-12        -0.16764E-19         0.00000E+00
    0.42491E-12        -0.83819E-20         0.00000E+00
    0.42491E-12         0.51223E-20         0.00000E+00
    0.42491E-12        -0.27940E-20         0.00000E+00
    0.42491E-12         0.97789E-20         0.00000E+00
    0.42491E-12        -0.32596E-20         0.00000E+00
    0.42491E-12         0.46566E-20         0.00000E+00
    0.42491E-12         0.93132E-20         0.00000E+00
    0.42491E-12         0.13504E-19         0.00000E+00
    0.42491E-12         0.13504E-19         0.00000E+00
    0.42491E-12         0.60536E-20         0.00000E+00
    0.42491E-12        -0.12573E-19         0.00000E+00
    0.42491E-12        -0.51223E-20         0.00000E+00
    0.42491E-12        -0.17229E-19         0.00000E+00
    0.42491E-12        -0.41910E-20         0.00000E+00
    0.42491E-12        -0.62864E-20         0.00000E+00
    0.42491E-12        -0.11409E-19         0.00000E+00
    0.42491E-12         0.83819E-20         0.00000E+00
    0.42491E-12         0.21886E-19         0.00000E+00
    0.42491E-12         0.46566E-21         0.00000E+00
    0.42491E-12        -0.60536E-20         0.00000E+00
    0.42491E-12        -0.69849E-20         0.00000E+00
    0.42491E-12         0.51223E-20         0.00000E+00
    0.42491E-12         0.83819E-20         0.00000E+00
    0.42491E-12         0.79162E-20         0.00000E+00
    0.42491E-12         0.39581E-20         0.00000E+00
    0.42491E-12        -0.69849E-21         0.00000E+00
    0.42491E-12        -0.23283E-21         0.00000E+00
    0.42491E-12        -0.27940E-20         0.00000E+00
    0.42491E-12         0.23283E-21         0.00000E+00
    0.42491E-12        -0.11409E-19         0.00000E+00
    0.42491E-12        -0.17695E-19         0.00000E+00
    0.42491E-12        -0.20256E-19         0.00000E+00
    0.42491E-12        -0.16065E-19         0.00000E+00
    0.42491E-12        -0.18626E-19         0.00000E+00
    0.42491E-12        -0.16298E-19         0.00000E+00
    0.42491E-12        -0.44238E-20         0.00000E+00
    0.42491E-12         0.60536E-20         0.00000E+00
    0.42491E-12        -0.18626E-20         0.00000E+00
    0.42491E-12        -0.20955E-20         0.00000E+00
    0.42491E-12         0.13970E-20         0.00000E+00
    0.26891E-11         0.79162E-20         0.00000E+00
    0.26891E-11         0.65193E-20         0.00000E+00
    0.26891E-11         0.60536E-20         0.00000E+00
    0.26891E-11         0.23283E-20         0.00000E+00
    0.26891E-11        -0.60536E-20         0.00000E+00
    0.26891E-11        -0.15367E-19         0.00000E+00
    0.26891E-11        -0.15367E-19         0.00000E+00
    0.26891E-11        -0.13970E-19         0.00000E+00
    0.26891E-11        -0.23982E-19         0.00000E+00
    0.26891E-11        -0.13504E-19         0.00000E+00
    0.26891E-11        -0.10710E-19         0.00000E+00
    0.26891E-11         0.14435E-19         0.00000E+00
    0.26891E-11        -0.46566E-21         0.00000E+00
    0.26891E-11         0.11642E-19         0.00000E+00
    0.26891E-11         0.20955E-20         0.00000E+00
    0.26891E-11         0.15367E-19         0.00000E+00
    0.26891E-11         0.16531E-19         0.00000E+00
    0.26891E-11         0.19325E-19         0.00000E+00
    0.26891E-11         0.18626E-19         0.00000E+00
    0.26891E-11         0.93132E-21         0.00000E+00
    0.26891E-11        -0.13504E-19         0.00000E+00
    0.26891E-11        -0.15367E-19         0.00000E+00
    0.26891E-11        -0.32131E-19         0.00000E+00
    0.26891E-11        -0.13039E-19         0.00000E+00
    0.26891E-11        -0.12107E-19         0.00000E+00
    0.26891E-11        -0.10943E-19         0.00000E+00
    0.26891E-11         0.46566E-20         0.00000E+00
    0.26891E-11         0.17229E-19         0.00000E+00
    0.26891E-11        -0.93132E-21         0.00000E+00
    0.26891E-11        -0.51223E-20         0.00000E+00
    0.26891E-11        -0.34925E-20         0.00000E+00
    0.26891E-11         0.86147E-20         0.00000E+00
    0.26891E-11         0.72177E-20         0.00000E+00
    0.26891E-11         0.13970E-19         0.00000E+00
    0.26891E-11         0.41910E-20         0.00000E+00
    0.26891E-11        -0.41910E-20         0.00000E+00
    0.26891E-11        -0.30268E-20         0.00000E+00
    0.26891E-11         0.13970E-20         0.00000E+00
    0.26891E-11        -0.13970E-20         0.00000E+00
    0.26891E-11        -0.10710E-19         0.00000E+00
    0.26891E-11        -0.21420E-19         0.00000E+00
    0.26891E-11        -0.18626E-19         0.00000E+00
    0.26891E-11        -0.24680E-19         0.00000E+00
    0.26891E-11        -0.20955E-19         0.00000E+00
    0.26891E-11        -0.10710E-19         0.00000E+00
    0.26891E-11        -0.69849E-20         0.00000E+00
    0.26891E-11         0.60536E-20         0.00000E+00
    0.26891E-11        -0.51223E-20         0.00000E+00
    0.26891E-11         0.23283E-20         0.00000E+00
    0.26891E-11         0.16298E-20         0.00000E+00
    0.16640E-10         0.97789E-20         0.00000E+00
    0.16640E-10         0.10245E-19         0.00000E+00
    0.16640E-10         0.18626E-20         0.00000E+00
    0.16640E-10         0.23283E-20         0.00000E+00
    0.16640E-10        -0.14668E-19         0.00000E+00
    0.16640E-10        -0.90804E-20         0.00000E+00
    0.16640E-10        -0.14435E-19         0.00000E+00
    0.16640E-10        -0.13039E-19         0.00000E+00
    0.16640E-10        -0.15367E-19         0.00000E+00
    0.16640E-10        -0.23982E-19         0.00000E+00
    0.16640E-10        -0.88476E-20         0.00000E+00
    0.16640E-10         0.51223E-20         0.00000E+00
    0.16640E-10        -0.37253E-20         0.00000E+00
    0.16640E-10         0.14435E-19         0.00000E+00
    0.16640E-10        -0.53551E-20         0.00000E+00
    0.16640E-10         0.21420E-19         0.00000E+00
    0.16640E-10         0.12573E-19         0.00000E+00
    0.16640E-10         0.14901E-19         0.00000E+00
    0.16640E-10         0.14435E-19         0.00000E+00
    0.16640E-10        -0.65193E-20         0.00000E+00
    0.16640E-10        -0.14435E-19         0.00000E+00
    0.16640E-10        -0.18626E-19         0.00000E+00
    0.16640E-10        -0.25611E-19         0.00000E+00
    0.16640E-10        -0.23050E-19         0.00000E+00
    0.16640E-10        -0.46566E-20         0.00000E+00
    0.16640E-10        -0.62864E-20         0.00000E+00
    0.16640E-10         0.72177E-20         0.00000E+00
    0.16640E-10         0.15134E-19         0.00000E+00
    0.16640E-10        -0.46566E-21         0.00000E+00
    0.16640E-10        -0.48894E-20         0.00000E+00
    0.16640E-10        -0.44238E-20         0.00000E+00
    0.16640E-10         0.79162E-20         0.00000E+00
    0.16640E-10         0.83819E-20         0.00000E+00
    0.16640E-10         0.67521E-20         0.00000E+00
    0.16640E-10         0.74506E-20         0.00000E+00
    0.16640E-10        -0.25611E-20         0.00000E+00
    0.16640E-10        -0.46566E-21         0.00000E+00
    0.16640E-10        -0.51223E-20         0.00000E+00
    0.16640E-10        -0.10245E-19         0.00000E+00
    0.16640E-10        -0.13504E-19         0.00000E+00
    0.16640E-10        -0.20023E-19         0.00000E+00
    0.16640E-10        -0.18626E-19         0.00000E+00
    0.16640E-10        -0.20955E-19         0.00000E+00
    0.16640E-10        -0.22817E-19         0.00000E+00
    0.16640E-10        -0.10012E-19         0.00000E+00
    0.16640E-10        -0.69849E-20         0.00000E+00
    0.16640E-10         0.60536E-20         0.00000E+00
    0.16640E-10        -0.27940E-20         0.00000E+00
    0.16640E-10         0.18626E-20         0.00000E+00
    0.16640E-10         0.00000E+00         0.00000E+00
    0.10010E-09         0.60536E-20         0.00000E+00
    0.10010E-09         0.65193E-20         0.00000E+00
    0.10010E-09        -0.30268E-20         0.00000E+00
    0.10010E-09         0.74506E-20         0.00000E+00
    0.10010E-09        -0.93132E-21         0.00000E+00
    0.10010E-09        -0.93132E-20         0.00000E+00
    0.10010E-09        -0.18859E-19         0.00000E+00
    0.10010E-09        -0.11642E-19         0.00000E+00
    0.10010E-09        -0.25611E-19         0.00000E+00
    0.10010E-09        -0.18626E-19         0.00000E+00
    0.10010E-09        -0.13039E-19         0.00000E+00
    0.10010E-09         0.34925E-20         0.00000E+00
    0.10010E-09         0.13970E-20         0.00000E+00
    0.10010E-09         0.16764E-19         0.00000E+00
    0.10010E-09        -0.23283E-21         0.00000E+00
    0.10010E-09         0.13504E-19         0.00000E+00
    0.10010E-09         0.10710E-19         0.00000E+00
    0.10010E-09         0.21886E-19         0.00000E+00
    0.10010E-09         0.13970E-19         0.00000E+00
    0.10010E-09        -0.55879E-20         0.00000E+00
    0.10010E-09        -0.15600E-19         0.00000E+00
    0.10010E-09        -0.14435E-19         0.00000E+00
    0.10010E-09        -0.21886E-19         0.00000E+00
    0.10010E-09        -0.19092E-19         0.00000E+00
    0.10010E-09        -0.93132E-20         0.00000E+00
    0.10010E-09        -0.11176E-19         0.00000E+00
    0.10010E-09         0.23283E-21         0.00000E+00
    0.10010E-09         0.13970E-19         0.00000E+00
    0.10010E-09         0.27940E-20         0.00000E+00
    0.10010E-09        -0.13970E-20         0.00000E+00
    0.10010E-09        -0.23283E-21         0.00000E+00
    0.10010E-09         0.23283E-21         0.00000E+00
    0.10010E-09         0.88476E-20         0.00000E+00
    0.10010E-09        -0.32596E-20         0.00000E+00
    0.10010E-09        -0.44238E-20         0.00000E+00
    0.10010E-09         0.00000E+00         0.00000E+00
    0.10010E-09        -0.51223E-20         0.00000E+00
    0.10010E-09         0.69849E-21         0.00000E+00
    0.10010E-09        -0.65193E-20         0.00000E+00
    0.10010E-09        -0.18161E-19         0.00000E+00
    0.10010E-09        -0.97789E-20         0.00000E+00
    0.10010E-09        -0.60536E-20         0.00000E+00
    0.10010E-09        -0.22352E-19         0.00000E+00
    0.10010E-09        -0.17695E-19         0.00000E+00
    0.10010E-09        -0.79162E-20         0.00000E+00
    0.10010E-09        -0.65193E-20         0.00000E+00
    0.10010E-09         0.10245E-19         0.00000E+00
    0.10010E-09         0.60536E-20         0.00000E+00
    0.10010E-09         0.23283E-20         0.00000E+00
    0.10010E-09         0.23283E-20         0.00000E+00
    0.58079E-09         0.18626E-20         0.00000E+00
    0.58079E-09         0.93132E-20         0.00000E+00
    0.58079E-09        -0.69849E-21         0.00000E+00
    0.58079E-09         0.14435E-19         0.00000E+00
    0.58079E-09        -0.41910E-20         0.00000E+00
    0.58079E-09        -0.95461E-20         0.00000E+00
    0.58079E-09        -0.17229E-19         0.00000E+00
    0.58079E-09        -0.14435E-19         0.00000E+00
    0.58079E-09        -0.33528E-19         0.00000E+00
    0.58079E-09        -0.83819E-20         0.00000E+00
    0.58079E-09        -0.15367E-19         0.00000E+00
    0.58079E-09         0.62864E-20         0.00000E+00
    0.58079E-09         0.65193E-20         0.00000E+00
    0.58079E-09         0.12340E-19         0.00000E+00
    0.58079E-09         0.34925E-20         0.00000E+00
    0.58079E-09         0.16065E-19         0.00000E+00
    0.58079E-09         0.16298E-19         0.00000E+00
    0.58079E-09         0.19558E-19         0.00000E+00
    0.58079E-09         0.10245E-19         0.00000E+00
    0.58079E-09        -0.46566E-21         0.00000E+00
    0.58079E-09        -0.15832E-19         0.00000E+00
    0.58079E-09        -0.21420E-19         0.00000E+00
    0.58079E-09        -0.25611E-19         0.00000E+00
    0.58079E-09        -0.15832E-19         0.00000E+00
    0.58079E-09        -0.14435E-19         0.00000E+00
    0.58079E-09        -0.93132E-20         0.00000E+00
    0.58079E-09         0.93132E-21         0.00000E+00
    0.58079E-09         0.29337E-19         0.00000E+00
    0.58079E-09         0.20023E-19         0.00000E+00
    0.58079E-09         0.93132E-21         0.00000E+00
    0.58079E-09        -0.16997E-19         0.00000E+00
    0.58079E-09         0.25611E-20         0.00000E+00
    0.58079E-09         0.10245E-19         0.00000E+00
    0.58079E-09        -0.95461E-20         0.00000E+00
    0.58079E-09        -0.13970E-20         0.00000E+00
    0.58079E-09        -0.44238E-20         0.00000E+00
    0.58079E-09        -0.69849E-20         0.00000E+00
    0.58079E-09        -0.93132E-20         0.00000E+00
    0.58079E-09        -0.86147E-20         0.00000E+00
    0.58079E-09        -0.20023E-19         0.00000E+00
    0.58079E-09        -0.16065E-19         0.00000E+00
    0.58079E-09        -0.13970E-20         0.00000E+00
    0.58079E-09        -0.17695E-19         0.00000E+00
    0.58079E-09        -0.15367E-19         0.00000E+00
    0.58079E-09        -0.13970E-19         0.00000E+00
    0.58079E-09        -0.93132E-21         0.00000E+00
    0.58079E-09         0.90804E-20         0.00000E+00
    0.58079E-09        -0.37253E-20         0.00000E+00
    0.58079E-09         0.23283E-20         0.00000E+00
    0.58079E-09         0.74506E-20         0.00000E+00
    0.32111E-08         0.32596E-20         0.00000E+00
    0.32111E-08         0.67521E-20         0.00000E+00
    0.32111E-08         0.93132E-20         0.00000E+00
    0.32111E-08         0.97789E-20         0.00000E+00
    0.32111E-08        -0.11176E-19         0.00000E+00
    0.32111E-08        -0.14435E-19         0.00000E+00
    0.32111E-08        -0.19558E-19         0.00000E+00
    0.32111E-08        -0.23050E-19         0.00000E+00
    0.32111E-08        -0.16997E-19         0.00000E+00
    0.32111E-08        -0.15367E-19         0.00000E+00
    0.32111E-08        -0.76834E-20         0.00000E+00
    0.32111E-08        -0.27940E-20         0.00000E+00
    0.32111E-08         0.13970E-20         0.00000E+00
    0.32111E-08         0.69849E-20         0.00000E+00
    0.32111E-08         0.32596E-20         0.00000E+00
    0.32111E-08         0.16764E-19         0.00000E+00
    0.32111E-08         0.21420E-19         0.00000E+00
    0.32111E-08         0.23516E-19         0.00000E+00
    0.32111E-08         0.12573E-19         0.00000E+00
    0.32111E-08        -0.18626E-20         0.00000E+00
    0.32111E-08        -0.19092E-19         0.00000E+00
    0.32111E-08        -0.20489E-19         0.00000E+00
    0.32111E-08        -0.19791E-19         0.00000E+00
    0.32111E-08        -0.14901E-19         0.00000E+00
    0.32111E-08        -0.60536E-20         0.00000E+00
    0.32111E-08        -0.46566E-21         0.00000E+00
    0.32111E-08         0.11642E-19         0.00000E+00
    0.32111E-08         0.25379E-19         0.00000E+00
    0.32111E-08         0.12573E-19         0.00000E+00
    0.32111E-08        -0.34925E-20         0.00000E+00
    0.32111E-08        -0.13039E-19         0.00000E+00
    0.32111E-08         0.27940E-20         0.00000E+00
    0.32111E-08         0.67521E-20         0.00000E+00
    0.32111E-08        -0.13970E-20         0.00000E+00
    0.32111E-08         0.74506E-20         0.00000E+00
    0.32111E-08         0.93132E-21         0.00000E+00
    0.32111E-08        -0.11176E-19         0.00000E+00
    0.32111E-08        -0.20955E-19         0.00000E+00
    0.32111E-08        -0.19791E-19         0.00000E+00
    0.32111E-08        -0.20023E-19         0.00000E+00
    0.32111E-08        -0.20955E-19         0.00000E+00
    0.32111E-08        -0.13504E-19         0.00000E+00
    0.32111E-08        -0.14435E-19         0.00000E+00
    0.32111E-08        -0.27474E-19         0.00000E+00
    0.32111E-08        -0.86147E-20         0.00000E+00
    0.32111E-08         0.13970E-20         0.00000E+00
    0.32111E-08         0.79162E-20         0.00000E+00
    0.32111E-08        -0.69849E-20         0.00000E+00
    0.32111E-08         0.27940E-20         0.00000E+00
    0.32111E-08         0.93132E-21         0.00000E+00
    0.16600E-07         0.23283E-20         0.00000E+00
    0.16600E-07         0.62864E-20         0.00000E+00
    0.16600E-07         0.62864E-20         0.00000E+00
    0.16600E-07         0.93132E-20         0.00000E+00
    0.16600E-07        -0.46566E-20         0.00000E+00
    0.16600E-07        -0.17462E-19         0.00000E+00
    0.16600E-07        -0.32131E-19         0.00000E+00
    0.16600E-07        -0.20023E-19         0.00000E+00
    0.16600E-07        -0.30966E-19         0.00000E+00
    0.16600E-07        -0.16764E-19         0.00000E+00
    0.16600E-07        -0.13504E-19         0.00000E+00
    0.16600E-07         0.93132E-21         0.00000E+00
    0.16600E-07        -0.60536E-20         0.00000E+00
    0.16600E-07         0.10710E-19         0.00000E+00
    0.16600E-07         0.65193E-20         0.00000E+00
    0.16600E-07         0.18394E-19         0.00000E+00
    0.16600E-07         0.15832E-19         0.00000E+00
    0.16600E-07         0.27474E-19         0.00000E+00
    0.16600E-07         0.16764E-19         0.00000E+00
    0.16600E-07         0.23283E-20         0.00000E+00
    0.16600E-07        -0.14435E-19         0.00000E+00
    0.16600E-07        -0.12107E-19         0.00000E+00
    0.16600E-07        -0.24680E-19         0.00000E+00
    0.16600E-07        -0.81491E-20         0.00000E+00
    0.16600E-07        -0.90804E-20         0.00000E+00
    0.16600E-07         0.18626E-20         0.00000E+00
    0.16600E-07         0.83819E-20         0.00000E+00
    0.16600E-07         0.13039E-19         0.00000E+00
    0.16600E-07        -0.18808E-36         0.00000E+00
    0.16600E-07        -0.11642E-19         0.00000E+00
    0.16600E-07        -0.51223E-20         0.00000E+00
    0.16600E-07        -0.41910E-20         0.00000E+00
    0.16600E-07         0.41910E-20         0.00000E+00
    0.16600E-07         0.93132E-21         0.00000E+00
    0.16600E-07         0.41910E-20         0.00000E+00
    0.16600E-07        -0.27940E-20         0.00000E+00
    0.16600E-07        -0.23283E-20         0.00000E+00
    0.16600E-07        -0.93132E-20         0.00000E+00
    0.16600E-07        -0.39581E-20         0.00000E+00
    0.16600E-07        -0.20722E-19         0.00000E+00
    0.16600E-07        -0.27474E-19         0.00000E+00
    0.16600E-07        -0.16531E-19         0.00000E+00
    0.16600E-07        -0.15600E-19         0.00000E+00
    0.16600E-07        -0.17462E-19         0.00000E+00
    0.16600E-07        -0.83819E-20         0.00000E+00
    0.16600E-07        -0.93132E-21         0.00000E+00
    0.16600E-07         0.23283E-20         0.00000E+00
    0.16600E-07        -0.23283E-21         0.00000E+00
    0.16600E-07        -0.93132E-20         0.00000E+00
    0.16600E-07        -0.11642E-20         0.00000E+00
    0.77645E-07         0.97789E-20         0.00000E+00
    0.77645E-07         0.30268E-20         0.00000E+00
    0.77645E-07         0.88476E-20         0.00000E+00
    0.77645E-07        -0.23283E-20         0.00000E+00
    0.77645E-07        -0.93132E-20         0.00000E+00
    0.77645E-07        -0.20955E-19         0.00000E+00
    0.77645E-07        -0.21420E-19         0.00000E+00
    0.77645E-07        -0.26776E-19         0.00000E+00
    0.77645E-07        -0.25611E-19         0.00000E+00
    0.77645E-07        -0.18161E-19         0.00000E+00
    0.77645E-07        -0.12340E-19         0.00000E+00
    0.77645E-07         0.16298E-20         0.00000E+00
    0.77645E-07         0.37253E-20         0.00000E+00
    0.77645E-07         0.11409E-19         0.00000E+00
    0.77645E-07         0.69849E-21         0.00000E+00
    0.77645E-07         0.15832E-19         0.00000E+00
    0.77645E-07         0.13970E-19         0.00000E+00
    0.77645E-07         0.19558E-19         0.00000E+00
    0.77645E-07         0.13970E-19         0.00000E+00
    0.77645E-07        -0.27940E-20         0.00000E+00
    0.77645E-07        -0.10477E-19         0.00000E+00
    0.77645E-07        -0.10710E-19         0.00000E+00
    0.77645E-07        -0.30966E-19         0.00000E+00
    0.77645E-07        -0.22352E-19         0.00000E+00
    0.77645E-07        -0.58208E-20         0.00000E+00
    0.77645E-07         0.46566E-20         0.00000E+00
    0.77645E-07        -0.65193E-20         0.00000E+00
    0.77645E-07         0.16764E-19         0.00000E+00
    0.77645E-07         0.11642E-20         0.00000E+00
    0.77645E-07        -0.51223E-20         0.00000E+00
    0.77645E-07        -0.27940E-20         0.00000E+00
    0.77645E-07        -0.51223E-20         0.00000E+00
    0.77645E-07         0.11176E-19         0.00000E+00
    0.77645E-07        -0.60536E-20         0.00000E+00
    0.77645E-07         0.88476E-20         0.00000E+00
    0.77645E-07         0.00000E+00         0.00000E+00
    0.77645E-07         0.46566E-21         0.00000E+00
    0.77645E-07        -0.46566E-20         0.00000E+00
    0.77645E-07         0.41910E-20         0.00000E+00
    0.77645E-07        -0.15134E-19         0.00000E+00
    0.77645E-07        -0.16065E-19         0.00000E+00
    0.77645E-07        -0.19092E-19         0.00000E+00
    0.77645E-07        -0.21188E-19         0.00000E+00
    0.77645E-07        -0.17462E-19         0.00000E+00
    0.77645E-07        -0.83819E-20         0.00000E+00
    0.77645E-07        -0.46566E-20         0.00000E+00
    0.77645E-07         0.27940E-20         0.00000E+00
    0.77645E-07        -0.25611E-20         0.00000E+00
    0.77645E-07        -0.48894E-20         0.00000E+00
    0.77645E-07         0.18626E-20         0.00000E+00
    0.30868E-06         0.13737E-19         0.00000E+00
    0.30868E-06        -0.65193E-20         0.00000E+00
    0.30868E-06        -0.11176E-19         0.00000E+00
    0.30868E-06         0.88476E-20         0.00000E+00
    0.30868E-06        -0.10012E-19         0.00000E+00
    0.30868E-06        -0.20722E-19         0.00000E+00
    0.30868E-06        -0.20023E-19         0.00000E+00
    0.30868E-06        -0.22119E-19         0.00000E+00
    0.30868E-06        -0.22585E-19         0.00000E+00
    0.30868E-06        -0.11874E-19         0.00000E+00
    0.30868E-06        -0.12573E-19         0.00000E+00
    0.30868E-06         0.53551E-20         0.00000E+00
    0.30868E-06        -0.88476E-20         0.00000E+00
    0.30868E-06         0.93132E-20         0.00000E+00
    0.30868E-06        -0.74506E-20         0.00000E+00
    0.30868E-06         0.72177E-20         0.00000E+00
    0.30868E-06         0.93132E-20         0.00000E+00
    0.30868E-06         0.25146E-19         0.00000E+00
    0.30868E-06         0.10710E-19         0.00000E+00
    0.30868E-06        -0.46566E-21         0.00000E+00
    0.30868E-06        -0.15832E-19         0.00000E+00
    0.30868E-06        -0.12573E-19         0.00000E+00
    0.30868E-06        -0.26543E-19         0.00000E+00
    0.30868E-06        -0.20955E-19         0.00000E+00
    0.30868E-06        -0.65193E-20         0.00000E+00
    0.30868E-06        -0.60536E-20         0.00000E+00
    0.30868E-06         0.65193E-20         0.00000E+00
    0.30868E-06         0.20955E-19         0.00000E+00
    0.30868E-06         0.13970E-20         0.00000E+00
    0.30868E-06         0.55879E-20         0.00000E+00
    0.30868E-06        -0.39581E-20         0.00000E+00
    0.30868E-06         0.17928E-19         0.00000E+00
    0.30868E-06        -0.23283E-21         0.00000E+00
    0.30868E-06         0.11642E-19         0.00000E+00
    0.30868E-06        -0.76834E-20         0.00000E+00
    0.30868E-06         0.00000E+00         0.00000E+00
    0.30868E-06         0.23283E-20         0.00000E+00
    0.30868E-06         0.16298E-20         0.00000E+00
    0.30868E-06        -0.15832E-19         0.00000E+00
    0.30868E-06        -0.18161E-19         0.00000E+00
    0.30868E-06        -0.72177E-20         0.00000E+00
    0.30868E-06        -0.21188E-19         0.00000E+00
    0.30868E-06        -0.19092E-19         0.00000E+00
    0.30868E-06        -0.15367E-19         0.00000E+00
    0.30868E-06        -0.10710E-19         0.00000E+00
    0.30868E-06         0.60536E-20         0.00000E+00
    0.30868E-06        -0.23283E-21         0.00000E+00
    0.30868E-06         0.46566E-21         0.00000E+00
    0.30868E-06         0.34925E-20         0.00000E+00
    0.30868E-06        -0.44238E-20         0.00000E+00
    0.91081E-06        -0.13970E-20         0.00000E+00
    0.91081E-06         0.43074E-20         0.00000E+00
    0.91081E-06        -0.45402E-20         0.00000E+00
    0.91081E-06        -0.74506E-20         0.00000E+00
    0.91081E-06        -0.53551E-20         0.00000E+00
    0.91081E-06         0.20955E-20         0.00000E+00
    0.91081E-06        -0.31316E-19         0.00000E+00
    0.91081E-06        -0.10943E-19         0.00000E+00
    0.91081E-06        -0.30966E-19         0.00000E+00
    0.91081E-06        -0.76834E-20         0.00000E+00
    0.91081E-06        -0.27008E-19         0.00000E+00
    0.91081E-06         0.44238E-20         0.00000E+00
    0.91081E-06        -0.62864E-20         0.00000E+00
    0.91081E-06         0.11176E-19         0.00000E+00
    0.91081E-06        -0.81491E-21         0.00000E+00
    0.91081E-06         0.93132E-20         0.00000E+00
    0.91081E-06         0.13737E-19         0.00000E+00
    0.91081E-06         0.11409E-19         0.00000E+00
    0.91081E-06         0.28871E-19         0.00000E+00
    0.91081E-06        -0.13970E-20         0.00000E+00
    0.91081E-06        -0.16997E-19         0.00000E+00
    0.91081E-06        -0.12340E-19         0.00000E+00
    0.91081E-06        -0.20722E-19         0.00000E+00
    0.91081E-06        -0.48894E-20         0.00000E+00
    0.91081E-06        -0.60536E-20         0.00000E+00
    0.91081E-06        -0.41910E-20         0.00000E+00
    0.91081E-06         0.62864E-20         0.00000E+00
    0.91081E-06         0.19325E-19         0.00000E+00
    0.91081E-06         0.46566E-20         0.00000E+00
    0.91081E-06        -0.34925E-20         0.00000E+00
    0.91081E-06        -0.34925E-20         0.00000E+00
    0.91081E-06         0.17579E-19         0.00000E+00
    0.91081E-06        -0.52387E-20         0.00000E+00
    0.91081E-06        -0.37253E-20         0.00000E+00
    0.91081E-06         0.76834E-20         0.00000E+00
    0.91081E-06         0.00000E+00         0.00000E+00
    0.91081E-06         0.27940E-20         0.00000E+00
    0.91081E-06        -0.16531E-19         0.00000E+00
    0.91081E-06        -0.69849E-21         0.00000E+00
    0.91081E-06        -0.93132E-20         0.00000E+00
    0.91081E-06        -0.21653E-19         0.00000E+00
    0.91081E-06        -0.83819E-20         0.00000E+00
    0.91081E-06         0.93132E-21         0.00000E+00
    0.91081E-06        -0.81491E-20         0.00000E+00
    0.91081E-06        -0.23283E-21         0.00000E+00
    0.91081E-06        -0.39581E-20         0.00000E+00
    0.91081E-06         0.13504E-19         0.00000E+00
    0.91081E-06        -0.88476E-20         0.00000E+00
    0.91081E-06         0.14203E-19         0.00000E+00
    0.91081E-06        -0.13271E-19         0.00000E+00
    0.16823E-05         0.00000E+00         0.00000E+00
    0.16823E-05         0.37253E-20         0.00000E+00
    0.16823E-05         0.93132E-21         0.00000E+00
    0.16823E-05        -0.93132E-21         0.00000E+00
    0.16823E-05         0.00000E+00         0.00000E+00
    0.16823E-05        -0.13970E-20         0.00000E+00
    0.16823E-05         0.34575E-19         0.00000E+00
    0.16823E-05        -0.13039E-19         0.00000E+00
    0.16823E-05        -0.18626E-19         0.00000E+00
    0.16823E-05        -0.55414E-19         0.00000E+00
    0.16823E-05         0.36671E-19         0.00000E+00
    0.16823E-05         0.74506E-20         0.00000E+00
    0.16823E-05         0.93132E-21         0.00000E+00
    0.16823E-05         0.74506E-20         0.00000E+00
    0.16823E-05         0.18626E-20         0.00000E+00
    0.16823E-05         0.93132E-20         0.00000E+00
    0.16823E-05         0.83819E-20         0.00000E+00
    0.16823E-05         0.55414E-19         0.00000E+00
    0.16823E-05        -0.36554E-19         0.00000E+00
    0.16823E-05        -0.69849E-20         0.00000E+00
    0.16823E-05        -0.55879E-20         0.00000E+00
    0.16823E-05        -0.60536E-20         0.00000E+00
    0.16823E-05        -0.93132E-20         0.00000E+00
    0.16823E-05        -0.55879E-20         0.00000E+00
    0.16823E-05        -0.13970E-20         0.00000E+00
    0.16823E-05        -0.18626E-20         0.00000E+00
    0.16823E-05         0.37253E-20         0.00000E+00
    0.16823E-05         0.69849E-20         0.00000E+00
    0.16823E-05         0.00000E+00         0.00000E+00
    0.16823E-05        -0.32596E-20         0.00000E+00
    0.16823E-05        -0.37253E-20         0.00000E+00
    0.16823E-05        -0.39930E-19         0.00000E+00
    0.16823E-05         0.45984E-19         0.00000E+00
    0.16823E-05         0.13970E-20         0.00000E+00
    0.16823E-05         0.37253E-20         0.00000E+00
    0.16823E-05         0.00000E+00         0.00000E+00
    0.16823E-05         0.00000E+00         0.00000E+00
    0.16823E-05        -0.55879E-20         0.00000E+00
    0.16823E-05        -0.46566E-20         0.00000E+00
    0.16823E-05        -0.55064E-19         0.00000E+00
    0.16823E-05        -0.69849E-20         0.00000E+00
    0.16823E-05         0.47497E-19         0.00000E+00
    0.16823E-05         0.37253E-20         0.00000E+00
    0.16823E-05         0.00000E+00         0.00000E+00
    0.16823E-05         0.00000E+00         0.00000E+00
    0.16823E-05         0.41910E-20         0.00000E+00
    0.16823E-05         0.69849E-20         0.00000E+00
    0.16823E-05         0.47730E-19         0.00000E+00
    0.16823E-05        -0.36322E-19         0.00000E+00
    0.16823E-05         0.51456E-19         0.00000E+00
POINT_DATA       5151
VECTORS vDarcyNodal double 
    0.11216E-05         0.00000E+00         0.00000E+00
    0.11216E-05         0.00000E+00         0.00000E+00
    0.11216E-05         0.00000E+00         0.00000E+00
    0.11216E-05         0.00000E+00         0.00000E+00
    0.11216E-05         0.00000E+00         0.00000E+00
    0.11216E-05         0.00000E+00         0.00000E+00
    0.11216E-05         0.00000E+00         0.00000E+00
    0.11216E-05         0.00000E+00         0.00000E+00
    0.11216E-05         0.00000E+00         0.00000E+00
    0.11216E-05         0.00000E+00         0.00000E+00
    0.11216E-05         0.00000E+00         0.00000E+00
    0.11216E-05         0.00000E+00         0.00000E+00
    0.11216E-05         0.00000E+00         0.00000E+00
    0.11216E-05         0.00000E+00         0.00000E+00
    0.11216E-05         0.00000E+00         0.00000E+00
    0.11216E-05         0.00000E+00         0.00000E+00
    0.11216E-05         0.00000E+00         0.00000E+00
    0.11216E-05         0.00000E+00         0.00000E+00
    0.11216E-05         0.00000E+00         0.00000E+00
    0.11216E-05         0.00000E+00         0.00000E+00
    0.11216E-05         0.00000E+00         0.00000E+00
    0.11216E-05         0.00000E+00         0.00000E+00
    0.11216E-05         0.00000E+00         0.00000E+00
    0.11216E-05         0.00000E+00         0.00000E+00
    0.11216E-05         0.00000E+00         0.00000E+00
    0.11216E-05         0.00000E+00         0.00000E+00
    0.11216E-05         0.00000E+00         0.00000E+00
    0.11216E-05         0.00000E+00         0.00000E+00
    0.11216E-05         0.00000E+00         0.00000E+00
    0.11216E-05         0.00000E+00         0.00000E+00
    0.11216E-05         0.00000E+00         0.00000E+00
    0.11216E-05         0.00000E+00         0.00000E+00
    0.11216E-05         0.00000E+00         0.00000E+00
    0.11216E-05         0.00000E+00         0.00000E+00
    0.11216E-05         0.00000E+00         0.00000E+00
    0.11216E-05         0.00000E+00         0.00000E+00
    0.11216E-05         0.00000E+00         0.00000E+00
    0.11216E-05         0.00000E+00         0.00000E+00
    0.11216E-05         0.00000E+00         0.00000E+00
    0.11216E-05         0.00000E+00         0.00000E+00
    0.11216E-05         0.00000E+00         0.00000E+00
    0.11216E-05         0.00000E+00         0.00000E+00
    0.11216E-05         0.00000E+00         0.00000E+00
    0.11216E-05         0.00000E+00         0.00000E+00
    0.11216E-05         0.00000E+00         0.00000E+00
    0.11216E-05         0.00000E+00         0.00000E+00
    0.11216E-05         0.00000E+00         0.00000E+00
    0.11216E-05         0.00000E+00         0.00000E+00
    0.11216E-05         0.00000E+00         0.00000E+00
    0.11216E-05         0.00000E+00         0.00000E+00
    0.11216E-05         0.00000E+00         0.00000E+00
    0.86439E-06         0.00000E+00         0.00000E+00
    0.86439E-06        -0.37253E-20         0.00000E+00
    0.86439E-06        -0.37253E-20         0.00000E+00
    0.86439E-06         0.30331E-20         0.00000E+00
    0.86439E-06         0.74506E-20         0.00000E+00
    0.86439E-06         0.69723E-20         0.00000E+00
    0.86439E-06        -0.18626E-20         0.00000E+00
    0.86439E-06        -0.62801E-20         0.00000E+00
    0.86439E-06        -0.55879E-20         0.00000E+00
    0.86439E-06        -0.37253E-20         0.00000E+00
    0.86439E-06        -0.37253E-20         0.00000E+00
    0.86439E-06        -0.62801E-20         0.00000E+00
    0.86439E-06        -0.11176E-19         0.00000E+00
    0.86439E-06        -0.55879E-20         0.00000E+00
    0.86439E-06         0.37253E-20         0.00000E+00
    0.86439E-06        -0.30331E-20         0.00000E+00
    0.86439E-06        -0.37253E-20         0.00000E+00
    0.86439E-06         0.37253E-20         0.00000E+00
    0.86439E-06         0.37253E-20         0.00000E+00
    0.86439E-06         0.00000E+00         0.00000E+00
    0.86439E-06         0.18626E-20         0.00000E+00
    0.86439E-06         0.55879E-20         0.00000E+00
    0.86439E-06         0.93132E-20         0.00000E+00
    0.86439E-06         0.48957E-20         0.00000E+00
    0.86439E-06        -0.11704E-20         0.00000E+00
    0.86439E-06        -0.27940E-20         0.00000E+00
    0.86439E-06        -0.16235E-20         0.00000E+00
    0.86439E-06         0.69220E-21         0.00000E+00
    0.86439E-06         0.00000E+00         0.00000E+00
    0.86439E-06         0.00000E+00         0.00000E+00
    0.86439E-06        -0.18626E-20         0.00000E+00
    0.86439E-06         0.74506E-20         0.00000E+00
    0.86439E-06         0.93132E-20         0.00000E+00
    0.86439E-06         0.93132E-20         0.00000E+00
    0.86439E-06         0.93132E-20         0.00000E+00
    0.86439E-06         0.55879E-20         0.00000E+00
    0.86439E-06         0.18626E-20         0.00000E+00
    0.86439E-06        -0.37253E-20         0.00000E+00
    0.86439E-06        -0.55879E-20         0.00000E+00
    0.86439E-06        -0.37253E-20         0.00000E+00
    0.86439E-06         0.25548E-20         0.00000E+00
    0.86439E-06         0.37253E-20         0.00000E+00
    0.86439E-06         0.11704E-20         0.00000E+00
    0.86439E-06         0.69220E-21         0.00000E+00
    0.86439E-06         0.23912E-21         0.00000E+00
    0.86439E-06        -0.45307E-21         0.00000E+00
    0.86439E-06         0.16235E-20         0.00000E+00
    0.86439E-06        -0.23912E-21         0.00000E+00
    0.86439E-06        -0.37253E-20         0.00000E+00
    0.86439E-06        -0.30331E-20         0.00000E+00
    0.86439E-06         0.13844E-20         0.00000E+00
    0.40650E-06         0.11176E-19         0.00000E+00
    0.40650E-06         0.13039E-19         0.00000E+00
    0.40650E-06         0.00000E+00         0.00000E+00
    0.40650E-06        -0.15446E-19         0.00000E+00
    0.40650E-06        -0.10245E-19         0.00000E+00
    0.40650E-06        -0.10087E-19         0.00000E+00
    0.40650E-06        -0.74506E-20         0.00000E+00
    0.40650E-06        -0.70637E-20         0.00000E+00
    0.40650E-06         0.00000E+00         0.00000E+00
    0.40650E-06        -0.74506E-20         0.00000E+00
    0.40650E-06        -0.11176E-19         0.00000E+00
    0.40650E-06         0.38686E-21         0.00000E+00
    0.40650E-06         0.11176E-19         0.00000E+00
    0.40650E-06         0.74506E-20         0.00000E+00
    0.40650E-06         0.93132E-21         0.00000E+00
    0.40650E-06         0.42698E-20         0.00000E+00
    0.40650E-06         0.37253E-20         0.00000E+00
    0.40650E-06         0.37253E-20         0.00000E+00
    0.40650E-06         0.37253E-20         0.00000E+00
    0.40650E-06         0.93132E-20         0.00000E+00
    0.40650E-06         0.74506E-20         0.00000E+00
    0.40650E-06        -0.11176E-19         0.00000E+00
    0.40650E-06        -0.26077E-19         0.00000E+00
    0.40650E-06        -0.21965E-19         0.00000E+00
    0.40650E-06        -0.97001E-20         0.00000E+00
    0.40650E-06        -0.37253E-20         0.00000E+00
    0.40650E-06        -0.89264E-20         0.00000E+00
    0.40650E-06        -0.78374E-20         0.00000E+00
    0.40650E-06        -0.55879E-20         0.00000E+00
    0.40650E-06         0.93132E-20         0.00000E+00
    0.40650E-06         0.20489E-19         0.00000E+00
    0.40650E-06         0.16764E-19         0.00000E+00
    0.40650E-06         0.18626E-19         0.00000E+00
    0.40650E-06         0.55879E-20         0.00000E+00
    0.40650E-06        -0.37253E-20         0.00000E+00
    0.40650E-06        -0.18626E-20         0.00000E+00
    0.40650E-06        -0.18626E-20         0.00000E+00
    0.40650E-06         0.55879E-20         0.00000E+00
    0.40650E-06         0.14901E-19         0.00000E+00
    0.40650E-06         0.11176E-19         0.00000E+00
    0.40650E-06         0.52011E-20         0.00000E+00
    0.40650E-06         0.55879E-20         0.00000E+00
    0.40650E-06        -0.89264E-20         0.00000E+00
    0.40650E-06        -0.13425E-19         0.00000E+00
    0.40650E-06        -0.17308E-19         0.00000E+00
    0.40650E-06        -0.16921E-19         0.00000E+00
    0.40650E-06        -0.41122E-20         0.00000E+00
    0.40650E-06        -0.41122E-20         0.00000E+00
    0.40650E-06        -0.37253E-20         0.00000E+00
    0.40650E-06        -0.22495E-20         0.00000E+00
    0.40650E-06        -0.82243E-20         0.00000E+00
    0.12878E-06        -0.14901E-19         0.00000E+00
    0.12878E-06        -0.16400E-19         0.00000E+00
    0.12878E-06        -0.11176E-19         0.00000E+00
    0.12878E-06        -0.22265E-20         0.00000E+00
    0.12878E-06        -0.55879E-20         0.00000E+00
    0.12878E-06        -0.12675E-19         0.00000E+00
    0.12878E-06        -0.20489E-19         0.00000E+00
    0.12878E-06        -0.11176E-19         0.00000E+00
    0.12878E-06         0.14901E-19         0.00000E+00
    0.12878E-06         0.31665E-19         0.00000E+00
    0.12878E-06         0.37617E-19         0.00000E+00
    0.12878E-06         0.14537E-19         0.00000E+00
    0.12878E-06        -0.80180E-20         0.00000E+00
    0.12878E-06        -0.56745E-21         0.00000E+00
    0.12878E-06         0.11349E-20         0.00000E+00
    0.12878E-06        -0.40892E-20         0.00000E+00
    0.12878E-06        -0.18626E-20         0.00000E+00
    0.12878E-06         0.61554E-20         0.00000E+00
    0.12878E-06         0.10245E-19         0.00000E+00
    0.12878E-06         0.78145E-20         0.00000E+00
    0.12878E-06         0.36387E-21         0.00000E+00
    0.12878E-06        -0.52241E-20         0.00000E+00
    0.12878E-06        -0.50205E-20         0.00000E+00
    0.12878E-06        -0.74506E-20         0.00000E+00
    0.12878E-06        -0.13970E-19         0.00000E+00
    0.12878E-06        -0.74506E-20         0.00000E+00
    0.12878E-06         0.65193E-20         0.00000E+00
    0.12878E-06         0.65193E-20         0.00000E+00
    0.12878E-06         0.17128E-19         0.00000E+00
    0.12878E-06         0.21988E-19         0.00000E+00
    0.12878E-06         0.10812E-19         0.00000E+00
    0.12878E-06         0.59518E-20         0.00000E+00
    0.12878E-06         0.46566E-20         0.00000E+00
    0.12878E-06         0.56745E-21         0.00000E+00
    0.12878E-06         0.55879E-20         0.00000E+00
    0.12878E-06        -0.55879E-20         0.00000E+00
    0.12878E-06        -0.24782E-19         0.00000E+00
    0.12878E-06        -0.26077E-19         0.00000E+00
    0.12878E-06        -0.19558E-19         0.00000E+00
    0.12878E-06        -0.16400E-19         0.00000E+00
    0.12878E-06        -0.68831E-20         0.00000E+00
    0.12878E-06         0.56745E-21         0.00000E+00
    0.12878E-06         0.55879E-20         0.00000E+00
    0.12878E-06        -0.18626E-20         0.00000E+00
    0.12878E-06        -0.55879E-20         0.00000E+00
    0.12878E-06         0.50205E-20         0.00000E+00
    0.12878E-06         0.11176E-19         0.00000E+00
    0.12878E-06         0.12107E-19         0.00000E+00
    0.12878E-06         0.65193E-20         0.00000E+00
    0.12878E-06         0.24301E-20         0.00000E+00
    0.12878E-06         0.37253E-20         0.00000E+00
    0.31415E-07         0.74506E-20         0.00000E+00
    0.31415E-07         0.37253E-20         0.00000E+00
    0.31415E-07        -0.74506E-20         0.00000E+00
    0.31415E-07        -0.67327E-20         0.00000E+00
    0.31415E-07         0.27940E-20         0.00000E+00
    0.31415E-07         0.97400E-20         0.00000E+00
    0.31415E-07         0.19558E-19         0.00000E+00
    0.31415E-07         0.17482E-19         0.00000E+00
    0.31415E-07         0.18626E-20         0.00000E+00
    0.31415E-07        -0.74506E-20         0.00000E+00
    0.31415E-07        -0.74506E-20         0.00000E+00
    0.31415E-07         0.35119E-20         0.00000E+00
    0.31415E-07         0.17695E-19         0.00000E+00
    0.31415E-07         0.21420E-19         0.00000E+00
    0.31415E-07         0.15832E-19         0.00000E+00
    0.31415E-07         0.85953E-20         0.00000E+00
    0.31415E-07         0.00000E+00         0.00000E+00
    0.31415E-07         0.00000E+00         0.00000E+00
    0.31415E-07        -0.55879E-20         0.00000E+00
    0.31415E-07        -0.74506E-20         0.00000E+00
    0.31415E-07        -0.93132E-20         0.00000E+00
    0.31415E-07        -0.74506E-20         0.00000E+00
    0.31415E-07         0.37253E-20         0.00000E+00
    0.31415E-07        -0.39387E-20         0.00000E+00
    0.31415E-07         0.48700E-20         0.00000E+00
    0.31415E-07         0.17695E-19         0.00000E+00
    0.31415E-07         0.12825E-19         0.00000E+00
    0.31415E-07         0.39387E-20         0.00000E+00
    0.31415E-07        -0.74506E-20         0.00000E+00
    0.31415E-07        -0.13039E-19         0.00000E+00
    0.31415E-07         0.18626E-20         0.00000E+00
    0.31415E-07         0.13039E-19         0.00000E+00
    0.31415E-07         0.74506E-20         0.00000E+00
    0.31415E-07        -0.74506E-20         0.00000E+00
    0.31415E-07        -0.11176E-19         0.00000E+00
    0.31415E-07        -0.37253E-20         0.00000E+00
    0.31415E-07         0.00000E+00         0.00000E+00
    0.31415E-07         0.74506E-20         0.00000E+00
    0.31415E-07         0.11176E-19         0.00000E+00
    0.31415E-07         0.37253E-20         0.00000E+00
    0.31415E-07        -0.15619E-19         0.00000E+00
    0.31415E-07        -0.93132E-20         0.00000E+00
    0.31415E-07        -0.48700E-20         0.00000E+00
    0.31415E-07         0.21340E-21         0.00000E+00
    0.31415E-07        -0.21340E-21         0.00000E+00
    0.31415E-07        -0.78774E-20         0.00000E+00
    0.31415E-07        -0.11894E-19         0.00000E+00
    0.31415E-07        -0.13756E-19         0.00000E+00
    0.31415E-07         0.00000E+00         0.00000E+00
    0.31415E-07         0.85953E-20         0.00000E+00
    0.31415E-07         0.60147E-20         0.00000E+00
    0.66036E-08        -0.74506E-20         0.00000E+00
    0.66036E-08        -0.74506E-20         0.00000E+00
    0.66036E-08         0.58032E-20         0.00000E+00
    0.66036E-08         0.16764E-19         0.00000E+00
    0.66036E-08         0.90979E-20         0.00000E+00
    0.66036E-08         0.55879E-20         0.00000E+00
    0.66036E-08         0.00000E+00         0.00000E+00
    0.66036E-08        -0.55879E-20         0.00000E+00
    0.66036E-08        -0.11176E-19         0.00000E+00
    0.66036E-08        -0.37253E-20         0.00000E+00
    0.66036E-08         0.12322E-19         0.00000E+00
    0.66036E-08        -0.37253E-20         0.00000E+00
    0.66036E-08        -0.67346E-20         0.00000E+00
    0.66036E-08         0.93132E-20         0.00000E+00
    0.66036E-08         0.14901E-19         0.00000E+00
    0.66036E-08         0.18626E-19         0.00000E+00
    0.66036E-08         0.18626E-19         0.00000E+00
    0.66036E-08         0.55879E-20         0.00000E+00
    0.66036E-08         0.37253E-20         0.00000E+00
    0.66036E-08         0.55879E-20         0.00000E+00
    0.66036E-08         0.37253E-20         0.00000E+00
    0.66036E-08         0.37253E-20         0.00000E+00
    0.66036E-08         0.00000E+00         0.00000E+00
    0.66036E-08         0.18626E-20         0.00000E+00
    0.66036E-08         0.37253E-20         0.00000E+00
    0.66036E-08         0.37253E-20         0.00000E+00
    0.66036E-08         0.00000E+00         0.00000E+00
    0.66036E-08        -0.74506E-20         0.00000E+00
    0.66036E-08        -0.74506E-20         0.00000E+00
    0.66036E-08         0.37253E-20         0.00000E+00
    0.66036E-08         0.93132E-20         0.00000E+00
    0.66036E-08        -0.37253E-20         0.00000E+00
    0.66036E-08        -0.11176E-19         0.00000E+00
    0.66036E-08        -0.18626E-20         0.00000E+00
    0.66036E-08        -0.18626E-20         0.00000E+00
    0.66036E-08        -0.93132E-20         0.00000E+00
    0.66036E-08         0.67346E-20         0.00000E+00
    0.66036E-08         0.17910E-19         0.00000E+00
    0.66036E-08         0.90979E-20         0.00000E+00
    0.66036E-08         0.35100E-20         0.00000E+00
    0.66036E-08         0.74506E-20         0.00000E+00
    0.66036E-08        -0.74506E-20         0.00000E+00
    0.66036E-08        -0.29802E-19         0.00000E+00
    0.66036E-08        -0.33528E-19         0.00000E+00
    0.66036E-08        -0.21205E-19         0.00000E+00
    0.66036E-08        -0.44413E-20         0.00000E+00
    0.66036E-08        -0.48719E-20         0.00000E+00
    0.66036E-08        -0.12322E-19         0.00000E+00
    0.66036E-08        -0.16764E-19         0.00000E+00
    0.66036E-08        -0.10029E-19         0.00000E+00
    0.66036E-08        -0.14320E-20         0.00000E+00
    0.12640E-08         0.37253E-20         0.00000E+00
    0.12640E-08         0.44410E-20         0.00000E+00
    0.12640E-08         0.55879E-20         0.00000E+00
    0.12640E-08         0.30096E-20         0.00000E+00
    0.12640E-08         0.74506E-20         0.00000E+00
    0.12640E-08        -0.76662E-20         0.00000E+00
    0.12640E-08        -0.11176E-19         0.00000E+00
    0.12640E-08        -0.74506E-20         0.00000E+00
    0.12640E-08        -0.74506E-20         0.00000E+00
    0.12640E-08        -0.46566E-20         0.00000E+00
    0.12640E-08        -0.30096E-20         0.00000E+00
    0.12640E-08         0.39409E-20         0.00000E+00
    0.12640E-08         0.63036E-20         0.00000E+00
    0.12640E-08         0.90976E-20         0.00000E+00
    0.12640E-08         0.10676E-19         0.00000E+00
    0.12640E-08         0.11392E-19         0.00000E+00
    0.12640E-08         0.11176E-19         0.00000E+00
    0.12640E-08         0.16048E-19         0.00000E+00
    0.12640E-08         0.18626E-20         0.00000E+00
    0.12640E-08        -0.30096E-20         0.00000E+00
    0.12640E-08        -0.76662E-20         0.00000E+00
    0.12640E-08        -0.95289E-20         0.00000E+00
    0.12640E-08        -0.71567E-21         0.00000E+00
    0.12640E-08        -0.65193E-20         0.00000E+00
    0.12640E-08        -0.46566E-20         0.00000E+00
    0.12640E-08         0.11176E-19         0.00000E+00
    0.12640E-08         0.12107E-19         0.00000E+00
    0.12640E-08         0.12107E-19         0.00000E+00
    0.12640E-08         0.10029E-19         0.00000E+00
    0.12640E-08        -0.71567E-21         0.00000E+00
    0.12640E-08        -0.63036E-20         0.00000E+00
    0.12640E-08        -0.11470E-20         0.00000E+00
    0.12640E-08         0.10245E-19         0.00000E+00
    0.12640E-08         0.13254E-19         0.00000E+00
    0.12640E-08        -0.18626E-20         0.00000E+00
    0.12640E-08        -0.14901E-19         0.00000E+00
    0.12640E-08        -0.14185E-19         0.00000E+00
    0.12640E-08        -0.16764E-19         0.00000E+00
    0.12640E-08        -0.55879E-20         0.00000E+00
    0.12640E-08         0.71567E-21         0.00000E+00
    0.12640E-08        -0.16470E-20         0.00000E+00
    0.12640E-08        -0.16470E-20         0.00000E+00
    0.12640E-08        -0.37253E-20         0.00000E+00
    0.12640E-08        -0.13039E-19         0.00000E+00
    0.12640E-08        -0.22352E-19         0.00000E+00
    0.12640E-08        -0.16048E-19         0.00000E+00
    0.12640E-08        -0.37253E-20         0.00000E+00
    0.12640E-08        -0.55879E-20         0.00000E+00
    0.12640E-08        -0.93132E-20         0.00000E+00
    0.12640E-08         0.48723E-20         0.00000E+00
    0.12640E-08         0.74506E-20         0.00000E+00
    0.22696E-09         0.27255E-20         0.00000E+00
    0.22696E-09        -0.55879E-20         0.00000E+00
    0.22696E-09        -0.69507E-20         0.00000E+00
    0.22696E-09        -0.55879E-20         0.00000E+00
    0.22696E-09        -0.42252E-20         0.00000E+00
    0.22696E-09        -0.98131E-20         0.00000E+00
    0.22696E-09        -0.11607E-19         0.00000E+00
    0.22696E-09        -0.15333E-19         0.00000E+00
    0.22696E-09        -0.24214E-19         0.00000E+00
    0.22696E-09        -0.14901E-19         0.00000E+00
    0.22696E-09        -0.37253E-20         0.00000E+00
    0.22696E-09         0.37253E-20         0.00000E+00
    0.22696E-09         0.13039E-19         0.00000E+00
    0.22696E-09         0.18626E-19         0.00000E+00
    0.22696E-09         0.18626E-19         0.00000E+00
    0.22696E-09         0.93132E-20         0.00000E+00
    0.22696E-09         0.93132E-20         0.00000E+00
    0.22696E-09         0.18626E-20         0.00000E+00
    0.22696E-09        -0.37253E-20         0.00000E+00
    0.22696E-09        -0.93132E-20         0.00000E+00
    0.22696E-09        -0.11176E-19         0.00000E+00
    0.22696E-09        -0.37253E-20         0.00000E+00
    0.22696E-09         0.00000E+00         0.00000E+00
    0.22696E-09         0.55879E-20         0.00000E+00
    0.22696E-09         0.37253E-20         0.00000E+00
    0.22696E-09         0.55879E-20         0.00000E+00
    0.22696E-09         0.26077E-19         0.00000E+00
    0.22696E-09         0.39116E-19         0.00000E+00
    0.22696E-09         0.22352E-19         0.00000E+00
    0.22696E-09         0.00000E+00         0.00000E+00
    0.22696E-09         0.00000E+00         0.00000E+00
    0.22696E-09        -0.74506E-20         0.00000E+00
    0.22696E-09        -0.31665E-19         0.00000E+00
    0.22696E-09        -0.31665E-19         0.00000E+00
    0.22696E-09        -0.16764E-19         0.00000E+00
    0.22696E-09        -0.18626E-20         0.00000E+00
    0.22696E-09         0.74506E-20         0.00000E+00
    0.22696E-09         0.00000E+00         0.00000E+00
    0.22696E-09         0.37253E-20         0.00000E+00
    0.22696E-09         0.15333E-19         0.00000E+00
    0.22696E-09         0.74506E-20         0.00000E+00
    0.22696E-09         0.14312E-20         0.00000E+00
    0.22696E-09        -0.74506E-20         0.00000E+00
    0.22696E-09        -0.16764E-19         0.00000E+00
    0.22696E-09        -0.18626E-19         0.00000E+00
    0.22696E-09        -0.18626E-19         0.00000E+00
    0.22696E-09        -0.13538E-19         0.00000E+00
    0.22696E-09        -0.74506E-20         0.00000E+00
    0.22696E-09        -0.10676E-19         0.00000E+00
    0.22696E-09        -0.55879E-20         0.00000E+00
    0.22696E-09         0.00000E+00         0.00000E+00
    0.38914E-10         0.37253E-20         0.00000E+00
    0.38914E-10         0.18626E-20         0.00000E+00
    0.38914E-10         0.00000E+00         0.00000E+00
    0.38914E-10         0.60878E-20         0.00000E+00
    0.38914E-10         0.55879E-20         0.00000E+00
    0.38914E-10        -0.13107E-19         0.00000E+00
    0.38914E-10        -0.21420E-19         0.00000E+00
    0.38914E-10        -0.88133E-20         0.00000E+00
    0.38914E-10         0.18626E-20         0.00000E+00
    0.38914E-10        -0.74506E-20         0.00000E+00
    0.38914E-10        -0.55879E-20         0.00000E+00
    0.38914E-10        -0.50881E-20         0.00000E+00
    0.38914E-10        -0.11176E-19         0.00000E+00
    0.38914E-10        -0.83819E-20         0.00000E+00
    0.38914E-10        -0.27940E-20         0.00000E+00
    0.38914E-10        -0.49988E-21         0.00000E+00
    0.38914E-10         0.74506E-20         0.00000E+00
    0.38914E-10         0.11176E-19         0.00000E+00
    0.38914E-10         0.37253E-20         0.00000E+00
    0.38914E-10        -0.37253E-20         0.00000E+00
    0.38914E-10        -0.74506E-20         0.00000E+00
    0.38914E-10        -0.93132E-20         0.00000E+00
    0.38914E-10         0.37253E-20         0.00000E+00
    0.38914E-10         0.13538E-19         0.00000E+00
    0.38914E-10         0.97447E-20         0.00000E+00
    0.38914E-10         0.74506E-20         0.00000E+00
    0.38914E-10         0.11676E-19         0.00000E+00
    0.38914E-10         0.20921E-19         0.00000E+00
    0.38914E-10         0.16764E-19         0.00000E+00
    0.38914E-10         0.18626E-20         0.00000E+00
    0.38914E-10        -0.55879E-20         0.00000E+00
    0.38914E-10        -0.74506E-20         0.00000E+00
    0.38914E-10        -0.11176E-19         0.00000E+00
    0.38914E-10        -0.37253E-20         0.00000E+00
    0.38914E-10         0.55879E-20         0.00000E+00
    0.38914E-10         0.00000E+00         0.00000E+00
    0.38914E-10         0.18626E-20         0.00000E+00
    0.38914E-10         0.14901E-19         0.00000E+00
    0.38914E-10         0.11176E-19         0.00000E+00
    0.38914E-10         0.18626E-20         0.00000E+00
    0.38914E-10        -0.60878E-20         0.00000E+00
    0.38914E-10        -0.19558E-19         0.00000E+00
    0.38914E-10        -0.15333E-19         0.00000E+00
    0.38914E-10        -0.98131E-20         0.00000E+00
    0.38914E-10        -0.15333E-19         0.00000E+00
    0.38914E-10        -0.18558E-19         0.00000E+00
    0.38914E-10        -0.13538E-19         0.00000E+00
    0.38914E-10        -0.11676E-19         0.00000E+00
    0.38914E-10        -0.55879E-20         0.00000E+00
    0.38914E-10         0.50881E-20         0.00000E+00
    0.38914E-10         0.64508E-20         0.00000E+00
    0.64429E-11        -0.27255E-20         0.00000E+00
    0.64429E-11         0.18626E-20         0.00000E+00
    0.64429E-11         0.11176E-19         0.00000E+00
    0.64429E-11         0.11176E-19         0.00000E+00
    0.64429E-11         0.00000E+00         0.00000E+00
    0.64429E-11         0.37253E-20         0.00000E+00
    0.64429E-11        -0.93132E-21         0.00000E+00
    0.64429E-11        -0.19058E-19         0.00000E+00
    0.64429E-11        -0.22352E-19         0.00000E+00
    0.64429E-11        -0.13538E-19         0.00000E+00
    0.64429E-11        -0.19126E-19         0.00000E+00
    0.64429E-11        -0.11176E-19         0.00000E+00
    0.64429E-11        -0.55879E-20         0.00000E+00
    0.64429E-11        -0.74506E-20         0.00000E+00
    0.64429E-11         0.18626E-20         0.00000E+00
    0.64429E-11        -0.37253E-20         0.00000E+00
    0.64429E-11        -0.93132E-20         0.00000E+00
    0.64429E-11        -0.55879E-20         0.00000E+00
    0.64429E-11         0.00000E+00         0.00000E+00
    0.64429E-11         0.18626E-20         0.00000E+00
    0.64429E-11        -0.37253E-20         0.00000E+00
    0.64429E-11        -0.74506E-20         0.00000E+00
    0.64429E-11        -0.18626E-19         0.00000E+00
    0.64429E-11        -0.14901E-19         0.00000E+00
    0.64429E-11         0.11176E-19         0.00000E+00
    0.64429E-11         0.20989E-19         0.00000E+00
    0.64429E-11         0.93132E-20         0.00000E+00
    0.64429E-11         0.14401E-19         0.00000E+00
    0.64429E-11         0.24214E-19         0.00000E+00
    0.64429E-11         0.18626E-19         0.00000E+00
    0.64429E-11         0.74506E-20         0.00000E+00
    0.64429E-11        -0.50881E-20         0.00000E+00
    0.64429E-11        -0.83819E-20         0.00000E+00
    0.64429E-11        -0.32938E-20         0.00000E+00
    0.64429E-11        -0.18626E-20         0.00000E+00
    0.64429E-11         0.00000E+00         0.00000E+00
    0.64429E-11        -0.74506E-20         0.00000E+00
    0.64429E-11        -0.37253E-20         0.00000E+00
    0.64429E-11         0.74506E-20         0.00000E+00
    0.64429E-11         0.23625E-20         0.00000E+00
    0.64429E-11         0.00000E+00         0.00000E+00
    0.64429E-11         0.10245E-19         0.00000E+00
    0.64429E-11         0.27940E-20         0.00000E+00
    0.64429E-11        -0.20489E-19         0.00000E+00
    0.64429E-11        -0.27940E-19         0.00000E+00
    0.64429E-11        -0.19126E-19         0.00000E+00
    0.64429E-11         0.00000E+00         0.00000E+00
    0.64429E-11         0.37253E-20         0.00000E+00
    0.64429E-11        -0.18626E-20         0.00000E+00
    0.64429E-11        -0.23625E-20         0.00000E+00
    0.64429E-11        -0.47251E-20         0.00000E+00
    0.10380E-11         0.37253E-20         0.00000E+00
    0.10380E-11         0.55879E-20         0.00000E+00
    0.10380E-11         0.69507E-20         0.00000E+00
    0.10380E-11         0.16764E-19         0.00000E+00
    0.10380E-11         0.60878E-20         0.00000E+00
    0.10380E-11        -0.11176E-19         0.00000E+00
    0.10380E-11        -0.14901E-19         0.00000E+00
    0.10380E-11        -0.16764E-19         0.00000E+00
    0.10380E-11        -0.26077E-19         0.00000E+00
    0.10380E-11        -0.27940E-19         0.00000E+00
    0.10380E-11        -0.14470E-19         0.00000E+00
    0.10380E-11         0.27940E-20         0.00000E+00
    0.10380E-11        -0.13628E-20         0.00000E+00
    0.10380E-11        -0.93132E-20         0.00000E+00
    0.10380E-11        -0.13039E-19         0.00000E+00
    0.10380E-11        -0.74506E-20         0.00000E+00
    0.10380E-11         0.93132E-20         0.00000E+00
    0.10380E-11         0.18626E-19         0.00000E+00
    0.10380E-11         0.13039E-19         0.00000E+00
    0.10380E-11        -0.18626E-20         0.00000E+00
    0.10380E-11        -0.13039E-19         0.00000E+00
    0.10380E-11        -0.20489E-19         0.00000E+00
    0.10380E-11        -0.18626E-19         0.00000E+00
    0.10380E-11        -0.11176E-19         0.00000E+00
    0.10380E-11         0.00000E+00         0.00000E+00
    0.10380E-11         0.14901E-19         0.00000E+00
    0.10380E-11         0.22352E-19         0.00000E+00
    0.10380E-11         0.22352E-19         0.00000E+00
    0.10380E-11         0.11176E-19         0.00000E+00
    0.10380E-11        -0.37253E-20         0.00000E+00
    0.10380E-11        -0.74506E-20         0.00000E+00
    0.10380E-11         0.00000E+00         0.00000E+00
    0.10380E-11        -0.37253E-20         0.00000E+00
    0.10380E-11        -0.13039E-19         0.00000E+00
    0.10380E-11        -0.18626E-19         0.00000E+00
    0.10380E-11        -0.55879E-20         0.00000E+00
    0.10380E-11         0.11607E-19         0.00000E+00
    0.10380E-11         0.78820E-20         0.00000E+00
    0.10380E-11         0.14312E-20         0.00000E+00
    0.10380E-11        -0.22941E-20         0.00000E+00
    0.10380E-11        -0.93132E-20         0.00000E+00
    0.10380E-11        -0.14901E-19         0.00000E+00
    0.10380E-11        -0.11176E-19         0.00000E+00
    0.10380E-11        -0.16764E-19         0.00000E+00
    0.10380E-11        -0.88818E-20         0.00000E+00
    0.10380E-11        -0.32938E-20         0.00000E+00
    0.10380E-11         0.49988E-21         0.00000E+00
    0.10380E-11         0.23625E-20         0.00000E+00
    0.10380E-11         0.18626E-20         0.00000E+00
    0.10380E-11         0.69507E-20         0.00000E+00
    0.10380E-11         0.27255E-20         0.00000E+00
    0.16361E-12         0.37253E-20         0.00000E+00
    0.16361E-12         0.11176E-19         0.00000E+00
    0.16361E-12         0.16764E-19         0.00000E+00
    0.16361E-12         0.14901E-19         0.00000E+00
    0.16361E-12         0.11676E-19         0.00000E+00
    0.16361E-12         0.22941E-20         0.00000E+00
    0.16361E-12        -0.13107E-19         0.00000E+00
    0.16361E-12        -0.25577E-19         0.00000E+00
    0.16361E-12        -0.31165E-19         0.00000E+00
    0.16361E-12        -0.26577E-19         0.00000E+00
    0.16361E-12        -0.13039E-19         0.00000E+00
    0.16361E-12        -0.10676E-19         0.00000E+00
    0.16361E-12        -0.14901E-19         0.00000E+00
    0.16361E-12        -0.37253E-20         0.00000E+00
    0.16361E-12         0.00000E+00         0.00000E+00
    0.16361E-12         0.32254E-20         0.00000E+00
    0.16361E-12         0.32938E-20         0.00000E+00
    0.16361E-12         0.23625E-20         0.00000E+00
    0.16361E-12         0.92448E-20         0.00000E+00
    0.16361E-12        -0.13628E-20         0.00000E+00
    0.16361E-12        -0.13628E-20         0.00000E+00
    0.16361E-12        -0.42252E-20         0.00000E+00
    0.16361E-12        -0.10676E-19         0.00000E+00
    0.16361E-12        -0.10676E-19         0.00000E+00
    0.16361E-12         0.27255E-20         0.00000E+00
    0.16361E-12         0.27940E-20         0.00000E+00
    0.16361E-12        -0.69507E-20         0.00000E+00
    0.16361E-12         0.43144E-21         0.00000E+00
    0.16361E-12         0.11176E-19         0.00000E+00
    0.16361E-12         0.69507E-20         0.00000E+00
    0.16361E-12         0.23625E-20         0.00000E+00
    0.16361E-12         0.28624E-20         0.00000E+00
    0.16361E-12         0.50881E-20         0.00000E+00
    0.16361E-12        -0.42252E-20         0.00000E+00
    0.16361E-12        -0.43144E-21         0.00000E+00
    0.16361E-12         0.37253E-20         0.00000E+00
    0.16361E-12        -0.37253E-20         0.00000E+00
    0.16361E-12        -0.11176E-19         0.00000E+00
    0.16361E-12        -0.27940E-20         0.00000E+00
    0.16361E-12        -0.13628E-20         0.00000E+00
    0.16361E-12        -0.10744E-19         0.00000E+00
    0.16361E-12        -0.70191E-20         0.00000E+00
    0.16361E-12        -0.10676E-19         0.00000E+00
    0.16361E-12        -0.16764E-19         0.00000E+00
    0.16361E-12        -0.17264E-19         0.00000E+00
    0.16361E-12        -0.16764E-19         0.00000E+00
    0.16361E-12        -0.11176E-19         0.00000E+00
    0.16361E-12        -0.55879E-20         0.00000E+00
    0.16361E-12        -0.43144E-21         0.00000E+00
    0.16361E-12         0.13628E-20         0.00000E+00
    0.16361E-12         0.11039E-19         0.00000E+00
    0.25328E-13         0.18626E-19         0.00000E+00
    0.25328E-13         0.70191E-20         0.00000E+00
    0.25328E-13         0.27940E-20         0.00000E+00
    0.25328E-13         0.13628E-20         0.00000E+00
    0.25328E-13        -0.74506E-20         0.00000E+00
    0.25328E-13        -0.18127E-19         0.00000E+00
    0.25328E-13        -0.20489E-19         0.00000E+00
    0.25328E-13        -0.26077E-19         0.00000E+00
    0.25328E-13        -0.26077E-19         0.00000E+00
    0.25328E-13        -0.16764E-19         0.00000E+00
    0.25328E-13        -0.16264E-19         0.00000E+00
    0.25328E-13        -0.79505E-20         0.00000E+00
    0.25328E-13        -0.78820E-20         0.00000E+00
    0.25328E-13         0.14312E-20         0.00000E+00
    0.25328E-13         0.73821E-20         0.00000E+00
    0.25328E-13        -0.14312E-20         0.00000E+00
    0.25328E-13         0.00000E+00         0.00000E+00
    0.25328E-13         0.12539E-19         0.00000E+00
    0.25328E-13         0.13970E-19         0.00000E+00
    0.25328E-13        -0.43144E-21         0.00000E+00
    0.25328E-13        -0.69507E-20         0.00000E+00
    0.25328E-13        -0.69507E-20         0.00000E+00
    0.25328E-13        -0.60878E-20         0.00000E+00
    0.25328E-13        -0.12107E-19         0.00000E+00
    0.25328E-13        -0.16764E-19         0.00000E+00
    0.25328E-13        -0.83819E-20         0.00000E+00
    0.25328E-13         0.55879E-20         0.00000E+00
    0.25328E-13         0.16764E-19         0.00000E+00
    0.25328E-13         0.13538E-19         0.00000E+00
    0.25328E-13         0.50881E-20         0.00000E+00
    0.25328E-13        -0.42252E-20         0.00000E+00
    0.25328E-13        -0.43144E-21         0.00000E+00
    0.25328E-13         0.46566E-20         0.00000E+00
    0.25328E-13         0.69507E-20         0.00000E+00
    0.25328E-13         0.93132E-20         0.00000E+00
    0.25328E-13        -0.37253E-20         0.00000E+00
    0.25328E-13        -0.97447E-20         0.00000E+00
    0.25328E-13        -0.37253E-20         0.00000E+00
    0.25328E-13        -0.27940E-20         0.00000E+00
    0.25328E-13        -0.14401E-19         0.00000E+00
    0.25328E-13        -0.18195E-19         0.00000E+00
    0.25328E-13        -0.16332E-19         0.00000E+00
    0.25328E-13        -0.14901E-19         0.00000E+00
    0.25328E-13        -0.20489E-19         0.00000E+00
    0.25328E-13        -0.24214E-19         0.00000E+00
    0.25328E-13        -0.12539E-19         0.00000E+00
    0.25328E-13         0.37253E-20         0.00000E+00
    0.25328E-13        -0.18626E-20         0.00000E+00
    0.25328E-13         0.93132E-21         0.00000E+00
    0.25328E-13        -0.51565E-20         0.00000E+00
    0.25328E-13        -0.74506E-20         0.00000E+00
    0.38626E-14         0.00000E+00         0.00000E+00
    0.38626E-14         0.55879E-20         0.00000E+00
    0.38626E-14         0.74506E-20         0.00000E+00
    0.38626E-14         0.55879E-20         0.00000E+00
    0.38626E-14         0.18626E-20         0.00000E+00
    0.38626E-14        -0.11176E-19         0.00000E+00
    0.38626E-14        -0.16764E-19         0.00000E+00
    0.38626E-14        -0.16764E-19         0.00000E+00
    0.38626E-14        -0.16764E-19         0.00000E+00
    0.38626E-14        -0.16764E-19         0.00000E+00
    0.38626E-14        -0.13039E-19         0.00000E+00
    0.38626E-14         0.00000E+00         0.00000E+00
    0.38626E-14         0.00000E+00         0.00000E+00
    0.38626E-14         0.00000E+00         0.00000E+00
    0.38626E-14         0.00000E+00         0.00000E+00
    0.38626E-14         0.00000E+00         0.00000E+00
    0.38626E-14         0.74506E-20         0.00000E+00
    0.38626E-14         0.13039E-19         0.00000E+00
    0.38626E-14         0.19489E-19         0.00000E+00
    0.38626E-14        -0.18883E-33         0.00000E+00
    0.38626E-14        -0.13901E-19         0.00000E+00
    0.38626E-14        -0.14901E-19         0.00000E+00
    0.38626E-14        -0.16764E-19         0.00000E+00
    0.38626E-14        -0.14901E-19         0.00000E+00
    0.38626E-14        -0.18626E-20         0.00000E+00
    0.38626E-14        -0.37253E-20         0.00000E+00
    0.38626E-14        -0.37253E-20         0.00000E+00
    0.38626E-14         0.13039E-19         0.00000E+00
    0.38626E-14         0.11176E-19         0.00000E+00
    0.38626E-14        -0.93132E-20         0.00000E+00
    0.38626E-14        -0.18626E-19         0.00000E+00
    0.38626E-14        -0.74506E-20         0.00000E+00
    0.38626E-14         0.37253E-20         0.00000E+00
    0.38626E-14         0.74506E-20         0.00000E+00
    0.38626E-14         0.11176E-19         0.00000E+00
    0.38626E-14         0.93132E-20         0.00000E+00
    0.38626E-14        -0.18626E-20         0.00000E+00
    0.38626E-14        -0.93132E-20         0.00000E+00
    0.38626E-14        -0.11176E-19         0.00000E+00
    0.38626E-14        -0.11176E-19         0.00000E+00
    0.38626E-14        -0.16764E-19         0.00000E+00
    0.38626E-14        -0.14901E-19         0.00000E+00
    0.38626E-14        -0.11176E-19         0.00000E+00
    0.38626E-14        -0.18626E-19         0.00000E+00
    0.38626E-14        -0.11176E-19         0.00000E+00
    0.38626E-14        -0.74506E-20         0.00000E+00
    0.38626E-14        -0.74506E-20         0.00000E+00
    0.38626E-14        -0.37253E-20         0.00000E+00
    0.38626E-14        -0.74506E-20         0.00000E+00
    0.38626E-14        -0.18626E-20         0.00000E+00
    0.38626E-14         0.37253E-20         0.00000E+00
    0.58160E-15         0.73137E-20         0.00000E+00
    0.58160E-15         0.74506E-20         0.00000E+00
    0.58160E-15         0.19311E-20         0.00000E+00
    0.58160E-15        -0.37253E-20         0.00000E+00
    0.58160E-15        -0.37937E-20         0.00000E+00
    0.58160E-15        -0.75190E-20         0.00000E+00
    0.58160E-15        -0.16695E-19         0.00000E+00
    0.58160E-15        -0.26009E-19         0.00000E+00
    0.58160E-15        -0.24214E-19         0.00000E+00
    0.58160E-15        -0.14901E-19         0.00000E+00
    0.58160E-15        -0.13039E-19         0.00000E+00
    0.58160E-15         0.00000E+00         0.00000E+00
    0.58160E-15         0.11176E-19         0.00000E+00
    0.58160E-15         0.37253E-20         0.00000E+00
    0.58160E-15         0.00000E+00         0.00000E+00
    0.58160E-15         0.18626E-20         0.00000E+00
    0.58160E-15         0.74506E-20         0.00000E+00
    0.58160E-15         0.20489E-19         0.00000E+00
    0.58160E-15         0.22352E-19         0.00000E+00
    0.58160E-15         0.37253E-20         0.00000E+00
    0.58160E-15        -0.11176E-19         0.00000E+00
    0.58160E-15        -0.14901E-19         0.00000E+00
    0.58160E-15        -0.29802E-19         0.00000E+00
    0.58160E-15        -0.29802E-19         0.00000E+00
    0.58160E-15        -0.11176E-19         0.00000E+00
    0.58160E-15         0.18626E-20         0.00000E+00
    0.58160E-15         0.74506E-20         0.00000E+00
    0.58160E-15         0.55879E-20         0.00000E+00
    0.58160E-15         0.18626E-20         0.00000E+00
    0.58160E-15        -0.74506E-20         0.00000E+00
    0.58160E-15        -0.93132E-20         0.00000E+00
    0.58160E-15        -0.37253E-20         0.00000E+00
    0.58160E-15         0.55879E-20         0.00000E+00
    0.58160E-15         0.11176E-19         0.00000E+00
    0.58160E-15         0.74506E-20         0.00000E+00
    0.58160E-15         0.00000E+00         0.00000E+00
    0.58160E-15         0.18626E-20         0.00000E+00
    0.58160E-15         0.18626E-20         0.00000E+00
    0.58159E-15        -0.37253E-20         0.00000E+00
    0.58159E-15        -0.56564E-20         0.00000E+00
    0.58160E-15        -0.11176E-19         0.00000E+00
    0.58160E-15        -0.11107E-19         0.00000E+00
    0.58160E-15        -0.14901E-19         0.00000E+00
    0.58160E-15        -0.24214E-19         0.00000E+00
    0.58160E-15        -0.16764E-19         0.00000E+00
    0.58160E-15        -0.55879E-20         0.00000E+00
    0.58160E-15         0.17942E-20         0.00000E+00
    0.58160E-15         0.46566E-20         0.00000E+00
    0.58160E-15         0.28624E-20         0.00000E+00
    0.58160E-15         0.37253E-20         0.00000E+00
    0.58160E-15         0.00000E+00         0.00000E+00
    0.86619E-16         0.00000E+00         0.00000E+00
    0.86619E-16         0.68439E-22         0.00000E+00
    0.86619E-16        -0.93132E-21         0.00000E+00
    0.86619E-16         0.86288E-21         0.00000E+00
    0.86620E-16        -0.74506E-20         0.00000E+00
    0.86621E-16        -0.19489E-19         0.00000E+00
    0.86622E-16        -0.21352E-19         0.00000E+00
    0.86622E-16        -0.26077E-19         0.00000E+00
    0.86620E-16        -0.28008E-19         0.00000E+00
    0.86619E-16        -0.22420E-19         0.00000E+00
    0.86620E-16        -0.12970E-19         0.00000E+00
    0.86621E-16        -0.74506E-20         0.00000E+00
    0.86622E-16        -0.11244E-19         0.00000E+00
    0.86625E-16         0.68439E-22         0.00000E+00
    0.86625E-16         0.74506E-20         0.00000E+00
    0.86624E-16         0.13970E-19         0.00000E+00
    0.86622E-16         0.21489E-19         0.00000E+00
    0.86622E-16         0.21352E-19         0.00000E+00
    0.86622E-16         0.13901E-19         0.00000E+00
    0.86620E-16         0.37253E-20         0.00000E+00
    0.86620E-16        -0.83135E-20         0.00000E+00
    0.86619E-16        -0.10176E-19         0.00000E+00
    0.86619E-16        -0.93132E-20         0.00000E+00
    0.86617E-16        -0.14901E-19         0.00000E+00
    0.86617E-16        -0.13107E-19         0.00000E+00
    0.86618E-16        -0.46566E-20         0.00000E+00
    0.86620E-16        -0.27255E-20         0.00000E+00
    0.86620E-16         0.37253E-20         0.00000E+00
    0.86619E-16         0.93132E-20         0.00000E+00
    0.86620E-16        -0.37937E-20         0.00000E+00
    0.86618E-16        -0.93132E-20         0.00000E+00
    0.86618E-16         0.37937E-20         0.00000E+00
    0.86617E-16         0.17627E-19         0.00000E+00
    0.86619E-16         0.10176E-19         0.00000E+00
    0.86619E-16         0.74506E-20         0.00000E+00
    0.86619E-16         0.37253E-20         0.00000E+00
    0.86618E-16         0.37253E-20         0.00000E+00
    0.86619E-16         0.37937E-20         0.00000E+00
    0.86620E-16        -0.55195E-20         0.00000E+00
    0.86620E-16        -0.14970E-19         0.00000E+00
    0.86620E-16        -0.22420E-19         0.00000E+00
    0.86620E-16        -0.14901E-19         0.00000E+00
    0.86620E-16        -0.16695E-19         0.00000E+00
    0.86620E-16        -0.22283E-19         0.00000E+00
    0.86621E-16        -0.22352E-19         0.00000E+00
    0.86622E-16        -0.18626E-19         0.00000E+00
    0.86623E-16        -0.37937E-20         0.00000E+00
    0.86623E-16        -0.19311E-20         0.00000E+00
    0.86623E-16         0.00000E+00         0.00000E+00
    0.86623E-16         0.00000E+00         0.00000E+00
    0.86623E-16         0.00000E+00         0.00000E+00
    0.12780E-16         0.74506E-20         0.00000E+00
    0.12780E-16         0.74506E-20         0.00000E+00
    0.12780E-16         0.00000E+00         0.00000E+00
    0.12780E-16        -0.64508E-20         0.00000E+00
    0.12778E-16        -0.14901E-19         0.00000E+00
    0.12778E-16        -0.17832E-19         0.00000E+00
    0.12778E-16        -0.18626E-19         0.00000E+00
    0.12779E-16        -0.14833E-19         0.00000E+00
    0.12778E-16        -0.14901E-19         0.00000E+00
    0.12776E-16        -0.14901E-19         0.00000E+00
    0.12775E-16        -0.20489E-19         0.00000E+00
    0.12775E-16        -0.13901E-19         0.00000E+00
    0.12775E-16        -0.93132E-20         0.00000E+00
    0.12775E-16        -0.46566E-20         0.00000E+00
    0.12777E-16         0.46566E-20         0.00000E+00
    0.12778E-16         0.12039E-19         0.00000E+00
    0.12780E-16         0.16764E-19         0.00000E+00
    0.12780E-16         0.22352E-19         0.00000E+00
    0.12780E-16         0.31665E-19         0.00000E+00
    0.12779E-16         0.14901E-19         0.00000E+00
    0.12779E-16        -0.37253E-20         0.00000E+00
    0.12780E-16        -0.11176E-19         0.00000E+00
    0.12781E-16        -0.22352E-19         0.00000E+00
    0.12781E-16        -0.23215E-19         0.00000E+00
    0.12781E-16        -0.93817E-20         0.00000E+00
    0.12781E-16        -0.13039E-19         0.00000E+00
    0.12779E-16        -0.27255E-20         0.00000E+00
    0.12778E-16         0.11107E-19         0.00000E+00
    0.12778E-16         0.37253E-20         0.00000E+00
    0.12778E-16        -0.37253E-20         0.00000E+00
    0.12778E-16         0.00000E+00         0.00000E+00
    0.12778E-16         0.18626E-20         0.00000E+00
    0.12778E-16         0.00000E+00         0.00000E+00
    0.12778E-16         0.18626E-20         0.00000E+00
    0.12778E-16         0.55879E-20         0.00000E+00
    0.12778E-16         0.37253E-20         0.00000E+00
    0.12778E-16        -0.18626E-20         0.00000E+00
    0.12779E-16        -0.74506E-20         0.00000E+00
    0.12779E-16        -0.55879E-20         0.00000E+00
    0.12781E-16        -0.37253E-20         0.00000E+00
    0.12780E-16        -0.11244E-19         0.00000E+00
    0.12781E-16        -0.14901E-19         0.00000E+00
    0.12782E-16        -0.16695E-19         0.00000E+00
    0.12783E-16        -0.28008E-19         0.00000E+00
    0.12784E-16        -0.25077E-19         0.00000E+00
    0.12784E-16        -0.11970E-19         0.00000E+00
    0.12784E-16        -0.37937E-20         0.00000E+00
    0.12784E-16         0.36569E-20         0.00000E+00
    0.12784E-16         0.18626E-20         0.00000E+00
    0.12784E-16         0.17942E-20         0.00000E+00
    0.12784E-16         0.35884E-20         0.00000E+00
    0.18729E-17         0.37253E-20         0.00000E+00
    0.18733E-17         0.45882E-20         0.00000E+00
    0.18729E-17         0.93132E-21         0.00000E+00
    0.18725E-17         0.56564E-20         0.00000E+00
    0.18720E-17         0.18626E-20         0.00000E+00
    0.18720E-17        -0.14901E-19         0.00000E+00
    0.18738E-17        -0.26077E-19         0.00000E+00
    0.18734E-17        -0.26077E-19         0.00000E+00
    0.18738E-17        -0.16832E-19         0.00000E+00
    0.18743E-17        -0.11176E-19         0.00000E+00
    0.18734E-17        -0.92448E-20         0.00000E+00
    0.18701E-17        -0.37253E-20         0.00000E+00
    0.18687E-17        -0.10313E-19         0.00000E+00
    0.18678E-17        -0.13039E-19         0.00000E+00
    0.18668E-17        -0.45882E-20         0.00000E+00
    0.18673E-17        -0.68439E-22         0.00000E+00
    0.18669E-17         0.12107E-19         0.00000E+00
    0.18677E-17         0.20489E-19         0.00000E+00
    0.18698E-17         0.19489E-19         0.00000E+00
    0.18724E-17         0.84503E-20         0.00000E+00
    0.18731E-17        -0.12107E-19         0.00000E+00
    0.18743E-17        -0.20489E-19         0.00000E+00
    0.18734E-17        -0.18626E-19         0.00000E+00
    0.18717E-17        -0.14970E-19         0.00000E+00
    0.18717E-17        -0.74506E-20         0.00000E+00
    0.18720E-17         0.37253E-20         0.00000E+00
    0.18715E-17         0.84503E-20         0.00000E+00
    0.18715E-17         0.83819E-20         0.00000E+00
    0.18699E-17         0.11107E-19         0.00000E+00
    0.18689E-17        -0.86288E-21         0.00000E+00
    0.18703E-17        -0.93132E-20         0.00000E+00
    0.18710E-17         0.46566E-20         0.00000E+00
    0.18692E-17         0.14970E-19         0.00000E+00
    0.18678E-17         0.73821E-20         0.00000E+00
    0.18671E-17         0.74506E-20         0.00000E+00
    0.18676E-17         0.74506E-20         0.00000E+00
    0.18678E-17        -0.19311E-20         0.00000E+00
    0.18681E-17        -0.37253E-20         0.00000E+00
    0.18684E-17        -0.12970E-19         0.00000E+00
    0.18692E-17        -0.18558E-19         0.00000E+00
    0.18709E-17        -0.26145E-19         0.00000E+00
    0.18710E-17        -0.26077E-19         0.00000E+00
    0.18711E-17        -0.24146E-19         0.00000E+00
    0.18720E-17        -0.33528E-19         0.00000E+00
    0.18710E-17        -0.26077E-19         0.00000E+00
    0.18727E-17        -0.14901E-19         0.00000E+00
    0.18730E-17        -0.55879E-20         0.00000E+00
    0.18743E-17        -0.19311E-20         0.00000E+00
    0.18752E-17         0.93132E-21         0.00000E+00
    0.18755E-17        -0.93132E-21         0.00000E+00
    0.18757E-17        -0.38622E-20         0.00000E+00
    0.27567E-18         0.75875E-20         0.00000E+00
    0.27524E-18         0.74506E-20         0.00000E+00
    0.27381E-18         0.37253E-20         0.00000E+00
    0.27195E-18        -0.18626E-20         0.00000E+00
    0.27288E-18        -0.11176E-19         0.00000E+00
    0.27338E-18        -0.26077E-19         0.00000E+00
    0.27384E-18        -0.25146E-19         0.00000E+00
    0.27234E-18        -0.17627E-19         0.00000E+00
    0.27198E-18        -0.18626E-19         0.00000E+00
    0.27381E-18        -0.12176E-19         0.00000E+00
    0.27610E-18         0.86288E-21         0.00000E+00
    0.27800E-18         0.74506E-20         0.00000E+00
    0.27757E-18         0.55879E-20         0.00000E+00
    0.27424E-18         0.37253E-20         0.00000E+00
    0.27195E-18         0.55879E-20         0.00000E+00
    0.26865E-18         0.13039E-19         0.00000E+00
    0.26822E-18         0.11176E-19         0.00000E+00
    0.26663E-18         0.55879E-20         0.00000E+00
    0.26777E-18         0.11176E-19         0.00000E+00
    0.26844E-18         0.00000E+00         0.00000E+00
    0.26937E-18        -0.14901E-19         0.00000E+00
    0.26869E-18        -0.14901E-19         0.00000E+00
    0.26869E-18        -0.93132E-20         0.00000E+00
    0.26914E-18        -0.11176E-19         0.00000E+00
    0.27125E-18        -0.11176E-19         0.00000E+00
    0.27101E-18        -0.92448E-20         0.00000E+00
    0.27289E-18        -0.18626E-20         0.00000E+00
    0.27427E-18         0.16695E-19         0.00000E+00
    0.27565E-18         0.14901E-19         0.00000E+00
    0.27614E-18        -0.37253E-20         0.00000E+00
    0.27589E-18        -0.74506E-20         0.00000E+00
    0.27544E-18         0.75190E-20         0.00000E+00
    0.27590E-18         0.17695E-19         0.00000E+00
    0.27707E-18         0.10176E-19         0.00000E+00
    0.27718E-18         0.55879E-20         0.00000E+00
    0.27800E-18         0.00000E+00         0.00000E+00
    0.27660E-18        -0.37253E-20         0.00000E+00
    0.27730E-18        -0.11176E-19         0.00000E+00
    0.27694E-18        -0.13039E-19         0.00000E+00
    0.27567E-18        -0.16695E-19         0.00000E+00
    0.27521E-18        -0.20489E-19         0.00000E+00
    0.27334E-18        -0.13039E-19         0.00000E+00
    0.27282E-18        -0.18626E-19         0.00000E+00
    0.27195E-18        -0.29802E-19         0.00000E+00
    0.27112E-18        -0.29802E-19         0.00000E+00
    0.27148E-18        -0.22420E-19         0.00000E+00
    0.27148E-18        -0.11176E-19         0.00000E+00
    0.27116E-18        -0.74506E-20         0.00000E+00
    0.27134E-18        -0.37253E-20         0.00000E+00
    0.27181E-18        -0.68439E-22         0.00000E+00
    0.27101E-18        -0.13688E-21         0.00000E+00
    0.40978E-19         0.74506E-20         0.00000E+00
    0.41444E-19         0.13039E-19         0.00000E+00
    0.41910E-19         0.16764E-19         0.00000E+00
    0.40013E-19         0.11176E-19         0.00000E+00
    0.37719E-19        -0.45882E-20         0.00000E+00
    0.34425E-19        -0.17695E-19         0.00000E+00
    0.32562E-19        -0.20558E-19         0.00000E+00
    0.33130E-19        -0.18626E-19         0.00000E+00
    0.33493E-19        -0.24214E-19         0.00000E+00
    0.33528E-19        -0.29802E-19         0.00000E+00
    0.33993E-19        -0.29734E-19         0.00000E+00
    0.36287E-19        -0.10245E-19         0.00000E+00
    0.38883E-19         0.64508E-20         0.00000E+00
    0.39581E-19         0.14970E-19         0.00000E+00
    0.39116E-19         0.23283E-19         0.00000E+00
    0.38218E-19         0.18490E-19         0.00000E+00
    0.39547E-19         0.23283E-19         0.00000E+00
    0.37219E-19         0.20558E-19         0.00000E+00
    0.37270E-19         0.11176E-19         0.00000E+00
    0.35856E-19         0.00000E+00         0.00000E+00
    0.36572E-19        -0.14901E-19         0.00000E+00
    0.37719E-19        -0.18626E-19         0.00000E+00
    0.38184E-19        -0.20489E-19         0.00000E+00
    0.39116E-19        -0.24214E-19         0.00000E+00
    0.38667E-19        -0.16764E-19         0.00000E+00
    0.39116E-19        -0.74506E-20         0.00000E+00
    0.39797E-19        -0.74506E-20         0.00000E+00
    0.40978E-19        -0.37253E-20         0.00000E+00
    0.41694E-19         0.18626E-20         0.00000E+00
    0.40745E-19        -0.18626E-20         0.00000E+00
    0.41211E-19        -0.18626E-20         0.00000E+00
    0.41892E-19         0.18626E-20         0.00000E+00
    0.44022E-19         0.55879E-20         0.00000E+00
    0.45169E-19         0.18626E-20         0.00000E+00
    0.45635E-19         0.18626E-20         0.00000E+00
    0.45402E-19         0.73821E-20         0.00000E+00
    0.45169E-19         0.46566E-20         0.00000E+00
    0.44130E-19        -0.45882E-20         0.00000E+00
    0.42841E-19        -0.74506E-20         0.00000E+00
    0.42841E-19        -0.93132E-20         0.00000E+00
    0.41910E-19        -0.12970E-19         0.00000E+00
    0.42841E-19        -0.13039E-19         0.00000E+00
    0.41390E-19        -0.16832E-19         0.00000E+00
    0.41211E-19        -0.24214E-19         0.00000E+00
    0.39993E-19        -0.26077E-19         0.00000E+00
    0.40280E-19        -0.16764E-19         0.00000E+00
    0.40513E-19        -0.36569E-20         0.00000E+00
    0.40978E-19        -0.27940E-20         0.00000E+00
    0.41399E-19        -0.47251E-20         0.00000E+00
    0.40884E-19         0.36569E-20         0.00000E+00
    0.40978E-19         0.73137E-20         0.00000E+00
    0.46566E-20         0.00000E+00         0.00000E+00
    0.51223E-20         0.37253E-20         0.00000E+00
    0.65193E-20         0.11107E-19         0.00000E+00
    0.74848E-20         0.18626E-19         0.00000E+00
    0.79162E-20         0.16832E-19         0.00000E+00
    0.69849E-20         0.00000E+00         0.00000E+00
    0.51223E-20        -0.18626E-19         0.00000E+00
    0.41567E-20        -0.22352E-19         0.00000E+00
    0.37253E-20        -0.20489E-19         0.00000E+00
    0.22941E-20        -0.13039E-19         0.00000E+00
    0.34220E-22        -0.15901E-19         0.00000E+00
   -0.16298E-20        -0.15832E-19         0.00000E+00
   -0.96554E-21        -0.11107E-19         0.00000E+00
    0.13970E-20         0.18626E-20         0.00000E+00
    0.37253E-20         0.14901E-19         0.00000E+00
    0.65193E-20         0.13039E-19         0.00000E+00
    0.65193E-20         0.14901E-19         0.00000E+00
    0.81491E-20         0.16764E-19         0.00000E+00
    0.83477E-20         0.18626E-19         0.00000E+00
    0.83819E-20         0.18626E-20         0.00000E+00
    0.76834E-20        -0.24214E-19         0.00000E+00
    0.69849E-20        -0.24214E-19         0.00000E+00
    0.60536E-20        -0.16764E-19         0.00000E+00
    0.60536E-20        -0.13039E-19         0.00000E+00
    0.65021E-20        -0.11176E-19         0.00000E+00
    0.55879E-20        -0.14901E-19         0.00000E+00
    0.42081E-20        -0.11176E-19         0.00000E+00
    0.39581E-20         0.74506E-20         0.00000E+00
    0.23283E-20         0.18626E-19         0.00000E+00
    0.25782E-20         0.00000E+00         0.00000E+00
    0.30439E-20        -0.16764E-19         0.00000E+00
    0.37424E-20        -0.74506E-20         0.00000E+00
    0.41910E-20         0.18626E-20         0.00000E+00
    0.37253E-20         0.18626E-20         0.00000E+00
    0.36174E-20         0.37253E-20         0.00000E+00
    0.45316E-20         0.18626E-20         0.00000E+00
    0.41910E-20        -0.68439E-22         0.00000E+00
    0.40660E-20        -0.68439E-22         0.00000E+00
    0.30268E-20        -0.36569E-20         0.00000E+00
    0.27940E-20        -0.11107E-19         0.00000E+00
    0.34925E-20        -0.18626E-19         0.00000E+00
    0.51223E-20        -0.93132E-20         0.00000E+00
    0.58747E-20        -0.11176E-19         0.00000E+00
    0.55340E-20        -0.24214E-19         0.00000E+00
    0.53012E-20        -0.26145E-19         0.00000E+00
    0.43699E-20        -0.22420E-19         0.00000E+00
    0.49789E-20        -0.14833E-19         0.00000E+00
    0.56774E-20        -0.12970E-19         0.00000E+00
    0.58655E-20        -0.37253E-20         0.00000E+00
    0.61476E-20         0.17942E-20         0.00000E+00
    0.69849E-20        -0.13688E-21         0.00000E+00
    0.46566E-21         0.37253E-20         0.00000E+00
   -0.34220E-22         0.47251E-20         0.00000E+00
   -0.46566E-21         0.47251E-20         0.00000E+00
    0.13970E-20         0.73821E-20         0.00000E+00
    0.32596E-20         0.00000E+00         0.00000E+00
    0.51565E-20        -0.73821E-20         0.00000E+00
    0.60536E-20        -0.74506E-20         0.00000E+00
    0.60878E-20        -0.14038E-19         0.00000E+00
    0.46566E-20        -0.14038E-19         0.00000E+00
    0.42252E-20        -0.10176E-19         0.00000E+00
    0.50881E-20        -0.93132E-20         0.00000E+00
    0.37595E-20        -0.84503E-20         0.00000E+00
    0.23625E-20        -0.74506E-20         0.00000E+00
    0.32596E-20        -0.73821E-20         0.00000E+00
    0.41910E-20        -0.37253E-20         0.00000E+00
    0.55537E-20         0.83819E-20         0.00000E+00
    0.65535E-20         0.14038E-19         0.00000E+00
    0.65535E-20         0.93132E-20         0.00000E+00
    0.58379E-20         0.10108E-19         0.00000E+00
    0.51223E-20         0.55879E-20         0.00000E+00
    0.25782E-20        -0.63824E-20         0.00000E+00
    0.23283E-21        -0.13039E-19         0.00000E+00
   -0.48277E-21        -0.18695E-19         0.00000E+00
   -0.16298E-20        -0.25146E-19         0.00000E+00
   -0.23454E-20        -0.10176E-19         0.00000E+00
   -0.27940E-20         0.37253E-20         0.00000E+00
   -0.28111E-20         0.00000E+00         0.00000E+00
   -0.32767E-20         0.37253E-20         0.00000E+00
   -0.18626E-20         0.55879E-20         0.00000E+00
   -0.69849E-21        -0.65877E-20         0.00000E+00
   -0.18798E-20        -0.46566E-20         0.00000E+00
   -0.25611E-20        -0.17942E-20         0.00000E+00
   -0.25782E-20         0.55879E-20         0.00000E+00
   -0.32596E-20         0.37253E-20         0.00000E+00
   -0.29189E-20        -0.18626E-20         0.00000E+00
   -0.32596E-20         0.37253E-20         0.00000E+00
   -0.32596E-20         0.74506E-20         0.00000E+00
   -0.22204E-20         0.37253E-20         0.00000E+00
   -0.17377E-20        -0.37937E-20         0.00000E+00
   -0.18626E-20        -0.11176E-19         0.00000E+00
   -0.17548E-20        -0.22283E-19         0.00000E+00
   -0.23283E-20        -0.24283E-19         0.00000E+00
   -0.69849E-21        -0.20489E-19         0.00000E+00
   -0.15759E-20        -0.24146E-19         0.00000E+00
   -0.23283E-21        -0.20558E-19         0.00000E+00
   -0.17890E-21        -0.13107E-19         0.00000E+00
   -0.46566E-21        -0.93132E-20         0.00000E+00
   -0.18626E-20        -0.93132E-20         0.00000E+00
   -0.16298E-20        -0.74506E-20         0.00000E+00
   -0.18626E-20        -0.18626E-20         0.00000E+00
   -0.93132E-21         0.00000E+00         0.00000E+00
    0.46566E-21         0.74506E-20         0.00000E+00
    0.93132E-21         0.93132E-20         0.00000E+00
    0.18626E-20         0.37253E-20         0.00000E+00
    0.23283E-20         0.18626E-20         0.00000E+00
    0.27940E-20        -0.86288E-21         0.00000E+00
    0.18284E-20        -0.16832E-19         0.00000E+00
    0.32596E-20        -0.21557E-19         0.00000E+00
    0.41567E-20        -0.14833E-19         0.00000E+00
    0.41910E-20        -0.12970E-19         0.00000E+00
    0.51223E-20        -0.14038E-19         0.00000E+00
    0.65193E-20        -0.11176E-19         0.00000E+00
    0.62864E-20        -0.45882E-20         0.00000E+00
    0.50881E-20        -0.74506E-20         0.00000E+00
    0.37253E-20        -0.74506E-20         0.00000E+00
    0.46566E-20         0.00000E+00         0.00000E+00
    0.32938E-20         0.17942E-20         0.00000E+00
    0.32596E-20         0.11244E-19         0.00000E+00
    0.27597E-20         0.19626E-19         0.00000E+00
    0.18455E-20         0.25009E-19         0.00000E+00
    0.18626E-20         0.15901E-19         0.00000E+00
    0.93132E-21         0.68439E-22         0.00000E+00
    0.91421E-21        -0.65877E-20         0.00000E+00
   -0.69849E-21        -0.64508E-20         0.00000E+00
   -0.68138E-21        -0.45882E-20         0.00000E+00
   -0.18455E-20        -0.47935E-20         0.00000E+00
   -0.18626E-20        -0.11176E-19         0.00000E+00
   -0.11470E-20        -0.10176E-19         0.00000E+00
   -0.13799E-20         0.17942E-20         0.00000E+00
   -0.20955E-20         0.74506E-20         0.00000E+00
   -0.25782E-20        -0.99976E-21         0.00000E+00
   -0.27769E-20        -0.92448E-20         0.00000E+00
   -0.25440E-20        -0.26571E-20         0.00000E+00
   -0.37253E-20         0.45882E-20         0.00000E+00
   -0.46566E-20         0.64508E-20         0.00000E+00
   -0.36003E-20         0.37937E-20         0.00000E+00
   -0.47645E-20        -0.62865E-34         0.00000E+00
   -0.37253E-20        -0.37253E-20         0.00000E+00
   -0.29018E-20        -0.74506E-20         0.00000E+00
   -0.13970E-20        -0.55879E-20         0.00000E+00
   -0.11642E-20        -0.73821E-20         0.00000E+00
   -0.26690E-20        -0.16832E-19         0.00000E+00
   -0.32596E-20        -0.14970E-19         0.00000E+00
   -0.27400E-20        -0.14833E-19         0.00000E+00
   -0.23283E-20        -0.27940E-19         0.00000E+00
   -0.20415E-20        -0.33596E-19         0.00000E+00
   -0.18626E-20        -0.20489E-19         0.00000E+00
   -0.69849E-21        -0.74506E-20         0.00000E+00
   -0.11642E-20        -0.74506E-20         0.00000E+00
   -0.97605E-21        -0.36569E-20         0.00000E+00
   -0.11642E-20        -0.99976E-21         0.00000E+00
   -0.93132E-21         0.15889E-20         0.00000E+00
   -0.55879E-20         0.38622E-20         0.00000E+00
   -0.46224E-20        -0.18626E-20         0.00000E+00
   -0.41910E-20        -0.37253E-20         0.00000E+00
   -0.41910E-20         0.18626E-20         0.00000E+00
   -0.32596E-20         0.93132E-21         0.00000E+00
   -0.32596E-20        -0.56564E-20         0.00000E+00
   -0.39239E-20        -0.16832E-19         0.00000E+00
   -0.32596E-20        -0.18626E-19         0.00000E+00
   -0.28282E-20        -0.21489E-19         0.00000E+00
   -0.13970E-20        -0.18626E-19         0.00000E+00
    0.00000E+00        -0.14833E-19         0.00000E+00
    0.13628E-20        -0.36569E-20         0.00000E+00
    0.49988E-21         0.37253E-20         0.00000E+00
   -0.93132E-21        -0.36569E-20         0.00000E+00
   -0.46566E-21         0.86288E-21         0.00000E+00
   -0.93132E-21         0.13901E-19         0.00000E+00
   -0.93132E-21         0.18626E-19         0.00000E+00
   -0.43144E-21         0.14833E-19         0.00000E+00
    0.71560E-21         0.12176E-19         0.00000E+00
    0.93132E-21         0.10313E-19         0.00000E+00
    0.16298E-20        -0.86288E-21         0.00000E+00
    0.25782E-20        -0.45882E-20         0.00000E+00
    0.25782E-20        -0.14038E-19         0.00000E+00
    0.27769E-20        -0.16764E-19         0.00000E+00
    0.39752E-20        -0.93817E-20         0.00000E+00
    0.18626E-20         0.00000E+00         0.00000E+00
    0.18626E-20         0.99976E-21         0.00000E+00
    0.23283E-20         0.10108E-19         0.00000E+00
    0.91421E-21         0.13039E-19         0.00000E+00
    0.17110E-22        -0.37253E-20         0.00000E+00
   -0.17110E-22        -0.65193E-20         0.00000E+00
   -0.71560E-21         0.19995E-20         0.00000E+00
   -0.11642E-20         0.14970E-19         0.00000E+00
   -0.27940E-20         0.17942E-20         0.00000E+00
   -0.30268E-20        -0.33102E-34         0.00000E+00
   -0.37253E-20         0.45882E-20         0.00000E+00
   -0.27940E-20        -0.29308E-20         0.00000E+00
   -0.36003E-20        -0.55195E-20         0.00000E+00
   -0.37253E-20        -0.74506E-20         0.00000E+00
   -0.47645E-20        -0.10245E-19         0.00000E+00
   -0.50144E-20        -0.13970E-19         0.00000E+00
   -0.46566E-20        -0.22352E-19         0.00000E+00
   -0.33136E-20        -0.24214E-19         0.00000E+00
   -0.32596E-20        -0.26940E-19         0.00000E+00
   -0.26151E-20        -0.23215E-19         0.00000E+00
   -0.32596E-20        -0.18695E-19         0.00000E+00
   -0.33491E-20        -0.13039E-19         0.00000E+00
   -0.47461E-20        -0.11176E-19         0.00000E+00
   -0.56327E-20        -0.55879E-20         0.00000E+00
   -0.59595E-20         0.17942E-20         0.00000E+00
   -0.55879E-20         0.35884E-20         0.00000E+00
   -0.60536E-20         0.37253E-20         0.00000E+00
   -0.65193E-20         0.37937E-20         0.00000E+00
   -0.79162E-20        -0.18626E-20         0.00000E+00
   -0.88476E-20        -0.37937E-20         0.00000E+00
   -0.93132E-20        -0.37253E-20         0.00000E+00
   -0.64850E-20        -0.12039E-19         0.00000E+00
   -0.56222E-20        -0.17695E-19         0.00000E+00
   -0.41910E-20        -0.22352E-19         0.00000E+00
   -0.41567E-20        -0.23283E-19         0.00000E+00
   -0.27597E-20        -0.26077E-19         0.00000E+00
   -0.23283E-20        -0.28803E-19         0.00000E+00
   -0.18626E-20        -0.65877E-20         0.00000E+00
   -0.20955E-20         0.28624E-20         0.00000E+00
    0.00000E+00         0.68439E-22         0.00000E+00
   -0.13970E-20         0.35884E-20         0.00000E+00
   -0.49988E-21         0.36569E-20         0.00000E+00
    0.00000E+00         0.74506E-20         0.00000E+00
   -0.34220E-22         0.10176E-19         0.00000E+00
   -0.93132E-21         0.16764E-19         0.00000E+00
   -0.46566E-21         0.14038E-19         0.00000E+00
    0.44855E-21        -0.92448E-20         0.00000E+00
    0.13970E-20        -0.11107E-19         0.00000E+00
    0.13970E-20        -0.93817E-20         0.00000E+00
    0.11813E-20        -0.12107E-19         0.00000E+00
   -0.24994E-21         0.18626E-20         0.00000E+00
    0.00000E+00        -0.55879E-20         0.00000E+00
   -0.48277E-21        -0.93132E-20         0.00000E+00
   -0.93132E-21         0.65193E-20         0.00000E+00
   -0.16127E-20         0.18695E-19         0.00000E+00
   -0.16469E-20         0.45882E-20         0.00000E+00
   -0.91421E-21        -0.47251E-20         0.00000E+00
   -0.13970E-20         0.47251E-20         0.00000E+00
   -0.16127E-20         0.10245E-19         0.00000E+00
   -0.93132E-21         0.14833E-19         0.00000E+00
   -0.15220E-20         0.93132E-20         0.00000E+00
   -0.17377E-20         0.00000E+00         0.00000E+00
   -0.18626E-20        -0.17942E-20         0.00000E+00
   -0.29189E-20        -0.18626E-20         0.00000E+00
   -0.27940E-20        -0.37253E-20         0.00000E+00
   -0.19876E-20        -0.17942E-20         0.00000E+00
   -0.57352E-21        -0.14970E-19         0.00000E+00
   -0.69849E-21        -0.22420E-19         0.00000E+00
   -0.14509E-20        -0.22352E-19         0.00000E+00
   -0.27940E-20        -0.33528E-19         0.00000E+00
   -0.32596E-20        -0.33528E-19         0.00000E+00
   -0.46566E-20        -0.17627E-19         0.00000E+00
   -0.52657E-20        -0.18626E-20         0.00000E+00
   -0.51223E-20         0.65193E-20         0.00000E+00
   -0.46119E-20         0.27940E-20         0.00000E+00
   -0.54492E-20        -0.68439E-22         0.00000E+00
   -0.60536E-20        -0.37253E-20         0.00000E+00
   -0.32596E-20         0.74506E-20         0.00000E+00
   -0.27940E-20         0.73821E-20         0.00000E+00
   -0.23283E-20         0.74506E-20         0.00000E+00
   -0.23283E-20         0.66561E-20         0.00000E+00
   -0.23625E-20        -0.65193E-20         0.00000E+00
   -0.23625E-20        -0.24283E-19         0.00000E+00
   -0.16298E-20        -0.26077E-19         0.00000E+00
   -0.13970E-20        -0.27940E-19         0.00000E+00
   -0.16640E-20        -0.29802E-19         0.00000E+00
   -0.23967E-20        -0.26009E-19         0.00000E+00
   -0.32596E-20        -0.18626E-19         0.00000E+00
   -0.41910E-20        -0.56564E-20         0.00000E+00
   -0.28282E-20        -0.74506E-20         0.00000E+00
   -0.89710E-21        -0.55879E-20         0.00000E+00
    0.26705E-21         0.18626E-20         0.00000E+00
    0.34220E-22         0.65877E-20         0.00000E+00
   -0.96554E-21         0.17764E-19         0.00000E+00
   -0.43144E-21         0.18558E-19         0.00000E+00
   -0.94843E-21         0.16695E-19         0.00000E+00
    0.46566E-21         0.37253E-20         0.00000E+00
    0.93132E-21        -0.93132E-20         0.00000E+00
    0.13970E-20        -0.92448E-20         0.00000E+00
    0.93132E-21        -0.12970E-19         0.00000E+00
    0.11470E-20        -0.11176E-19         0.00000E+00
    0.11642E-20        -0.99976E-21         0.00000E+00
    0.18626E-20        -0.99976E-21         0.00000E+00
    0.48277E-21         0.56564E-20         0.00000E+00
    0.46566E-21         0.16832E-19         0.00000E+00
    0.13970E-20         0.12970E-19         0.00000E+00
    0.35096E-20        -0.37937E-20         0.00000E+00
    0.41738E-20        -0.74506E-20         0.00000E+00
    0.53551E-20         0.37253E-20         0.00000E+00
    0.46566E-20         0.11244E-19         0.00000E+00
    0.37253E-20         0.37937E-20         0.00000E+00
    0.34925E-20         0.36569E-20         0.00000E+00
    0.27940E-20         0.73821E-20         0.00000E+00
    0.23283E-20         0.37253E-20         0.00000E+00
    0.30268E-20        -0.37253E-20         0.00000E+00
    0.23283E-20        -0.11176E-19         0.00000E+00
    0.18626E-20        -0.20421E-19         0.00000E+00
    0.15048E-20        -0.22352E-19         0.00000E+00
    0.35780E-21        -0.16832E-19         0.00000E+00
   -0.64456E-21        -0.14901E-19         0.00000E+00
   -0.46566E-21        -0.14901E-19         0.00000E+00
   -0.46566E-21        -0.14901E-19         0.00000E+00
   -0.13970E-20        -0.11107E-19         0.00000E+00
   -0.21849E-20        -0.10245E-19         0.00000E+00
   -0.15404E-20        -0.16832E-19         0.00000E+00
    0.42094E-21        -0.37253E-20         0.00000E+00
    0.69849E-21         0.73821E-20         0.00000E+00
    0.46566E-21         0.73137E-20         0.00000E+00
   -0.23283E-20        -0.37253E-20         0.00000E+00
   -0.23283E-20        -0.18626E-20         0.00000E+00
   -0.14312E-20        -0.37253E-20         0.00000E+00
   -0.93132E-21        -0.37253E-20         0.00000E+00
    0.13970E-20        -0.18626E-20         0.00000E+00
    0.93132E-21        -0.13039E-19         0.00000E+00
   -0.34220E-22        -0.24214E-19         0.00000E+00
    0.46566E-21        -0.24214E-19         0.00000E+00
    0.34220E-22        -0.20489E-19         0.00000E+00
    0.00000E+00        -0.14901E-19         0.00000E+00
    0.46566E-21        -0.16764E-19         0.00000E+00
    0.96554E-21        -0.13039E-19         0.00000E+00
    0.93132E-21        -0.13039E-19         0.00000E+00
   -0.34220E-22        -0.13039E-19         0.00000E+00
   -0.26705E-21        -0.18626E-20         0.00000E+00
    0.69849E-21         0.74506E-20         0.00000E+00
    0.23967E-20         0.93132E-20         0.00000E+00
    0.18626E-20         0.11176E-19         0.00000E+00
    0.32767E-20         0.15696E-19         0.00000E+00
    0.41910E-20         0.37253E-20         0.00000E+00
    0.41910E-20        -0.13833E-19         0.00000E+00
    0.41910E-20        -0.11176E-19         0.00000E+00
    0.51223E-20        -0.74506E-20         0.00000E+00
    0.41910E-20        -0.13039E-19         0.00000E+00
    0.53722E-20        -0.37253E-20         0.00000E+00
    0.60536E-20         0.00000E+00         0.00000E+00
    0.60365E-20        -0.74506E-20         0.00000E+00
    0.55879E-20         0.18626E-20         0.00000E+00
    0.60536E-20         0.37253E-20         0.00000E+00
    0.51052E-20        -0.11176E-19         0.00000E+00
    0.55879E-20        -0.11176E-19         0.00000E+00
    0.55708E-20         0.37253E-20         0.00000E+00
    0.62864E-20         0.20489E-19         0.00000E+00
    0.55879E-20         0.20489E-19         0.00000E+00
    0.38503E-20         0.13039E-19         0.00000E+00
    0.32596E-20         0.55879E-20         0.00000E+00
    0.23283E-20        -0.37253E-20         0.00000E+00
    0.26861E-20        -0.37253E-20         0.00000E+00
    0.37253E-20         0.37253E-20         0.00000E+00
    0.37253E-20         0.37253E-20         0.00000E+00
    0.23283E-20        -0.11176E-19         0.00000E+00
    0.31347E-20        -0.11176E-19         0.00000E+00
    0.23283E-20        -0.14901E-19         0.00000E+00
    0.37253E-20        -0.33528E-19         0.00000E+00
    0.48894E-20        -0.29802E-19         0.00000E+00
    0.41910E-20        -0.11176E-19         0.00000E+00
    0.53551E-20         0.00000E+00         0.00000E+00
    0.30268E-20        -0.74506E-20         0.00000E+00
    0.13970E-20        -0.74506E-20         0.00000E+00
    0.23283E-20        -0.18626E-20         0.00000E+00
    0.18626E-20        -0.37253E-20         0.00000E+00
    0.93132E-21         0.34515E-20         0.00000E+00
   -0.34220E-22         0.27940E-20         0.00000E+00
    0.00000E+00         0.29308E-20         0.00000E+00
   -0.93132E-21        -0.55879E-20         0.00000E+00
   -0.69849E-21        -0.14901E-19         0.00000E+00
    0.26705E-21        -0.20489E-19         0.00000E+00
    0.68439E-22        -0.24214E-19         0.00000E+00
    0.96554E-21        -0.26214E-19         0.00000E+00
    0.32596E-20        -0.28871E-19         0.00000E+00
    0.28282E-20        -0.25009E-19         0.00000E+00
    0.18626E-20        -0.22352E-19         0.00000E+00
    0.93132E-21        -0.93132E-20         0.00000E+00
    0.93132E-21        -0.37253E-20         0.00000E+00
    0.46566E-21        -0.18626E-20         0.00000E+00
   -0.93132E-21         0.00000E+00         0.00000E+00
   -0.14312E-20        -0.29308E-20         0.00000E+00
   -0.96554E-21         0.55879E-20         0.00000E+00
   -0.93132E-21         0.15969E-19         0.00000E+00
   -0.24994E-21         0.74506E-20         0.00000E+00
   -0.46566E-21        -0.37253E-20         0.00000E+00
    0.00000E+00        -0.93132E-20         0.00000E+00
    0.46566E-21        -0.13039E-19         0.00000E+00
    0.13970E-20        -0.13039E-19         0.00000E+00
    0.25611E-20        -0.11176E-19         0.00000E+00
    0.27769E-20        -0.11176E-19         0.00000E+00
    0.46566E-20        -0.55879E-20         0.00000E+00
    0.51394E-20         0.55879E-20         0.00000E+00
    0.32596E-20         0.16764E-19         0.00000E+00
    0.18626E-20         0.18626E-19         0.00000E+00
    0.23283E-21         0.00000E+00         0.00000E+00
   -0.18626E-20        -0.11176E-19         0.00000E+00
   -0.34753E-20         0.18626E-20         0.00000E+00
   -0.37424E-20         0.13039E-19         0.00000E+00
   -0.23283E-20         0.14901E-19         0.00000E+00
   -0.18626E-20         0.14901E-19         0.00000E+00
   -0.11642E-20         0.13039E-19         0.00000E+00
   -0.93132E-21         0.37253E-20         0.00000E+00
   -0.35780E-21        -0.93132E-20         0.00000E+00
    0.10786E-21        -0.13039E-19         0.00000E+00
    0.18626E-20        -0.15969E-19         0.00000E+00
    0.40831E-20        -0.18626E-19         0.00000E+00
    0.55879E-20        -0.13833E-19         0.00000E+00
    0.60536E-20        -0.20489E-19         0.00000E+00
    0.48894E-20        -0.27940E-19         0.00000E+00
    0.40121E-20        -0.18626E-19         0.00000E+00
    0.37253E-20        -0.14901E-19         0.00000E+00
    0.26506E-20        -0.37253E-20         0.00000E+00
    0.34925E-20         0.54511E-20         0.00000E+00
    0.37700E-20        -0.93132E-21         0.00000E+00
    0.41910E-20         0.47935E-20         0.00000E+00
    0.32596E-20         0.74506E-20         0.00000E+00
    0.97789E-20         0.15889E-20         0.00000E+00
    0.98131E-20         0.37253E-20         0.00000E+00
    0.88818E-20         0.47935E-20         0.00000E+00
    0.79162E-20         0.00000E+00         0.00000E+00
    0.37595E-20        -0.10381E-19         0.00000E+00
    0.18626E-20        -0.17832E-19         0.00000E+00
    0.18626E-20        -0.26871E-19         0.00000E+00
    0.18626E-20        -0.36185E-19         0.00000E+00
    0.93132E-21        -0.29802E-19         0.00000E+00
    0.93132E-21        -0.93132E-20         0.00000E+00
    0.46566E-21        -0.74506E-20         0.00000E+00
    0.00000E+00        -0.93132E-20         0.00000E+00
   -0.13628E-20        -0.11176E-19         0.00000E+00
   -0.27940E-20        -0.37253E-20         0.00000E+00
   -0.32596E-20         0.55879E-20         0.00000E+00
   -0.27597E-20         0.74506E-20         0.00000E+00
   -0.46566E-20         0.74506E-20         0.00000E+00
   -0.37595E-20         0.74506E-20         0.00000E+00
   -0.27940E-20         0.13039E-19         0.00000E+00
   -0.46566E-20         0.37253E-20         0.00000E+00
   -0.55879E-20        -0.18626E-19         0.00000E+00
   -0.51223E-20        -0.18626E-19         0.00000E+00
   -0.51394E-20        -0.18626E-19         0.00000E+00
   -0.39410E-20        -0.18626E-19         0.00000E+00
   -0.41738E-20        -0.13039E-19         0.00000E+00
   -0.60536E-20        -0.11176E-19         0.00000E+00
   -0.51223E-20         0.00000E+00         0.00000E+00
   -0.32596E-20         0.14901E-19         0.00000E+00
   -0.18798E-20         0.20489E-19         0.00000E+00
   -0.13799E-20         0.11176E-19         0.00000E+00
   -0.18626E-20         0.55879E-20         0.00000E+00
   -0.32596E-20         0.11176E-19         0.00000E+00
   -0.37253E-20         0.16764E-19         0.00000E+00
   -0.32596E-20         0.11176E-19         0.00000E+00
   -0.23283E-20         0.55879E-20         0.00000E+00
   -0.12891E-20         0.00000E+00         0.00000E+00
    0.46566E-21        -0.55879E-20         0.00000E+00
    0.82346E-21        -0.74506E-20         0.00000E+00
    0.93132E-21        -0.11176E-19         0.00000E+00
    0.00000E+00        -0.19695E-19         0.00000E+00
   -0.18626E-20        -0.26077E-19         0.00000E+00
   -0.18626E-20        -0.17558E-19         0.00000E+00
   -0.11642E-20        -0.14901E-19         0.00000E+00
   -0.14509E-20        -0.26077E-19         0.00000E+00
   -0.23283E-20        -0.22352E-19         0.00000E+00
   -0.46566E-21        -0.18626E-20         0.00000E+00
   -0.23283E-21        -0.13688E-21         0.00000E+00
    0.22389E-20        -0.13039E-19         0.00000E+00
    0.42357E-20        -0.91763E-20         0.00000E+00
    0.38193E-20         0.00000E+00         0.00000E+00
    0.51223E-20         0.37253E-20         0.00000E+00
    0.55879E-20        -0.15889E-20         0.00000E+00
    0.46566E-20         0.74506E-20         0.00000E+00
    0.41910E-20         0.13833E-19         0.00000E+00
    0.37253E-20         0.18763E-19         0.00000E+00
    0.27597E-20         0.13970E-19         0.00000E+00
    0.27940E-20        -0.10381E-19         0.00000E+00
    0.18284E-20        -0.23146E-19         0.00000E+00
   -0.34220E-22        -0.19421E-19         0.00000E+00
   -0.18626E-20        -0.23420E-19         0.00000E+00
   -0.69849E-21        -0.25146E-19         0.00000E+00
    0.93132E-21        -0.19558E-19         0.00000E+00
    0.18284E-20         0.18626E-20         0.00000E+00
    0.11299E-20         0.11176E-19         0.00000E+00
    0.46566E-21         0.55879E-20         0.00000E+00
    0.00000E+00         0.10682E-20         0.00000E+00
    0.46566E-21         0.26571E-20         0.00000E+00
    0.00000E+00         0.11970E-19         0.00000E+00
    0.49988E-21         0.74506E-20         0.00000E+00
    0.46566E-21         0.11176E-19         0.00000E+00
    0.93132E-21         0.10381E-19         0.00000E+00
   -0.21572E-21        -0.45197E-20         0.00000E+00
   -0.13970E-20        -0.16764E-19         0.00000E+00
   -0.11470E-20        -0.16764E-19         0.00000E+00
   -0.23283E-20        -0.16764E-19         0.00000E+00
   -0.32938E-20        -0.37253E-20         0.00000E+00
   -0.51223E-20         0.00000E+00         0.00000E+00
   -0.51223E-20        -0.74506E-20         0.00000E+00
   -0.46566E-20         0.00000E+00         0.00000E+00
   -0.37082E-20         0.63824E-20         0.00000E+00
   -0.18626E-20        -0.12601E-33         0.00000E+00
    0.00000E+00        -0.79444E-21         0.00000E+00
    0.13970E-20         0.11176E-19         0.00000E+00
    0.13970E-20         0.14901E-19         0.00000E+00
    0.27940E-20         0.74506E-20         0.00000E+00
    0.25440E-20         0.37253E-20         0.00000E+00
    0.20955E-20        -0.10682E-20         0.00000E+00
    0.46566E-21        -0.55879E-20         0.00000E+00
   -0.24994E-21        -0.10108E-19         0.00000E+00
   -0.46566E-21        -0.12244E-19         0.00000E+00
   -0.13970E-20        -0.29308E-20         0.00000E+00
   -0.23283E-20        -0.74506E-20         0.00000E+00
   -0.34925E-20        -0.19421E-19         0.00000E+00
   -0.47105E-20        -0.22352E-19         0.00000E+00
   -0.41370E-20        -0.21557E-19         0.00000E+00
   -0.37253E-20        -0.23146E-19         0.00000E+00
   -0.23283E-20        -0.21284E-19         0.00000E+00
    0.14338E-21        -0.19695E-19         0.00000E+00
    0.00000E+00        -0.13970E-19         0.00000E+00
   -0.23283E-21        -0.73137E-20         0.00000E+00
   -0.88660E-21        -0.18626E-20         0.00000E+00
    0.78993E-35        -0.37253E-20         0.00000E+00
   -0.55879E-20         0.11176E-19         0.00000E+00
   -0.55879E-20         0.85188E-20         0.00000E+00
   -0.46566E-20         0.74506E-20         0.00000E+00
   -0.32596E-20         0.82450E-20         0.00000E+00
   -0.46566E-21        -0.37253E-20         0.00000E+00
    0.89710E-21        -0.13833E-19         0.00000E+00
    0.13970E-20        -0.10108E-19         0.00000E+00
    0.93132E-21        -0.16764E-19         0.00000E+00
    0.25269E-20        -0.27145E-19         0.00000E+00
    0.27597E-20        -0.25283E-19         0.00000E+00
    0.18626E-20        -0.19421E-19         0.00000E+00
    0.14312E-20        -0.11176E-19         0.00000E+00
    0.23625E-20        -0.47935E-20         0.00000E+00
    0.23625E-20         0.10682E-20         0.00000E+00
    0.96554E-21         0.93132E-20         0.00000E+00
    0.93132E-21         0.74506E-20         0.00000E+00
    0.46566E-21         0.66561E-20         0.00000E+00
   -0.34220E-22         0.63824E-20         0.00000E+00
   -0.69849E-21         0.10108E-19         0.00000E+00
   -0.46566E-21         0.55879E-20         0.00000E+00
    0.46566E-21        -0.82450E-20         0.00000E+00
    0.46566E-21        -0.11970E-19         0.00000E+00
    0.13970E-20        -0.13039E-19         0.00000E+00
    0.25611E-20        -0.74506E-20         0.00000E+00
    0.18798E-20        -0.29308E-20         0.00000E+00
    0.34925E-20        -0.18626E-20         0.00000E+00
    0.20784E-20         0.10682E-20         0.00000E+00
    0.46566E-21         0.74506E-20         0.00000E+00
   -0.13970E-20         0.55879E-20         0.00000E+00
   -0.13970E-20        -0.85188E-20         0.00000E+00
   -0.13970E-20        -0.11176E-19         0.00000E+00
   -0.23283E-21         0.47935E-20         0.00000E+00
    0.17110E-22         0.10108E-19         0.00000E+00
    0.93132E-21         0.63824E-20         0.00000E+00
    0.48277E-21         0.74506E-20         0.00000E+00
    0.34069E-21         0.11176E-19         0.00000E+00
    0.93132E-21         0.55879E-20         0.00000E+00
    0.15220E-20        -0.26571E-20         0.00000E+00
    0.13970E-20        -0.26571E-20         0.00000E+00
    0.23283E-20        -0.12244E-19         0.00000E+00
    0.37253E-20        -0.14107E-19         0.00000E+00
    0.40831E-20        -0.55879E-20         0.00000E+00
    0.33136E-20        -0.11970E-19         0.00000E+00
    0.41173E-21        -0.30597E-19         0.00000E+00
    0.23283E-21        -0.33528E-19         0.00000E+00
   -0.93132E-21        -0.22352E-19         0.00000E+00
   -0.20955E-20        -0.12244E-19         0.00000E+00
   -0.27940E-20        -0.10381E-19         0.00000E+00
   -0.40028E-20        -0.74506E-20         0.00000E+00
   -0.43297E-20         0.00000E+00         0.00000E+00
   -0.41910E-20         0.00000E+00         0.00000E+00
   -0.51223E-20         0.00000E+00         0.00000E+00
   -0.37253E-20         0.18626E-20         0.00000E+00
   -0.27940E-20         0.18626E-20         0.00000E+00
   -0.18626E-20        -0.18626E-20         0.00000E+00
   -0.20613E-20        -0.74506E-20         0.00000E+00
   -0.93132E-21        -0.17558E-19         0.00000E+00
    0.46566E-21        -0.23420E-19         0.00000E+00
    0.18626E-20        -0.29008E-19         0.00000E+00
    0.14312E-20        -0.31665E-19         0.00000E+00
    0.96554E-21        -0.23283E-19         0.00000E+00
   -0.93132E-21        -0.11039E-19         0.00000E+00
   -0.14312E-20         0.00000E+00         0.00000E+00
   -0.14312E-20         0.55879E-20         0.00000E+00
   -0.23625E-20         0.14901E-19         0.00000E+00
   -0.14312E-20         0.93132E-20         0.00000E+00
   -0.23283E-20         0.38622E-20         0.00000E+00
   -0.28282E-20         0.15038E-19         0.00000E+00
   -0.13628E-20         0.13833E-19         0.00000E+00
    0.17110E-22         0.14627E-19         0.00000E+00
    0.46566E-21         0.37253E-20         0.00000E+00
    0.13799E-20        -0.13833E-19         0.00000E+00
    0.46566E-21        -0.21284E-19         0.00000E+00
   -0.46566E-21        -0.21284E-19         0.00000E+00
   -0.71560E-21        -0.21557E-19         0.00000E+00
    0.14141E-20        -0.10381E-19         0.00000E+00
    0.11470E-20        -0.79444E-21         0.00000E+00
    0.13970E-20         0.85188E-20         0.00000E+00
    0.11642E-20         0.15696E-19         0.00000E+00
   -0.23283E-21         0.17558E-19         0.00000E+00
   -0.13970E-20         0.18626E-20         0.00000E+00
   -0.23283E-20        -0.55879E-20         0.00000E+00
   -0.41738E-20         0.29308E-20         0.00000E+00
   -0.44238E-20         0.11176E-19         0.00000E+00
   -0.60536E-20         0.63824E-20         0.00000E+00
   -0.55879E-20         0.37253E-20         0.00000E+00
   -0.55879E-20        -0.18626E-20         0.00000E+00
   -0.41910E-20        -0.11176E-19         0.00000E+00
   -0.38332E-20        -0.14901E-19         0.00000E+00
   -0.31347E-20        -0.16764E-19         0.00000E+00
   -0.32596E-20        -0.14901E-19         0.00000E+00
   -0.37253E-20        -0.16764E-19         0.00000E+00
   -0.31518E-20        -0.14901E-19         0.00000E+00
   -0.18087E-20        -0.37253E-20         0.00000E+00
   -0.29729E-20        -0.82450E-20         0.00000E+00
   -0.34385E-20        -0.13833E-19         0.00000E+00
   -0.34925E-20        -0.13175E-19         0.00000E+00
   -0.13075E-20        -0.83819E-20         0.00000E+00
    0.89450E-22        -0.27940E-20         0.00000E+00
    0.23283E-21        -0.13688E-21         0.00000E+00
    0.13970E-20        -0.18626E-20         0.00000E+00
    0.13970E-20        -0.74506E-20         0.00000E+00
   -0.41910E-20        -0.37253E-20         0.00000E+00
   -0.46566E-20        -0.37253E-20         0.00000E+00
   -0.37253E-20        -0.18626E-20         0.00000E+00
   -0.23625E-20         0.47935E-20         0.00000E+00
   -0.18626E-20        -0.83819E-20         0.00000E+00
   -0.18626E-20        -0.23557E-19         0.00000E+00
   -0.32254E-20        -0.28871E-19         0.00000E+00
   -0.32596E-20        -0.22215E-19         0.00000E+00
   -0.23283E-20        -0.18626E-19         0.00000E+00
   -0.27940E-20        -0.14901E-19         0.00000E+00
   -0.22941E-20        -0.11176E-19         0.00000E+00
   -0.18626E-20        -0.82450E-20         0.00000E+00
   -0.18626E-20         0.00000E+00         0.00000E+00
    0.00000E+00         0.37253E-20         0.00000E+00
    0.93132E-21         0.13039E-19         0.00000E+00
    0.23283E-20         0.10108E-19         0.00000E+00
    0.23283E-20         0.00000E+00         0.00000E+00
    0.23283E-20        -0.37253E-20         0.00000E+00
    0.16127E-20         0.18626E-20         0.00000E+00
    0.23283E-20        -0.37253E-20         0.00000E+00
    0.46566E-21        -0.93132E-20         0.00000E+00
    0.00000E+00        -0.37253E-20         0.00000E+00
   -0.69849E-21        -0.74506E-20         0.00000E+00
   -0.18626E-20        -0.15696E-19         0.00000E+00
   -0.30439E-20        -0.10381E-19         0.00000E+00
   -0.44238E-20        -0.37253E-20         0.00000E+00
   -0.30268E-20        -0.79444E-21         0.00000E+00
   -0.48277E-21         0.15696E-19         0.00000E+00
   -0.17110E-22         0.18626E-19         0.00000E+00
    0.46566E-21         0.37253E-20         0.00000E+00
    0.00000E+00         0.37253E-20         0.00000E+00
   -0.48277E-21         0.14901E-19         0.00000E+00
   -0.21126E-20         0.20489E-19         0.00000E+00
   -0.18626E-20         0.11176E-19         0.00000E+00
   -0.18626E-20         0.55879E-20         0.00000E+00
   -0.27769E-20         0.37253E-20         0.00000E+00
   -0.46566E-20        -0.37253E-20         0.00000E+00
   -0.59457E-20        -0.74506E-20         0.00000E+00
   -0.74506E-20        -0.74506E-20         0.00000E+00
   -0.93132E-20        -0.74506E-20         0.00000E+00
   -0.88476E-20        -0.15969E-19         0.00000E+00
   -0.83819E-20        -0.14901E-19         0.00000E+00
   -0.73256E-20        -0.10108E-19         0.00000E+00
   -0.51223E-20        -0.25283E-19         0.00000E+00
   -0.40121E-20        -0.32459E-19         0.00000E+00
   -0.23822E-20        -0.31391E-19         0.00000E+00
   -0.19521E-20        -0.26214E-19         0.00000E+00
   -0.16298E-20        -0.20626E-19         0.00000E+00
    0.44725E-22        -0.14901E-19         0.00000E+00
    0.93132E-21        -0.66561E-20         0.00000E+00
    0.00000E+00         0.15889E-20         0.00000E+00
    0.41910E-20         0.53142E-20         0.00000E+00
    0.32596E-20         0.93132E-21         0.00000E+00
    0.27597E-20        -0.11039E-19         0.00000E+00
    0.49988E-21        -0.11176E-19         0.00000E+00
    0.69849E-21        -0.93132E-20         0.00000E+00
   -0.18626E-20        -0.11176E-19         0.00000E+00
   -0.18969E-20        -0.17832E-19         0.00000E+00
   -0.27940E-20        -0.29008E-19         0.00000E+00
   -0.27940E-20        -0.34322E-19         0.00000E+00
   -0.27940E-20        -0.23146E-19         0.00000E+00
   -0.23283E-20        -0.19695E-19         0.00000E+00
   -0.13628E-20        -0.46566E-20         0.00000E+00
   -0.18626E-20         0.13688E-21         0.00000E+00
    0.46566E-21         0.10682E-20         0.00000E+00
    0.00000E+00        -0.18626E-20         0.00000E+00
    0.18626E-20        -0.47935E-20         0.00000E+00
    0.18969E-20         0.14901E-19         0.00000E+00
    0.00000E+00         0.17558E-19         0.00000E+00
   -0.23283E-20         0.15696E-19         0.00000E+00
   -0.23283E-20         0.10381E-19         0.00000E+00
   -0.32596E-20        -0.26571E-20         0.00000E+00
   -0.27940E-20        -0.13039E-19         0.00000E+00
   -0.18798E-20        -0.14901E-19         0.00000E+00
   -0.16127E-20        -0.11039E-19         0.00000E+00
   -0.21126E-20         0.35884E-20         0.00000E+00
   -0.39410E-20        -0.50292E-33         0.00000E+00
   -0.34753E-20        -0.11970E-19         0.00000E+00
   -0.39410E-20         0.79444E-21         0.00000E+00
   -0.20784E-20         0.11176E-19         0.00000E+00
   -0.93132E-21         0.37253E-20         0.00000E+00
   -0.46566E-21         0.00000E+00         0.00000E+00
    0.18626E-20         0.10381E-19         0.00000E+00
    0.20955E-20         0.14901E-19         0.00000E+00
    0.27940E-20         0.82450E-20         0.00000E+00
    0.27940E-20         0.11176E-19         0.00000E+00
    0.39581E-20         0.10108E-19         0.00000E+00
    0.32596E-20         0.37253E-20         0.00000E+00
    0.22033E-20         0.10682E-20         0.00000E+00
    0.10563E-20        -0.10682E-20         0.00000E+00
    0.18626E-20        -0.74506E-20         0.00000E+00
    0.18626E-20        -0.21284E-19         0.00000E+00
    0.46566E-21        -0.25283E-19         0.00000E+00
    0.46566E-21        -0.17832E-19         0.00000E+00
    0.18626E-20        -0.25009E-19         0.00000E+00
    0.11642E-20        -0.26871E-19         0.00000E+00
    0.16837E-20        -0.22352E-19         0.00000E+00
   -0.69849E-21        -0.13175E-19         0.00000E+00
   -0.13970E-20        -0.13039E-19         0.00000E+00
   -0.30715E-20        -0.12107E-19         0.00000E+00
   -0.30268E-20        -0.10682E-20         0.00000E+00
   -0.27940E-20         0.00000E+00         0.00000E+00
    0.55879E-20         0.74506E-20         0.00000E+00
    0.60536E-20         0.63824E-20         0.00000E+00
    0.56222E-20         0.13039E-19         0.00000E+00
    0.32596E-20         0.14107E-19         0.00000E+00
    0.25269E-20         0.18626E-20         0.00000E+00
    0.27940E-20        -0.13039E-19         0.00000E+00
    0.23283E-20        -0.20489E-19         0.00000E+00
    0.13970E-20        -0.16764E-19         0.00000E+00
    0.00000E+00        -0.19695E-19         0.00000E+00
    0.46566E-21        -0.18626E-19         0.00000E+00
   -0.13970E-20        -0.17558E-19         0.00000E+00
   -0.14312E-20        -0.11176E-19         0.00000E+00
   -0.13970E-20        -0.85188E-20         0.00000E+00
   -0.13970E-20        -0.55879E-20         0.00000E+00
   -0.93132E-21         0.10682E-20         0.00000E+00
   -0.18626E-20         0.45197E-20         0.00000E+00
   -0.18626E-20         0.12107E-19         0.00000E+00
   -0.73271E-21         0.15832E-19         0.00000E+00
   -0.46566E-21         0.13833E-19         0.00000E+00
   -0.93132E-21         0.10682E-20         0.00000E+00
    0.46566E-21        -0.74506E-20         0.00000E+00
    0.13970E-20        -0.11176E-19         0.00000E+00
    0.71560E-21        -0.14901E-19         0.00000E+00
    0.46566E-21        -0.10381E-19         0.00000E+00
    0.18969E-20         0.00000E+00         0.00000E+00
    0.27940E-20         0.18626E-20         0.00000E+00
    0.25611E-20        -0.79444E-21         0.00000E+00
    0.00000E+00         0.74506E-20         0.00000E+00
   -0.13970E-20         0.63824E-20         0.00000E+00
   -0.18626E-20        -0.63824E-20         0.00000E+00
   -0.93132E-21        -0.93132E-20         0.00000E+00
    0.93132E-21         0.18626E-20         0.00000E+00
    0.11813E-20         0.15969E-19         0.00000E+00
    0.46566E-21         0.63824E-20         0.00000E+00
   -0.46566E-21        -0.59527E-34         0.00000E+00
    0.10786E-21         0.18626E-20         0.00000E+00
    0.00000E+00         0.45197E-20         0.00000E+00
    0.48277E-21         0.37253E-20         0.00000E+00
    0.11470E-20        -0.63824E-20         0.00000E+00
    0.18626E-20        -0.82450E-20         0.00000E+00
    0.93132E-21        -0.10381E-19         0.00000E+00
    0.00000E+00        -0.93132E-20         0.00000E+00
   -0.69849E-21        -0.13833E-19         0.00000E+00
    0.93132E-21        -0.29802E-19         0.00000E+00
    0.15759E-20        -0.33528E-19         0.00000E+00
    0.93132E-21        -0.20489E-19         0.00000E+00
    0.12536E-20        -0.11176E-19         0.00000E+00
    0.13075E-20        -0.11313E-19         0.00000E+00
    0.00000E+00        -0.83819E-20         0.00000E+00
    0.13878E-21        -0.55879E-20         0.00000E+00
    0.00000E+00        -0.21364E-20         0.00000E+00
    0.46566E-20         0.00000E+00         0.00000E+00
    0.46566E-20         0.00000E+00         0.00000E+00
    0.46566E-20         0.79444E-21         0.00000E+00
    0.65193E-20         0.26571E-20         0.00000E+00
    0.65535E-20        -0.35884E-20         0.00000E+00
    0.65193E-20        -0.73137E-20         0.00000E+00
    0.55879E-20        -0.12244E-19         0.00000E+00
    0.51223E-20        -0.17832E-19         0.00000E+00
    0.41567E-20        -0.26077E-19         0.00000E+00
    0.41910E-20        -0.19421E-19         0.00000E+00
    0.41910E-20        -0.11176E-19         0.00000E+00
    0.23625E-20        -0.47935E-20         0.00000E+00
    0.73271E-21         0.00000E+00         0.00000E+00
    0.93132E-21        -0.26571E-20         0.00000E+00
   -0.13970E-20        -0.18626E-20         0.00000E+00
   -0.18626E-20         0.18626E-20         0.00000E+00
   -0.18626E-20         0.10245E-19         0.00000E+00
   -0.18626E-20         0.11039E-19         0.00000E+00
   -0.13970E-20         0.18626E-19         0.00000E+00
   -0.23112E-20         0.74506E-20         0.00000E+00
   -0.13970E-20        -0.13039E-19         0.00000E+00
   -0.46566E-21        -0.16764E-19         0.00000E+00
   -0.13970E-20        -0.14901E-19         0.00000E+00
   -0.13970E-20        -0.12902E-19         0.00000E+00
   -0.49988E-21        -0.65193E-20         0.00000E+00
    0.46566E-21        -0.47935E-20         0.00000E+00
    0.11470E-20         0.37253E-20         0.00000E+00
    0.23283E-20         0.16764E-19         0.00000E+00
    0.23283E-20         0.22352E-19         0.00000E+00
    0.18626E-20         0.19995E-20         0.00000E+00
    0.16127E-20        -0.13970E-19         0.00000E+00
    0.00000E+00         0.26571E-20         0.00000E+00
    0.00000E+00         0.16764E-19         0.00000E+00
    0.93132E-21         0.15969E-19         0.00000E+00
    0.23283E-21         0.11176E-19         0.00000E+00
   -0.11642E-20         0.82450E-20         0.00000E+00
   -0.18626E-20         0.18626E-20         0.00000E+00
   -0.18798E-20        -0.55879E-20         0.00000E+00
   -0.17377E-20        -0.55879E-20         0.00000E+00
   -0.93132E-21        -0.63824E-20         0.00000E+00
    0.00000E+00        -0.13833E-19         0.00000E+00
    0.18626E-20        -0.19695E-19         0.00000E+00
    0.30807E-20        -0.22352E-19         0.00000E+00
    0.13970E-20        -0.32459E-19         0.00000E+00
    0.13970E-20        -0.30871E-19         0.00000E+00
    0.46566E-21        -0.19695E-19         0.00000E+00
    0.46566E-21        -0.14901E-19         0.00000E+00
   -0.23283E-21        -0.10108E-19         0.00000E+00
   -0.44725E-22        -0.26571E-20         0.00000E+00
   -0.10701E-20        -0.10682E-20         0.00000E+00
   -0.18626E-20         0.15889E-20         0.00000E+00
    0.88476E-20         0.21364E-20         0.00000E+00
    0.79162E-20         0.55879E-20         0.00000E+00
    0.69849E-20         0.37253E-20         0.00000E+00
    0.55879E-20         0.37253E-20         0.00000E+00
    0.37253E-20         0.46566E-20         0.00000E+00
    0.37253E-20        -0.83819E-20         0.00000E+00
    0.37595E-20        -0.15832E-19         0.00000E+00
    0.41910E-20        -0.91763E-20         0.00000E+00
    0.42252E-20        -0.11176E-19         0.00000E+00
    0.32254E-20        -0.17832E-19         0.00000E+00
    0.27940E-20        -0.12244E-19         0.00000E+00
    0.37253E-20         0.74506E-20         0.00000E+00
    0.22941E-20         0.00000E+00         0.00000E+00
    0.27940E-20         0.18626E-20         0.00000E+00
    0.13970E-20         0.11176E-19         0.00000E+00
    0.46566E-21         0.93132E-20         0.00000E+00
    0.00000E+00         0.11176E-19         0.00000E+00
   -0.43144E-21         0.14901E-19         0.00000E+00
   -0.93132E-21         0.18626E-19         0.00000E+00
    0.68138E-21         0.18626E-20         0.00000E+00
   -0.46566E-21        -0.14901E-19         0.00000E+00
   -0.18626E-20        -0.13039E-19         0.00000E+00
   -0.18626E-20        -0.11176E-19         0.00000E+00
   -0.23625E-20        -0.14901E-19         0.00000E+00
   -0.25269E-20        -0.11176E-19         0.00000E+00
   -0.23283E-20        -0.82450E-20         0.00000E+00
   -0.25440E-20        -0.74506E-20         0.00000E+00
   -0.93132E-21         0.26571E-20         0.00000E+00
   -0.93132E-21         0.74506E-20         0.00000E+00
    0.23283E-21         0.00000E+00         0.00000E+00
   -0.68138E-21         0.00000E+00         0.00000E+00
   -0.13970E-20         0.85188E-20         0.00000E+00
   -0.46566E-21         0.13039E-19         0.00000E+00
    0.46566E-21         0.82450E-20         0.00000E+00
    0.80635E-21         0.93132E-20         0.00000E+00
   -0.12497E-21         0.11176E-19         0.00000E+00
    0.00000E+00         0.74506E-20         0.00000E+00
   -0.21572E-21         0.18626E-20         0.00000E+00
    0.69849E-21        -0.11176E-19         0.00000E+00
    0.93132E-21        -0.17558E-19         0.00000E+00
    0.23283E-20        -0.24214E-19         0.00000E+00
    0.27940E-20        -0.22352E-19         0.00000E+00
    0.32596E-20        -0.13039E-19         0.00000E+00
    0.23283E-20        -0.22352E-19         0.00000E+00
    0.19705E-20        -0.29802E-19         0.00000E+00
    0.16298E-20        -0.15969E-19         0.00000E+00
    0.84187E-21        -0.55879E-20         0.00000E+00
   -0.69849E-21        -0.93132E-20         0.00000E+00
   -0.65377E-21        -0.37253E-20         0.00000E+00
    0.00000E+00         0.45197E-20         0.00000E+00
   -0.46566E-21         0.90395E-20         0.00000E+00
   -0.18626E-20         0.74506E-20         0.00000E+00
   -0.23283E-20         0.85188E-20         0.00000E+00
   -0.27940E-20         0.14901E-19         0.00000E+00
   -0.32596E-20         0.19421E-19         0.00000E+00
   -0.23283E-20         0.57248E-20         0.00000E+00
   -0.93132E-21        -0.83819E-20         0.00000E+00
    0.00000E+00        -0.15969E-19         0.00000E+00
   -0.46566E-21        -0.20489E-19         0.00000E+00
    0.46566E-21        -0.20489E-19         0.00000E+00
    0.49988E-21        -0.11176E-19         0.00000E+00
   -0.11642E-20        -0.13039E-19         0.00000E+00
   -0.49988E-21        -0.37253E-20         0.00000E+00
    0.18626E-20         0.55879E-20         0.00000E+00
    0.13970E-20         0.37253E-20         0.00000E+00
    0.18626E-20         0.74506E-20         0.00000E+00
    0.23283E-20         0.11176E-19         0.00000E+00
    0.23283E-20         0.13039E-19         0.00000E+00
    0.18626E-20         0.14901E-19         0.00000E+00
    0.18626E-20         0.14901E-19         0.00000E+00
    0.11642E-20         0.55879E-20         0.00000E+00
    0.46566E-21        -0.37253E-20         0.00000E+00
   -0.46566E-21        -0.93132E-20         0.00000E+00
    0.93132E-21        -0.11176E-19         0.00000E+00
    0.14312E-20        -0.11970E-19         0.00000E+00
    0.25440E-20        -0.74506E-20         0.00000E+00
    0.18626E-20        -0.18626E-20         0.00000E+00
    0.18626E-20        -0.37253E-20         0.00000E+00
    0.46566E-21         0.82450E-20         0.00000E+00
   -0.46566E-21         0.16764E-19         0.00000E+00
   -0.17110E-22         0.18626E-20         0.00000E+00
   -0.48277E-21        -0.55879E-20         0.00000E+00
    0.00000E+00         0.00000E+00         0.00000E+00
   -0.93132E-21         0.93132E-20         0.00000E+00
   -0.46566E-21         0.11176E-19         0.00000E+00
   -0.10392E-20         0.11176E-19         0.00000E+00
   -0.93132E-21         0.11176E-19         0.00000E+00
    0.00000E+00         0.29308E-20         0.00000E+00
    0.10786E-21        -0.63824E-20         0.00000E+00
   -0.59063E-21        -0.10381E-19         0.00000E+00
   -0.46566E-21        -0.14107E-19         0.00000E+00
   -0.93132E-21        -0.26077E-19         0.00000E+00
   -0.18626E-20        -0.22352E-19         0.00000E+00
   -0.23283E-20        -0.18626E-19         0.00000E+00
   -0.13970E-20        -0.29802E-19         0.00000E+00
   -0.12181E-20        -0.27940E-19         0.00000E+00
   -0.23822E-20        -0.14901E-19         0.00000E+00
   -0.69849E-21        -0.18626E-20         0.00000E+00
    0.78794E-21        -0.79444E-21         0.00000E+00
    0.27756E-21        -0.45197E-20         0.00000E+00
    0.00000E+00        -0.21364E-20         0.00000E+00
    0.46566E-21        -0.54752E-21         0.00000E+00
   -0.83819E-20         0.74506E-20         0.00000E+00
   -0.74506E-20         0.93132E-20         0.00000E+00
   -0.83819E-20         0.74506E-20         0.00000E+00
   -0.79162E-20         0.18626E-20         0.00000E+00
   -0.74506E-20        -0.73137E-20         0.00000E+00
   -0.79162E-20        -0.19558E-19         0.00000E+00
   -0.65193E-20        -0.19695E-19         0.00000E+00
   -0.50881E-20        -0.11176E-19         0.00000E+00
   -0.37253E-20        -0.14901E-19         0.00000E+00
   -0.32596E-20        -0.93132E-20         0.00000E+00
   -0.18969E-20        -0.82450E-20         0.00000E+00
   -0.18626E-20        -0.93132E-20         0.00000E+00
   -0.23283E-20        -0.66561E-20         0.00000E+00
   -0.18626E-20         0.10682E-20         0.00000E+00
    0.00000E+00         0.93132E-20         0.00000E+00
    0.46566E-21         0.62455E-20         0.00000E+00
    0.89710E-21         0.13970E-19         0.00000E+00
   -0.49988E-21         0.17832E-19         0.00000E+00
   -0.46566E-21         0.22352E-19         0.00000E+00
   -0.23112E-20         0.93132E-20         0.00000E+00
   -0.23283E-20        -0.93132E-20         0.00000E+00
   -0.18626E-20        -0.14901E-19         0.00000E+00
   -0.27940E-20        -0.20489E-19         0.00000E+00
   -0.23454E-20        -0.22352E-19         0.00000E+00
   -0.18626E-20        -0.11176E-19         0.00000E+00
   -0.13970E-20        -0.37253E-20         0.00000E+00
   -0.24994E-21        -0.37253E-20         0.00000E+00
   -0.93132E-21         0.11176E-19         0.00000E+00
    0.46566E-21         0.11176E-19         0.00000E+00
   -0.21572E-21         0.00000E+00         0.00000E+00
    0.71560E-21         0.00000E+00         0.00000E+00
    0.00000E+00         0.11176E-19         0.00000E+00
   -0.69849E-21         0.14901E-19         0.00000E+00
   -0.18626E-20         0.74506E-20         0.00000E+00
   -0.24533E-20         0.11176E-19         0.00000E+00
   -0.18626E-20         0.82450E-20         0.00000E+00
   -0.46566E-21         0.37253E-20         0.00000E+00
   -0.46566E-21         0.29308E-20         0.00000E+00
   -0.46566E-21        -0.74506E-20         0.00000E+00
    0.46566E-21        -0.14901E-19         0.00000E+00
    0.00000E+00        -0.19421E-19         0.00000E+00
    0.00000E+00        -0.14901E-19         0.00000E+00
   -0.46566E-21        -0.14107E-19         0.00000E+00
   -0.93132E-21        -0.27940E-19         0.00000E+00
   -0.16298E-20        -0.26077E-19         0.00000E+00
   -0.11102E-20        -0.20489E-19         0.00000E+00
   -0.17732E-20        -0.23146E-19         0.00000E+00
   -0.69849E-21        -0.12107E-19         0.00000E+00
   -0.17193E-20        -0.13688E-21         0.00000E+00
   -0.27940E-20         0.26571E-20         0.00000E+00
   -0.23283E-20         0.53142E-20         0.00000E+00
   -0.65193E-20         0.37253E-20         0.00000E+00
   -0.51223E-20         0.93132E-20         0.00000E+00
   -0.51223E-20         0.14901E-19         0.00000E+00
   -0.37253E-20         0.14901E-19         0.00000E+00
   -0.27940E-20         0.37253E-20         0.00000E+00
   -0.37253E-20        -0.14901E-19         0.00000E+00
   -0.51223E-20        -0.26077E-19         0.00000E+00
   -0.27940E-20        -0.33528E-19         0.00000E+00
   -0.23283E-20        -0.30597E-19         0.00000E+00
   -0.69849E-21        -0.22352E-19         0.00000E+00
   -0.43144E-21        -0.19695E-19         0.00000E+00
    0.14312E-20         0.00000E+00         0.00000E+00
    0.93132E-21         0.26571E-20         0.00000E+00
    0.46566E-21        -0.74506E-20         0.00000E+00
    0.18626E-20        -0.79444E-21         0.00000E+00
    0.23283E-20         0.74506E-20         0.00000E+00
    0.14312E-20         0.16764E-19         0.00000E+00
    0.18969E-20         0.21284E-19         0.00000E+00
    0.23283E-20         0.24214E-19         0.00000E+00
    0.27769E-20         0.14107E-19         0.00000E+00
    0.18626E-20        -0.37253E-20         0.00000E+00
    0.27940E-20        -0.55879E-20         0.00000E+00
    0.16127E-20        -0.11176E-19         0.00000E+00
    0.14141E-20        -0.16764E-19         0.00000E+00
   -0.23283E-21        -0.11176E-19         0.00000E+00
   -0.46566E-21        -0.93132E-20         0.00000E+00
   -0.68138E-21        -0.74506E-20         0.00000E+00
   -0.46566E-21         0.37253E-20         0.00000E+00
   -0.13970E-20         0.14901E-19         0.00000E+00
   -0.30268E-20         0.00000E+00         0.00000E+00
   -0.32596E-20        -0.74506E-20         0.00000E+00
   -0.27940E-20         0.74506E-20         0.00000E+00
   -0.37424E-20         0.18626E-19         0.00000E+00
   -0.46566E-20         0.17558E-19         0.00000E+00
   -0.40660E-20         0.11176E-19         0.00000E+00
   -0.13970E-20         0.37253E-20         0.00000E+00
   -0.93132E-21        -0.37253E-20         0.00000E+00
    0.46566E-21        -0.10108E-19         0.00000E+00
    0.27940E-20        -0.13039E-19         0.00000E+00
    0.32596E-20        -0.14901E-19         0.00000E+00
    0.32596E-20        -0.22352E-19         0.00000E+00
    0.32596E-20        -0.18626E-19         0.00000E+00
    0.39581E-20        -0.16764E-19         0.00000E+00
    0.37253E-20        -0.26077E-19         0.00000E+00
    0.22744E-20        -0.24214E-19         0.00000E+00
    0.18626E-20        -0.11176E-19         0.00000E+00
   -0.32228E-21        -0.55879E-20         0.00000E+00
   -0.28834E-20        -0.37253E-20         0.00000E+00
   -0.25164E-20         0.26571E-20         0.00000E+00
   -0.21895E-20         0.45197E-20         0.00000E+00
   -0.13970E-20         0.00000E+00         0.00000E+00
    0.00000E+00         0.00000E+00         0.00000E+00
   -0.46566E-21         0.18626E-20         0.00000E+00
   -0.46566E-21        -0.29308E-20         0.00000E+00
    0.46566E-21        -0.66561E-20         0.00000E+00
    0.13628E-20        -0.73137E-20         0.00000E+00
    0.22941E-20        -0.11039E-19         0.00000E+00
    0.36569E-20        -0.22352E-19         0.00000E+00
    0.36569E-20        -0.24214E-19         0.00000E+00
    0.23283E-20        -0.26077E-19         0.00000E+00
    0.13628E-20        -0.20489E-19         0.00000E+00
    0.43144E-21        -0.15969E-19         0.00000E+00
   -0.26705E-21        -0.14107E-19         0.00000E+00
   -0.43144E-21        -0.74506E-20         0.00000E+00
   -0.93132E-21        -0.79444E-21         0.00000E+00
   -0.18626E-20         0.21364E-20         0.00000E+00
   -0.18969E-20         0.74506E-20         0.00000E+00
   -0.32938E-20         0.13833E-19         0.00000E+00
   -0.28282E-20         0.13833E-19         0.00000E+00
   -0.93132E-21         0.19421E-19         0.00000E+00
    0.93132E-21         0.11176E-19         0.00000E+00
    0.27940E-20        -0.10108E-19         0.00000E+00
    0.37253E-20        -0.13833E-19         0.00000E+00
    0.48723E-20        -0.15969E-19         0.00000E+00
    0.41738E-20        -0.13039E-19         0.00000E+00
    0.46395E-20        -0.37729E-33         0.00000E+00
    0.51223E-20        -0.26571E-20         0.00000E+00
    0.39239E-20        -0.18626E-20         0.00000E+00
    0.32596E-20         0.16490E-19         0.00000E+00
    0.93132E-21         0.21557E-19         0.00000E+00
    0.16127E-20         0.85188E-20         0.00000E+00
   -0.23283E-21        -0.10682E-20         0.00000E+00
   -0.17110E-22         0.14901E-19         0.00000E+00
    0.46566E-21         0.22625E-19         0.00000E+00
    0.13970E-20         0.85188E-20         0.00000E+00
    0.27769E-20        -0.39990E-20         0.00000E+00
    0.23283E-20        -0.58617E-20         0.00000E+00
    0.13970E-20        -0.74506E-20         0.00000E+00
   -0.35780E-21        -0.16764E-19         0.00000E+00
   -0.46566E-21        -0.21284E-19         0.00000E+00
   -0.27940E-20        -0.13833E-19         0.00000E+00
   -0.31518E-20        -0.18626E-19         0.00000E+00
   -0.27940E-20        -0.19695E-19         0.00000E+00
   -0.30807E-20        -0.16764E-19         0.00000E+00
   -0.27940E-20        -0.21284E-19         0.00000E+00
   -0.15759E-20        -0.17832E-19         0.00000E+00
   -0.46566E-21        -0.66561E-20         0.00000E+00
    0.93132E-21         0.10682E-20         0.00000E+00
    0.18626E-20         0.10682E-20         0.00000E+00
    0.36806E-20        -0.37253E-20         0.00000E+00
    0.49835E-20        -0.29308E-20         0.00000E+00
    0.46566E-20        -0.21364E-20         0.00000E+00
    0.41910E-20         0.11176E-19         0.00000E+00
    0.46224E-20         0.11970E-19         0.00000E+00
    0.41910E-20         0.55879E-20         0.00000E+00
    0.27940E-20         0.65193E-20         0.00000E+00
    0.93132E-21        -0.37253E-20         0.00000E+00
    0.13970E-20        -0.27008E-19         0.00000E+00
    0.19311E-20        -0.32596E-19         0.00000E+00
    0.96554E-21        -0.26077E-19         0.00000E+00
    0.11299E-20        -0.19558E-19         0.00000E+00
    0.46566E-21        -0.13833E-19         0.00000E+00
    0.13970E-20        -0.11176E-19         0.00000E+00
    0.93132E-21         0.55879E-20         0.00000E+00
   -0.49988E-21         0.74506E-20         0.00000E+00
   -0.46566E-21         0.18626E-20         0.00000E+00
   -0.13970E-20         0.26571E-20         0.00000E+00
   -0.13970E-20         0.11970E-19         0.00000E+00
   -0.89710E-21         0.18626E-19         0.00000E+00
   -0.23283E-20         0.14901E-19         0.00000E+00
   -0.27940E-20         0.74506E-20         0.00000E+00
   -0.23283E-20        -0.74506E-20         0.00000E+00
   -0.27940E-20        -0.18626E-19         0.00000E+00
   -0.32596E-20        -0.14901E-19         0.00000E+00
   -0.18284E-20        -0.13039E-19         0.00000E+00
   -0.91421E-21        -0.18490E-19         0.00000E+00
   -0.93132E-21        -0.13970E-19         0.00000E+00
    0.46566E-21        -0.66561E-20         0.00000E+00
    0.17110E-22         0.18626E-20         0.00000E+00
   -0.69849E-21         0.20489E-19         0.00000E+00
    0.91421E-21         0.24214E-19         0.00000E+00
    0.16298E-20         0.37253E-20         0.00000E+00
    0.16127E-20        -0.79444E-21         0.00000E+00
    0.20955E-20         0.66561E-20         0.00000E+00
    0.27940E-20         0.82450E-20         0.00000E+00
    0.23283E-20         0.63824E-20         0.00000E+00
    0.21126E-20         0.74506E-20         0.00000E+00
    0.00000E+00         0.10381E-19         0.00000E+00
   -0.46566E-21         0.85188E-20         0.00000E+00
   -0.11642E-20         0.00000E+00         0.00000E+00
   -0.32596E-20        -0.10682E-20         0.00000E+00
   -0.32596E-20        -0.37253E-20         0.00000E+00
   -0.38332E-20        -0.22352E-19         0.00000E+00
   -0.37253E-20        -0.20489E-19         0.00000E+00
   -0.48894E-20        -0.16764E-19         0.00000E+00
   -0.34925E-20        -0.29802E-19         0.00000E+00
   -0.11642E-20        -0.35390E-19         0.00000E+00
    0.93132E-21        -0.27940E-19         0.00000E+00
    0.13970E-20        -0.18626E-19         0.00000E+00
    0.32596E-20        -0.14107E-19         0.00000E+00
    0.37253E-20        -0.91763E-20         0.00000E+00
    0.37253E-20        -0.27940E-20         0.00000E+00
    0.32596E-20         0.15889E-20         0.00000E+00
   -0.46566E-21         0.00000E+00         0.00000E+00
    0.34220E-22         0.10682E-20         0.00000E+00
    0.46566E-21         0.47935E-20         0.00000E+00
    0.00000E+00         0.63824E-20         0.00000E+00
    0.34220E-22         0.18626E-20         0.00000E+00
    0.68439E-22        -0.13039E-19         0.00000E+00
   -0.23283E-20        -0.19695E-19         0.00000E+00
   -0.32254E-20        -0.20489E-19         0.00000E+00
   -0.29584E-20        -0.24214E-19         0.00000E+00
   -0.32254E-20        -0.24214E-19         0.00000E+00
   -0.46224E-20        -0.18626E-19         0.00000E+00
   -0.32254E-20        -0.55879E-20         0.00000E+00
   -0.13628E-20         0.18626E-20         0.00000E+00
   -0.93132E-21         0.66561E-20         0.00000E+00
    0.34220E-22         0.37253E-20         0.00000E+00
    0.34220E-22         0.45197E-20         0.00000E+00
   -0.93132E-21         0.15969E-19         0.00000E+00
    0.73271E-21         0.25283E-19         0.00000E+00
    0.94843E-21         0.19421E-19         0.00000E+00
   -0.18626E-20         0.11176E-19         0.00000E+00
   -0.23283E-20        -0.55879E-20         0.00000E+00
   -0.27940E-20        -0.17832E-19         0.00000E+00
   -0.23283E-20        -0.26077E-19         0.00000E+00
   -0.25611E-20        -0.21284E-19         0.00000E+00
   -0.34582E-20        -0.74506E-20         0.00000E+00
   -0.41910E-20        -0.29308E-20         0.00000E+00
   -0.34753E-20         0.37253E-20         0.00000E+00
   -0.39410E-20         0.11176E-19         0.00000E+00
   -0.30097E-20         0.11176E-19         0.00000E+00
   -0.25440E-20         0.37253E-20         0.00000E+00
   -0.27597E-20         0.00000E+00         0.00000E+00
   -0.20784E-20         0.95870E-20         0.00000E+00
   -0.93132E-21         0.18626E-19         0.00000E+00
   -0.46566E-21         0.12765E-19         0.00000E+00
   -0.93132E-21         0.74506E-20         0.00000E+00
   -0.68138E-21         0.37253E-20         0.00000E+00
   -0.13970E-20        -0.37253E-20         0.00000E+00
   -0.13799E-20        -0.18626E-20         0.00000E+00
   -0.44855E-21        -0.74506E-20         0.00000E+00
    0.93132E-21        -0.13833E-19         0.00000E+00
   -0.46566E-21        -0.13833E-19         0.00000E+00
   -0.12720E-20        -0.15969E-19         0.00000E+00
   -0.11102E-20        -0.22352E-19         0.00000E+00
   -0.51959E-21        -0.36185E-19         0.00000E+00
   -0.12181E-20        -0.36458E-19         0.00000E+00
   -0.27940E-20        -0.21557E-19         0.00000E+00
   -0.43343E-20        -0.11176E-19         0.00000E+00
   -0.52657E-20        -0.11176E-19         0.00000E+00
   -0.57313E-20        -0.55879E-20         0.00000E+00
   -0.73118E-20         0.79444E-21         0.00000E+00
   -0.65193E-20         0.53142E-20         0.00000E+00
   -0.93132E-21         0.74506E-20         0.00000E+00
   -0.13970E-20         0.74506E-20         0.00000E+00
   -0.18626E-20         0.66561E-20         0.00000E+00
   -0.13970E-20         0.55879E-20         0.00000E+00
   -0.93132E-21        -0.29308E-20         0.00000E+00
   -0.93132E-21        -0.11176E-19         0.00000E+00
   -0.14312E-20        -0.16764E-19         0.00000E+00
   -0.32938E-20        -0.26077E-19         0.00000E+00
   -0.37595E-20        -0.21284E-19         0.00000E+00
   -0.46566E-20        -0.45197E-20         0.00000E+00
   -0.51565E-20        -0.10381E-19         0.00000E+00
   -0.46908E-20        -0.93132E-20         0.00000E+00
   -0.56222E-20        -0.55879E-20         0.00000E+00
   -0.55879E-20        -0.55879E-20         0.00000E+00
   -0.37595E-20         0.10682E-20         0.00000E+00
   -0.32596E-20         0.14901E-19         0.00000E+00
   -0.32938E-20         0.13833E-19         0.00000E+00
   -0.32938E-20         0.74506E-20         0.00000E+00
   -0.16469E-20         0.17558E-19         0.00000E+00
   -0.13970E-20         0.11176E-19         0.00000E+00
   -0.13970E-20        -0.12765E-19         0.00000E+00
   -0.13970E-20        -0.16764E-19         0.00000E+00
   -0.13970E-20        -0.14107E-19         0.00000E+00
   -0.28111E-20        -0.11176E-19         0.00000E+00
   -0.25782E-20        -0.74506E-20         0.00000E+00
   -0.37424E-20        -0.74506E-20         0.00000E+00
   -0.41910E-20         0.12564E-33         0.00000E+00
   -0.44409E-20         0.19421E-19         0.00000E+00
   -0.41910E-20         0.18626E-19         0.00000E+00
   -0.46737E-20         0.29308E-20         0.00000E+00
   -0.39581E-20        -0.10682E-20         0.00000E+00
   -0.23283E-20        -0.37253E-20         0.00000E+00
   -0.30268E-20         0.21364E-20         0.00000E+00
   -0.27940E-20         0.63824E-20         0.00000E+00
   -0.13970E-20         0.82450E-20         0.00000E+00
   -0.71560E-21         0.11176E-19         0.00000E+00
    0.00000E+00         0.11176E-19         0.00000E+00
   -0.82346E-21        -0.45197E-20         0.00000E+00
   -0.82346E-21        -0.11176E-19         0.00000E+00
   -0.93132E-21        -0.29308E-20         0.00000E+00
    0.18626E-20        -0.13039E-19         0.00000E+00
    0.15048E-20        -0.19421E-19         0.00000E+00
    0.11642E-20        -0.17558E-19         0.00000E+00
    0.75242E-21        -0.30076E-19         0.00000E+00
   -0.46566E-21        -0.25283E-19         0.00000E+00
   -0.18626E-20        -0.10108E-19         0.00000E+00
   -0.24178E-20        -0.74506E-20         0.00000E+00
   -0.33491E-20        -0.74506E-20         0.00000E+00
   -0.44685E-20         0.10682E-20         0.00000E+00
   -0.40969E-20         0.37253E-20         0.00000E+00
   -0.46566E-20        -0.21364E-20         0.00000E+00
    0.00000E+00         0.37253E-20         0.00000E+00
    0.46566E-21         0.74506E-20         0.00000E+00
    0.93132E-21         0.55879E-20         0.00000E+00
    0.00000E+00         0.00000E+00         0.00000E+00
   -0.23625E-20        -0.26571E-20         0.00000E+00
   -0.37595E-20        -0.74506E-20         0.00000E+00
   -0.32596E-20        -0.85188E-20         0.00000E+00
   -0.27940E-20        -0.10108E-19         0.00000E+00
   -0.32596E-20        -0.16764E-19         0.00000E+00
   -0.18626E-20        -0.17832E-19         0.00000E+00
   -0.13628E-20        -0.17558E-19         0.00000E+00
   -0.22941E-20        -0.10682E-20         0.00000E+00
   -0.23283E-20         0.26571E-20         0.00000E+00
   -0.32596E-20        -0.34515E-20         0.00000E+00
   -0.51223E-20        -0.45197E-20         0.00000E+00
   -0.60536E-20         0.15889E-20         0.00000E+00
   -0.46224E-20         0.16764E-19         0.00000E+00
   -0.55537E-20         0.16764E-19         0.00000E+00
   -0.65193E-20         0.10902E-19         0.00000E+00
   -0.41910E-20         0.66561E-20         0.00000E+00
   -0.27940E-20        -0.26571E-20         0.00000E+00
   -0.23283E-20        -0.18626E-19         0.00000E+00
   -0.23283E-20        -0.21284E-19         0.00000E+00
   -0.69849E-21        -0.11970E-19         0.00000E+00
   -0.23283E-21        -0.21364E-20         0.00000E+00
    0.17110E-22         0.55879E-20         0.00000E+00
   -0.46566E-21         0.66561E-20         0.00000E+00
    0.46566E-21         0.11970E-19         0.00000E+00
    0.18626E-20         0.10108E-19         0.00000E+00
    0.14141E-20         0.29308E-20         0.00000E+00
    0.23112E-20        -0.71768E-20         0.00000E+00
    0.18626E-20         0.37253E-20         0.00000E+00
    0.71560E-21         0.18353E-19         0.00000E+00
    0.13970E-20         0.55879E-20         0.00000E+00
    0.23283E-20        -0.45197E-20         0.00000E+00
    0.18798E-20        -0.21364E-20         0.00000E+00
    0.27940E-20        -0.37253E-20         0.00000E+00
    0.34925E-20        -0.79444E-21         0.00000E+00
    0.40660E-20        -0.74506E-20         0.00000E+00
    0.41910E-20        -0.23420E-19         0.00000E+00
    0.41910E-20        -0.26077E-19         0.00000E+00
    0.37253E-20        -0.15696E-19         0.00000E+00
    0.25072E-20        -0.19695E-19         0.00000E+00
    0.18626E-20        -0.24214E-19         0.00000E+00
    0.16298E-20        -0.21284E-19         0.00000E+00
    0.32596E-20        -0.15038E-19         0.00000E+00
    0.52117E-20        -0.38622E-20         0.00000E+00
    0.51223E-20        -0.65756E-21         0.00000E+00
    0.40028E-20         0.10682E-20         0.00000E+00
    0.46566E-20         0.25202E-20         0.00000E+00
    0.32596E-20         0.90395E-20         0.00000E+00
   -0.23283E-20         0.37253E-20         0.00000E+00
   -0.23283E-20         0.37253E-20         0.00000E+00
   -0.18626E-20         0.82450E-20         0.00000E+00
   -0.27940E-20         0.19421E-19         0.00000E+00
   -0.22941E-20         0.15175E-19         0.00000E+00
   -0.18284E-20        -0.34515E-20         0.00000E+00
   -0.93132E-21        -0.23420E-19         0.00000E+00
    0.00000E+00        -0.25283E-19         0.00000E+00
    0.00000E+00        -0.22352E-19         0.00000E+00
   -0.34220E-22        -0.15969E-19         0.00000E+00
   -0.34220E-22        -0.10381E-19         0.00000E+00
   -0.14312E-20        -0.63824E-20         0.00000E+00
   -0.46566E-21         0.10682E-20         0.00000E+00
    0.00000E+00         0.93132E-20         0.00000E+00
   -0.46566E-21         0.15969E-19         0.00000E+00
   -0.13970E-20         0.93132E-20         0.00000E+00
   -0.27940E-20         0.15559E-19         0.00000E+00
   -0.49988E-21         0.14764E-19         0.00000E+00
    0.00000E+00         0.85188E-20         0.00000E+00
   -0.93132E-21        -0.74506E-20         0.00000E+00
    0.46566E-21        -0.19695E-19         0.00000E+00
    0.93132E-21        -0.18626E-19         0.00000E+00
    0.93132E-21        -0.25009E-19         0.00000E+00
    0.71560E-21        -0.22078E-19         0.00000E+00
    0.14141E-20        -0.85188E-20         0.00000E+00
    0.18626E-20        -0.37253E-20         0.00000E+00
    0.27769E-20        -0.37253E-20         0.00000E+00
    0.27940E-20         0.63824E-20         0.00000E+00
    0.23283E-20         0.17038E-19         0.00000E+00
    0.32596E-20         0.10682E-20         0.00000E+00
    0.42081E-20        -0.47935E-20         0.00000E+00
    0.51223E-20         0.37253E-20         0.00000E+00
    0.51223E-20         0.26571E-20         0.00000E+00
    0.60536E-20        -0.27376E-21         0.00000E+00
    0.46566E-20         0.29308E-20         0.00000E+00
    0.45316E-20         0.93132E-20         0.00000E+00
    0.41910E-20         0.47935E-20         0.00000E+00
    0.43159E-20        -0.90395E-20         0.00000E+00
    0.37253E-20        -0.15969E-19         0.00000E+00
    0.13970E-20        -0.77243E-20         0.00000E+00
   -0.93132E-21        -0.85188E-20         0.00000E+00
   -0.16298E-20        -0.74506E-20         0.00000E+00
   -0.16298E-20        -0.10108E-19         0.00000E+00
   -0.18626E-20        -0.26871E-19         0.00000E+00
   -0.13431E-20        -0.31665E-19         0.00000E+00
   -0.13970E-20        -0.24078E-19         0.00000E+00
   -0.18626E-20        -0.14901E-19         0.00000E+00
   -0.16298E-20        -0.75875E-20         0.00000E+00
   -0.74322E-21         0.26571E-20         0.00000E+00
    0.46566E-21         0.10108E-19         0.00000E+00
    0.13970E-20         0.74506E-20         0.00000E+00
   -0.32596E-20         0.58617E-20         0.00000E+00
   -0.18626E-20         0.55879E-20         0.00000E+00
   -0.27940E-20         0.37253E-20         0.00000E+00
   -0.27940E-20         0.18626E-20         0.00000E+00
   -0.93132E-21        -0.29308E-20         0.00000E+00
    0.18626E-20        -0.15038E-19         0.00000E+00
    0.18626E-20        -0.19558E-19         0.00000E+00
    0.13970E-20        -0.13039E-19         0.00000E+00
    0.93132E-21        -0.14901E-19         0.00000E+00
    0.26705E-21        -0.16764E-19         0.00000E+00
    0.96554E-21        -0.12107E-19         0.00000E+00
    0.23283E-20        -0.35884E-20         0.00000E+00
    0.18626E-20        -0.18626E-20         0.00000E+00
    0.27940E-20        -0.79444E-21         0.00000E+00
    0.23283E-20         0.29308E-20         0.00000E+00
    0.27940E-20         0.10108E-19         0.00000E+00
    0.37253E-20         0.13039E-19         0.00000E+00
    0.60878E-20         0.45197E-20         0.00000E+00
    0.69849E-20         0.10902E-19         0.00000E+00
    0.55879E-20         0.37253E-20         0.00000E+00
    0.37253E-20        -0.11970E-19         0.00000E+00
    0.37253E-20        -0.17558E-19         0.00000E+00
    0.27940E-20        -0.18626E-19         0.00000E+00
    0.93132E-21        -0.14764E-19         0.00000E+00
    0.19861E-21        -0.11313E-19         0.00000E+00
    0.00000E+00        -0.37253E-20         0.00000E+00
   -0.44855E-21         0.55879E-20         0.00000E+00
   -0.46566E-21         0.16764E-19         0.00000E+00
    0.46566E-21         0.66561E-20         0.00000E+00
   -0.46566E-21        -0.93132E-20         0.00000E+00
   -0.94843E-21        -0.16764E-19         0.00000E+00
    0.93132E-21        -0.10682E-20         0.00000E+00
    0.18626E-20         0.14901E-19         0.00000E+00
    0.93132E-21         0.82450E-20         0.00000E+00
    0.19705E-20         0.55879E-20         0.00000E+00
    0.23283E-20        -0.59433E-34         0.00000E+00
    0.27940E-20        -0.55879E-20         0.00000E+00
    0.32425E-20         0.00000E+00         0.00000E+00
    0.32596E-20         0.74506E-20         0.00000E+00
    0.27940E-20         0.00000E+00         0.00000E+00
    0.37253E-20        -0.93132E-20         0.00000E+00
    0.29189E-20        -0.11176E-19         0.00000E+00
    0.30807E-20        -0.17832E-19         0.00000E+00
    0.18626E-20        -0.26077E-19         0.00000E+00
    0.18087E-20        -0.23941E-19         0.00000E+00
    0.00000E+00        -0.11970E-19         0.00000E+00
   -0.14864E-20        -0.29308E-20         0.00000E+00
   -0.27940E-20        -0.74506E-20         0.00000E+00
   -0.16298E-20        -0.93132E-20         0.00000E+00
   -0.46566E-21        -0.85188E-20         0.00000E+00
    0.93132E-21        -0.21364E-20         0.00000E+00
    0.00000E+00        -0.58617E-20         0.00000E+00
    0.46566E-21         0.37253E-20         0.00000E+00
    0.46566E-21         0.10381E-19         0.00000E+00
    0.46566E-21         0.74506E-20         0.00000E+00
   -0.93132E-21        -0.37253E-20         0.00000E+00
   -0.14312E-20        -0.17832E-19         0.00000E+00
   -0.32254E-20        -0.23420E-19         0.00000E+00
   -0.27940E-20        -0.19421E-19         0.00000E+00
   -0.93132E-21        -0.16764E-19         0.00000E+00
    0.46566E-21        -0.14107E-19         0.00000E+00
    0.13628E-20        -0.19421E-19         0.00000E+00
    0.23625E-20        -0.13833E-19         0.00000E+00
    0.32596E-20        -0.10682E-20         0.00000E+00
    0.37253E-20         0.93132E-20         0.00000E+00
    0.37253E-20         0.13312E-19         0.00000E+00
    0.27940E-20         0.29308E-20         0.00000E+00
    0.41910E-20        -0.10682E-20         0.00000E+00
    0.37253E-20        -0.27376E-21         0.00000E+00
    0.23454E-20         0.11970E-19         0.00000E+00
    0.27940E-20         0.55879E-20         0.00000E+00
    0.37253E-20        -0.11176E-19         0.00000E+00
    0.32596E-20        -0.13039E-19         0.00000E+00
    0.13970E-20        -0.11970E-19         0.00000E+00
    0.11642E-20        -0.82450E-20         0.00000E+00
    0.71560E-21        -0.47935E-20         0.00000E+00
    0.23283E-21         0.18626E-20         0.00000E+00
   -0.17110E-22         0.10682E-20         0.00000E+00
    0.18626E-20         0.79444E-21         0.00000E+00
    0.13970E-20         0.15696E-19         0.00000E+00
    0.13970E-20         0.58617E-20         0.00000E+00
    0.23454E-20        -0.11039E-19         0.00000E+00
    0.68138E-21        -0.65193E-20         0.00000E+00
    0.18626E-20         0.18626E-20         0.00000E+00
    0.13970E-20         0.79444E-21         0.00000E+00
    0.30268E-20        -0.37253E-20         0.00000E+00
    0.18626E-20         0.26571E-20         0.00000E+00
    0.00000E+00         0.79444E-21         0.00000E+00
    0.12497E-21        -0.11970E-19         0.00000E+00
    0.18626E-20        -0.14901E-19         0.00000E+00
    0.32596E-20        -0.10381E-19         0.00000E+00
    0.27940E-20        -0.11176E-19         0.00000E+00
    0.44238E-20        -0.37253E-20         0.00000E+00
    0.51223E-20        -0.45197E-20         0.00000E+00
    0.41910E-20        -0.21284E-19         0.00000E+00
    0.52301E-20        -0.21557E-19         0.00000E+00
    0.51223E-20        -0.74506E-20         0.00000E+00
    0.60536E-20        -0.79444E-21         0.00000E+00
    0.61430E-20        -0.85188E-20         0.00000E+00
    0.47013E-20        -0.66561E-20         0.00000E+00
    0.13970E-20        -0.18626E-20         0.00000E+00
    0.13970E-20        -0.37253E-20         0.00000E+00
    0.51223E-20         0.74506E-20         0.00000E+00
    0.55879E-20         0.47935E-20         0.00000E+00
    0.41910E-20         0.37253E-20         0.00000E+00
    0.51223E-20         0.63824E-20         0.00000E+00
    0.51223E-20         0.47935E-20         0.00000E+00
    0.42252E-20        -0.79444E-21         0.00000E+00
    0.41910E-20        -0.11313E-19         0.00000E+00
    0.37253E-20        -0.23283E-19         0.00000E+00
    0.32596E-20        -0.30734E-19         0.00000E+00
    0.22941E-20        -0.29939E-19         0.00000E+00
    0.23625E-20        -0.24214E-19         0.00000E+00
    0.89710E-21        -0.11970E-19         0.00000E+00
    0.37253E-20        -0.63824E-20         0.00000E+00
    0.37253E-20        -0.47935E-20         0.00000E+00
    0.60536E-20         0.85188E-20         0.00000E+00
    0.74506E-20         0.74506E-20         0.00000E+00
    0.60536E-20         0.71768E-20         0.00000E+00
    0.18284E-20         0.14901E-19         0.00000E+00
    0.11470E-20         0.14901E-19         0.00000E+00
    0.93132E-21        -0.37253E-20         0.00000E+00
    0.46566E-21        -0.13833E-19         0.00000E+00
    0.00000E+00        -0.63824E-20         0.00000E+00
    0.93132E-21        -0.10381E-19         0.00000E+00
    0.16127E-20        -0.11176E-19         0.00000E+00
    0.32767E-20        -0.37253E-20         0.00000E+00
    0.25440E-20         0.79444E-21         0.00000E+00
    0.21126E-20        -0.18626E-20         0.00000E+00
    0.27940E-20         0.85188E-20         0.00000E+00
    0.23283E-20         0.93132E-20         0.00000E+00
    0.46566E-20        -0.12244E-19         0.00000E+00
    0.46395E-20        -0.14901E-19         0.00000E+00
    0.42081E-20         0.18626E-20         0.00000E+00
    0.27940E-20         0.11176E-19         0.00000E+00
    0.18626E-20         0.37253E-20         0.00000E+00
   -0.10786E-21         0.37253E-20         0.00000E+00
    0.00000E+00         0.13039E-19         0.00000E+00
    0.46566E-21         0.37253E-20         0.00000E+00
   -0.10786E-21        -0.74506E-20         0.00000E+00
   -0.15048E-20        -0.71768E-20         0.00000E+00
   -0.18626E-20        -0.74506E-20         0.00000E+00
   -0.13970E-20        -0.17038E-19         0.00000E+00
   -0.35780E-21        -0.23146E-19         0.00000E+00
    0.11642E-20        -0.16764E-19         0.00000E+00
    0.18626E-20        -0.26077E-19         0.00000E+00
    0.64456E-21        -0.29802E-19         0.00000E+00
    0.93132E-21        -0.14107E-19         0.00000E+00
    0.10208E-20        -0.74506E-20         0.00000E+00
    0.60904E-21         0.13688E-21         0.00000E+00
   -0.97605E-21         0.12107E-19         0.00000E+00
   -0.46566E-21         0.10108E-19         0.00000E+00
   -0.13970E-20         0.00000E+00         0.00000E+00
    0.74506E-20        -0.15889E-20         0.00000E+00
    0.79162E-20         0.93132E-20         0.00000E+00
    0.69849E-20         0.13833E-19         0.00000E+00
    0.74506E-20         0.29308E-20         0.00000E+00
    0.65193E-20        -0.26571E-20         0.00000E+00
    0.74506E-20        -0.14107E-19         0.00000E+00
    0.83819E-20        -0.17832E-19         0.00000E+00
    0.79162E-20        -0.14901E-19         0.00000E+00
    0.69849E-20        -0.12244E-19         0.00000E+00
    0.46908E-20        -0.10245E-19         0.00000E+00
    0.36911E-20        -0.14764E-19         0.00000E+00
    0.32596E-20        -0.16764E-19         0.00000E+00
    0.27940E-20        -0.13039E-19         0.00000E+00
    0.27940E-20        -0.37253E-20         0.00000E+00
    0.37253E-20        -0.55879E-20         0.00000E+00
    0.41567E-20         0.37253E-20         0.00000E+00
    0.36911E-20         0.26077E-19         0.00000E+00
    0.41910E-20         0.22352E-19         0.00000E+00
    0.41910E-20         0.16764E-19         0.00000E+00
    0.41910E-20         0.11176E-19         0.00000E+00
    0.32596E-20        -0.55879E-20         0.00000E+00
    0.37253E-20        -0.14901E-19         0.00000E+00
    0.41910E-20        -0.20489E-19         0.00000E+00
    0.37253E-20        -0.20489E-19         0.00000E+00
    0.20784E-20        -0.55879E-20         0.00000E+00
    0.25611E-20         0.55879E-20         0.00000E+00
    0.32596E-20         0.00000E+00         0.00000E+00
    0.27940E-20         0.18626E-20         0.00000E+00
    0.18626E-20         0.37253E-20         0.00000E+00
    0.93132E-21        -0.74506E-20         0.00000E+00
   -0.18455E-20        -0.11176E-19         0.00000E+00
   -0.18626E-20         0.10682E-20         0.00000E+00
   -0.32596E-20         0.14901E-19         0.00000E+00
   -0.37253E-20         0.14901E-19         0.00000E+00
   -0.46566E-20         0.74506E-20         0.00000E+00
   -0.37253E-20         0.79444E-21         0.00000E+00
   -0.27940E-20         0.00000E+00         0.00000E+00
   -0.17548E-20        -0.26571E-20         0.00000E+00
   -0.59063E-21        -0.37253E-20         0.00000E+00
    0.00000E+00        -0.85188E-20         0.00000E+00
    0.93132E-21        -0.19421E-19         0.00000E+00
    0.00000E+00        -0.16764E-19         0.00000E+00
   -0.75242E-21        -0.14107E-19         0.00000E+00
    0.00000E+00        -0.20489E-19         0.00000E+00
   -0.16298E-20        -0.18626E-19         0.00000E+00
   -0.27940E-20        -0.10108E-19         0.00000E+00
   -0.35819E-20         0.00000E+00         0.00000E+00
   -0.37253E-20         0.26571E-20         0.00000E+00
   -0.23283E-20        -0.79444E-21         0.00000E+00
   -0.46566E-21         0.26571E-20         0.00000E+00
   -0.46566E-21         0.31778E-20         0.00000E+00
    0.46566E-21         0.74506E-20         0.00000E+00
    0.00000E+00         0.82450E-20         0.00000E+00
    0.13970E-20         0.74506E-20         0.00000E+00
    0.13970E-20         0.10381E-19         0.00000E+00
    0.13970E-20         0.38622E-20         0.00000E+00
    0.13628E-20        -0.12107E-19         0.00000E+00
    0.18284E-20        -0.14107E-19         0.00000E+00
    0.23283E-20        -0.18626E-19         0.00000E+00
    0.18626E-20        -0.14901E-19         0.00000E+00
    0.32596E-20        -0.11176E-19         0.00000E+00
    0.37595E-20        -0.16764E-19         0.00000E+00
    0.32938E-20        -0.74506E-20         0.00000E+00
    0.46566E-21        -0.55879E-20         0.00000E+00
    0.46566E-21        -0.82450E-20         0.00000E+00
    0.00000E+00         0.18626E-20         0.00000E+00
   -0.43144E-21         0.63824E-20         0.00000E+00
   -0.43144E-21         0.74506E-20         0.00000E+00
    0.14312E-20         0.11176E-19         0.00000E+00
    0.13970E-20         0.17558E-19         0.00000E+00
    0.16298E-20         0.37253E-20         0.00000E+00
    0.23283E-21        -0.10108E-19         0.00000E+00
    0.00000E+00        -0.13833E-19         0.00000E+00
    0.00000E+00        -0.11176E-19         0.00000E+00
    0.71560E-21        -0.18626E-20         0.00000E+00
    0.46566E-21         0.37253E-20         0.00000E+00
    0.94843E-21        -0.29308E-20         0.00000E+00
    0.18626E-20        -0.37253E-20         0.00000E+00
    0.46566E-21         0.14107E-19         0.00000E+00
   -0.46566E-21         0.18626E-19         0.00000E+00
   -0.27940E-20         0.63824E-20         0.00000E+00
   -0.28111E-20        -0.18626E-20         0.00000E+00
   -0.48894E-20         0.74506E-20         0.00000E+00
   -0.51223E-20         0.20489E-19         0.00000E+00
   -0.41910E-20         0.13039E-19         0.00000E+00
   -0.37253E-20         0.37253E-20         0.00000E+00
   -0.37253E-20         0.18626E-20         0.00000E+00
   -0.44238E-20        -0.74506E-20         0.00000E+00
   -0.41910E-20        -0.16764E-19         0.00000E+00
   -0.39581E-20        -0.14901E-19         0.00000E+00
   -0.27940E-20        -0.14901E-19         0.00000E+00
   -0.27940E-20        -0.14901E-19         0.00000E+00
   -0.27940E-20        -0.13039E-19         0.00000E+00
   -0.32596E-20        -0.18626E-19         0.00000E+00
   -0.23283E-20        -0.24214E-19         0.00000E+00
   -0.16837E-20        -0.14901E-19         0.00000E+00
    0.46566E-21        -0.37253E-20         0.00000E+00
    0.20955E-20        -0.37253E-20         0.00000E+00
    0.20955E-20        -0.74506E-20         0.00000E+00
    0.32596E-20        -0.37253E-20         0.00000E+00
    0.30268E-20         0.79444E-21         0.00000E+00
    0.32596E-20         0.53142E-20         0.00000E+00
   -0.46566E-20         0.00000E+00         0.00000E+00
   -0.46566E-20         0.37253E-20         0.00000E+00
   -0.37253E-20         0.66561E-20         0.00000E+00
   -0.41910E-20         0.55879E-20         0.00000E+00
   -0.27940E-20        -0.37253E-20         0.00000E+00
   -0.27597E-20        -0.16764E-19         0.00000E+00
   -0.18284E-20        -0.21557E-19         0.00000E+00
   -0.18284E-20        -0.14901E-19         0.00000E+00
   -0.22941E-20        -0.15696E-19         0.00000E+00
   -0.13628E-20        -0.17695E-19         0.00000E+00
   -0.25611E-20        -0.15038E-19         0.00000E+00
   -0.27940E-20        -0.47935E-20         0.00000E+00
   -0.32254E-20         0.93132E-21         0.00000E+00
   -0.37253E-20        -0.17258E-20         0.00000E+00
   -0.41910E-20         0.00000E+00         0.00000E+00
   -0.36911E-20         0.54511E-20         0.00000E+00
   -0.32596E-20         0.13970E-19         0.00000E+00
   -0.41910E-20         0.16764E-19         0.00000E+00
   -0.50881E-20         0.16764E-19         0.00000E+00
   -0.48723E-20         0.19695E-19         0.00000E+00
   -0.55708E-20         0.00000E+00         0.00000E+00
   -0.55708E-20        -0.14901E-19         0.00000E+00
   -0.60536E-20        -0.24214E-19         0.00000E+00
   -0.46566E-20        -0.23146E-19         0.00000E+00
   -0.20955E-20        -0.74506E-20         0.00000E+00
   -0.13970E-20        -0.10682E-20         0.00000E+00
   -0.18626E-20         0.18626E-20         0.00000E+00
   -0.13970E-20         0.13039E-19         0.00000E+00
   -0.46566E-21         0.22352E-19         0.00000E+00
    0.00000E+00         0.55879E-20         0.00000E+00
   -0.44855E-21         0.00000E+00         0.00000E+00
    0.17110E-22         0.11176E-19         0.00000E+00
    0.93132E-21         0.11176E-19         0.00000E+00
    0.18626E-20         0.82450E-20         0.00000E+00
    0.16298E-20         0.37253E-20         0.00000E+00
    0.35780E-21         0.45197E-20         0.00000E+00
   -0.80635E-21         0.37253E-20         0.00000E+00
   -0.30268E-20        -0.34515E-20         0.00000E+00
   -0.47645E-20        -0.11970E-19         0.00000E+00
   -0.60536E-20        -0.14901E-19         0.00000E+00
   -0.51223E-20        -0.17832E-19         0.00000E+00
   -0.26690E-20        -0.14901E-19         0.00000E+00
   -0.25611E-20        -0.19421E-19         0.00000E+00
   -0.27940E-20        -0.29802E-19         0.00000E+00
   -0.18626E-20        -0.29802E-19         0.00000E+00
   -0.69849E-21        -0.25146E-19         0.00000E+00
    0.55511E-21        -0.12107E-19         0.00000E+00
    0.12536E-20        -0.55879E-20         0.00000E+00
    0.74322E-21        -0.29308E-20         0.00000E+00
   -0.94053E-22         0.26571E-20         0.00000E+00
    0.93132E-21         0.53142E-20         0.00000E+00
   -0.60536E-20         0.37253E-20         0.00000E+00
   -0.60536E-20         0.55879E-20         0.00000E+00
   -0.55879E-20         0.55879E-20         0.00000E+00
   -0.51223E-20         0.37253E-20         0.00000E+00
   -0.46566E-20        -0.37253E-20         0.00000E+00
   -0.51223E-20        -0.16764E-19         0.00000E+00
   -0.51565E-20        -0.18626E-19         0.00000E+00
   -0.51223E-20        -0.16764E-19         0.00000E+00
   -0.32938E-20        -0.16764E-19         0.00000E+00
   -0.21297E-20        -0.93132E-20         0.00000E+00
   -0.22941E-20        -0.93132E-20         0.00000E+00
   -0.13970E-20        -0.55879E-20         0.00000E+00
   -0.27940E-20        -0.18626E-20         0.00000E+00
   -0.13970E-20        -0.18626E-20         0.00000E+00
   -0.18626E-20         0.00000E+00         0.00000E+00
   -0.23625E-20         0.18626E-20         0.00000E+00
   -0.32596E-20         0.11176E-19         0.00000E+00
   -0.27940E-20         0.20489E-19         0.00000E+00
   -0.28282E-20         0.20489E-19         0.00000E+00
   -0.16298E-20         0.74506E-20         0.00000E+00
   -0.46566E-21        -0.74506E-20         0.00000E+00
   -0.94843E-21        -0.11176E-19         0.00000E+00
   -0.93132E-21        -0.16764E-19         0.00000E+00
   -0.27940E-20        -0.20489E-19         0.00000E+00
   -0.25440E-20        -0.11176E-19         0.00000E+00
   -0.27940E-20        -0.55879E-20         0.00000E+00
   -0.18626E-20        -0.37253E-20         0.00000E+00
   -0.13970E-20         0.93132E-20         0.00000E+00
    0.00000E+00         0.11176E-19         0.00000E+00
    0.13970E-20         0.34515E-20         0.00000E+00
    0.46566E-21        -0.39990E-20         0.00000E+00
    0.20784E-20         0.54752E-21         0.00000E+00
    0.18626E-20         0.11450E-19         0.00000E+00
    0.00000E+00         0.10902E-19         0.00000E+00
    0.57352E-21         0.11176E-19         0.00000E+00
    0.10392E-20         0.14901E-19         0.00000E+00
    0.18626E-20         0.11176E-19         0.00000E+00
    0.17548E-20         0.00000E+00         0.00000E+00
    0.13970E-20        -0.18626E-20         0.00000E+00
    0.13970E-20        -0.11176E-19         0.00000E+00
    0.13970E-20        -0.29802E-19         0.00000E+00
    0.13970E-20        -0.26077E-19         0.00000E+00
    0.12181E-20        -0.20489E-19         0.00000E+00
   -0.23283E-21        -0.28213E-19         0.00000E+00
    0.00000E+00        -0.24214E-19         0.00000E+00
   -0.27940E-20        -0.16490E-19         0.00000E+00
   -0.36358E-20        -0.13039E-19         0.00000E+00
   -0.34925E-20        -0.74506E-20         0.00000E+00
   -0.46566E-20         0.18626E-20         0.00000E+00
   -0.50282E-20         0.18626E-20         0.00000E+00
   -0.51223E-20        -0.37253E-20         0.00000E+00
   -0.60536E-20         0.00000E+00         0.00000E+00
   -0.60536E-20         0.37253E-20         0.00000E+00
   -0.55879E-20         0.37253E-20         0.00000E+00
   -0.60536E-20         0.00000E+00         0.00000E+00
   -0.65193E-20        -0.37253E-20         0.00000E+00
   -0.60536E-20        -0.14901E-19         0.00000E+00
   -0.64850E-20        -0.22352E-19         0.00000E+00
   -0.46566E-20        -0.26077E-19         0.00000E+00
   -0.27940E-20        -0.29802E-19         0.00000E+00
   -0.15956E-20        -0.22625E-19         0.00000E+00
    0.89710E-21        -0.18626E-19         0.00000E+00
    0.13970E-20        -0.34515E-20         0.00000E+00
    0.13970E-20        -0.27376E-21         0.00000E+00
    0.13970E-20        -0.15889E-20         0.00000E+00
    0.18626E-20         0.21364E-20         0.00000E+00
    0.49988E-21         0.90395E-20         0.00000E+00
   -0.93132E-21         0.18626E-19         0.00000E+00
   -0.46566E-21         0.11176E-19         0.00000E+00
    0.69849E-21         0.12765E-19         0.00000E+00
    0.20784E-20         0.10902E-19         0.00000E+00
    0.18626E-20        -0.34515E-20         0.00000E+00
    0.23283E-20        -0.14627E-19         0.00000E+00
    0.23283E-20        -0.16764E-19         0.00000E+00
    0.23283E-20        -0.13039E-19         0.00000E+00
    0.16298E-20        -0.74506E-20         0.00000E+00
   -0.93132E-21        -0.55879E-20         0.00000E+00
   -0.13970E-20        -0.37253E-20         0.00000E+00
   -0.18626E-20         0.37253E-20         0.00000E+00
   -0.23283E-20         0.74506E-20         0.00000E+00
   -0.11642E-20         0.34515E-20         0.00000E+00
    0.69849E-21        -0.21364E-20         0.00000E+00
    0.00000E+00         0.42728E-20         0.00000E+00
    0.93132E-21         0.20489E-19         0.00000E+00
    0.13970E-20         0.14627E-19         0.00000E+00
    0.59063E-21         0.27376E-21         0.00000E+00
   -0.23283E-21        -0.27376E-21         0.00000E+00
    0.16298E-20        -0.18626E-20         0.00000E+00
    0.25611E-20        -0.34515E-20         0.00000E+00
    0.31518E-20        -0.93132E-20         0.00000E+00
    0.60536E-20        -0.14901E-19         0.00000E+00
    0.44238E-20        -0.16764E-19         0.00000E+00
    0.34925E-20        -0.15175E-19         0.00000E+00
    0.25072E-20        -0.13039E-19         0.00000E+00
    0.13431E-20        -0.22078E-19         0.00000E+00
    0.18626E-20        -0.18626E-19         0.00000E+00
    0.13970E-20        -0.74506E-20         0.00000E+00
   -0.32228E-21        -0.37253E-20         0.00000E+00
   -0.12536E-20         0.00000E+00         0.00000E+00
   -0.23283E-20         0.18626E-20         0.00000E+00
   -0.19567E-20         0.37253E-20         0.00000E+00
   -0.27940E-20         0.37253E-20         0.00000E+00
    0.23283E-20         0.31778E-20         0.00000E+00
    0.13970E-20         0.55879E-20         0.00000E+00
    0.13628E-20         0.77243E-20         0.00000E+00
    0.89710E-21         0.93132E-20         0.00000E+00
    0.46566E-21        -0.39990E-20         0.00000E+00
   -0.13970E-20        -0.20489E-19         0.00000E+00
   -0.11984E-20        -0.25803E-19         0.00000E+00
    0.39722E-21        -0.33528E-19         0.00000E+00
    0.00000E+00        -0.33528E-19         0.00000E+00
   -0.53410E-21        -0.26077E-19         0.00000E+00
   -0.96554E-21        -0.22352E-19         0.00000E+00
   -0.28282E-20        -0.11176E-19         0.00000E+00
   -0.18969E-20        -0.18626E-20         0.00000E+00
   -0.23283E-20        -0.18626E-20         0.00000E+00
   -0.46566E-21         0.37253E-20         0.00000E+00
   -0.96554E-21         0.13039E-19         0.00000E+00
   -0.34220E-22         0.13039E-19         0.00000E+00
    0.89710E-21         0.10902E-19         0.00000E+00
    0.14141E-20         0.10902E-19         0.00000E+00
    0.18626E-20         0.39990E-20         0.00000E+00
    0.25269E-20        -0.10902E-19         0.00000E+00
    0.25611E-20        -0.14901E-19         0.00000E+00
    0.93132E-21        -0.14901E-19         0.00000E+00
    0.11470E-20        -0.14901E-19         0.00000E+00
    0.44855E-21         0.37253E-20         0.00000E+00
    0.15956E-20         0.74506E-20         0.00000E+00
   -0.23283E-21         0.00000E+00         0.00000E+00
    0.93132E-21         0.14901E-19         0.00000E+00
    0.46566E-21         0.93132E-20         0.00000E+00
   -0.71560E-21        -0.11176E-19         0.00000E+00
    0.21572E-21        -0.74506E-20         0.00000E+00
   -0.46566E-21         0.00000E+00         0.00000E+00
   -0.48277E-21         0.55879E-20         0.00000E+00
    0.93132E-21         0.11176E-19         0.00000E+00
    0.46566E-21         0.18626E-19         0.00000E+00
    0.57352E-21         0.11176E-19         0.00000E+00
    0.17377E-20        -0.18626E-20         0.00000E+00
    0.12720E-20        -0.93132E-20         0.00000E+00
    0.18455E-20        -0.18626E-19         0.00000E+00
    0.18626E-20        -0.16764E-19         0.00000E+00
    0.10392E-20        -0.18626E-19         0.00000E+00
    0.16127E-20        -0.15175E-19         0.00000E+00
    0.12720E-20        -0.13039E-19         0.00000E+00
    0.30807E-20        -0.25803E-19         0.00000E+00
    0.23283E-20        -0.22625E-19         0.00000E+00
    0.32596E-20        -0.74506E-20         0.00000E+00
    0.22389E-20         0.27376E-21         0.00000E+00
    0.13970E-20         0.37253E-20         0.00000E+00
    0.13075E-20         0.53142E-20         0.00000E+00
    0.12582E-20         0.37253E-20         0.00000E+00
    0.13970E-20         0.42728E-20         0.00000E+00
    0.32596E-20         0.74506E-20         0.00000E+00
    0.32596E-20         0.93132E-20         0.00000E+00
    0.28282E-20         0.74506E-20         0.00000E+00
    0.32938E-20         0.55879E-20         0.00000E+00
    0.46224E-20         0.71768E-20         0.00000E+00
    0.60536E-20        -0.11176E-19         0.00000E+00
    0.64850E-20        -0.31391E-19         0.00000E+00
    0.65193E-20        -0.29802E-19         0.00000E+00
    0.50881E-20        -0.24214E-19         0.00000E+00
    0.46566E-20        -0.14901E-19         0.00000E+00
    0.37253E-20        -0.74506E-20         0.00000E+00
    0.41910E-20         0.00000E+00         0.00000E+00
    0.37253E-20        -0.37253E-20         0.00000E+00
    0.41910E-20        -0.11176E-19         0.00000E+00
    0.18626E-20        -0.18626E-20         0.00000E+00
    0.27940E-20         0.74506E-20         0.00000E+00
    0.18969E-20         0.55879E-20         0.00000E+00
    0.93132E-21         0.37253E-20         0.00000E+00
   -0.24994E-21         0.11176E-19         0.00000E+00
    0.00000E+00         0.55879E-20         0.00000E+00
    0.17110E-22        -0.74506E-20         0.00000E+00
   -0.94843E-21        -0.74506E-20         0.00000E+00
   -0.34220E-22        -0.11176E-19         0.00000E+00
    0.00000E+00        -0.93132E-20         0.00000E+00
    0.21572E-21        -0.74506E-20         0.00000E+00
    0.16469E-20        -0.37253E-20         0.00000E+00
    0.18455E-20         0.00000E+00         0.00000E+00
    0.23283E-20         0.18626E-20         0.00000E+00
    0.37253E-20         0.14901E-19         0.00000E+00
    0.32596E-20         0.55879E-20         0.00000E+00
    0.23283E-20        -0.37253E-20         0.00000E+00
    0.20955E-20         0.74506E-20         0.00000E+00
    0.48277E-21         0.14901E-19         0.00000E+00
   -0.46566E-21         0.74506E-20         0.00000E+00
    0.21572E-21         0.00000E+00         0.00000E+00
    0.18626E-20        -0.37253E-20         0.00000E+00
    0.93132E-21        -0.37253E-20         0.00000E+00
   -0.35780E-21        -0.37253E-20         0.00000E+00
   -0.93132E-21        -0.11176E-19         0.00000E+00
   -0.23283E-20        -0.13039E-19         0.00000E+00
   -0.15048E-20        -0.18626E-19         0.00000E+00
   -0.22033E-20        -0.16764E-19         0.00000E+00
   -0.25611E-20        -0.18626E-19         0.00000E+00
   -0.41910E-20        -0.26351E-19         0.00000E+00
   -0.48355E-20        -0.18626E-19         0.00000E+00
   -0.41910E-20        -0.71768E-20         0.00000E+00
   -0.37253E-20         0.34515E-20         0.00000E+00
   -0.27940E-20         0.34515E-20         0.00000E+00
   -0.11642E-20         0.37253E-20         0.00000E+00
   -0.93132E-21         0.58617E-20         0.00000E+00
   -0.93132E-21         0.42728E-20         0.00000E+00
    0.23283E-20         0.69031E-20         0.00000E+00
    0.32596E-20         0.74506E-20         0.00000E+00
    0.41910E-20         0.58617E-20         0.00000E+00
    0.41910E-20         0.00000E+00         0.00000E+00
    0.37595E-20        -0.17038E-19         0.00000E+00
    0.46224E-20        -0.29802E-19         0.00000E+00
    0.32596E-20        -0.27940E-19         0.00000E+00
    0.96554E-21        -0.26077E-19         0.00000E+00
    0.13970E-20        -0.24214E-19         0.00000E+00
    0.23625E-20        -0.18626E-19         0.00000E+00
    0.37253E-20        -0.20489E-19         0.00000E+00
    0.46566E-20        -0.11176E-19         0.00000E+00
    0.51223E-20        -0.15889E-20         0.00000E+00
    0.46566E-20         0.74506E-20         0.00000E+00
    0.37253E-20         0.11176E-19         0.00000E+00
    0.41910E-20         0.13039E-19         0.00000E+00
    0.46224E-20         0.20489E-19         0.00000E+00
    0.27940E-20         0.20489E-19         0.00000E+00
    0.93132E-21         0.16490E-19         0.00000E+00
    0.00000E+00         0.37253E-20         0.00000E+00
   -0.13970E-20        -0.71768E-20         0.00000E+00
    0.17110E-22        -0.14901E-19         0.00000E+00
    0.13970E-20        -0.18626E-19         0.00000E+00
    0.23283E-20        -0.16764E-19         0.00000E+00
    0.37253E-20        -0.37253E-20         0.00000E+00
    0.30268E-20         0.18626E-20         0.00000E+00
    0.46566E-20        -0.37253E-20         0.00000E+00
    0.37253E-20         0.37253E-20         0.00000E+00
    0.18626E-20         0.55879E-20         0.00000E+00
    0.93132E-21        -0.37253E-20         0.00000E+00
   -0.46566E-21        -0.18626E-20         0.00000E+00
   -0.94843E-21         0.74506E-20         0.00000E+00
   -0.94843E-21         0.18626E-19         0.00000E+00
   -0.13970E-20         0.14901E-19         0.00000E+00
   -0.18626E-20         0.55879E-20         0.00000E+00
   -0.27940E-20         0.74506E-20         0.00000E+00
   -0.41910E-20         0.93132E-20         0.00000E+00
   -0.39581E-20         0.00000E+00         0.00000E+00
   -0.46566E-20        -0.93132E-20         0.00000E+00
   -0.69849E-20        -0.14901E-19         0.00000E+00
   -0.69849E-20        -0.20489E-19         0.00000E+00
   -0.79162E-20        -0.11176E-19         0.00000E+00
   -0.75045E-20        -0.21364E-20         0.00000E+00
   -0.83819E-20        -0.11176E-19         0.00000E+00
   -0.62864E-20        -0.20215E-19         0.00000E+00
   -0.65193E-20        -0.14901E-19         0.00000E+00
   -0.60536E-20        -0.77243E-20         0.00000E+00
   -0.46566E-20        -0.93132E-20         0.00000E+00
   -0.27940E-20        -0.34515E-20         0.00000E+00
   -0.15358E-20         0.18626E-20         0.00000E+00
   -0.13970E-20         0.00000E+00         0.00000E+00
   -0.23283E-20        -0.54752E-21         0.00000E+00
   -0.32596E-20        -0.27376E-21         0.00000E+00
   -0.27940E-20         0.18626E-20         0.00000E+00
   -0.23283E-20         0.77243E-20         0.00000E+00
   -0.23283E-20         0.55879E-20         0.00000E+00
   -0.57865E-20        -0.74506E-20         0.00000E+00
   -0.60194E-20        -0.14901E-19         0.00000E+00
   -0.51223E-20        -0.22625E-19         0.00000E+00
   -0.60194E-20        -0.31391E-19         0.00000E+00
   -0.55879E-20        -0.25803E-19         0.00000E+00
   -0.41567E-20        -0.16764E-19         0.00000E+00
   -0.51223E-20        -0.77243E-20         0.00000E+00
   -0.46566E-20        -0.55879E-20         0.00000E+00
   -0.37253E-20        -0.34515E-20         0.00000E+00
   -0.13970E-20         0.00000E+00         0.00000E+00
   -0.13970E-20         0.34515E-20         0.00000E+00
   -0.89710E-21         0.14901E-19         0.00000E+00
   -0.43144E-21         0.20489E-19         0.00000E+00
    0.93132E-21         0.23941E-19         0.00000E+00
   -0.93132E-21         0.18900E-19         0.00000E+00
    0.00000E+00        -0.71768E-20         0.00000E+00
    0.93132E-21        -0.20489E-19         0.00000E+00
    0.14312E-20        -0.22352E-19         0.00000E+00
    0.23454E-20        -0.20489E-19         0.00000E+00
    0.28282E-20        -0.11176E-19         0.00000E+00
    0.28111E-20        -0.93132E-20         0.00000E+00
    0.20955E-20        -0.37253E-20         0.00000E+00
   -0.46566E-21         0.14901E-19         0.00000E+00
   -0.93132E-21         0.29529E-19         0.00000E+00
   -0.93132E-21         0.16764E-19         0.00000E+00
    0.00000E+00         0.37253E-20         0.00000E+00
    0.24994E-21         0.93132E-20         0.00000E+00
   -0.44855E-21         0.18626E-19         0.00000E+00
   -0.93132E-21         0.14901E-19         0.00000E+00
   -0.16127E-20         0.77243E-20         0.00000E+00
   -0.15048E-20         0.53142E-20         0.00000E+00
   -0.18626E-20        -0.27376E-21         0.00000E+00
   -0.23112E-20        -0.18626E-20         0.00000E+00
   -0.23283E-20         0.39990E-20         0.00000E+00
   -0.23283E-20         0.27376E-21         0.00000E+00
   -0.27940E-20        -0.13039E-19         0.00000E+00
   -0.27940E-20        -0.14901E-19         0.00000E+00
   -0.12181E-20        -0.16764E-19         0.00000E+00
    0.46566E-21        -0.29802E-19         0.00000E+00
    0.87739E-21        -0.27940E-19         0.00000E+00
    0.46566E-21        -0.12381E-19         0.00000E+00
    0.14864E-20        -0.55879E-20         0.00000E+00
    0.46566E-21        -0.11176E-19         0.00000E+00
   -0.37621E-21        -0.86557E-20         0.00000E+00
   -0.12582E-20        -0.15889E-20         0.00000E+00
   -0.93132E-21         0.54752E-21         0.00000E+00
    0.46566E-21         0.11723E-19         0.00000E+00
    0.00000E+00         0.93132E-20         0.00000E+00
   -0.93132E-21         0.34515E-20         0.00000E+00
   -0.93132E-21        -0.15889E-20         0.00000E+00
   -0.93132E-21        -0.37253E-20         0.00000E+00
    0.00000E+00        -0.13312E-19         0.00000E+00
    0.49988E-21        -0.29802E-19         0.00000E+00
    0.00000E+00        -0.26077E-19         0.00000E+00
   -0.46566E-21        -0.22078E-19         0.00000E+00
   -0.27940E-20        -0.25803E-19         0.00000E+00
   -0.37595E-20        -0.22625E-19         0.00000E+00
   -0.36911E-20        -0.11176E-19         0.00000E+00
   -0.46566E-20        -0.74506E-20         0.00000E+00
   -0.51223E-20        -0.74506E-20         0.00000E+00
   -0.65193E-20         0.27376E-21         0.00000E+00
   -0.69849E-20         0.93132E-20         0.00000E+00
   -0.74506E-20         0.14901E-19         0.00000E+00
   -0.51223E-20         0.12765E-19         0.00000E+00
   -0.46566E-20         0.18353E-19         0.00000E+00
   -0.18626E-20         0.74506E-20         0.00000E+00
   -0.46566E-21        -0.14627E-19         0.00000E+00
   -0.23283E-20        -0.22078E-19         0.00000E+00
   -0.32596E-20        -0.26077E-19         0.00000E+00
   -0.23454E-20        -0.22352E-19         0.00000E+00
   -0.28111E-20        -0.77243E-20         0.00000E+00
   -0.37253E-20         0.37253E-20         0.00000E+00
   -0.34753E-20         0.15175E-19         0.00000E+00
   -0.37253E-20         0.18626E-19         0.00000E+00
   -0.27940E-20         0.55879E-20         0.00000E+00
   -0.18626E-20        -0.93132E-20         0.00000E+00
   -0.27769E-20        -0.74506E-20         0.00000E+00
   -0.27940E-20         0.13039E-19         0.00000E+00
   -0.23283E-20         0.24214E-19         0.00000E+00
   -0.46566E-21         0.18353E-19         0.00000E+00
    0.46566E-21         0.93132E-20         0.00000E+00
    0.93132E-21         0.77243E-20         0.00000E+00
    0.16298E-20         0.12765E-19         0.00000E+00
    0.17377E-20         0.37253E-20         0.00000E+00
    0.93132E-21        -0.74506E-20         0.00000E+00
    0.93132E-21        -0.11176E-19         0.00000E+00
    0.93132E-21        -0.18626E-19         0.00000E+00
    0.18626E-20        -0.18626E-19         0.00000E+00
    0.20955E-20        -0.20215E-19         0.00000E+00
    0.11642E-20        -0.24488E-19         0.00000E+00
    0.12181E-20        -0.20489E-19         0.00000E+00
    0.13970E-20        -0.16490E-19         0.00000E+00
    0.17732E-20        -0.77243E-20         0.00000E+00
    0.20955E-20         0.13260E-34         0.00000E+00
    0.42094E-21         0.77243E-20         0.00000E+00
    0.46566E-21         0.53142E-20         0.00000E+00
    0.00000E+00        -0.42728E-20         0.00000E+00
    0.51223E-20         0.37253E-20         0.00000E+00
    0.60536E-20         0.58617E-20         0.00000E+00
    0.60194E-20         0.74506E-20         0.00000E+00
    0.60536E-20         0.71768E-20         0.00000E+00
    0.51223E-20        -0.18626E-20         0.00000E+00
    0.46566E-20        -0.13039E-19         0.00000E+00
    0.32596E-20        -0.13039E-19         0.00000E+00
    0.13970E-20        -0.18353E-19         0.00000E+00
    0.93132E-21        -0.18626E-19         0.00000E+00
    0.00000E+00        -0.93132E-20         0.00000E+00
   -0.20613E-20        -0.10902E-19         0.00000E+00
   -0.14312E-20        -0.37253E-20         0.00000E+00
   -0.27597E-20         0.37253E-20         0.00000E+00
   -0.32596E-20         0.74506E-20         0.00000E+00
   -0.55879E-20         0.71768E-20         0.00000E+00
   -0.69849E-20         0.55879E-20         0.00000E+00
   -0.65193E-20         0.55879E-20         0.00000E+00
   -0.56222E-20         0.71768E-20         0.00000E+00
   -0.48723E-20         0.74506E-20         0.00000E+00
   -0.46566E-20        -0.18626E-20         0.00000E+00
   -0.46566E-20        -0.53142E-20         0.00000E+00
   -0.46566E-20        -0.71768E-20         0.00000E+00
   -0.37253E-20        -0.20489E-19         0.00000E+00
   -0.46395E-20        -0.22352E-19         0.00000E+00
   -0.37253E-20        -0.58617E-20         0.00000E+00
   -0.32596E-20        -0.37253E-20         0.00000E+00
   -0.32596E-20        -0.53142E-20         0.00000E+00
   -0.46566E-21         0.10902E-19         0.00000E+00
   -0.46566E-21         0.22352E-19         0.00000E+00
   -0.91421E-21         0.16764E-19         0.00000E+00
   -0.21126E-20         0.93132E-20         0.00000E+00
   -0.46566E-21         0.58617E-20         0.00000E+00
    0.46566E-21         0.53142E-20         0.00000E+00
    0.93132E-21         0.00000E+00         0.00000E+00
    0.00000E+00         0.21364E-20         0.00000E+00
   -0.93132E-21        -0.27376E-21         0.00000E+00
   -0.17377E-20        -0.37253E-20         0.00000E+00
   -0.69849E-21         0.37253E-20         0.00000E+00
   -0.93132E-21         0.71768E-20         0.00000E+00
   -0.18626E-20        -0.15889E-20         0.00000E+00
   -0.18626E-20        -0.18626E-19         0.00000E+00
   -0.93132E-21        -0.18900E-19         0.00000E+00
   -0.64456E-21        -0.14901E-19         0.00000E+00
   -0.51959E-21        -0.23941E-19         0.00000E+00
    0.69849E-21        -0.25803E-19         0.00000E+00
    0.13970E-20        -0.16764E-19         0.00000E+00
    0.18626E-20        -0.11450E-19         0.00000E+00
    0.32596E-20        -0.55879E-20         0.00000E+00
    0.53104E-20         0.18626E-20         0.00000E+00
    0.67521E-20         0.15889E-20         0.00000E+00
    0.55879E-20         0.00000E+00         0.00000E+00
   -0.37253E-20         0.37253E-20         0.00000E+00
   -0.32596E-20         0.55879E-20         0.00000E+00
   -0.22941E-20         0.39990E-20         0.00000E+00
   -0.23283E-20         0.18626E-20         0.00000E+00
   -0.23283E-20         0.34515E-20         0.00000E+00
   -0.27940E-20        -0.18626E-20         0.00000E+00
   -0.23283E-20        -0.13039E-19         0.00000E+00
   -0.11299E-20        -0.16764E-19         0.00000E+00
   -0.23283E-20        -0.16764E-19         0.00000E+00
   -0.13970E-20        -0.13039E-19         0.00000E+00
   -0.46566E-21        -0.14627E-19         0.00000E+00
    0.00000E+00        -0.37253E-20         0.00000E+00
    0.93132E-21         0.34515E-20         0.00000E+00
    0.93132E-21         0.39990E-20         0.00000E+00
    0.13970E-20         0.14901E-19         0.00000E+00
    0.13970E-20         0.14901E-19         0.00000E+00
    0.93132E-21         0.11450E-19         0.00000E+00
   -0.89710E-21         0.71768E-20         0.00000E+00
   -0.69849E-21         0.12765E-19         0.00000E+00
   -0.23283E-20         0.37253E-20         0.00000E+00
   -0.23283E-20        -0.16764E-19         0.00000E+00
    0.00000E+00        -0.25803E-19         0.00000E+00
    0.69849E-21        -0.25803E-19         0.00000E+00
   -0.24994E-21        -0.22352E-19         0.00000E+00
    0.17110E-22        -0.13312E-19         0.00000E+00
    0.00000E+00         0.18626E-20         0.00000E+00
    0.00000E+00         0.27376E-21         0.00000E+00
    0.00000E+00         0.55879E-20         0.00000E+00
    0.46566E-21         0.93132E-20         0.00000E+00
    0.18455E-20        -0.39990E-20         0.00000E+00
    0.37253E-20        -0.95870E-20         0.00000E+00
    0.55879E-20         0.21364E-20         0.00000E+00
    0.48894E-20         0.16764E-19         0.00000E+00
    0.23283E-20         0.20489E-19         0.00000E+00
    0.15048E-20         0.18626E-19         0.00000E+00
    0.69849E-21         0.16490E-19         0.00000E+00
   -0.12497E-21         0.11176E-19         0.00000E+00
   -0.10786E-21         0.21364E-20         0.00000E+00
    0.93132E-21        -0.34515E-20         0.00000E+00
    0.13970E-20        -0.95870E-20         0.00000E+00
    0.18626E-20        -0.22625E-19         0.00000E+00
    0.93132E-21        -0.23941E-19         0.00000E+00
    0.11642E-20        -0.22078E-19         0.00000E+00
    0.21494E-20        -0.29802E-19         0.00000E+00
    0.35464E-20        -0.28213E-19         0.00000E+00
    0.37253E-20        -0.22625E-19         0.00000E+00
    0.46566E-20        -0.16764E-19         0.00000E+00
    0.41910E-20        -0.18626E-19         0.00000E+00
    0.47013E-20        -0.11176E-19         0.00000E+00
    0.37253E-20         0.37253E-20         0.00000E+00
    0.37253E-20         0.74506E-20         0.00000E+00
   -0.93132E-21         0.00000E+00         0.00000E+00
   -0.93132E-21         0.21364E-20         0.00000E+00
   -0.18626E-20         0.39990E-20         0.00000E+00
   -0.32596E-20         0.53142E-20         0.00000E+00
   -0.41910E-20         0.15889E-20         0.00000E+00
   -0.32596E-20        -0.10902E-19         0.00000E+00
   -0.19311E-20        -0.20215E-19         0.00000E+00
   -0.14312E-20        -0.20763E-19         0.00000E+00
   -0.13970E-20        -0.18900E-19         0.00000E+00
    0.46566E-21        -0.18626E-19         0.00000E+00
    0.93132E-21        -0.18626E-19         0.00000E+00
   -0.43144E-21        -0.93132E-20         0.00000E+00
    0.89710E-21         0.00000E+00         0.00000E+00
    0.93132E-21         0.37253E-20         0.00000E+00
    0.23283E-20         0.37253E-20         0.00000E+00
    0.46566E-20         0.74506E-20         0.00000E+00
    0.27940E-20         0.18626E-19         0.00000E+00
    0.32254E-20         0.18626E-19         0.00000E+00
    0.23112E-20         0.14627E-19         0.00000E+00
    0.18626E-20         0.37253E-20         0.00000E+00
    0.13970E-20        -0.18353E-19         0.00000E+00
    0.93132E-21        -0.22352E-19         0.00000E+00
   -0.21126E-20        -0.22352E-19         0.00000E+00
   -0.30097E-20        -0.18353E-19         0.00000E+00
   -0.46737E-20        -0.37253E-20         0.00000E+00
   -0.51223E-20        -0.39990E-20         0.00000E+00
   -0.37253E-20        -0.37253E-20         0.00000E+00
   -0.32596E-20         0.74506E-20         0.00000E+00
   -0.32596E-20         0.11176E-19         0.00000E+00
   -0.25440E-20         0.00000E+00         0.00000E+00
   -0.46566E-21        -0.93132E-20         0.00000E+00
   -0.13970E-20         0.37253E-20         0.00000E+00
   -0.18798E-20         0.22352E-19         0.00000E+00
   -0.18626E-20         0.14901E-19         0.00000E+00
   -0.80635E-21         0.93132E-20         0.00000E+00
   -0.10786E-21         0.71768E-20         0.00000E+00
    0.13970E-20         0.11910E-33         0.00000E+00
    0.15048E-20         0.27376E-21         0.00000E+00
    0.13970E-20         0.00000E+00         0.00000E+00
    0.32596E-20        -0.55879E-20         0.00000E+00
    0.23283E-20        -0.17038E-19         0.00000E+00
    0.16298E-20        -0.16764E-19         0.00000E+00
    0.11102E-20        -0.19942E-19         0.00000E+00
   -0.23283E-21        -0.37253E-19         0.00000E+00
   -0.34069E-21        -0.33801E-19         0.00000E+00
   -0.46566E-21        -0.22352E-19         0.00000E+00
   -0.30268E-20        -0.12765E-19         0.00000E+00
   -0.37253E-20        -0.37253E-20         0.00000E+00
   -0.41910E-20         0.15889E-20         0.00000E+00
   -0.46566E-20         0.37253E-20         0.00000E+00
   -0.46566E-20         0.00000E+00         0.00000E+00
   -0.13970E-20         0.37253E-20         0.00000E+00
   -0.18626E-20         0.74506E-20         0.00000E+00
   -0.37253E-20         0.13039E-19         0.00000E+00
   -0.37253E-20         0.15175E-19         0.00000E+00
   -0.46566E-20         0.55879E-20         0.00000E+00
   -0.41910E-20        -0.11450E-19         0.00000E+00
   -0.27597E-20        -0.20763E-19         0.00000E+00
   -0.18284E-20        -0.22352E-19         0.00000E+00
   -0.13970E-20        -0.29529E-19         0.00000E+00
   -0.13970E-20        -0.22352E-19         0.00000E+00
   -0.18626E-20        -0.93132E-20         0.00000E+00
   -0.23283E-20        -0.37253E-20         0.00000E+00
   -0.29926E-20        -0.37253E-20         0.00000E+00
   -0.22941E-20        -0.34515E-20         0.00000E+00
   -0.22941E-20        -0.18626E-20         0.00000E+00
   -0.27940E-20         0.10902E-19         0.00000E+00
   -0.23283E-20         0.18626E-19         0.00000E+00
    0.34220E-22         0.11176E-19         0.00000E+00
   -0.21572E-21         0.18626E-19         0.00000E+00
    0.00000E+00         0.93132E-20         0.00000E+00
    0.00000E+00        -0.11176E-19         0.00000E+00
   -0.11642E-20        -0.90395E-20         0.00000E+00
   -0.16127E-20        -0.55879E-20         0.00000E+00
   -0.13970E-20        -0.11176E-19         0.00000E+00
   -0.16298E-20        -0.55879E-20         0.00000E+00
   -0.93132E-21        -0.23820E-33         0.00000E+00
   -0.46566E-21        -0.53142E-20         0.00000E+00
   -0.93132E-21        -0.27376E-21         0.00000E+00
   -0.13970E-20         0.15889E-20         0.00000E+00
   -0.13970E-20        -0.14901E-19         0.00000E+00
   -0.11642E-20        -0.14901E-19         0.00000E+00
   -0.39581E-20         0.58617E-20         0.00000E+00
   -0.25440E-20         0.18900E-19         0.00000E+00
   -0.93132E-21         0.16490E-19         0.00000E+00
   -0.93132E-21         0.10902E-19         0.00000E+00
    0.00000E+00         0.55879E-20         0.00000E+00
    0.00000E+00         0.37253E-20         0.00000E+00
    0.93132E-21         0.18626E-20         0.00000E+00
    0.82346E-21        -0.11176E-19         0.00000E+00
   -0.46566E-21        -0.14901E-19         0.00000E+00
   -0.13970E-20        -0.16764E-19         0.00000E+00
    0.12497E-21        -0.18626E-19         0.00000E+00
    0.46566E-21        -0.15175E-19         0.00000E+00
   -0.53930E-22        -0.22078E-19         0.00000E+00
   -0.23283E-20        -0.25803E-19         0.00000E+00
   -0.27940E-20        -0.95870E-20         0.00000E+00
   -0.37792E-20        -0.65756E-21         0.00000E+00
   -0.31702E-20        -0.83819E-20         0.00000E+00
   -0.39134E-20        -0.77243E-20         0.00000E+00
   -0.23283E-20         0.37253E-20         0.00000E+00
   -0.18626E-20         0.74506E-20         0.00000E+00
   -0.37253E-20         0.74506E-20         0.00000E+00
   -0.32596E-20         0.11176E-19         0.00000E+00
   -0.23283E-20         0.11176E-19         0.00000E+00
   -0.93132E-21         0.13039E-19         0.00000E+00
    0.93132E-21         0.37253E-20         0.00000E+00
    0.46566E-21        -0.20489E-19         0.00000E+00
    0.11984E-20        -0.29802E-19         0.00000E+00
    0.18284E-20        -0.28213E-19         0.00000E+00
    0.18969E-20        -0.22352E-19         0.00000E+00
    0.00000E+00        -0.16216E-19         0.00000E+00
    0.00000E+00        -0.14627E-19         0.00000E+00
    0.46566E-21        -0.58617E-20         0.00000E+00
    0.46566E-21        -0.27376E-21         0.00000E+00
   -0.46566E-21         0.18626E-20         0.00000E+00
   -0.96554E-21         0.74506E-20         0.00000E+00
   -0.13970E-20         0.74506E-20         0.00000E+00
    0.00000E+00         0.37253E-20         0.00000E+00
    0.46566E-21         0.74506E-20         0.00000E+00
    0.46566E-21         0.14901E-19         0.00000E+00
    0.25611E-20         0.55879E-20         0.00000E+00
    0.23283E-20        -0.11176E-19         0.00000E+00
    0.14141E-20        -0.16764E-19         0.00000E+00
    0.37253E-20        -0.22352E-19         0.00000E+00
    0.41910E-20        -0.18626E-19         0.00000E+00
    0.42081E-20        -0.77243E-20         0.00000E+00
    0.46566E-20        -0.74506E-20         0.00000E+00
    0.55879E-20        -0.15889E-20         0.00000E+00
    0.46566E-20         0.11176E-19         0.00000E+00
    0.23283E-20         0.13039E-19         0.00000E+00
   -0.93132E-21         0.00000E+00         0.00000E+00
   -0.32425E-20         0.18626E-20         0.00000E+00
   -0.34753E-20         0.95870E-20         0.00000E+00
   -0.18626E-20         0.93132E-20         0.00000E+00
    0.00000E+00         0.71768E-20         0.00000E+00
    0.00000E+00         0.37253E-20         0.00000E+00
    0.00000E+00         0.18626E-20         0.00000E+00
   -0.46566E-21        -0.37253E-20         0.00000E+00
   -0.10392E-20        -0.37253E-20         0.00000E+00
    0.59063E-21         0.55879E-20         0.00000E+00
    0.00000E+00         0.37253E-20         0.00000E+00
    0.00000E+00        -0.20489E-19         0.00000E+00
   -0.12891E-20        -0.26351E-19         0.00000E+00
   -0.23283E-20        -0.18626E-19         0.00000E+00
   -0.20415E-20        -0.22078E-19         0.00000E+00
   -0.93132E-21        -0.20489E-19         0.00000E+00
   -0.23283E-21        -0.14901E-19         0.00000E+00
    0.75242E-21        -0.93132E-20         0.00000E+00
    0.37621E-21        -0.37253E-20         0.00000E+00
    0.46566E-21        -0.18626E-20         0.00000E+00
    0.93132E-21        -0.39990E-20         0.00000E+00
    0.18626E-20        -0.42728E-20         0.00000E+00
    0.32596E-20         0.00000E+00         0.00000E+00
    0.27940E-20         0.37253E-20         0.00000E+00
    0.32596E-20         0.37253E-20         0.00000E+00
    0.13970E-20        -0.18626E-20         0.00000E+00
    0.93132E-21        -0.39990E-20         0.00000E+00
   -0.46566E-21        -0.14901E-19         0.00000E+00
   -0.18626E-20        -0.23941E-19         0.00000E+00
   -0.22941E-20        -0.22078E-19         0.00000E+00
   -0.34925E-20        -0.22352E-19         0.00000E+00
   -0.32596E-20        -0.14901E-19         0.00000E+00
   -0.23625E-20        -0.11176E-19         0.00000E+00
   -0.23283E-20        -0.77243E-20         0.00000E+00
   -0.14312E-20         0.00000E+00         0.00000E+00
   -0.93132E-21         0.55879E-20         0.00000E+00
   -0.43144E-21         0.37253E-20         0.00000E+00
    0.46566E-21         0.53142E-20         0.00000E+00
    0.34220E-22         0.93132E-20         0.00000E+00
   -0.23283E-20         0.74506E-20         0.00000E+00
   -0.20784E-20         0.93132E-20         0.00000E+00
   -0.18455E-20         0.27376E-21         0.00000E+00
   -0.13970E-20        -0.74506E-20         0.00000E+00
   -0.24994E-21        -0.14901E-19         0.00000E+00
    0.23283E-21        -0.18626E-19         0.00000E+00
   -0.46566E-21        -0.13039E-19         0.00000E+00
    0.44855E-21        -0.77243E-20         0.00000E+00
    0.00000E+00        -0.71768E-20         0.00000E+00
   -0.13970E-20        -0.90395E-20         0.00000E+00
   -0.18626E-20         0.16490E-19         0.00000E+00
   -0.18626E-20         0.29802E-19         0.00000E+00
   -0.20955E-20         0.13039E-19         0.00000E+00
   -0.46566E-21        -0.18626E-20         0.00000E+00
    0.46566E-21        -0.18626E-20         0.00000E+00
    0.00000E+00         0.37253E-20         0.00000E+00
    0.46566E-21         0.71768E-20         0.00000E+00
    0.93132E-21         0.93132E-20         0.00000E+00
    0.11642E-20         0.77243E-20         0.00000E+00
    0.93132E-21         0.74506E-20         0.00000E+00
    0.57352E-21        -0.37253E-20         0.00000E+00
    0.23283E-21        -0.14901E-19         0.00000E+00
    0.93132E-21        -0.11176E-19         0.00000E+00
    0.18626E-20        -0.93132E-20         0.00000E+00
    0.59063E-21        -0.74506E-20         0.00000E+00
    0.00000E+00        -0.13039E-19         0.00000E+00
    0.41173E-21        -0.30076E-19         0.00000E+00
    0.46566E-21        -0.31665E-19         0.00000E+00
    0.17890E-21        -0.17148E-19         0.00000E+00
    0.14864E-20        -0.27940E-20         0.00000E+00
    0.17193E-20        -0.77243E-20         0.00000E+00
    0.32596E-20        -0.11176E-19         0.00000E+00
    0.23283E-20        -0.21364E-20         0.00000E+00
    0.18626E-20         0.31778E-20         0.00000E+00
    0.37253E-20         0.74506E-20         0.00000E+00
    0.37253E-20         0.11176E-19         0.00000E+00
    0.32596E-20         0.18353E-19         0.00000E+00
    0.32596E-20         0.22078E-19         0.00000E+00
    0.27940E-20         0.13039E-19         0.00000E+00
    0.32596E-20        -0.74506E-20         0.00000E+00
    0.13970E-20        -0.20215E-19         0.00000E+00
   -0.46566E-21        -0.18079E-19         0.00000E+00
   -0.18969E-20        -0.18353E-19         0.00000E+00
   -0.27940E-20        -0.22625E-19         0.00000E+00
   -0.36911E-20        -0.18900E-19         0.00000E+00
   -0.37595E-20        -0.93132E-20         0.00000E+00
   -0.36911E-20        -0.74506E-20         0.00000E+00
   -0.28282E-20        -0.15889E-20         0.00000E+00
   -0.32596E-20         0.50292E-33         0.00000E+00
   -0.37253E-20         0.34515E-20         0.00000E+00
   -0.42252E-20         0.18626E-19         0.00000E+00
   -0.27940E-20         0.18353E-19         0.00000E+00
   -0.23454E-20         0.13039E-19         0.00000E+00
   -0.32767E-20         0.27376E-21         0.00000E+00
   -0.32425E-20        -0.20489E-19         0.00000E+00
   -0.27940E-20        -0.22352E-19         0.00000E+00
   -0.37082E-20        -0.20763E-19         0.00000E+00
   -0.27940E-20        -0.20489E-19         0.00000E+00
   -0.25440E-20        -0.93132E-20         0.00000E+00
   -0.27940E-20         0.21364E-20         0.00000E+00
   -0.37253E-20         0.58617E-20         0.00000E+00
   -0.37253E-20         0.12491E-19         0.00000E+00
   -0.13970E-20         0.11176E-19         0.00000E+00
   -0.17110E-22        -0.71768E-20         0.00000E+00
    0.18626E-20        -0.74506E-20         0.00000E+00
    0.25440E-20         0.74506E-20         0.00000E+00
    0.18626E-20         0.93132E-20         0.00000E+00
    0.00000E+00         0.18626E-20         0.00000E+00
    0.93132E-21         0.18626E-20         0.00000E+00
    0.11470E-20         0.37253E-20         0.00000E+00
    0.18626E-20        -0.37253E-20         0.00000E+00
    0.33846E-20         0.00000E+00         0.00000E+00
    0.18455E-20         0.55879E-20         0.00000E+00
    0.46566E-21        -0.55879E-20         0.00000E+00
    0.00000E+00        -0.20489E-19         0.00000E+00
    0.93132E-21        -0.16490E-19         0.00000E+00
    0.18626E-20        -0.16764E-19         0.00000E+00
    0.75242E-21        -0.24488E-19         0.00000E+00
    0.18626E-20        -0.20763E-19         0.00000E+00
    0.19166E-20        -0.18900E-19         0.00000E+00
    0.27940E-20        -0.16764E-19         0.00000E+00
    0.23283E-20        -0.14627E-19         0.00000E+00
    0.46566E-21        -0.53142E-20         0.00000E+00
    0.00000E+00         0.15889E-20         0.00000E+00
   -0.93132E-21        -0.54752E-21         0.00000E+00
   -0.23283E-20        -0.54752E-21         0.00000E+00
   -0.18626E-20         0.37253E-20         0.00000E+00
   -0.13970E-20         0.39990E-20         0.00000E+00
    0.93132E-21         0.00000E+00         0.00000E+00
    0.32596E-20        -0.21364E-20         0.00000E+00
    0.37253E-20        -0.74506E-20         0.00000E+00
    0.27597E-20        -0.71768E-20         0.00000E+00
    0.22941E-20        -0.74506E-20         0.00000E+00
    0.37595E-20        -0.95870E-20         0.00000E+00
    0.46908E-20        -0.37253E-20         0.00000E+00
    0.36911E-20        -0.74506E-20         0.00000E+00
    0.37595E-20        -0.74506E-20         0.00000E+00
    0.27940E-20        -0.34515E-20         0.00000E+00
    0.32938E-20         0.18626E-20         0.00000E+00
    0.22941E-20         0.74506E-20         0.00000E+00
    0.13970E-20         0.13039E-19         0.00000E+00
    0.13970E-20         0.37253E-20         0.00000E+00
    0.32596E-20        -0.37253E-20         0.00000E+00
    0.37253E-20         0.10902E-19         0.00000E+00
    0.35096E-20         0.55879E-20         0.00000E+00
    0.13970E-20        -0.90395E-20         0.00000E+00
    0.00000E+00        -0.13039E-19         0.00000E+00
   -0.11813E-20        -0.18626E-19         0.00000E+00
   -0.23283E-20        -0.16490E-19         0.00000E+00
   -0.37253E-20        -0.39990E-20         0.00000E+00
   -0.37253E-20        -0.37253E-20         0.00000E+00
   -0.13970E-20        -0.53142E-20         0.00000E+00
    0.71560E-21         0.53142E-20         0.00000E+00
    0.18626E-20         0.11176E-19         0.00000E+00
    0.11813E-20        -0.37253E-20         0.00000E+00
   -0.18626E-20        -0.14901E-19         0.00000E+00
   -0.16298E-20         0.00000E+00         0.00000E+00
   -0.46566E-21         0.14901E-19         0.00000E+00
   -0.13970E-20         0.11176E-19         0.00000E+00
   -0.13970E-20         0.37253E-20         0.00000E+00
    0.69849E-21         0.15889E-20         0.00000E+00
    0.46566E-21         0.00000E+00         0.00000E+00
    0.00000E+00        -0.53142E-20         0.00000E+00
    0.35780E-21        -0.21364E-20         0.00000E+00
    0.20955E-20         0.11915E-33         0.00000E+00
    0.13970E-20        -0.13039E-19         0.00000E+00
    0.13970E-20        -0.14901E-19         0.00000E+00
    0.23283E-20        -0.10902E-19         0.00000E+00
    0.93132E-21        -0.29802E-19         0.00000E+00
    0.20955E-20        -0.37527E-19         0.00000E+00
    0.20415E-20        -0.22352E-19         0.00000E+00
    0.37621E-21        -0.71768E-20         0.00000E+00
   -0.12536E-20         0.37253E-20         0.00000E+00
   -0.18626E-20         0.34515E-20         0.00000E+00
   -0.93132E-21         0.34515E-20         0.00000E+00
   -0.13970E-20         0.74506E-20         0.00000E+00
    0.46566E-21         0.11176E-19         0.00000E+00
    0.46566E-21         0.93132E-20         0.00000E+00
   -0.93132E-21         0.15889E-20         0.00000E+00
   -0.13970E-20        -0.27376E-21         0.00000E+00
   -0.18626E-20         0.18626E-20         0.00000E+00
   -0.18626E-20        -0.53142E-20         0.00000E+00
   -0.93132E-21        -0.14901E-19         0.00000E+00
    0.96554E-21        -0.24214E-19         0.00000E+00
    0.18284E-20        -0.29529E-19         0.00000E+00
    0.18284E-20        -0.22352E-19         0.00000E+00
    0.23625E-20        -0.14901E-19         0.00000E+00
    0.23283E-20        -0.37253E-20         0.00000E+00
    0.20613E-20        -0.37253E-20         0.00000E+00
    0.27940E-20         0.00000E+00         0.00000E+00
    0.51223E-20         0.93132E-20         0.00000E+00
    0.55879E-20         0.93132E-20         0.00000E+00
    0.55879E-20         0.93132E-20         0.00000E+00
    0.22941E-20         0.53142E-20         0.00000E+00
    0.18626E-20         0.10902E-19         0.00000E+00
    0.44855E-21         0.11450E-19         0.00000E+00
   -0.11642E-20        -0.37253E-20         0.00000E+00
   -0.46566E-21        -0.11450E-19         0.00000E+00
   -0.46566E-21        -0.74506E-20         0.00000E+00
   -0.46566E-21        -0.31778E-20         0.00000E+00
    0.46566E-21        -0.18626E-20         0.00000E+00
    0.93132E-21        -0.11450E-19         0.00000E+00
    0.93132E-21        -0.16764E-19         0.00000E+00
   -0.71560E-21        -0.39990E-20         0.00000E+00
   -0.13970E-20         0.11450E-19         0.00000E+00
   -0.93132E-21         0.11450E-19         0.00000E+00
   -0.13970E-20         0.37253E-20         0.00000E+00
   -0.16127E-20         0.18626E-20         0.00000E+00
   -0.18626E-20         0.74506E-20         0.00000E+00
   -0.46566E-21         0.55879E-20         0.00000E+00
   -0.13970E-20        -0.55879E-20         0.00000E+00
   -0.15048E-20        -0.77243E-20         0.00000E+00
   -0.17377E-20        -0.18626E-20         0.00000E+00
   -0.18626E-20         0.21364E-20         0.00000E+00
   -0.12891E-20        -0.37253E-20         0.00000E+00
   -0.34069E-21        -0.11176E-19         0.00000E+00
    0.93132E-21        -0.18626E-19         0.00000E+00
    0.34069E-21        -0.20489E-19         0.00000E+00
    0.11642E-20        -0.15175E-19         0.00000E+00
    0.36714E-20        -0.22352E-19         0.00000E+00
    0.33136E-20        -0.26077E-19         0.00000E+00
    0.20955E-20        -0.11450E-19         0.00000E+00
    0.17193E-20         0.00000E+00         0.00000E+00
    0.17193E-20        -0.34515E-20         0.00000E+00
    0.18626E-20        -0.34515E-20         0.00000E+00
    0.23283E-20        -0.27376E-21         0.00000E+00
    0.18626E-20        -0.54752E-21         0.00000E+00
    0.13970E-20         0.74506E-20         0.00000E+00
    0.32596E-20         0.12765E-19         0.00000E+00
    0.37595E-20         0.11176E-19         0.00000E+00
    0.27940E-20         0.58617E-20         0.00000E+00
    0.18284E-20        -0.27376E-21         0.00000E+00
    0.13970E-20        -0.13312E-19         0.00000E+00
    0.18969E-20        -0.22078E-19         0.00000E+00
    0.89710E-21        -0.20489E-19         0.00000E+00
   -0.11299E-20        -0.13312E-19         0.00000E+00
   -0.32596E-20        -0.71768E-20         0.00000E+00
   -0.28282E-20        -0.93132E-20         0.00000E+00
   -0.27940E-20        -0.77243E-20         0.00000E+00
   -0.22941E-20        -0.71768E-20         0.00000E+00
   -0.23625E-20        -0.10902E-19         0.00000E+00
   -0.18626E-20        -0.74506E-20         0.00000E+00
   -0.93132E-21         0.90395E-20         0.00000E+00
    0.46566E-21         0.22078E-19         0.00000E+00
    0.49988E-21         0.16764E-19         0.00000E+00
   -0.46566E-21         0.20489E-19         0.00000E+00
    0.00000E+00         0.18900E-19         0.00000E+00
    0.21572E-21        -0.37253E-20         0.00000E+00
    0.46566E-21        -0.16764E-19         0.00000E+00
    0.93132E-21        -0.18626E-19         0.00000E+00
    0.23283E-20        -0.20763E-19         0.00000E+00
    0.41910E-20        -0.14901E-19         0.00000E+00
    0.37253E-20        -0.55879E-20         0.00000E+00
    0.27940E-20         0.55879E-20         0.00000E+00
    0.23283E-20         0.16764E-19         0.00000E+00
    0.13970E-20         0.13039E-19         0.00000E+00
    0.13970E-20        -0.53142E-20         0.00000E+00
    0.18626E-20        -0.11176E-19         0.00000E+00
    0.39581E-20         0.18626E-20         0.00000E+00
    0.37253E-20         0.93132E-20         0.00000E+00
    0.37253E-20         0.90395E-20         0.00000E+00
    0.32596E-20         0.77243E-20         0.00000E+00
    0.12497E-21         0.55879E-20         0.00000E+00
   -0.46566E-21         0.18626E-20         0.00000E+00
    0.00000E+00        -0.74506E-20         0.00000E+00
   -0.34069E-21        -0.95870E-20         0.00000E+00
   -0.12891E-20        -0.10902E-19         0.00000E+00
   -0.93132E-21        -0.16764E-19         0.00000E+00
   -0.12720E-20        -0.18900E-19         0.00000E+00
   -0.22744E-20        -0.27666E-19         0.00000E+00
   -0.13431E-20        -0.38842E-19         0.00000E+00
   -0.28676E-21        -0.30076E-19         0.00000E+00
   -0.87739E-21        -0.13970E-19         0.00000E+00
    0.23283E-21        -0.25202E-20         0.00000E+00
    0.69849E-21        -0.27376E-21         0.00000E+00
    0.93132E-21        -0.13213E-34         0.00000E+00
    0.00000E+00         0.55879E-20         0.00000E+00
    0.00000E+00         0.10628E-19         0.00000E+00
    0.13970E-20        -0.79981E-20         0.00000E+00
    0.46566E-21        -0.18626E-20         0.00000E+00
    0.18284E-20         0.58617E-20         0.00000E+00
    0.13970E-20         0.10902E-19         0.00000E+00
    0.18969E-20         0.71768E-20         0.00000E+00
    0.46566E-21        -0.74506E-20         0.00000E+00
   -0.46566E-21        -0.10902E-19         0.00000E+00
   -0.43144E-21        -0.74506E-20         0.00000E+00
   -0.34220E-22        -0.11176E-19         0.00000E+00
    0.18626E-20        -0.14627E-19         0.00000E+00
    0.28282E-20        -0.14901E-19         0.00000E+00
    0.46566E-20        -0.77243E-20         0.00000E+00
    0.41910E-20        -0.77243E-20         0.00000E+00
    0.32938E-20        -0.34515E-20         0.00000E+00
    0.49988E-21         0.21364E-20         0.00000E+00
   -0.46566E-21        -0.21364E-20         0.00000E+00
    0.46566E-21         0.34515E-20         0.00000E+00
    0.93132E-21         0.13039E-19         0.00000E+00
    0.00000E+00         0.13039E-19         0.00000E+00
    0.14141E-20         0.55879E-20         0.00000E+00
    0.27940E-20        -0.74506E-20         0.00000E+00
    0.18626E-20        -0.13039E-19         0.00000E+00
    0.13970E-20        -0.14901E-19         0.00000E+00
    0.11642E-20        -0.18353E-19         0.00000E+00
    0.11642E-20        -0.11176E-19         0.00000E+00
    0.00000E+00        -0.74506E-20         0.00000E+00
    0.46566E-21        -0.74506E-20         0.00000E+00
    0.13970E-20         0.34515E-20         0.00000E+00
    0.13970E-20         0.14901E-19         0.00000E+00
    0.18626E-20         0.11450E-19         0.00000E+00
    0.93132E-21        -0.55879E-20         0.00000E+00
   -0.48277E-21        -0.11176E-19         0.00000E+00
   -0.69849E-21         0.55879E-20         0.00000E+00
   -0.13970E-20         0.10902E-19         0.00000E+00
   -0.13970E-20         0.93132E-20         0.00000E+00
   -0.18626E-20         0.11176E-19         0.00000E+00
   -0.10563E-20         0.37253E-20         0.00000E+00
   -0.16298E-20         0.00000E+00         0.00000E+00
   -0.22204E-20         0.27376E-21         0.00000E+00
   -0.22033E-20        -0.71768E-20         0.00000E+00
   -0.13970E-20        -0.16764E-19         0.00000E+00
   -0.10563E-20        -0.13312E-19         0.00000E+00
   -0.69849E-21        -0.14901E-19         0.00000E+00
   -0.14509E-20        -0.35116E-19         0.00000E+00
   -0.37253E-20        -0.30076E-19         0.00000E+00
   -0.23822E-20        -0.11450E-19         0.00000E+00
    0.89450E-22        -0.71768E-20         0.00000E+00
    0.10208E-20        -0.71768E-20         0.00000E+00
    0.22389E-20        -0.27376E-21         0.00000E+00
    0.27940E-20         0.34515E-20         0.00000E+00
    0.32596E-20         0.00000E+00         0.00000E+00
    0.00000E+00         0.15449E-19         0.00000E+00
   -0.13970E-20         0.11450E-19         0.00000E+00
   -0.18626E-20         0.71768E-20         0.00000E+00
   -0.93132E-21         0.53142E-20         0.00000E+00
    0.18626E-20         0.37253E-20         0.00000E+00
    0.27940E-20        -0.18626E-20         0.00000E+00
    0.37253E-20        -0.14627E-19         0.00000E+00
    0.41567E-20        -0.24214E-19         0.00000E+00
    0.60536E-20        -0.26351E-19         0.00000E+00
    0.55879E-20        -0.20215E-19         0.00000E+00
    0.46224E-20        -0.22078E-19         0.00000E+00
    0.51223E-20        -0.14901E-19         0.00000E+00
    0.46566E-20        -0.27376E-21         0.00000E+00
    0.43896E-20         0.74506E-20         0.00000E+00
    0.55537E-20         0.11176E-19         0.00000E+00
    0.41910E-20         0.10902E-19         0.00000E+00
    0.27940E-20         0.15175E-19         0.00000E+00
    0.27597E-20         0.18626E-19         0.00000E+00
    0.18626E-20         0.16490E-19         0.00000E+00
    0.48277E-21         0.37253E-20         0.00000E+00
    0.13970E-20        -0.74506E-20         0.00000E+00
    0.94843E-21        -0.93132E-20         0.00000E+00
    0.13970E-20        -0.13039E-19         0.00000E+00
    0.13799E-20        -0.16490E-19         0.00000E+00
    0.21572E-21        -0.93132E-20         0.00000E+00
    0.46566E-21        -0.39990E-20         0.00000E+00
    0.93132E-21        -0.18626E-20         0.00000E+00
   -0.93132E-21         0.11176E-19         0.00000E+00
   -0.46566E-21         0.11176E-19         0.00000E+00
   -0.18626E-20        -0.18626E-20         0.00000E+00
   -0.18626E-20         0.00000E+00         0.00000E+00
   -0.41738E-20         0.95870E-20         0.00000E+00
   -0.65364E-20         0.14901E-19         0.00000E+00
   -0.74506E-20         0.14901E-19         0.00000E+00
   -0.69849E-20         0.93132E-20         0.00000E+00
   -0.60536E-20         0.15889E-20         0.00000E+00
   -0.60536E-20         0.21364E-20         0.00000E+00
   -0.50144E-20        -0.15889E-20         0.00000E+00
   -0.52301E-20        -0.93132E-20         0.00000E+00
   -0.37253E-20        -0.14901E-19         0.00000E+00
   -0.93132E-21        -0.22625E-19         0.00000E+00
    0.46566E-21        -0.22625E-19         0.00000E+00
    0.87739E-21        -0.24214E-19         0.00000E+00
    0.12181E-20        -0.24214E-19         0.00000E+00
    0.13970E-20        -0.26077E-19         0.00000E+00
    0.98525E-21        -0.31665E-19         0.00000E+00
    0.14509E-20        -0.18626E-19         0.00000E+00
    0.13075E-20        -0.10902E-19         0.00000E+00
    0.16745E-20        -0.90395E-20         0.00000E+00
    0.32596E-20        -0.27376E-21         0.00000E+00
    0.37253E-20         0.31778E-20         0.00000E+00
   -0.27940E-20         0.74506E-20         0.00000E+00
   -0.23283E-20         0.74506E-20         0.00000E+00
   -0.21297E-20         0.21364E-20         0.00000E+00
   -0.13970E-20        -0.74506E-20         0.00000E+00
   -0.93132E-21        -0.11450E-19         0.00000E+00
    0.46566E-21        -0.16764E-19         0.00000E+00
    0.13628E-20        -0.18626E-19         0.00000E+00
    0.46566E-21        -0.18626E-19         0.00000E+00
   -0.43144E-21        -0.14901E-19         0.00000E+00
   -0.66427E-21        -0.93132E-20         0.00000E+00
   -0.89710E-21        -0.14901E-19         0.00000E+00
   -0.23283E-20        -0.90395E-20         0.00000E+00
   -0.27940E-20        -0.34515E-20         0.00000E+00
   -0.18626E-20        -0.37253E-20         0.00000E+00
   -0.46566E-21         0.34515E-20         0.00000E+00
    0.46566E-21         0.10902E-19         0.00000E+00
    0.46566E-21         0.11176E-19         0.00000E+00
    0.96554E-21         0.16764E-19         0.00000E+00
    0.13970E-20         0.24214E-19         0.00000E+00
    0.18455E-20         0.93132E-20         0.00000E+00
    0.13970E-20        -0.93132E-20         0.00000E+00
    0.25440E-20        -0.14901E-19         0.00000E+00
    0.32596E-20        -0.18626E-19         0.00000E+00
    0.25782E-20        -0.14901E-19         0.00000E+00
    0.23454E-20        -0.55879E-20         0.00000E+00
    0.27940E-20        -0.74506E-20         0.00000E+00
    0.23283E-20        -0.18626E-20         0.00000E+00
    0.37253E-20         0.11176E-19         0.00000E+00
    0.37253E-20         0.20489E-19         0.00000E+00
    0.23112E-20         0.14901E-19         0.00000E+00
    0.23283E-20         0.55879E-20         0.00000E+00
    0.20784E-20         0.15175E-19         0.00000E+00
    0.18798E-20         0.22352E-19         0.00000E+00
    0.93132E-21         0.12765E-19         0.00000E+00
    0.18626E-20         0.37253E-20         0.00000E+00
    0.93132E-21         0.55879E-20         0.00000E+00
    0.18626E-20         0.00000E+00         0.00000E+00
    0.36174E-20        -0.55879E-20         0.00000E+00
    0.45488E-20        -0.11176E-19         0.00000E+00
    0.48894E-20        -0.27666E-19         0.00000E+00
    0.46566E-20        -0.37253E-19         0.00000E+00
    0.51223E-20        -0.22352E-19         0.00000E+00
    0.47105E-20        -0.18353E-19         0.00000E+00
    0.39581E-20        -0.37253E-19         0.00000E+00
    0.37253E-20        -0.28213E-19         0.00000E+00
    0.39042E-20        -0.11450E-19         0.00000E+00
    0.33491E-20        -0.90395E-20         0.00000E+00
    0.46566E-20        -0.74506E-20         0.00000E+00
    0.48894E-20        -0.77243E-20         0.00000E+00
    0.44238E-20        -0.77243E-20         0.00000E+00
    0.37253E-20        -0.79981E-20         0.00000E+00
   -0.18626E-20         0.74506E-20         0.00000E+00
   -0.18284E-20         0.74506E-20         0.00000E+00
   -0.22941E-20         0.37253E-20         0.00000E+00
   -0.23283E-20         0.00000E+00         0.00000E+00
   -0.41910E-20        -0.55879E-20         0.00000E+00
   -0.41910E-20        -0.14627E-19         0.00000E+00
   -0.46224E-20        -0.16764E-19         0.00000E+00
   -0.36911E-20        -0.14901E-19         0.00000E+00
   -0.32596E-20        -0.20489E-19         0.00000E+00
   -0.93132E-21        -0.17038E-19         0.00000E+00
    0.46566E-21        -0.13039E-19         0.00000E+00
    0.00000E+00        -0.74506E-20         0.00000E+00
   -0.34220E-22        -0.37253E-20         0.00000E+00
   -0.18284E-20        -0.15889E-20         0.00000E+00
   -0.32596E-20        -0.10190E-32         0.00000E+00
   -0.23283E-20         0.34515E-20         0.00000E+00
   -0.27940E-20         0.15175E-19         0.00000E+00
   -0.41910E-20         0.14901E-19         0.00000E+00
   -0.37253E-20         0.10902E-19         0.00000E+00
   -0.41738E-20         0.37253E-20         0.00000E+00
   -0.37253E-20        -0.11176E-19         0.00000E+00
   -0.32596E-20        -0.18626E-19         0.00000E+00
   -0.37253E-20        -0.14901E-19         0.00000E+00
   -0.32596E-20        -0.11176E-19         0.00000E+00
   -0.21126E-20        -0.74506E-20         0.00000E+00
   -0.23283E-20        -0.34515E-20         0.00000E+00
   -0.18626E-20        -0.74506E-20         0.00000E+00
   -0.11470E-20         0.34515E-20         0.00000E+00
   -0.13970E-20         0.18626E-19         0.00000E+00
    0.11813E-20         0.55879E-20         0.00000E+00
    0.32596E-20         0.00000E+00         0.00000E+00
    0.37253E-20         0.11176E-19         0.00000E+00
    0.32596E-20         0.20489E-19         0.00000E+00
    0.46566E-20         0.16764E-19         0.00000E+00
    0.51223E-20         0.93132E-20         0.00000E+00
    0.41910E-20         0.00000E+00         0.00000E+00
    0.54801E-20        -0.11176E-19         0.00000E+00
    0.61615E-20        -0.14901E-19         0.00000E+00
    0.75584E-20        -0.16764E-19         0.00000E+00
    0.66271E-20        -0.16764E-19         0.00000E+00
    0.41910E-20        -0.20215E-19         0.00000E+00
    0.25611E-20        -0.20215E-19         0.00000E+00
    0.15759E-20        -0.20763E-19         0.00000E+00
   -0.53930E-22        -0.20489E-19         0.00000E+00
   -0.13970E-20        -0.24214E-19         0.00000E+00
    0.00000E+00        -0.27940E-19         0.00000E+00
   -0.37621E-21        -0.23283E-19         0.00000E+00
   -0.37616E-36        -0.17969E-19         0.00000E+00
   -0.65377E-21        -0.74506E-20         0.00000E+00
   -0.19567E-20         0.34515E-20         0.00000E+00
   -0.23283E-20         0.69031E-20         0.00000E+00
   -0.27940E-20         0.79981E-20         0.00000E+00
   -0.18969E-20         0.93132E-20         0.00000E+00
   -0.93132E-21         0.53142E-20         0.00000E+00
   -0.93132E-21         0.18626E-20         0.00000E+00
   -0.96554E-21        -0.18626E-20         0.00000E+00
   -0.18626E-20        -0.14901E-19         0.00000E+00
   -0.23283E-20        -0.22352E-19         0.00000E+00
   -0.14312E-20        -0.26077E-19         0.00000E+00
   -0.23283E-21        -0.29802E-19         0.00000E+00
   -0.46566E-21        -0.26077E-19         0.00000E+00
    0.46566E-21        -0.18626E-19         0.00000E+00
    0.46566E-21        -0.74506E-20         0.00000E+00
    0.18969E-20         0.37253E-20         0.00000E+00
    0.22941E-20         0.11176E-19         0.00000E+00
    0.14312E-20         0.74506E-20         0.00000E+00
    0.49988E-21         0.93132E-20         0.00000E+00
   -0.46566E-21         0.20489E-19         0.00000E+00
   -0.93132E-21         0.22352E-19         0.00000E+00
   -0.11642E-20         0.24214E-19         0.00000E+00
   -0.23454E-20         0.93132E-20         0.00000E+00
   -0.25440E-20        -0.14901E-19         0.00000E+00
   -0.27940E-20        -0.14901E-19         0.00000E+00
   -0.37253E-20        -0.16764E-19         0.00000E+00
   -0.27940E-20        -0.20215E-19         0.00000E+00
   -0.30097E-20        -0.11176E-19         0.00000E+00
   -0.37253E-20        -0.13039E-19         0.00000E+00
   -0.23283E-20        -0.74506E-20         0.00000E+00
   -0.20955E-20         0.10902E-19         0.00000E+00
   -0.93132E-21         0.93132E-20         0.00000E+00
    0.46566E-21        -0.74506E-20         0.00000E+00
    0.00000E+00        -0.74506E-20         0.00000E+00
    0.69849E-21         0.13312E-19         0.00000E+00
    0.18626E-20         0.18626E-19         0.00000E+00
    0.46566E-20         0.53142E-20         0.00000E+00
    0.51223E-20         0.37253E-20         0.00000E+00
    0.47645E-20         0.18626E-20         0.00000E+00
    0.29018E-20        -0.93132E-20         0.00000E+00
    0.22204E-20        -0.13039E-19         0.00000E+00
    0.22204E-20        -0.11176E-19         0.00000E+00
    0.93132E-21        -0.13039E-19         0.00000E+00
   -0.46566E-21        -0.16764E-19         0.00000E+00
   -0.80635E-21        -0.11176E-19         0.00000E+00
   -0.18626E-20        -0.74506E-20         0.00000E+00
   -0.15759E-20        -0.20489E-19         0.00000E+00
    0.00000E+00        -0.26077E-19         0.00000E+00
   -0.69849E-21        -0.16490E-19         0.00000E+00
   -0.29729E-20        -0.12107E-19         0.00000E+00
   -0.72177E-20        -0.67930E-20         0.00000E+00
   -0.69849E-20         0.00000E+00         0.00000E+00
   -0.71237E-20         0.15889E-20         0.00000E+00
   -0.60536E-20        -0.54752E-21         0.00000E+00
    0.46566E-20         0.37253E-20         0.00000E+00
    0.51223E-20        -0.15889E-20         0.00000E+00
    0.51223E-20        -0.37253E-20         0.00000E+00
    0.32596E-20        -0.51614E-33         0.00000E+00
    0.23283E-20        -0.10191E-32         0.00000E+00
    0.18626E-20        -0.77243E-20         0.00000E+00
    0.23283E-20        -0.18626E-19         0.00000E+00
    0.23625E-20        -0.24214E-19         0.00000E+00
    0.43144E-21        -0.26077E-19         0.00000E+00
   -0.34220E-22        -0.20489E-19         0.00000E+00
    0.46566E-21        -0.18626E-19         0.00000E+00
   -0.34220E-22        -0.14627E-19         0.00000E+00
   -0.49988E-21        -0.95870E-20         0.00000E+00
   -0.43144E-21        -0.27376E-21         0.00000E+00
    0.46566E-21         0.95870E-20         0.00000E+00
    0.00000E+00         0.14901E-19         0.00000E+00
    0.73271E-21         0.20489E-19         0.00000E+00
    0.18626E-20         0.16764E-19         0.00000E+00
    0.28111E-20         0.18626E-19         0.00000E+00
    0.46737E-20         0.93132E-20         0.00000E+00
    0.48894E-20        -0.74506E-20         0.00000E+00
    0.51223E-20        -0.11176E-19         0.00000E+00
    0.51223E-20        -0.14901E-19         0.00000E+00
    0.46566E-20        -0.14627E-19         0.00000E+00
    0.41910E-20        -0.55879E-20         0.00000E+00
    0.44238E-20        -0.74506E-20         0.00000E+00
    0.23283E-20        -0.13039E-19         0.00000E+00
    0.18455E-20        -0.39990E-20         0.00000E+00
    0.93132E-21         0.37253E-20         0.00000E+00
    0.46566E-21         0.00000E+00         0.00000E+00
    0.46566E-21         0.00000E+00         0.00000E+00
    0.25782E-20         0.37253E-20         0.00000E+00
    0.41910E-20         0.18626E-20         0.00000E+00
    0.37253E-20         0.00000E+00         0.00000E+00
    0.32596E-20         0.93132E-20         0.00000E+00
    0.44238E-20         0.10902E-19         0.00000E+00
    0.20955E-20         0.13241E-33         0.00000E+00
   -0.46566E-21        -0.10902E-19         0.00000E+00
   -0.22204E-20        -0.11176E-19         0.00000E+00
   -0.26690E-20        -0.37253E-20         0.00000E+00
   -0.37253E-20        -0.10902E-19         0.00000E+00
   -0.40831E-20        -0.13039E-19         0.00000E+00
   -0.41910E-20        -0.15175E-19         0.00000E+00
   -0.37253E-20        -0.31391E-19         0.00000E+00
   -0.46566E-20        -0.27940E-19         0.00000E+00
   -0.34385E-20        -0.13312E-19         0.00000E+00
   -0.27045E-20         0.43829E-20         0.00000E+00
   -0.21849E-20         0.30677E-20         0.00000E+00
   -0.28387E-20        -0.69031E-20         0.00000E+00
   -0.18626E-20         0.31778E-20         0.00000E+00
   -0.18626E-20        -0.10950E-20         0.00000E+00
    0.69849E-20         0.74506E-20         0.00000E+00
    0.65193E-20         0.74506E-20         0.00000E+00
    0.51223E-20         0.12765E-19         0.00000E+00
    0.60536E-20         0.16764E-19         0.00000E+00
    0.51565E-20         0.39990E-20         0.00000E+00
    0.60536E-20        -0.14901E-19         0.00000E+00
    0.60536E-20        -0.22078E-19         0.00000E+00
    0.60536E-20        -0.18626E-19         0.00000E+00
    0.55879E-20        -0.18900E-19         0.00000E+00
    0.41910E-20        -0.24214E-19         0.00000E+00
    0.18626E-20        -0.18626E-19         0.00000E+00
    0.49988E-21        -0.37253E-20         0.00000E+00
   -0.23283E-20         0.55879E-20         0.00000E+00
   -0.44238E-20         0.77243E-20         0.00000E+00
   -0.46908E-20         0.55879E-20         0.00000E+00
   -0.32938E-20         0.93132E-20         0.00000E+00
   -0.23625E-20         0.11176E-19         0.00000E+00
   -0.18626E-20         0.90395E-20         0.00000E+00
   -0.18798E-20         0.93132E-20         0.00000E+00
   -0.24994E-21        -0.18626E-20         0.00000E+00
    0.68138E-21        -0.14901E-19         0.00000E+00
    0.18626E-20        -0.14901E-19         0.00000E+00
    0.32425E-20        -0.16764E-19         0.00000E+00
    0.37082E-20        -0.14901E-19         0.00000E+00
    0.41910E-20        -0.93132E-20         0.00000E+00
    0.42081E-20        -0.37253E-20         0.00000E+00
    0.27940E-20         0.37253E-20         0.00000E+00
    0.93132E-21         0.16764E-19         0.00000E+00
    0.00000E+00         0.16764E-19         0.00000E+00
   -0.46566E-21        -0.37253E-20         0.00000E+00
    0.00000E+00        -0.14901E-19         0.00000E+00
    0.23283E-21        -0.55879E-20         0.00000E+00
    0.00000E+00         0.11176E-19         0.00000E+00
   -0.13970E-20         0.93132E-20         0.00000E+00
   -0.13970E-20         0.18626E-20         0.00000E+00
   -0.10392E-20         0.93132E-20         0.00000E+00
   -0.34069E-21         0.17038E-19         0.00000E+00
   -0.93132E-21         0.58617E-20         0.00000E+00
   -0.15048E-20        -0.39990E-20         0.00000E+00
   -0.16298E-20        -0.39990E-20         0.00000E+00
   -0.46566E-21        -0.93132E-20         0.00000E+00
   -0.23283E-20        -0.93132E-20         0.00000E+00
   -0.18626E-20        -0.93132E-20         0.00000E+00
   -0.25611E-20        -0.20489E-19         0.00000E+00
   -0.32596E-20        -0.29802E-19         0.00000E+00
   -0.39581E-20        -0.24214E-19         0.00000E+00
   -0.41910E-20        -0.14901E-19         0.00000E+00
   -0.98525E-21        -0.74506E-20         0.00000E+00
   -0.65377E-21        -0.37253E-20         0.00000E+00
   -0.46566E-21        -0.21364E-20         0.00000E+00
   -0.93132E-21         0.31778E-20         0.00000E+00
    0.69849E-20         0.37253E-20         0.00000E+00
    0.74506E-20         0.74506E-20         0.00000E+00
    0.69849E-20         0.27376E-21         0.00000E+00
    0.74506E-20        -0.18626E-20         0.00000E+00
    0.88476E-20        -0.27376E-21         0.00000E+00
    0.83819E-20        -0.11176E-19         0.00000E+00
    0.60194E-20        -0.18626E-19         0.00000E+00
    0.27940E-20        -0.22352E-19         0.00000E+00
    0.23625E-20        -0.16490E-19         0.00000E+00
    0.00000E+00        -0.37253E-20         0.00000E+00
   -0.27940E-20        -0.27376E-21         0.00000E+00
   -0.32596E-20         0.71768E-20         0.00000E+00
   -0.41567E-20         0.13039E-19         0.00000E+00
   -0.37595E-20         0.13312E-19         0.00000E+00
   -0.23283E-20         0.37253E-20         0.00000E+00
   -0.27597E-20         0.37253E-20         0.00000E+00
   -0.32596E-20         0.14901E-19         0.00000E+00
   -0.41910E-20         0.14901E-19         0.00000E+00
   -0.51223E-20         0.11176E-19         0.00000E+00
   -0.53551E-20        -0.55879E-20         0.00000E+00
   -0.60536E-20        -0.22352E-19         0.00000E+00
   -0.62864E-20        -0.22352E-19         0.00000E+00
   -0.41567E-20        -0.22352E-19         0.00000E+00
   -0.37253E-20        -0.22352E-19         0.00000E+00
   -0.32596E-20        -0.74506E-20         0.00000E+00
   -0.32767E-20         0.00000E+00         0.00000E+00
   -0.28111E-20         0.37253E-20         0.00000E+00
   -0.16298E-20         0.11176E-19         0.00000E+00
   -0.91421E-21         0.11176E-19         0.00000E+00
    0.00000E+00         0.18626E-20         0.00000E+00
    0.93132E-21        -0.37253E-20         0.00000E+00
    0.21572E-21         0.18626E-20         0.00000E+00
    0.21572E-21         0.74506E-20         0.00000E+00
    0.46566E-21         0.71768E-20         0.00000E+00
    0.93132E-21         0.74506E-20         0.00000E+00
   -0.46566E-21         0.39990E-20         0.00000E+00
    0.57352E-21         0.18626E-20         0.00000E+00
    0.93132E-21        -0.37253E-20         0.00000E+00
    0.10786E-21        -0.93132E-20         0.00000E+00
    0.10786E-21        -0.74506E-20         0.00000E+00
    0.46566E-21        -0.74506E-20         0.00000E+00
    0.18626E-20        -0.74506E-20         0.00000E+00
    0.25611E-20        -0.14627E-19         0.00000E+00
    0.29729E-20        -0.26077E-19         0.00000E+00
    0.32596E-20        -0.22625E-19         0.00000E+00
    0.22744E-20        -0.74506E-20         0.00000E+00
    0.27940E-20        -0.71768E-20         0.00000E+00
    0.15404E-20        -0.14901E-19         0.00000E+00
    0.15851E-20        -0.77243E-20         0.00000E+00
    0.16298E-20         0.15889E-20         0.00000E+00
    0.13970E-20         0.31778E-20         0.00000E+00
   -0.23283E-20         0.00000E+00         0.00000E+00
   -0.22941E-20         0.55879E-20         0.00000E+00
   -0.18626E-20         0.13039E-19         0.00000E+00
   -0.23283E-20         0.74506E-20         0.00000E+00
   -0.46566E-21         0.00000E+00         0.00000E+00
   -0.13970E-20         0.00000E+00         0.00000E+00
   -0.43144E-21         0.34515E-20         0.00000E+00
   -0.96554E-21         0.51628E-33         0.00000E+00
   -0.18969E-20        -0.34515E-20         0.00000E+00
   -0.89710E-21         0.00000E+00         0.00000E+00
   -0.46566E-21        -0.18626E-20         0.00000E+00
   -0.46566E-21         0.37253E-20         0.00000E+00
   -0.46566E-21         0.55879E-20         0.00000E+00
   -0.89710E-21         0.27376E-21         0.00000E+00
   -0.46566E-21         0.37253E-20         0.00000E+00
   -0.27940E-20         0.12765E-19         0.00000E+00
   -0.27940E-20         0.18626E-19         0.00000E+00
   -0.23283E-20         0.18626E-19         0.00000E+00
   -0.27940E-20         0.14901E-19         0.00000E+00
   -0.32425E-20         0.18626E-20         0.00000E+00
   -0.37082E-20        -0.13039E-19         0.00000E+00
   -0.27769E-20        -0.22352E-19         0.00000E+00
   -0.39752E-20        -0.27940E-19         0.00000E+00
   -0.37082E-20        -0.22352E-19         0.00000E+00
   -0.37424E-20        -0.11176E-19         0.00000E+00
   -0.37253E-20        -0.37253E-20         0.00000E+00
   -0.23112E-20        -0.37253E-20         0.00000E+00
   -0.91421E-21         0.74506E-20         0.00000E+00
   -0.71560E-21         0.74506E-20         0.00000E+00
   -0.13970E-20        -0.14901E-19         0.00000E+00
   -0.93132E-21        -0.16764E-19         0.00000E+00
    0.46566E-21        -0.18626E-20         0.00000E+00
    0.16298E-20         0.11176E-19         0.00000E+00
    0.23283E-20         0.93132E-20         0.00000E+00
    0.27940E-20         0.55879E-20         0.00000E+00
    0.27940E-20         0.93132E-20         0.00000E+00
    0.12891E-20         0.93132E-20         0.00000E+00
    0.15048E-20         0.55879E-20         0.00000E+00
   -0.82346E-21         0.18626E-20         0.00000E+00
   -0.69849E-21        -0.37253E-20         0.00000E+00
   -0.93132E-21        -0.18626E-19         0.00000E+00
    0.93132E-21        -0.18626E-19         0.00000E+00
   -0.17890E-21        -0.15175E-19         0.00000E+00
    0.00000E+00        -0.26077E-19         0.00000E+00
   -0.69849E-21        -0.25803E-19         0.00000E+00
   -0.41173E-21        -0.20215E-19         0.00000E+00
   -0.89450E-22        -0.12107E-19         0.00000E+00
   -0.16298E-20        -0.49304E-20         0.00000E+00
   -0.25611E-20        -0.37253E-20         0.00000E+00
   -0.24224E-20         0.34515E-20         0.00000E+00
   -0.13970E-20         0.69031E-20         0.00000E+00
   -0.10245E-19         0.37253E-20         0.00000E+00
   -0.10279E-19         0.55879E-20         0.00000E+00
   -0.97447E-20         0.00000E+00         0.00000E+00
   -0.83819E-20        -0.74506E-20         0.00000E+00
   -0.88476E-20        -0.39990E-20         0.00000E+00
   -0.69849E-20        -0.11176E-19         0.00000E+00
   -0.49237E-20        -0.22078E-19         0.00000E+00
   -0.46566E-21        -0.17038E-19         0.00000E+00
    0.49988E-21        -0.14901E-19         0.00000E+00
    0.22941E-20        -0.90395E-20         0.00000E+00
    0.27940E-20        -0.37253E-20         0.00000E+00
    0.32596E-20         0.74506E-20         0.00000E+00
    0.34925E-20         0.14901E-19         0.00000E+00
    0.22941E-20         0.13039E-19         0.00000E+00
    0.18626E-20         0.13039E-19         0.00000E+00
    0.18284E-20         0.14901E-19         0.00000E+00
    0.93132E-21         0.13039E-19         0.00000E+00
    0.13970E-20         0.13039E-19         0.00000E+00
    0.18626E-20         0.14901E-19         0.00000E+00
    0.27769E-20         0.00000E+00         0.00000E+00
    0.27940E-20        -0.22352E-19         0.00000E+00
    0.32425E-20        -0.24214E-19         0.00000E+00
    0.27940E-20        -0.18626E-19         0.00000E+00
    0.27940E-20        -0.20489E-19         0.00000E+00
    0.18798E-20        -0.74506E-20         0.00000E+00
    0.13970E-20        -0.74506E-20         0.00000E+00
    0.44855E-21        -0.11176E-19         0.00000E+00
   -0.94843E-21         0.37253E-20         0.00000E+00
   -0.93132E-21         0.13039E-19         0.00000E+00
   -0.13970E-20         0.18626E-20         0.00000E+00
   -0.93132E-21        -0.11176E-19         0.00000E+00
    0.00000E+00        -0.93132E-20         0.00000E+00
   -0.44855E-21        -0.18626E-20         0.00000E+00
   -0.46566E-21         0.18626E-20         0.00000E+00
   -0.93132E-21         0.37253E-20         0.00000E+00
   -0.13970E-20         0.90395E-20         0.00000E+00
   -0.10563E-20         0.11176E-19         0.00000E+00
   -0.34069E-21         0.77243E-20         0.00000E+00
    0.35780E-21        -0.27376E-21         0.00000E+00
    0.15220E-20        -0.74506E-20         0.00000E+00
    0.23283E-20        -0.14627E-19         0.00000E+00
    0.46566E-21        -0.11450E-19         0.00000E+00
    0.41173E-21        -0.11450E-19         0.00000E+00
    0.11642E-20        -0.22078E-19         0.00000E+00
    0.98525E-21        -0.18353E-19         0.00000E+00
   -0.98525E-21        -0.12381E-19         0.00000E+00
   -0.29373E-20        -0.27940E-20         0.00000E+00
   -0.37253E-20        -0.34515E-20         0.00000E+00
   -0.39134E-20        -0.39990E-20         0.00000E+00
   -0.33984E-20        -0.21364E-20         0.00000E+00
   -0.37253E-20        -0.37253E-20         0.00000E+00
   -0.18626E-20        -0.54752E-21         0.00000E+00
   -0.23283E-20         0.37253E-20         0.00000E+00
   -0.18969E-20         0.58617E-20         0.00000E+00
   -0.23283E-20         0.39990E-20         0.00000E+00
   -0.37253E-20        -0.58617E-20         0.00000E+00
   -0.32596E-20        -0.22899E-19         0.00000E+00
   -0.41567E-20        -0.27666E-19         0.00000E+00
   -0.36911E-20        -0.25803E-19         0.00000E+00
   -0.23625E-20        -0.18626E-19         0.00000E+00
   -0.89710E-21        -0.11176E-19         0.00000E+00
    0.46566E-21        -0.74506E-20         0.00000E+00
    0.23283E-20         0.37253E-20         0.00000E+00
    0.41567E-20         0.11176E-19         0.00000E+00
    0.56222E-20         0.74506E-20         0.00000E+00
    0.46908E-20         0.58617E-20         0.00000E+00
    0.41910E-20         0.16490E-19         0.00000E+00
    0.51223E-20         0.19942E-19         0.00000E+00
    0.65193E-20         0.14901E-19         0.00000E+00
    0.74677E-20         0.95870E-20         0.00000E+00
    0.69678E-20        -0.34515E-20         0.00000E+00
    0.55879E-20        -0.16764E-19         0.00000E+00
    0.27940E-20        -0.22352E-19         0.00000E+00
    0.18626E-20        -0.26077E-19         0.00000E+00
    0.13970E-20        -0.16764E-19         0.00000E+00
    0.93132E-21        -0.37253E-20         0.00000E+00
    0.93132E-21         0.18626E-20         0.00000E+00
    0.17110E-22         0.93132E-20         0.00000E+00
   -0.93132E-21         0.14901E-19         0.00000E+00
   -0.13970E-20         0.93132E-20         0.00000E+00
    0.00000E+00        -0.14901E-19         0.00000E+00
   -0.46566E-21        -0.22352E-19         0.00000E+00
   -0.18455E-20        -0.37253E-20         0.00000E+00
   -0.23283E-20         0.11176E-19         0.00000E+00
   -0.23283E-20         0.11176E-19         0.00000E+00
   -0.32596E-20         0.11176E-19         0.00000E+00
   -0.41910E-20         0.10902E-19         0.00000E+00
   -0.38332E-20         0.15889E-20         0.00000E+00
   -0.41910E-20        -0.18626E-20         0.00000E+00
   -0.23283E-20        -0.53142E-20         0.00000E+00
   -0.16298E-20        -0.13039E-19         0.00000E+00
    0.00000E+00        -0.13039E-19         0.00000E+00
    0.11642E-20        -0.10902E-19         0.00000E+00
    0.25611E-20        -0.18626E-19         0.00000E+00
    0.16837E-20        -0.26077E-19         0.00000E+00
    0.18087E-20        -0.17038E-19         0.00000E+00
    0.12181E-20         0.66204E-34         0.00000E+00
    0.31702E-20         0.27940E-20         0.00000E+00
    0.37253E-20        -0.30677E-20         0.00000E+00
    0.24717E-20        -0.50404E-20         0.00000E+00
    0.28387E-20         0.55879E-20         0.00000E+00
    0.18626E-20         0.63555E-20         0.00000E+00
    0.74506E-20         0.74506E-20         0.00000E+00
    0.65193E-20         0.37253E-20         0.00000E+00
    0.60536E-20         0.15889E-20         0.00000E+00
    0.51223E-20         0.34515E-20         0.00000E+00
    0.41910E-20        -0.18626E-20         0.00000E+00
    0.27940E-20        -0.10902E-19         0.00000E+00
    0.20955E-20        -0.16490E-19         0.00000E+00
    0.11299E-20        -0.26077E-19         0.00000E+00
    0.13970E-20        -0.31665E-19         0.00000E+00
    0.27597E-20        -0.22352E-19         0.00000E+00
    0.46566E-20        -0.18626E-19         0.00000E+00
    0.65193E-20        -0.11176E-19         0.00000E+00
    0.70191E-20        -0.21364E-20         0.00000E+00
    0.97789E-20         0.11176E-19         0.00000E+00
    0.10210E-19         0.21037E-19         0.00000E+00
    0.11142E-19         0.11176E-19         0.00000E+00
    0.11176E-19        -0.27376E-21         0.00000E+00
    0.12539E-19         0.37253E-20         0.00000E+00
    0.12323E-19         0.14627E-19         0.00000E+00
    0.10960E-19         0.93132E-20         0.00000E+00
    0.97789E-20        -0.34515E-20         0.00000E+00
    0.83990E-20        -0.55879E-20         0.00000E+00
    0.74506E-20        -0.11176E-19         0.00000E+00
    0.74506E-20        -0.14901E-19         0.00000E+00
    0.76834E-20        -0.37253E-20         0.00000E+00
    0.74506E-20        -0.18626E-20         0.00000E+00
    0.69678E-20        -0.37253E-20         0.00000E+00
    0.83819E-20         0.74506E-20         0.00000E+00
    0.79162E-20         0.11176E-19         0.00000E+00
    0.67521E-20        -0.18626E-20         0.00000E+00
    0.55879E-20        -0.37253E-20         0.00000E+00
    0.46395E-20         0.00000E+00         0.00000E+00
    0.51223E-20         0.00000E+00         0.00000E+00
    0.60536E-20         0.74506E-20         0.00000E+00
    0.60536E-20         0.14901E-19         0.00000E+00
    0.75584E-20         0.11176E-19         0.00000E+00
    0.77913E-20         0.74506E-20         0.00000E+00
    0.76834E-20         0.00000E+00         0.00000E+00
    0.88476E-20        -0.11176E-19         0.00000E+00
    0.80241E-20        -0.18900E-19         0.00000E+00
    0.79162E-20        -0.30076E-19         0.00000E+00
    0.89725E-20        -0.23941E-19         0.00000E+00
    0.89015E-20        -0.12765E-19         0.00000E+00
    0.80951E-20        -0.20763E-19         0.00000E+00
    0.86687E-20        -0.15175E-19         0.00000E+00
    0.10477E-19        -0.14901E-19         0.00000E+00
    0.10656E-19        -0.17421E-19         0.00000E+00
    0.10012E-19        -0.25202E-20         0.00000E+00
    0.10988E-19         0.00000E+00         0.00000E+00
    0.11131E-19         0.34515E-20         0.00000E+00
    0.11642E-19         0.69031E-20         0.00000E+00
    0.54948E-19         0.69031E-20         0.00000E+00
    0.55414E-19         0.11176E-19         0.00000E+00
    0.54914E-19         0.15175E-19         0.00000E+00
    0.54482E-19         0.11176E-19         0.00000E+00
    0.52620E-19         0.15889E-20         0.00000E+00
    0.53085E-19        -0.11176E-19         0.00000E+00
    0.53517E-19        -0.20489E-19         0.00000E+00
    0.54517E-19        -0.22352E-19         0.00000E+00
    0.52654E-19        -0.25803E-19         0.00000E+00
    0.53085E-19        -0.26077E-19         0.00000E+00
    0.54017E-19        -0.24488E-19         0.00000E+00
    0.53551E-19        -0.95870E-20         0.00000E+00
    0.54482E-19        -0.53142E-20         0.00000E+00
    0.54914E-19        -0.90395E-20         0.00000E+00
    0.56811E-19        -0.18626E-20         0.00000E+00
    0.57311E-19         0.93132E-20         0.00000E+00
    0.56345E-19         0.13039E-19         0.00000E+00
    0.55448E-19         0.93132E-20         0.00000E+00
    0.54931E-19         0.16490E-19         0.00000E+00
    0.56112E-19         0.11176E-19         0.00000E+00
    0.55414E-19        -0.15889E-20         0.00000E+00
    0.57492E-19        -0.11176E-19         0.00000E+00
    0.59605E-19        -0.20489E-19         0.00000E+00
    0.60053E-19        -0.16764E-19         0.00000E+00
    0.60053E-19        -0.55879E-20         0.00000E+00
    0.60070E-19         0.55879E-20         0.00000E+00
    0.60320E-19         0.55879E-20         0.00000E+00
    0.59139E-19         0.93132E-20         0.00000E+00
    0.58208E-19         0.18626E-19         0.00000E+00
    0.57725E-19        -0.18626E-20         0.00000E+00
    0.57259E-19        -0.15175E-19         0.00000E+00
    0.56811E-19        -0.37253E-20         0.00000E+00
    0.56811E-19         0.58617E-20         0.00000E+00
    0.56811E-19         0.71768E-20         0.00000E+00
    0.58673E-19         0.37253E-20         0.00000E+00
    0.59497E-19         0.18626E-20         0.00000E+00
    0.58798E-19        -0.11905E-33         0.00000E+00
    0.57850E-19        -0.53142E-20         0.00000E+00
    0.57276E-19        -0.74506E-20         0.00000E+00
    0.55771E-19        -0.11450E-19         0.00000E+00
    0.55414E-19        -0.17038E-19         0.00000E+00
    0.53318E-19        -0.14627E-19         0.00000E+00
    0.52333E-19        -0.14627E-19         0.00000E+00
    0.52853E-19        -0.24214E-19         0.00000E+00
    0.51456E-19        -0.28213E-19         0.00000E+00
    0.53264E-19        -0.12107E-19         0.00000E+00
    0.52065E-19         0.37253E-20         0.00000E+00
    0.52996E-19        -0.93132E-21         0.00000E+00
    0.54250E-19        -0.53142E-20         0.00000E+00
    0.54527E-19        -0.21364E-20         0.00000E+00
    0.54482E-19        -0.54752E-21         0.00000E+00
    0.40326E-18         0.31778E-20         0.00000E+00
    0.40423E-18         0.34515E-20         0.00000E+00
    0.40563E-18         0.74506E-20         0.00000E+00
    0.40772E-18         0.13039E-19         0.00000E+00
    0.40932E-18         0.37253E-20         0.00000E+00
    0.40838E-18        -0.14627E-19         0.00000E+00
    0.40795E-18        -0.26077E-19         0.00000E+00
    0.40838E-18        -0.22352E-19         0.00000E+00
    0.40975E-18        -0.22352E-19         0.00000E+00
    0.40982E-18        -0.26077E-19         0.00000E+00
    0.40908E-18        -0.22352E-19         0.00000E+00
    0.40745E-18        -0.14901E-19         0.00000E+00
    0.40792E-18        -0.71768E-20         0.00000E+00
    0.40609E-18         0.00000E+00         0.00000E+00
    0.40513E-18         0.74506E-20         0.00000E+00
    0.40419E-18         0.10902E-19         0.00000E+00
    0.40513E-18         0.93132E-20         0.00000E+00
    0.40369E-18         0.11176E-19         0.00000E+00
    0.40305E-18         0.13039E-19         0.00000E+00
    0.40301E-18         0.77243E-20         0.00000E+00
    0.40466E-18        -0.11176E-19         0.00000E+00
    0.40559E-18        -0.26077E-19         0.00000E+00
    0.40652E-18        -0.24214E-19         0.00000E+00
    0.40468E-18        -0.18626E-19         0.00000E+00
    0.40538E-18        -0.55879E-20         0.00000E+00
    0.40606E-18        -0.37253E-20         0.00000E+00
    0.40885E-18         0.37253E-20         0.00000E+00
    0.40908E-18         0.20489E-19         0.00000E+00
    0.40932E-18         0.16764E-19         0.00000E+00
    0.40957E-18         0.18626E-20         0.00000E+00
    0.40887E-18         0.00000E+00         0.00000E+00
    0.40838E-18         0.37253E-20         0.00000E+00
    0.40699E-18         0.15889E-20         0.00000E+00
    0.40652E-18        -0.37253E-20         0.00000E+00
    0.40676E-18         0.27376E-21         0.00000E+00
    0.40629E-18         0.13039E-19         0.00000E+00
    0.40733E-18         0.14901E-19         0.00000E+00
    0.40851E-18         0.53142E-20         0.00000E+00
    0.40745E-18         0.00000E+00         0.00000E+00
    0.40616E-18        -0.74506E-20         0.00000E+00
    0.40419E-18        -0.18626E-19         0.00000E+00
    0.40453E-18        -0.13039E-19         0.00000E+00
    0.40280E-18        -0.74506E-20         0.00000E+00
    0.40332E-18        -0.13039E-19         0.00000E+00
    0.40367E-18        -0.18900E-19         0.00000E+00
    0.40233E-18        -0.21147E-19         0.00000E+00
    0.40373E-18        -0.15832E-19         0.00000E+00
    0.40428E-18        -0.13970E-19         0.00000E+00
    0.40555E-18        -0.43829E-20         0.00000E+00
    0.40522E-18         0.34515E-20         0.00000E+00
    0.40513E-18         0.69031E-20         0.00000E+00
    0.28107E-17         0.54752E-21         0.00000E+00
    0.28093E-17         0.18626E-20         0.00000E+00
    0.28089E-17        -0.21364E-20         0.00000E+00
    0.28079E-17        -0.71768E-20         0.00000E+00
    0.28089E-17        -0.18626E-20         0.00000E+00
    0.28084E-17        -0.58617E-20         0.00000E+00
    0.28088E-17        -0.20215E-19         0.00000E+00
    0.28093E-17        -0.31391E-19         0.00000E+00
    0.28103E-17        -0.33801E-19         0.00000E+00
    0.28098E-17        -0.22352E-19         0.00000E+00
    0.28088E-17        -0.12765E-19         0.00000E+00
    0.28089E-17        -0.39990E-20         0.00000E+00
    0.28084E-17         0.18626E-20         0.00000E+00
    0.28079E-17         0.58617E-20         0.00000E+00
    0.28079E-17         0.74506E-20         0.00000E+00
    0.28084E-17         0.90395E-20         0.00000E+00
    0.28094E-17         0.16764E-19         0.00000E+00
    0.28077E-17         0.20489E-19         0.00000E+00
    0.28077E-17         0.16764E-19         0.00000E+00
    0.28056E-17         0.21364E-20         0.00000E+00
    0.28047E-17        -0.13039E-19         0.00000E+00
    0.28023E-17        -0.20489E-19         0.00000E+00
    0.28014E-17        -0.16764E-19         0.00000E+00
    0.28021E-17        -0.93132E-20         0.00000E+00
    0.28044E-17        -0.11450E-19         0.00000E+00
    0.28051E-17        -0.14901E-19         0.00000E+00
    0.28051E-17        -0.90395E-20         0.00000E+00
    0.28066E-17         0.74506E-20         0.00000E+00
    0.28084E-17         0.13039E-19         0.00000E+00
    0.28089E-17         0.00000E+00         0.00000E+00
    0.28102E-17        -0.74506E-20         0.00000E+00
    0.28114E-17         0.74506E-20         0.00000E+00
    0.28112E-17         0.14627E-19         0.00000E+00
    0.28089E-17         0.74506E-20         0.00000E+00
    0.28074E-17         0.74506E-20         0.00000E+00
    0.28071E-17        -0.24102E-20         0.00000E+00
    0.28079E-17        -0.10902E-19         0.00000E+00
    0.28082E-17        -0.71768E-20         0.00000E+00
    0.28084E-17         0.34515E-20         0.00000E+00
    0.28090E-17         0.74506E-20         0.00000E+00
    0.28079E-17        -0.55879E-20         0.00000E+00
    0.28093E-17        -0.11176E-19         0.00000E+00
    0.28082E-17        -0.13039E-19         0.00000E+00
    0.28095E-17        -0.26077E-19         0.00000E+00
    0.28103E-17        -0.22352E-19         0.00000E+00
    0.28101E-17        -0.13039E-19         0.00000E+00
    0.28099E-17        -0.55879E-20         0.00000E+00
    0.28089E-17        -0.93132E-20         0.00000E+00
    0.28091E-17        -0.11176E-19         0.00000E+00
    0.28099E-17        -0.18626E-20         0.00000E+00
    0.28107E-17         0.00000E+00         0.00000E+00
    0.19179E-16         0.14901E-19         0.00000E+00
    0.19179E-16         0.15175E-19         0.00000E+00
    0.19179E-16         0.15175E-19         0.00000E+00
    0.19177E-16         0.13039E-19         0.00000E+00
    0.19174E-16         0.15889E-20         0.00000E+00
    0.19175E-16        -0.17038E-19         0.00000E+00
    0.19174E-16        -0.29529E-19         0.00000E+00
    0.19173E-16        -0.27940E-19         0.00000E+00
    0.19173E-16        -0.26077E-19         0.00000E+00
    0.19174E-16        -0.20215E-19         0.00000E+00
    0.19175E-16        -0.17038E-19         0.00000E+00
    0.19175E-16        -0.13039E-19         0.00000E+00
    0.19175E-16        -0.34515E-20         0.00000E+00
    0.19175E-16         0.58617E-20         0.00000E+00
    0.19176E-16         0.74506E-20         0.00000E+00
    0.19176E-16         0.13151E-20         0.00000E+00
    0.19175E-16         0.10902E-19         0.00000E+00
    0.19174E-16         0.20489E-19         0.00000E+00
    0.19173E-16         0.22078E-19         0.00000E+00
    0.19171E-16         0.21694E-19         0.00000E+00
    0.19170E-16         0.49304E-20         0.00000E+00
    0.19170E-16        -0.11176E-19         0.00000E+00
    0.19169E-16        -0.22352E-19         0.00000E+00
    0.19172E-16        -0.31665E-19         0.00000E+00
    0.19173E-16        -0.20489E-19         0.00000E+00
    0.19171E-16        -0.93132E-20         0.00000E+00
    0.19170E-16        -0.34515E-20         0.00000E+00
    0.19169E-16         0.37253E-20         0.00000E+00
    0.19169E-16         0.37253E-20         0.00000E+00
    0.19170E-16        -0.55879E-20         0.00000E+00
    0.19171E-16        -0.11450E-19         0.00000E+00
    0.19172E-16        -0.18626E-20         0.00000E+00
    0.19174E-16         0.15175E-19         0.00000E+00
    0.19175E-16         0.14901E-19         0.00000E+00
    0.19175E-16         0.90395E-20         0.00000E+00
    0.19175E-16         0.90395E-20         0.00000E+00
    0.19174E-16         0.11450E-19         0.00000E+00
    0.19172E-16         0.55879E-20         0.00000E+00
    0.19171E-16        -0.39990E-20         0.00000E+00
    0.19172E-16        -0.74506E-20         0.00000E+00
    0.19172E-16        -0.20215E-19         0.00000E+00
    0.19173E-16        -0.14901E-19         0.00000E+00
    0.19174E-16        -0.11176E-19         0.00000E+00
    0.19174E-16        -0.22078E-19         0.00000E+00
    0.19173E-16        -0.22625E-19         0.00000E+00
    0.19173E-16        -0.18900E-19         0.00000E+00
    0.19173E-16        -0.11833E-19         0.00000E+00
    0.19173E-16        -0.65193E-20         0.00000E+00
    0.19172E-16        -0.77243E-20         0.00000E+00
    0.19171E-16        -0.58617E-20         0.00000E+00
    0.19171E-16        -0.42728E-20         0.00000E+00
    0.12994E-15         0.00000E+00         0.00000E+00
    0.12994E-15         0.21364E-20         0.00000E+00
    0.12994E-15         0.55879E-20         0.00000E+00
    0.12994E-15         0.16490E-19         0.00000E+00
    0.12994E-15         0.11176E-19         0.00000E+00
    0.12994E-15        -0.53142E-20         0.00000E+00
    0.12994E-15        -0.14627E-19         0.00000E+00
    0.12994E-15        -0.30076E-19         0.00000E+00
    0.12994E-15        -0.33801E-19         0.00000E+00
    0.12994E-15        -0.29529E-19         0.00000E+00
    0.12993E-15        -0.22078E-19         0.00000E+00
    0.12994E-15        -0.39990E-20         0.00000E+00
    0.12994E-15        -0.27376E-21         0.00000E+00
    0.12994E-15         0.00000E+00         0.00000E+00
    0.12994E-15         0.39990E-20         0.00000E+00
    0.12994E-15         0.15175E-19         0.00000E+00
    0.12994E-15         0.27940E-19         0.00000E+00
    0.12994E-15         0.29529E-19         0.00000E+00
    0.12994E-15         0.31391E-19         0.00000E+00
    0.12994E-15         0.15175E-19         0.00000E+00
    0.12994E-15        -0.74506E-20         0.00000E+00
    0.12994E-15        -0.15175E-19         0.00000E+00
    0.12994E-15        -0.22078E-19         0.00000E+00
    0.12994E-15        -0.25803E-19         0.00000E+00
    0.12993E-15        -0.13312E-19         0.00000E+00
    0.12994E-15        -0.37253E-20         0.00000E+00
    0.12994E-15         0.39990E-20         0.00000E+00
    0.12993E-15         0.11176E-19         0.00000E+00
    0.12993E-15         0.53142E-20         0.00000E+00
    0.12993E-15        -0.74506E-20         0.00000E+00
    0.12993E-15        -0.12765E-19         0.00000E+00
    0.12993E-15        -0.55879E-20         0.00000E+00
    0.12993E-15        -0.18626E-20         0.00000E+00
    0.12993E-15         0.15889E-20         0.00000E+00
    0.12993E-15         0.71768E-20         0.00000E+00
    0.12993E-15         0.37253E-20         0.00000E+00
    0.12993E-15         0.21364E-20         0.00000E+00
    0.12993E-15         0.77243E-20         0.00000E+00
    0.12993E-15         0.74506E-20         0.00000E+00
    0.12993E-15        -0.27376E-21         0.00000E+00
    0.12993E-15        -0.93132E-20         0.00000E+00
    0.12993E-15        -0.14901E-19         0.00000E+00
    0.12993E-15        -0.20763E-19         0.00000E+00
    0.12993E-15        -0.24214E-19         0.00000E+00
    0.12993E-15        -0.20489E-19         0.00000E+00
    0.12993E-15        -0.13696E-19         0.00000E+00
    0.12993E-15        -0.62455E-20         0.00000E+00
    0.12993E-15        -0.55879E-20         0.00000E+00
    0.12993E-15        -0.27376E-21         0.00000E+00
    0.12993E-15         0.31778E-20         0.00000E+00
    0.12993E-15         0.31778E-20         0.00000E+00
    0.87240E-15         0.37253E-20         0.00000E+00
    0.87240E-15         0.55879E-20         0.00000E+00
    0.87240E-15         0.39990E-20         0.00000E+00
    0.87240E-15         0.00000E+00         0.00000E+00
    0.87240E-15         0.34515E-20         0.00000E+00
    0.87240E-15         0.00000E+00         0.00000E+00
    0.87240E-15        -0.14901E-19         0.00000E+00
    0.87240E-15        -0.11176E-19         0.00000E+00
    0.87240E-15        -0.12765E-19         0.00000E+00
    0.87240E-15        -0.18353E-19         0.00000E+00
    0.87240E-15        -0.20763E-19         0.00000E+00
    0.87240E-15        -0.14901E-19         0.00000E+00
    0.87240E-15        -0.37253E-20         0.00000E+00
    0.87240E-15        -0.37253E-20         0.00000E+00
    0.87240E-15         0.27376E-21         0.00000E+00
    0.87240E-15         0.93132E-20         0.00000E+00
    0.87240E-15         0.14627E-19         0.00000E+00
    0.87240E-15         0.16764E-19         0.00000E+00
    0.87240E-15         0.27666E-19         0.00000E+00
    0.87240E-15         0.14901E-19         0.00000E+00
    0.87240E-15        -0.13151E-20         0.00000E+00
    0.87240E-15        -0.74506E-20         0.00000E+00
    0.87240E-15        -0.18900E-19         0.00000E+00
    0.87240E-15        -0.18626E-19         0.00000E+00
    0.87240E-15        -0.14901E-19         0.00000E+00
    0.87240E-15        -0.11176E-19         0.00000E+00
    0.87240E-15         0.25146E-33         0.00000E+00
    0.87240E-15         0.20215E-19         0.00000E+00
    0.87240E-15         0.33528E-19         0.00000E+00
    0.87240E-15         0.24488E-19         0.00000E+00
    0.87239E-15         0.53142E-20         0.00000E+00
    0.87239E-15        -0.74506E-20         0.00000E+00
    0.87239E-15        -0.87657E-20         0.00000E+00
    0.87239E-15        -0.39990E-20         0.00000E+00
    0.87239E-15         0.71768E-20         0.00000E+00
    0.87239E-15         0.74506E-20         0.00000E+00
    0.87239E-15         0.37253E-20         0.00000E+00
    0.87240E-15        -0.34515E-20         0.00000E+00
    0.87240E-15        -0.14901E-19         0.00000E+00
    0.87240E-15        -0.15175E-19         0.00000E+00
    0.87240E-15        -0.22352E-19         0.00000E+00
    0.87240E-15        -0.14627E-19         0.00000E+00
    0.87240E-15        -0.12765E-19         0.00000E+00
    0.87240E-15        -0.17311E-19         0.00000E+00
    0.87240E-15        -0.18900E-19         0.00000E+00
    0.87240E-15        -0.18353E-19         0.00000E+00
    0.87240E-15        -0.55879E-20         0.00000E+00
    0.87240E-15        -0.37253E-20         0.00000E+00
    0.87240E-15         0.27376E-21         0.00000E+00
    0.87240E-15         0.37253E-20         0.00000E+00
    0.87240E-15        -0.54752E-21         0.00000E+00
    0.57938E-14         0.00000E+00         0.00000E+00
    0.57938E-14         0.00000E+00         0.00000E+00
    0.57938E-14         0.18626E-20         0.00000E+00
    0.57938E-14         0.11176E-19         0.00000E+00
    0.57938E-14         0.13039E-19         0.00000E+00
    0.57938E-14        -0.37253E-20         0.00000E+00
    0.57938E-14        -0.14901E-19         0.00000E+00
    0.57938E-14        -0.20215E-19         0.00000E+00
    0.57938E-14        -0.26077E-19         0.00000E+00
    0.57938E-14        -0.22625E-19         0.00000E+00
    0.57938E-14        -0.18900E-19         0.00000E+00
    0.57938E-14        -0.13039E-19         0.00000E+00
    0.57938E-14        -0.11176E-19         0.00000E+00
    0.57938E-14        -0.65756E-21         0.00000E+00
    0.57938E-14         0.14517E-19         0.00000E+00
    0.57938E-14         0.18353E-19         0.00000E+00
    0.57938E-14         0.22352E-19         0.00000E+00
    0.57938E-14         0.23941E-19         0.00000E+00
    0.57938E-14         0.12765E-19         0.00000E+00
    0.57938E-14        -0.13151E-20         0.00000E+00
    0.57938E-14        -0.15889E-20         0.00000E+00
    0.57938E-14        -0.21364E-20         0.00000E+00
    0.57938E-14        -0.22625E-19         0.00000E+00
    0.57938E-14        -0.29802E-19         0.00000E+00
    0.57938E-14        -0.14901E-19         0.00000E+00
    0.57938E-14        -0.90395E-20         0.00000E+00
    0.57938E-14         0.37253E-20         0.00000E+00
    0.57938E-14         0.24214E-19         0.00000E+00
    0.57938E-14         0.30076E-19         0.00000E+00
    0.57938E-14         0.13039E-19         0.00000E+00
    0.57938E-14        -0.77243E-20         0.00000E+00
    0.57938E-14        -0.55879E-20         0.00000E+00
    0.57938E-14         0.25146E-33         0.00000E+00
    0.57938E-14        -0.37253E-20         0.00000E+00
    0.57938E-14         0.00000E+00         0.00000E+00
    0.57938E-14         0.71768E-20         0.00000E+00
    0.57938E-14         0.00000E+00         0.00000E+00
    0.57938E-14        -0.39990E-20         0.00000E+00
    0.57938E-14         0.00000E+00         0.00000E+00
    0.57938E-14        -0.34515E-20         0.00000E+00
    0.57938E-14        -0.16490E-19         0.00000E+00
    0.57938E-14        -0.16764E-19         0.00000E+00
    0.57938E-14        -0.13039E-19         0.00000E+00
    0.57938E-14        -0.20489E-19         0.00000E+00
    0.57938E-14        -0.15175E-19         0.00000E+00
    0.57938E-14        -0.74506E-20         0.00000E+00
    0.57938E-14        -0.93132E-20         0.00000E+00
    0.57938E-14        -0.74506E-20         0.00000E+00
    0.57938E-14        -0.18626E-20         0.00000E+00
    0.57938E-14         0.18626E-20         0.00000E+00
    0.57938E-14         0.37253E-20         0.00000E+00
    0.37992E-13         0.37253E-20         0.00000E+00
    0.37992E-13         0.11176E-19         0.00000E+00
    0.37992E-13         0.37253E-20         0.00000E+00
    0.37992E-13        -0.55879E-20         0.00000E+00
    0.37992E-13        -0.34515E-20         0.00000E+00
    0.37992E-13        -0.37253E-20         0.00000E+00
    0.37992E-13        -0.77243E-20         0.00000E+00
    0.37992E-13        -0.14627E-19         0.00000E+00
    0.37992E-13        -0.18626E-19         0.00000E+00
    0.37992E-13        -0.18900E-19         0.00000E+00
    0.37992E-13        -0.14627E-19         0.00000E+00
    0.37992E-13        -0.95870E-20         0.00000E+00
    0.37992E-13        -0.39990E-20         0.00000E+00
    0.37992E-13         0.24102E-20         0.00000E+00
    0.37992E-13         0.39990E-20         0.00000E+00
    0.37992E-13         0.31778E-20         0.00000E+00
    0.37992E-13         0.37253E-20         0.00000E+00
    0.37992E-13         0.16764E-19         0.00000E+00
    0.37992E-13         0.18079E-19         0.00000E+00
    0.37992E-13         0.58617E-20         0.00000E+00
    0.37992E-13        -0.10902E-19         0.00000E+00
    0.37992E-13        -0.16764E-19         0.00000E+00
    0.37992E-13        -0.16490E-19         0.00000E+00
    0.37992E-13        -0.16490E-19         0.00000E+00
    0.37992E-13        -0.79981E-20         0.00000E+00
    0.37992E-13        -0.55879E-20         0.00000E+00
    0.37992E-13        -0.15889E-20         0.00000E+00
    0.37992E-13         0.90395E-20         0.00000E+00
    0.37992E-13         0.53142E-20         0.00000E+00
    0.37992E-13         0.27376E-21         0.00000E+00
    0.37992E-13         0.24102E-20         0.00000E+00
    0.37992E-13         0.93132E-20         0.00000E+00
    0.37992E-13         0.16216E-19         0.00000E+00
    0.37992E-13         0.55879E-20         0.00000E+00
    0.37992E-13         0.21364E-20         0.00000E+00
    0.37992E-13         0.87657E-20         0.00000E+00
    0.37992E-13         0.18626E-20         0.00000E+00
    0.37992E-13        -0.15889E-20         0.00000E+00
    0.37992E-13         0.37253E-20         0.00000E+00
    0.37992E-13        -0.77243E-20         0.00000E+00
    0.37992E-13        -0.20489E-19         0.00000E+00
    0.37992E-13        -0.14627E-19         0.00000E+00
    0.37992E-13        -0.17038E-19         0.00000E+00
    0.37992E-13        -0.20489E-19         0.00000E+00
    0.37992E-13        -0.18353E-19         0.00000E+00
    0.37992E-13        -0.16106E-19         0.00000E+00
    0.37992E-13         0.65757E-21         0.00000E+00
    0.37992E-13        -0.50404E-20         0.00000E+00
    0.37992E-13        -0.10902E-19         0.00000E+00
    0.37992E-13        -0.24102E-20         0.00000E+00
    0.37992E-13        -0.54751E-21         0.00000E+00
    0.24541E-12         0.74506E-20         0.00000E+00
    0.24541E-12         0.74506E-20         0.00000E+00
    0.24541E-12         0.11176E-19         0.00000E+00
    0.24541E-12         0.14901E-19         0.00000E+00
    0.24541E-12         0.39990E-20         0.00000E+00
    0.24541E-12        -0.95870E-20         0.00000E+00
    0.24541E-12        -0.15449E-19         0.00000E+00
    0.24541E-12        -0.18353E-19         0.00000E+00
    0.24541E-12        -0.22078E-19         0.00000E+00
    0.24541E-12        -0.18626E-19         0.00000E+00
    0.24541E-12        -0.11176E-19         0.00000E+00
    0.24541E-12        -0.34515E-20         0.00000E+00
    0.24541E-12        -0.71768E-20         0.00000E+00
    0.24541E-12        -0.74506E-20         0.00000E+00
    0.24541E-12        -0.74506E-20         0.00000E+00
    0.24541E-12        -0.37253E-20         0.00000E+00
    0.24541E-12         0.90395E-20         0.00000E+00
    0.24541E-12         0.69031E-20         0.00000E+00
    0.24541E-12         0.53142E-20         0.00000E+00
    0.24541E-12         0.74506E-20         0.00000E+00
    0.24541E-12         0.54750E-21         0.00000E+00
    0.24541E-12        -0.90395E-20         0.00000E+00
    0.24541E-12        -0.95870E-20         0.00000E+00
    0.24541E-12        -0.71768E-20         0.00000E+00
    0.24541E-12         0.15889E-20         0.00000E+00
    0.24541E-12        -0.21364E-20         0.00000E+00
    0.24541E-12         0.58617E-20         0.00000E+00
    0.24541E-12         0.24214E-19         0.00000E+00
    0.24541E-12         0.15175E-19         0.00000E+00
    0.24541E-12        -0.34515E-20         0.00000E+00
    0.24541E-12        -0.11176E-19         0.00000E+00
    0.24541E-12         0.00000E+00         0.00000E+00
    0.24541E-12         0.11176E-19         0.00000E+00
    0.24541E-12         0.34515E-20         0.00000E+00
    0.24541E-12         0.34515E-20         0.00000E+00
    0.24541E-12         0.34515E-20         0.00000E+00
    0.24541E-12         0.37253E-20         0.00000E+00
    0.24541E-12         0.27375E-21         0.00000E+00
    0.24541E-12        -0.77243E-20         0.00000E+00
    0.24541E-12        -0.77243E-20         0.00000E+00
    0.24541E-12        -0.10902E-19         0.00000E+00
    0.24541E-12        -0.14354E-19         0.00000E+00
    0.24541E-12        -0.11176E-19         0.00000E+00
    0.24541E-12        -0.13312E-19         0.00000E+00
    0.24541E-12        -0.20489E-19         0.00000E+00
    0.24541E-12        -0.11176E-19         0.00000E+00
    0.24541E-12         0.55879E-20         0.00000E+00
    0.24541E-12         0.18626E-20         0.00000E+00
    0.24541E-12        -0.37253E-20         0.00000E+00
    0.24541E-12        -0.21364E-20         0.00000E+00
    0.24541E-12        -0.42728E-20         0.00000E+00
    0.15570E-11         0.74506E-20         0.00000E+00
    0.15570E-11         0.37253E-20         0.00000E+00
    0.15570E-11         0.15889E-20         0.00000E+00
    0.15570E-11         0.34516E-20         0.00000E+00
    0.15570E-11         0.24101E-20         0.00000E+00
    0.15570E-11        -0.10628E-19         0.00000E+00
    0.15570E-11        -0.17038E-19         0.00000E+00
    0.15570E-11        -0.17038E-19         0.00000E+00
    0.15570E-11        -0.26077E-19         0.00000E+00
    0.15570E-11        -0.22625E-19         0.00000E+00
    0.15570E-11        -0.95869E-20         0.00000E+00
    0.15570E-11         0.27371E-21         0.00000E+00
    0.15570E-11         0.77243E-20         0.00000E+00
    0.15570E-11         0.13039E-19         0.00000E+00
    0.15570E-11         0.11450E-19         0.00000E+00
    0.15570E-11         0.37253E-20         0.00000E+00
    0.15570E-11         0.50405E-20         0.00000E+00
    0.15570E-11         0.16490E-19         0.00000E+00
    0.15570E-11         0.24488E-19         0.00000E+00
    0.15570E-11         0.14901E-19         0.00000E+00
    0.15570E-11        -0.39990E-20         0.00000E+00
    0.15570E-11        -0.11176E-19         0.00000E+00
    0.15570E-11        -0.16490E-19         0.00000E+00
    0.15570E-11        -0.18079E-19         0.00000E+00
    0.15570E-11        -0.13312E-19         0.00000E+00
    0.15570E-11        -0.18626E-19         0.00000E+00
    0.15570E-11        -0.74506E-20         0.00000E+00
    0.15570E-11         0.71769E-20         0.00000E+00
    0.15570E-11         0.61354E-20         0.00000E+00
    0.15570E-11        -0.34516E-20         0.00000E+00
    0.15570E-11        -0.21364E-20         0.00000E+00
    0.15570E-11         0.50292E-33         0.00000E+00
    0.15570E-11         0.53142E-20         0.00000E+00
    0.15570E-11         0.10628E-19         0.00000E+00
    0.15570E-11         0.58616E-20         0.00000E+00
    0.15570E-11        -0.38378E-33         0.00000E+00
    0.15570E-11        -0.34516E-20         0.00000E+00
    0.15570E-11        -0.13152E-20         0.00000E+00
    0.15570E-11         0.71769E-20         0.00000E+00
    0.15570E-11        -0.42727E-20         0.00000E+00
    0.15570E-11        -0.15175E-19         0.00000E+00
    0.15570E-11        -0.18626E-19         0.00000E+00
    0.15570E-11        -0.23941E-19         0.00000E+00
    0.15570E-11        -0.22078E-19         0.00000E+00
    0.15570E-11        -0.14901E-19         0.00000E+00
    0.15570E-11        -0.90395E-20         0.00000E+00
    0.15570E-11        -0.27940E-20         0.00000E+00
    0.15570E-11         0.25203E-20         0.00000E+00
    0.15570E-11        -0.27371E-21         0.00000E+00
    0.15570E-11         0.15889E-20         0.00000E+00
    0.15570E-11         0.37253E-20         0.00000E+00
    0.96644E-11         0.10629E-19         0.00000E+00
    0.96644E-11         0.93132E-20         0.00000E+00
    0.96644E-11         0.74506E-20         0.00000E+00
    0.96644E-11         0.37253E-20         0.00000E+00
    0.96644E-11        -0.50410E-20         0.00000E+00
    0.96644E-11        -0.93132E-20         0.00000E+00
    0.96644E-11        -0.11449E-19         0.00000E+00
    0.96644E-11        -0.11449E-19         0.00000E+00
    0.96644E-11        -0.13696E-19         0.00000E+00
    0.96644E-11        -0.17695E-19         0.00000E+00
    0.96644E-11        -0.18900E-19         0.00000E+00
    0.96644E-11        -0.15892E-20         0.00000E+00
    0.96644E-11         0.37253E-20         0.00000E+00
    0.96644E-11        -0.27348E-21         0.00000E+00
    0.96644E-11         0.27348E-21         0.00000E+00
    0.96644E-11         0.98602E-20         0.00000E+00
    0.96644E-11         0.29255E-19         0.00000E+00
    0.96644E-11         0.18353E-19         0.00000E+00
    0.96644E-11         0.13039E-19         0.00000E+00
    0.96644E-11         0.34518E-20         0.00000E+00
    0.96644E-11        -0.10902E-19         0.00000E+00
    0.96644E-11        -0.18353E-19         0.00000E+00
    0.96644E-11        -0.29802E-19         0.00000E+00
    0.96644E-11        -0.25804E-19         0.00000E+00
    0.96644E-11        -0.58614E-20         0.00000E+00
    0.96644E-11        -0.37253E-20         0.00000E+00
    0.96644E-11        -0.15892E-20         0.00000E+00
    0.96644E-11         0.14628E-19         0.00000E+00
    0.96644E-11         0.10902E-19         0.00000E+00
    0.96644E-11        -0.34518E-20         0.00000E+00
    0.96644E-11        -0.74506E-20         0.00000E+00
    0.96644E-11         0.55879E-20         0.00000E+00
    0.96644E-11         0.95867E-20         0.00000E+00
    0.96644E-11         0.93132E-20         0.00000E+00
    0.96644E-11         0.11176E-19         0.00000E+00
    0.96644E-11        -0.54695E-21         0.00000E+00
    0.96644E-11        -0.37253E-20         0.00000E+00
    0.96644E-11        -0.37253E-20         0.00000E+00
    0.96644E-11        -0.93132E-20         0.00000E+00
    0.96644E-11        -0.74506E-20         0.00000E+00
    0.96644E-11        -0.16764E-19         0.00000E+00
    0.96644E-11        -0.22078E-19         0.00000E+00
    0.96644E-11        -0.18626E-19         0.00000E+00
    0.96644E-11        -0.22352E-19         0.00000E+00
    0.96644E-11        -0.18353E-19         0.00000E+00
    0.96644E-11        -0.11449E-19         0.00000E+00
    0.96644E-11         0.65785E-21         0.00000E+00
    0.96644E-11        -0.65785E-21         0.00000E+00
    0.96644E-11        -0.37253E-20         0.00000E+00
    0.96644E-11         0.15892E-20         0.00000E+00
    0.96644E-11        -0.54695E-21         0.00000E+00
    0.58370E-10         0.79947E-20         0.00000E+00
    0.58370E-10         0.11176E-19         0.00000E+00
    0.58370E-10         0.55879E-20         0.00000E+00
    0.58370E-10         0.00000E+00         0.00000E+00
    0.58370E-10        -0.58600E-20         0.00000E+00
    0.58370E-10        -0.11448E-19         0.00000E+00
    0.58370E-10        -0.13039E-19         0.00000E+00
    0.58370E-10        -0.14901E-19         0.00000E+00
    0.58370E-10        -0.11176E-19         0.00000E+00
    0.58370E-10        -0.18626E-19         0.00000E+00
    0.58370E-10        -0.13039E-19         0.00000E+00
    0.58370E-10        -0.34532E-20         0.00000E+00
    0.58370E-10        -0.37253E-20         0.00000E+00
    0.58370E-10         0.95853E-20         0.00000E+00
    0.58370E-10         0.77226E-20         0.00000E+00
    0.58370E-10         0.53159E-20         0.00000E+00
    0.58370E-10         0.74506E-20         0.00000E+00
    0.58370E-10         0.12766E-19         0.00000E+00
    0.58370E-10         0.18082E-19         0.00000E+00
    0.58370E-10         0.37253E-20         0.00000E+00
    0.58370E-10        -0.10904E-19         0.00000E+00
    0.58370E-10        -0.14629E-19         0.00000E+00
    0.58370E-10        -0.14901E-19         0.00000E+00
    0.58370E-10        -0.22080E-19         0.00000E+00
    0.58370E-10        -0.17036E-19         0.00000E+00
    0.58370E-10        -0.74506E-20         0.00000E+00
    0.58370E-10         0.00000E+00         0.00000E+00
    0.58370E-10         0.74506E-20         0.00000E+00
    0.58370E-10         0.21347E-20         0.00000E+00
    0.58370E-10        -0.25146E-33         0.00000E+00
    0.58370E-10        -0.25146E-33         0.00000E+00
    0.58370E-10        -0.27205E-21         0.00000E+00
    0.58370E-10         0.74506E-20         0.00000E+00
    0.58370E-10         0.71785E-20         0.00000E+00
    0.58370E-10         0.18626E-20         0.00000E+00
    0.58370E-10         0.37253E-20         0.00000E+00
    0.58370E-10        -0.18626E-20         0.00000E+00
    0.58370E-10        -0.37253E-20         0.00000E+00
    0.58370E-10        -0.55879E-20         0.00000E+00
    0.58370E-10        -0.14901E-19         0.00000E+00
    0.58370E-10        -0.16764E-19         0.00000E+00
    0.58370E-10        -0.14901E-19         0.00000E+00
    0.58370E-10        -0.18899E-19         0.00000E+00
    0.58370E-10        -0.22352E-19         0.00000E+00
    0.58370E-10        -0.14357E-19         0.00000E+00
    0.58370E-10        -0.99725E-20         0.00000E+00
    0.58370E-10         0.65927E-21         0.00000E+00
    0.58370E-10         0.74506E-20         0.00000E+00
    0.58370E-10         0.37253E-20         0.00000E+00
    0.58370E-10         0.15906E-20         0.00000E+00
    0.58370E-10         0.31812E-20         0.00000E+00
    0.34044E-09         0.37253E-20         0.00000E+00
    0.34044E-09         0.15988E-20         0.00000E+00
    0.34044E-09        -0.18626E-20         0.00000E+00
    0.34044E-09         0.58517E-20         0.00000E+00
    0.34044E-09         0.13039E-19         0.00000E+00
    0.34044E-09         0.00000E+00         0.00000E+00
    0.34044E-09        -0.13302E-19         0.00000E+00
    0.34044E-09        -0.15165E-19         0.00000E+00
    0.34044E-09        -0.26077E-19         0.00000E+00
    0.34044E-09        -0.24214E-19         0.00000E+00
    0.34044E-09        -0.18626E-19         0.00000E+00
    0.34044E-09        -0.69230E-20         0.00000E+00
    0.34044E-09         0.93132E-20         0.00000E+00
    0.34044E-09         0.10648E-19         0.00000E+00
    0.34044E-09         0.98408E-20         0.00000E+00
    0.34044E-09         0.93132E-20         0.00000E+00
    0.34044E-09         0.16500E-19         0.00000E+00
    0.34044E-09         0.18626E-19         0.00000E+00
    0.34044E-09         0.12775E-19         0.00000E+00
    0.34044E-09         0.37253E-20         0.00000E+00
    0.34044E-09        -0.71868E-20         0.00000E+00
    0.34044E-09        -0.14637E-19         0.00000E+00
    0.34044E-09        -0.20753E-19         0.00000E+00
    0.34044E-09        -0.20489E-19         0.00000E+00
    0.34044E-09        -0.13039E-19         0.00000E+00
    0.34044E-09        -0.13039E-19         0.00000E+00
    0.34044E-09        -0.10912E-19         0.00000E+00
    0.34044E-09         0.71868E-20         0.00000E+00
    0.34044E-09         0.14637E-19         0.00000E+00
    0.34044E-09         0.52760E-21         0.00000E+00
    0.34044E-09        -0.37253E-20         0.00000E+00
    0.34044E-09        -0.26380E-21         0.00000E+00
    0.34044E-09         0.37253E-20         0.00000E+00
    0.34044E-09        -0.13241E-33         0.00000E+00
    0.34044E-09        -0.90494E-20         0.00000E+00
    0.34044E-09        -0.77144E-20         0.00000E+00
    0.34044E-09        -0.21264E-20         0.00000E+00
    0.34044E-09         0.26380E-21         0.00000E+00
    0.34044E-09         0.26380E-21         0.00000E+00
    0.34044E-09        -0.77144E-20         0.00000E+00
    0.34044E-09        -0.13039E-19         0.00000E+00
    0.34044E-09        -0.37253E-20         0.00000E+00
    0.34044E-09        -0.77144E-20         0.00000E+00
    0.34044E-09        -0.14901E-19         0.00000E+00
    0.34044E-09        -0.11176E-19         0.00000E+00
    0.34044E-09        -0.93132E-20         0.00000E+00
    0.34044E-09         0.26380E-21         0.00000E+00
    0.34044E-09         0.58517E-20         0.00000E+00
    0.34044E-09         0.37253E-20         0.00000E+00
    0.34044E-09         0.34615E-20         0.00000E+00
    0.34044E-09         0.31977E-20         0.00000E+00
    0.18960E-08         0.32890E-20         0.00000E+00
    0.18960E-08         0.11176E-19         0.00000E+00
    0.18960E-08         0.11394E-19         0.00000E+00
    0.18960E-08         0.93132E-20         0.00000E+00
    0.18960E-08        -0.37253E-20         0.00000E+00
    0.18960E-08        -0.15119E-19         0.00000E+00
    0.18960E-08        -0.11394E-19         0.00000E+00
    0.18960E-08        -0.14683E-19         0.00000E+00
    0.18960E-08        -0.18626E-19         0.00000E+00
    0.18960E-08        -0.15119E-19         0.00000E+00
    0.18960E-08        -0.72324E-20         0.00000E+00
    0.18960E-08        -0.35071E-20         0.00000E+00
    0.18960E-08         0.35071E-20         0.00000E+00
    0.18960E-08         0.74506E-20         0.00000E+00
    0.18960E-08         0.41616E-20         0.00000E+00
    0.18960E-08         0.95314E-20         0.00000E+00
    0.18960E-08         0.18408E-19         0.00000E+00
    0.18960E-08         0.20053E-19         0.00000E+00
    0.18960E-08         0.16546E-19         0.00000E+00
    0.18960E-08         0.37253E-20         0.00000E+00
    0.18960E-08        -0.93132E-20         0.00000E+00
    0.18960E-08        -0.20489E-19         0.00000E+00
    0.18960E-08        -0.25859E-19         0.00000E+00
    0.18960E-08        -0.20271E-19         0.00000E+00
    0.18960E-08        -0.15119E-19         0.00000E+00
    0.18960E-08        -0.11176E-19         0.00000E+00
    0.18960E-08         0.21817E-21         0.00000E+00
    0.18960E-08         0.22134E-19         0.00000E+00
    0.18960E-08         0.33309E-19         0.00000E+00
    0.18960E-08         0.19063E-19         0.00000E+00
    0.18960E-08        -0.12820E-19         0.00000E+00
    0.18960E-08        -0.14901E-19         0.00000E+00
    0.18960E-08         0.74506E-20         0.00000E+00
    0.18960E-08         0.35071E-20         0.00000E+00
    0.18960E-08         0.00000E+00         0.00000E+00
    0.18960E-08         0.35071E-20         0.00000E+00
    0.18960E-08        -0.76687E-20         0.00000E+00
    0.18960E-08        -0.18408E-19         0.00000E+00
    0.18960E-08        -0.18626E-19         0.00000E+00
    0.18960E-08        -0.20707E-19         0.00000E+00
    0.18960E-08        -0.22352E-19         0.00000E+00
    0.18960E-08        -0.13039E-19         0.00000E+00
    0.18960E-08        -0.14683E-19         0.00000E+00
    0.18960E-08        -0.22134E-19         0.00000E+00
    0.18960E-08        -0.18845E-19         0.00000E+00
    0.18960E-08        -0.55879E-20         0.00000E+00
    0.18960E-08         0.76687E-20         0.00000E+00
    0.18960E-08         0.16445E-20         0.00000E+00
    0.18960E-08        -0.20808E-20         0.00000E+00
    0.18960E-08         0.55879E-20         0.00000E+00
    0.18960E-08         0.74506E-20         0.00000E+00
    0.99053E-08         0.00000E+00         0.00000E+00
    0.99053E-08        -0.18449E-20         0.00000E+00
    0.99053E-08         0.74683E-20         0.00000E+00
    0.99053E-08         0.11176E-19         0.00000E+00
    0.99053E-08         0.18449E-20         0.00000E+00
    0.99053E-08        -0.13039E-19         0.00000E+00
    0.99053E-08        -0.26077E-19         0.00000E+00
    0.99053E-08        -0.27957E-19         0.00000E+00
    0.99053E-08        -0.22352E-19         0.00000E+00
    0.99053E-08        -0.18609E-19         0.00000E+00
    0.99053E-08        -0.14883E-19         0.00000E+00
    0.99053E-08        -0.74506E-20         0.00000E+00
    0.99053E-08        -0.74506E-20         0.00000E+00
    0.99053E-08        -0.96678E-21         0.00000E+00
    0.99053E-08         0.64838E-20         0.00000E+00
    0.99053E-08         0.14937E-19         0.00000E+00
    0.99053E-08         0.20525E-19         0.00000E+00
    0.99053E-08         0.24214E-19         0.00000E+00
    0.99053E-08         0.20489E-19         0.00000E+00
    0.99053E-08         0.74506E-20         0.00000E+00
    0.99053E-08        -0.11176E-19         0.00000E+00
    0.99053E-08        -0.18644E-19         0.00000E+00
    0.99053E-08        -0.14919E-19         0.00000E+00
    0.99053E-08        -0.14901E-19         0.00000E+00
    0.99053E-08        -0.74329E-20         0.00000E+00
    0.99053E-08         0.37253E-20         0.00000E+00
    0.99053E-08         0.11176E-19         0.00000E+00
    0.99053E-08         0.11176E-19         0.00000E+00
    0.99053E-08        -0.35453E-22         0.00000E+00
    0.99053E-08        -0.74329E-20         0.00000E+00
    0.99053E-08        -0.36898E-20         0.00000E+00
    0.99053E-08         0.37076E-20         0.00000E+00
    0.99053E-08         0.18626E-20         0.00000E+00
    0.99053E-08         0.18804E-20         0.00000E+00
    0.99053E-08         0.37253E-20         0.00000E+00
    0.99053E-08        -0.17727E-22         0.00000E+00
    0.99053E-08        -0.37253E-20         0.00000E+00
    0.99053E-08        -0.11158E-19         0.00000E+00
    0.99053E-08        -0.20489E-19         0.00000E+00
    0.99053E-08        -0.18626E-19         0.00000E+00
    0.99053E-08        -0.18626E-19         0.00000E+00
    0.99053E-08        -0.22369E-19         0.00000E+00
    0.99053E-08        -0.14919E-19         0.00000E+00
    0.99053E-08        -0.18609E-19         0.00000E+00
    0.99053E-08        -0.18609E-19         0.00000E+00
    0.99053E-08        -0.46743E-20         0.00000E+00
    0.99053E-08         0.46566E-20         0.00000E+00
    0.99053E-08         0.17727E-22         0.00000E+00
    0.99053E-08        -0.37430E-20         0.00000E+00
    0.99053E-08        -0.37253E-20         0.00000E+00
    0.99053E-08        -0.74151E-20         0.00000E+00
    0.47122E-07         0.74506E-20         0.00000E+00
    0.47122E-07         0.10986E-19         0.00000E+00
    0.47122E-07         0.65193E-20         0.00000E+00
    0.47122E-07         0.85717E-20         0.00000E+00
    0.47122E-07         0.26042E-20         0.00000E+00
    0.47122E-07        -0.85717E-20         0.00000E+00
    0.47122E-07        -0.21231E-19         0.00000E+00
    0.47122E-07        -0.25146E-19         0.00000E+00
    0.47122E-07        -0.30734E-19         0.00000E+00
    0.47122E-07        -0.28681E-19         0.00000E+00
    0.47122E-07        -0.18626E-19         0.00000E+00
    0.47122E-07        -0.76404E-20         0.00000E+00
    0.47122E-07        -0.20525E-20         0.00000E+00
    0.47122E-07         0.39151E-20         0.00000E+00
    0.47122E-07         0.11917E-19         0.00000E+00
    0.47122E-07         0.11176E-19         0.00000E+00
    0.47122E-07         0.12487E-19         0.00000E+00
    0.47122E-07         0.18626E-19         0.00000E+00
    0.47122E-07         0.24214E-19         0.00000E+00
    0.47122E-07         0.11176E-19         0.00000E+00
    0.47122E-07        -0.39151E-20         0.00000E+00
    0.47122E-07        -0.76404E-20         0.00000E+00
    0.47122E-07        -0.21231E-19         0.00000E+00
    0.47122E-07        -0.22352E-19         0.00000E+00
    0.47122E-07        -0.11176E-19         0.00000E+00
    0.47122E-07        -0.81921E-20         0.00000E+00
    0.47122E-07        -0.18626E-20         0.00000E+00
    0.47122E-07         0.72608E-20         0.00000E+00
    0.47122E-07         0.14901E-19         0.00000E+00
    0.47122E-07        -0.35355E-20         0.00000E+00
    0.47122E-07        -0.14901E-19         0.00000E+00
    0.47122E-07        -0.11176E-19         0.00000E+00
    0.47122E-07         0.00000E+00         0.00000E+00
    0.47122E-07         0.37253E-20         0.00000E+00
    0.47122E-07         0.18626E-20         0.00000E+00
    0.47122E-07         0.18626E-20         0.00000E+00
    0.47122E-07        -0.18626E-20         0.00000E+00
    0.47122E-07        -0.18626E-20         0.00000E+00
    0.47122E-07         0.61396E-20         0.00000E+00
    0.47122E-07        -0.74506E-20         0.00000E+00
    0.47122E-07        -0.28491E-19         0.00000E+00
    0.47122E-07        -0.19748E-19         0.00000E+00
    0.47122E-07        -0.14901E-19         0.00000E+00
    0.47122E-07        -0.14901E-19         0.00000E+00
    0.47122E-07        -0.74506E-20         0.00000E+00
    0.47122E-07        -0.26042E-20         0.00000E+00
    0.47122E-07        -0.18626E-20         0.00000E+00
    0.47122E-07        -0.11211E-20         0.00000E+00
    0.47122E-07        -0.55879E-20         0.00000E+00
    0.47122E-07        -0.63294E-20         0.00000E+00
    0.47122E-07         0.00000E+00         0.00000E+00
    0.19316E-06         0.38857E-20         0.00000E+00
    0.19316E-06         0.37253E-20         0.00000E+00
    0.19316E-06         0.37253E-20         0.00000E+00
    0.19316E-06        -0.37253E-20         0.00000E+00
    0.19316E-06        -0.12107E-19         0.00000E+00
    0.19316E-06        -0.17695E-19         0.00000E+00
    0.19316E-06        -0.21420E-19         0.00000E+00
    0.19316E-06        -0.21420E-19         0.00000E+00
    0.19316E-06        -0.19558E-19         0.00000E+00
    0.19316E-06        -0.12107E-19         0.00000E+00
    0.19316E-06        -0.11176E-19         0.00000E+00
    0.19316E-06        -0.18626E-20         0.00000E+00
    0.19316E-06         0.46566E-20         0.00000E+00
    0.19316E-06         0.28742E-20         0.00000E+00
    0.19316E-06         0.18626E-20         0.00000E+00
    0.19316E-06         0.64391E-20         0.00000E+00
    0.19316E-06         0.74506E-20         0.00000E+00
    0.19316E-06         0.13039E-19         0.00000E+00
    0.19316E-06         0.12027E-19         0.00000E+00
    0.19316E-06        -0.18626E-20         0.00000E+00
    0.19316E-06        -0.93132E-20         0.00000E+00
    0.19316E-06        -0.93132E-20         0.00000E+00
    0.19316E-06        -0.20489E-19         0.00000E+00
    0.19316E-06        -0.31665E-19         0.00000E+00
    0.19316E-06        -0.18626E-19         0.00000E+00
    0.19316E-06         0.10115E-20         0.00000E+00
    0.19316E-06         0.18626E-20         0.00000E+00
    0.19316E-06         0.83017E-20         0.00000E+00
    0.19316E-06         0.55879E-20         0.00000E+00
    0.19316E-06         0.00000E+00         0.00000E+00
    0.19316E-06         0.47368E-20         0.00000E+00
    0.19316E-06         0.47368E-20         0.00000E+00
    0.19316E-06         0.93132E-20         0.00000E+00
    0.19316E-06         0.64391E-20         0.00000E+00
    0.19316E-06         0.27138E-20         0.00000E+00
    0.19316E-06         0.55879E-20         0.00000E+00
    0.19316E-06         0.18626E-20         0.00000E+00
    0.19316E-06        -0.37253E-20         0.00000E+00
    0.19316E-06        -0.83017E-20         0.00000E+00
    0.19316E-06        -0.65193E-20         0.00000E+00
    0.19316E-06        -0.12107E-19         0.00000E+00
    0.19316E-06        -0.13970E-19         0.00000E+00
    0.19316E-06        -0.22432E-19         0.00000E+00
    0.19316E-06        -0.24214E-19         0.00000E+00
    0.19316E-06        -0.16764E-19         0.00000E+00
    0.19316E-06        -0.93132E-20         0.00000E+00
    0.19316E-06         0.00000E+00         0.00000E+00
    0.19316E-06         0.18626E-20         0.00000E+00
    0.19316E-06         0.00000E+00         0.00000E+00
    0.19316E-06         0.83017E-20         0.00000E+00
    0.19316E-06         0.16603E-19         0.00000E+00
    0.60975E-06         0.13389E-19         0.00000E+00
    0.60975E-06         0.37253E-20         0.00000E+00
    0.60975E-06        -0.14145E-19         0.00000E+00
    0.60975E-06        -0.82067E-20         0.00000E+00
    0.60975E-06         0.29692E-20         0.00000E+00
    0.60975E-06        -0.48319E-20         0.00000E+00
    0.60975E-06        -0.12282E-19         0.00000E+00
    0.60975E-06        -0.22352E-19         0.00000E+00
    0.60975E-06        -0.85571E-20         0.00000E+00
    0.60975E-06        -0.22352E-19         0.00000E+00
    0.60975E-06        -0.32421E-19         0.00000E+00
    0.60975E-06        -0.74506E-20         0.00000E+00
    0.60975E-06        -0.11176E-19         0.00000E+00
    0.60975E-06         0.18626E-20         0.00000E+00
    0.60975E-06         0.00000E+00         0.00000E+00
    0.60975E-06        -0.93132E-20         0.00000E+00
    0.60975E-06         0.74506E-20         0.00000E+00
    0.60975E-06         0.22352E-19         0.00000E+00
    0.60975E-06         0.20489E-19         0.00000E+00
    0.60975E-06         0.11176E-19         0.00000E+00
    0.60975E-06        -0.74506E-20         0.00000E+00
    0.60975E-06        -0.18626E-19         0.00000E+00
    0.60975E-06        -0.16764E-19         0.00000E+00
    0.60975E-06        -0.13039E-19         0.00000E+00
    0.60975E-06        -0.55879E-20         0.00000E+00
    0.60975E-06        -0.74506E-20         0.00000E+00
    0.60975E-06        -0.18626E-20         0.00000E+00
    0.60975E-06         0.13039E-19         0.00000E+00
    0.60975E-06         0.16764E-19         0.00000E+00
    0.60975E-06         0.55879E-20         0.00000E+00
    0.60975E-06        -0.18626E-20         0.00000E+00
    0.60975E-06         0.66945E-20         0.00000E+00
    0.60975E-06         0.74506E-20         0.00000E+00
    0.60975E-06         0.18626E-20         0.00000E+00
    0.60975E-06        -0.18626E-20         0.00000E+00
    0.60975E-06        -0.48319E-20         0.00000E+00
    0.60975E-06         0.18626E-20         0.00000E+00
    0.60975E-06        -0.75608E-21         0.00000E+00
    0.60975E-06        -0.74506E-20         0.00000E+00
    0.60975E-06        -0.19733E-19         0.00000E+00
    0.60975E-06        -0.19383E-19         0.00000E+00
    0.60975E-06        -0.10245E-19         0.00000E+00
    0.60975E-06        -0.11351E-19         0.00000E+00
    0.60975E-06        -0.74506E-20         0.00000E+00
    0.60975E-06        -0.93132E-20         0.00000E+00
    0.60975E-06        -0.44814E-20         0.00000E+00
    0.60975E-06         0.65193E-20         0.00000E+00
    0.60975E-06         0.54127E-20         0.00000E+00
    0.60975E-06        -0.35500E-20         0.00000E+00
    0.60975E-06         0.12863E-19         0.00000E+00
    0.60975E-06         0.40277E-19         0.00000E+00
    0.12966E-05         0.00000E+00         0.00000E+00
    0.12966E-05        -0.33046E-19         0.00000E+00
    0.12966E-05         0.55879E-20         0.00000E+00
    0.12966E-05         0.36771E-19         0.00000E+00
    0.12966E-05        -0.38634E-19         0.00000E+00
    0.12966E-05        -0.38634E-19         0.00000E+00
    0.12966E-05         0.11143E-19         0.00000E+00
    0.12966E-05         0.97625E-20         0.00000E+00
    0.12966E-05        -0.20007E-19         0.00000E+00
    0.12966E-05        -0.14901E-19         0.00000E+00
    0.12966E-05        -0.18626E-19         0.00000E+00
    0.12966E-05        -0.14901E-19         0.00000E+00
    0.12966E-05         0.93132E-20         0.00000E+00
    0.12966E-05        -0.27458E-19         0.00000E+00
    0.12966E-05         0.93132E-20         0.00000E+00
    0.12966E-05         0.47947E-19         0.00000E+00
    0.12966E-05         0.16764E-19         0.00000E+00
    0.12966E-05         0.37253E-20         0.00000E+00
    0.12966E-05         0.18626E-19         0.00000E+00
    0.12966E-05         0.14901E-19         0.00000E+00
    0.12966E-05        -0.13039E-19         0.00000E+00
    0.12966E-05        -0.11176E-19         0.00000E+00
    0.12966E-05        -0.14901E-19         0.00000E+00
    0.12966E-05        -0.14901E-19         0.00000E+00
    0.12966E-05        -0.74506E-20         0.00000E+00
    0.12966E-05        -0.37253E-20         0.00000E+00
    0.12966E-05         0.18626E-20         0.00000E+00
    0.12966E-05         0.11176E-19         0.00000E+00
    0.12966E-05         0.74506E-20         0.00000E+00
    0.12966E-05        -0.37253E-20         0.00000E+00
    0.12966E-05        -0.74506E-20         0.00000E+00
    0.12966E-05        -0.19525E-19         0.00000E+00
    0.12966E-05         0.37253E-20         0.00000E+00
    0.12966E-05         0.25113E-19         0.00000E+00
    0.12966E-05         0.55879E-20         0.00000E+00
    0.12966E-05         0.37253E-20         0.00000E+00
    0.12966E-05         0.00000E+00         0.00000E+00
    0.12966E-05        -0.55879E-20         0.00000E+00
    0.12966E-05        -0.11176E-19         0.00000E+00
    0.12966E-05        -0.18626E-20         0.00000E+00
    0.12966E-05        -0.37253E-20         0.00000E+00
    0.12966E-05        -0.18626E-19         0.00000E+00
    0.12966E-05        -0.74506E-20         0.00000E+00
    0.12966E-05        -0.33046E-19         0.00000E+00
    0.12966E-05        -0.48148E-34         0.00000E+00
    0.12966E-05         0.40496E-19         0.00000E+00
    0.12966E-05        -0.25595E-19         0.00000E+00
    0.12966E-05        -0.40496E-19         0.00000E+00
    0.12966E-05         0.48878E-19         0.00000E+00
    0.12966E-05         0.39083E-19         0.00000E+00
    0.12966E-05        -0.38217E-19         0.00000E+00
    0.16823E-05         0.00000E+00         0.00000E+00
    0.16823E-05         0.00000E+00         0.00000E+00
    0.16823E-05         0.00000E+00         0.00000E+00
    0.16823E-05         0.00000E+00         0.00000E+00
    0.16823E-05         0.00000E+00         0.00000E+00
    0.16823E-05         0.00000E+00         0.00000E+00
    0.16823E-05         0.00000E+00         0.00000E+00
    0.16823E-05         0.00000E+00         0.00000E+00
    0.16823E-05         0.00000E+00         0.00000E+00
    0.16823E-05        -0.47497E-19         0.00000E+00
    0.16823E-05         0.00000E+00         0.00000E+00
    0.16823E-05         0.47497E-19         0.00000E+00
    0.16823E-05         0.00000E+00         0.00000E+00
    0.16823E-05         0.00000E+00         0.00000E+00
    0.16823E-05         0.00000E+00         0.00000E+00
    0.16823E-05         0.00000E+00         0.00000E+00
    0.16823E-05         0.00000E+00         0.00000E+00
    0.16823E-05         0.47497E-19         0.00000E+00
    0.16823E-05         0.00000E+00         0.00000E+00
    0.16823E-05        -0.47497E-19         0.00000E+00
    0.16823E-05         0.00000E+00         0.00000E+00
    0.16823E-05         0.00000E+00         0.00000E+00
    0.16823E-05         0.00000E+00         0.00000E+00
    0.16823E-05         0.00000E+00         0.00000E+00
    0.16823E-05         0.00000E+00         0.00000E+00
    0.16823E-05         0.00000E+00         0.00000E+00
    0.16823E-05         0.00000E+00         0.00000E+00
    0.16823E-05         0.00000E+00         0.00000E+00
    0.16823E-05         0.00000E+00         0.00000E+00
    0.16823E-05         0.00000E+00         0.00000E+00
    0.16823E-05         0.00000E+00         0.00000E+00
    0.16823E-05         0.00000E+00         0.00000E+00
    0.16823E-05         0.00000E+00         0.00000E+00
    0.16823E-05         0.00000E+00         0.00000E+00
    0.16823E-05         0.00000E+00         0.00000E+00
    0.16823E-05         0.00000E+00         0.00000E+00
    0.16823E-05         0.00000E+00         0.00000E+00
    0.16823E-05         0.00000E+00         0.00000E+00
    0.16823E-05         0.00000E+00         0.00000E+00
    0.16823E-05        -0.48429E-19         0.00000E+00
    0.16823E-05        -0.47497E-19         0.00000E+00
    0.16823E-05         0.47497E-19         0.00000E+00
    0.16823E-05         0.47497E-19         0.00000E+00
    0.16823E-05         0.00000E+00         0.00000E+00
    0.16823E-05         0.00000E+00         0.00000E+00
    0.16823E-05         0.00000E+00         0.00000E+00
    0.16823E-05         0.00000E+00         0.00000E+00
    0.16823E-05         0.47497E-19         0.00000E+00
    0.16823E-05         0.93132E-21         0.00000E+00
    0.16823E-05         0.00000E+00         0.00000E+00
    0.16823E-05         0.94995E-19         0.00000E+00
CELL_DATA       5000
TENSORS stressef double 
    0.20186E+08        -0.10880E+07         0.00000E+00
   -0.10880E+07         0.14721E+08         0.00000E+00
    0.00000E+00         0.00000E+00         0.91227E+07
 
    0.19176E+08        -0.14149E+07         0.00000E+00
   -0.14149E+07         0.14338E+08         0.00000E+00
    0.00000E+00         0.00000E+00         0.77859E+07
 
    0.18125E+08        -0.15985E+07         0.00000E+00
   -0.15985E+07         0.13881E+08         0.00000E+00
    0.00000E+00         0.00000E+00         0.67940E+07
 
    0.17113E+08        -0.16581E+07         0.00000E+00
   -0.16581E+07         0.13372E+08         0.00000E+00
    0.00000E+00         0.00000E+00         0.61323E+07
 
    0.16162E+08        -0.15837E+07         0.00000E+00
   -0.15837E+07         0.12875E+08         0.00000E+00
    0.00000E+00         0.00000E+00         0.58075E+07
 
    0.15428E+08        -0.14713E+07         0.00000E+00
   -0.14713E+07         0.12395E+08         0.00000E+00
    0.00000E+00         0.00000E+00         0.55646E+07
 
    0.14868E+08        -0.13518E+07         0.00000E+00
   -0.13518E+07         0.11937E+08         0.00000E+00
    0.00000E+00         0.00000E+00         0.53610E+07
 
    0.14433E+08        -0.12355E+07         0.00000E+00
   -0.12355E+07         0.11507E+08         0.00000E+00
    0.00000E+00         0.00000E+00         0.51879E+07
 
    0.14090E+08        -0.11270E+07         0.00000E+00
   -0.11270E+07         0.11105E+08         0.00000E+00
    0.00000E+00         0.00000E+00         0.50390E+07
 
    0.13816E+08        -0.10279E+07         0.00000E+00
   -0.10279E+07         0.10731E+08         0.00000E+00
    0.00000E+00         0.00000E+00         0.49094E+07
 
    0.13594E+08        -0.93826E+06         0.00000E+00
   -0.93826E+06         0.10385E+08         0.00000E+00
    0.00000E+00         0.00000E+00         0.47958E+07
 
    0.13412E+08        -0.85769E+06         0.00000E+00
   -0.85769E+06         0.10064E+08         0.00000E+00
    0.00000E+00         0.00000E+00         0.46954E+07
 
    0.13262E+08        -0.78540E+06         0.00000E+00
   -0.78540E+06         0.97675E+07         0.00000E+00
    0.00000E+00         0.00000E+00         0.46059E+07
 
    0.13136E+08        -0.72057E+06         0.00000E+00
   -0.72057E+06         0.94928E+07         0.00000E+00
    0.00000E+00         0.00000E+00         0.45258E+07
 
    0.13029E+08        -0.66236E+06         0.00000E+00
   -0.66236E+06         0.92383E+07         0.00000E+00
    0.00000E+00         0.00000E+00         0.44535E+07
 
    0.12937E+08        -0.61002E+06         0.00000E+00
   -0.61002E+06         0.90026E+07         0.00000E+00
    0.00000E+00         0.00000E+00         0.43880E+07
 
    0.12857E+08        -0.56287E+06         0.00000E+00
   -0.56287E+06         0.87839E+07         0.00000E+00
    0.00000E+00         0.00000E+00         0.43283E+07
 
    0.12787E+08        -0.52029E+06         0.00000E+00
   -0.52029E+06         0.85808E+07         0.00000E+00
    0.00000E+00         0.00000E+00         0.42735E+07
 
    0.12723E+08        -0.48173E+06         0.00000E+00
   -0.48173E+06         0.83921E+07         0.00000E+00
    0.00000E+00         0.00000E+00         0.42230E+07
 
    0.12665E+08        -0.44674E+06         0.00000E+00
   -0.44674E+06         0.82166E+07         0.00000E+00
    0.00000E+00         0.00000E+00         0.41762E+07
 
    0.12610E+08        -0.41488E+06         0.00000E+00
   -0.41488E+06         0.80532E+07         0.00000E+00
    0.00000E+00         0.00000E+00         0.41327E+07
 
    0.12559E+08        -0.38579E+06         0.00000E+00
   -0.38579E+06         0.79008E+07         0.00000E+00
    0.00000E+00         0.00000E+00         0.40919E+07
 
    0.12508E+08        -0.35914E+06         0.00000E+00
   -0.35914E+06         0.77588E+07         0.00000E+00
    0.00000E+00         0.00000E+00         0.40534E+07
 
    0.12459E+08        -0.33464E+06         0.00000E+00
   -0.33464E+06         0.76262E+07         0.00000E+00
    0.00000E+00         0.00000E+00         0.40170E+07
 
    0.12409E+08        -0.31203E+06         0.00000E+00
   -0.31203E+06         0.75024E+07         0.00000E+00
    0.00000E+00         0.00000E+00         0.39823E+07
 
    0.12358E+08        -0.29107E+06         0.00000E+00
   -0.29107E+06         0.73869E+07         0.00000E+00
    0.00000E+00         0.00000E+00         0.39490E+07
 
    0.12305E+08        -0.27152E+06         0.00000E+00
   -0.27152E+06         0.72790E+07         0.00000E+00
    0.00000E+00         0.00000E+00         0.39169E+07
 
    0.12249E+08        -0.25318E+06         0.00000E+00
   -0.25318E+06         0.71783E+07         0.00000E+00
    0.00000E+00         0.00000E+00         0.38856E+07
 
    0.12190E+08        -0.23584E+06         0.00000E+00
   -0.23584E+06         0.70846E+07         0.00000E+00
    0.00000E+00         0.00000E+00         0.38549E+07
 
    0.12125E+08        -0.21928E+06         0.00000E+00
   -0.21928E+06         0.69973E+07         0.00000E+00
    0.00000E+00         0.00000E+00         0.38246E+07
 
    0.12055E+08        -0.20328E+06         0.00000E+00
   -0.20328E+06         0.69164E+07         0.00000E+00
    0.00000E+00         0.00000E+00         0.37943E+07
 
    0.11978E+08        -0.18761E+06         0.00000E+00
   -0.18761E+06         0.68418E+07         0.00000E+00
    0.00000E+00         0.00000E+00         0.37640E+07
 
    0.11893E+08        -0.17198E+06         0.00000E+00
   -0.17198E+06         0.67733E+07         0.00000E+00
    0.00000E+00         0.00000E+00         0.37332E+07
 
    0.11797E+08        -0.15608E+06         0.00000E+00
   -0.15608E+06         0.67111E+07         0.00000E+00
    0.00000E+00         0.00000E+00         0.37016E+07
 
    0.11689E+08        -0.13951E+06         0.00000E+00
   -0.13951E+06         0.66553E+07         0.00000E+00
    0.00000E+00         0.00000E+00         0.36689E+07
 
    0.11567E+08        -0.12180E+06         0.00000E+00
   -0.12180E+06         0.66064E+07         0.00000E+00
    0.00000E+00         0.00000E+00         0.36348E+07
 
    0.11429E+08        -0.10231E+06         0.00000E+00
   -0.10231E+06         0.65650E+07         0.00000E+00
    0.00000E+00         0.00000E+00         0.35987E+07
 
    0.11269E+08        -0.80248E+05         0.00000E+00
   -0.80248E+05         0.65319E+07         0.00000E+00
    0.00000E+00         0.00000E+00         0.35602E+07
 
    0.11085E+08        -0.54518E+05         0.00000E+00
   -0.54518E+05         0.65082E+07         0.00000E+00
    0.00000E+00         0.00000E+00         0.35186E+07
 
    0.10870E+08        -0.23656E+05         0.00000E+00
   -0.23656E+05         0.64956E+07         0.00000E+00
    0.00000E+00         0.00000E+00         0.34732E+07
 
    0.10618E+08         0.14369E+05         0.00000E+00
    0.14369E+05         0.64965E+07         0.00000E+00
    0.00000E+00         0.00000E+00         0.34230E+07
 
    0.10321E+08         0.62408E+05         0.00000E+00
    0.62408E+05         0.65137E+07         0.00000E+00
    0.00000E+00         0.00000E+00         0.33668E+07
 
    0.99646E+07         0.12455E+06         0.00000E+00
    0.12455E+06         0.65516E+07         0.00000E+00
    0.00000E+00         0.00000E+00         0.33032E+07
 
    0.95350E+07         0.20678E+06         0.00000E+00
    0.20678E+06         0.66158E+07         0.00000E+00
    0.00000E+00         0.00000E+00         0.32302E+07
 
    0.90103E+07         0.31806E+06         0.00000E+00
    0.31806E+06         0.67143E+07         0.00000E+00
    0.00000E+00         0.00000E+00         0.31449E+07
 
    0.83604E+07         0.47216E+06         0.00000E+00
    0.47216E+06         0.68582E+07         0.00000E+00
    0.00000E+00         0.00000E+00         0.30437E+07
 
    0.75426E+07         0.69094E+06         0.00000E+00
    0.69094E+06         0.70631E+07         0.00000E+00
    0.00000E+00         0.00000E+00         0.29211E+07
 
    0.64931E+07         0.10104E+07         0.00000E+00
    0.10104E+07         0.73515E+07         0.00000E+00
    0.00000E+00         0.00000E+00         0.27689E+07
 
    0.51136E+07         0.14924E+07         0.00000E+00
    0.14924E+07         0.77556E+07         0.00000E+00
    0.00000E+00         0.00000E+00         0.25738E+07
 
    0.32450E+07         0.22486E+07         0.00000E+00
    0.22486E+07         0.83227E+07         0.00000E+00
    0.00000E+00         0.00000E+00         0.23135E+07
 
    0.75586E+07        -0.43676E+06         0.00000E+00
   -0.43676E+06         0.54696E+07         0.00000E+00
    0.00000E+00         0.00000E+00         0.26056E+07
 
    0.78650E+07        -0.11962E+07         0.00000E+00
   -0.11962E+07         0.57780E+07         0.00000E+00
    0.00000E+00         0.00000E+00         0.27286E+07
 
    0.78198E+07        -0.17292E+07         0.00000E+00
   -0.17292E+07         0.60383E+07         0.00000E+00
    0.00000E+00         0.00000E+00         0.27716E+07
 
    0.75870E+07        -0.20734E+07         0.00000E+00
   -0.20734E+07         0.62604E+07         0.00000E+00
    0.00000E+00         0.00000E+00         0.27695E+07
 
    0.72533E+07        -0.22667E+07         0.00000E+00
   -0.22667E+07         0.63985E+07         0.00000E+00
    0.00000E+00         0.00000E+00         0.27304E+07
 
    0.68892E+07        -0.23424E+07         0.00000E+00
   -0.23424E+07         0.64749E+07         0.00000E+00
    0.00000E+00         0.00000E+00         0.26728E+07
 
    0.65360E+07        -0.23402E+07         0.00000E+00
   -0.23402E+07         0.65029E+07         0.00000E+00
    0.00000E+00         0.00000E+00         0.26078E+07
 
    0.62111E+07        -0.22886E+07         0.00000E+00
   -0.22886E+07         0.64925E+07         0.00000E+00
    0.00000E+00         0.00000E+00         0.25407E+07
 
    0.59199E+07        -0.22067E+07         0.00000E+00
   -0.22067E+07         0.64524E+07         0.00000E+00
    0.00000E+00         0.00000E+00         0.24745E+07
 
    0.56626E+07        -0.21075E+07         0.00000E+00
   -0.21075E+07         0.63902E+07         0.00000E+00
    0.00000E+00         0.00000E+00         0.24105E+07
 
    0.54366E+07        -0.19997E+07         0.00000E+00
   -0.19997E+07         0.63116E+07         0.00000E+00
    0.00000E+00         0.00000E+00         0.23496E+07
 
    0.52388E+07        -0.18888E+07         0.00000E+00
   -0.18888E+07         0.62216E+07         0.00000E+00
    0.00000E+00         0.00000E+00         0.22921E+07
 
    0.50656E+07        -0.17786E+07         0.00000E+00
   -0.17786E+07         0.61239E+07         0.00000E+00
    0.00000E+00         0.00000E+00         0.22379E+07
 
    0.49134E+07        -0.16713E+07         0.00000E+00
   -0.16713E+07         0.60215E+07         0.00000E+00
    0.00000E+00         0.00000E+00         0.21870E+07
 
    0.47793E+07        -0.15683E+07         0.00000E+00
   -0.15683E+07         0.59168E+07         0.00000E+00
    0.00000E+00         0.00000E+00         0.21392E+07
 
    0.46604E+07        -0.14704E+07         0.00000E+00
   -0.14704E+07         0.58114E+07         0.00000E+00
    0.00000E+00         0.00000E+00         0.20944E+07
 
    0.45543E+07        -0.13779E+07         0.00000E+00
   -0.13779E+07         0.57067E+07         0.00000E+00
    0.00000E+00         0.00000E+00         0.20522E+07
 
    0.44589E+07        -0.12908E+07         0.00000E+00
   -0.12908E+07         0.56038E+07         0.00000E+00
    0.00000E+00         0.00000E+00         0.20125E+07
 
    0.43723E+07        -0.12091E+07         0.00000E+00
   -0.12091E+07         0.55034E+07         0.00000E+00
    0.00000E+00         0.00000E+00         0.19751E+07
 
    0.42928E+07        -0.11326E+07         0.00000E+00
   -0.11326E+07         0.54062E+07         0.00000E+00
    0.00000E+00         0.00000E+00         0.19398E+07
 
    0.42191E+07        -0.10608E+07         0.00000E+00
   -0.10608E+07         0.53124E+07         0.00000E+00
    0.00000E+00         0.00000E+00         0.19063E+07
 
    0.41499E+07        -0.99360E+06         0.00000E+00
   -0.99360E+06         0.52224E+07         0.00000E+00
    0.00000E+00         0.00000E+00         0.18745E+07
 
    0.40840E+07        -0.93047E+06         0.00000E+00
   -0.93047E+06         0.51365E+07         0.00000E+00
    0.00000E+00         0.00000E+00         0.18441E+07
 
    0.40205E+07        -0.87107E+06         0.00000E+00
   -0.87107E+06         0.50548E+07         0.00000E+00
    0.00000E+00         0.00000E+00         0.18150E+07
 
    0.39583E+07        -0.81500E+06         0.00000E+00
   -0.81500E+06         0.49774E+07         0.00000E+00
    0.00000E+00         0.00000E+00         0.17871E+07
 
    0.38966E+07        -0.76186E+06         0.00000E+00
   -0.76186E+06         0.49044E+07         0.00000E+00
    0.00000E+00         0.00000E+00         0.17602E+07
 
    0.38345E+07        -0.71122E+06         0.00000E+00
   -0.71122E+06         0.48360E+07         0.00000E+00
    0.00000E+00         0.00000E+00         0.17341E+07
 
    0.37713E+07        -0.66265E+06         0.00000E+00
   -0.66265E+06         0.47722E+07         0.00000E+00
    0.00000E+00         0.00000E+00         0.17087E+07
 
    0.37060E+07        -0.61568E+06         0.00000E+00
   -0.61568E+06         0.47131E+07         0.00000E+00
    0.00000E+00         0.00000E+00         0.16838E+07
 
    0.36380E+07        -0.56982E+06         0.00000E+00
   -0.56982E+06         0.46589E+07         0.00000E+00
    0.00000E+00         0.00000E+00         0.16594E+07
 
    0.35663E+07        -0.52451E+06         0.00000E+00
   -0.52451E+06         0.46098E+07         0.00000E+00
    0.00000E+00         0.00000E+00         0.16352E+07
 
    0.34900E+07        -0.47910E+06         0.00000E+00
   -0.47910E+06         0.45659E+07         0.00000E+00
    0.00000E+00         0.00000E+00         0.16112E+07
 
    0.34081E+07        -0.43288E+06         0.00000E+00
   -0.43288E+06         0.45276E+07         0.00000E+00
    0.00000E+00         0.00000E+00         0.15871E+07
 
    0.33197E+07        -0.38497E+06         0.00000E+00
   -0.38497E+06         0.44952E+07         0.00000E+00
    0.00000E+00         0.00000E+00         0.15630E+07
 
    0.32235E+07        -0.33431E+06         0.00000E+00
   -0.33431E+06         0.44691E+07         0.00000E+00
    0.00000E+00         0.00000E+00         0.15385E+07
 
    0.31184E+07        -0.27961E+06         0.00000E+00
   -0.27961E+06         0.44499E+07         0.00000E+00
    0.00000E+00         0.00000E+00         0.15137E+07
 
    0.30030E+07        -0.21925E+06         0.00000E+00
   -0.21925E+06         0.44383E+07         0.00000E+00
    0.00000E+00         0.00000E+00         0.14883E+07
 
    0.28758E+07        -0.15118E+06         0.00000E+00
   -0.15118E+06         0.44350E+07         0.00000E+00
    0.00000E+00         0.00000E+00         0.14622E+07
 
    0.27354E+07        -0.72760E+05         0.00000E+00
   -0.72760E+05         0.44411E+07         0.00000E+00
    0.00000E+00         0.00000E+00         0.14353E+07
 
    0.25800E+07         0.19420E+05         0.00000E+00
    0.19420E+05         0.44575E+07         0.00000E+00
    0.00000E+00         0.00000E+00         0.14075E+07
 
    0.24083E+07         0.12983E+06         0.00000E+00
    0.12983E+06         0.44857E+07         0.00000E+00
    0.00000E+00         0.00000E+00         0.13788E+07
 
    0.22188E+07         0.26438E+06         0.00000E+00
    0.26438E+06         0.45271E+07         0.00000E+00
    0.00000E+00         0.00000E+00         0.13492E+07
 
    0.20112E+07         0.43098E+06         0.00000E+00
    0.43098E+06         0.45832E+07         0.00000E+00
    0.00000E+00         0.00000E+00         0.13189E+07
 
    0.17861E+07         0.64024E+06         0.00000E+00
    0.64024E+06         0.46555E+07         0.00000E+00
    0.00000E+00         0.00000E+00         0.12883E+07
 
    0.15472E+07         0.90662E+06         0.00000E+00
    0.90662E+06         0.47455E+07         0.00000E+00
    0.00000E+00         0.00000E+00         0.12585E+07
 
    0.13035E+07         0.12498E+07         0.00000E+00
    0.12498E+07         0.48535E+07         0.00000E+00
    0.00000E+00         0.00000E+00         0.12314E+07
 
    0.10743E+07         0.16970E+07         0.00000E+00
    0.16970E+07         0.49788E+07         0.00000E+00
    0.00000E+00         0.00000E+00         0.12106E+07
 
    0.89953E+06         0.22853E+07         0.00000E+00
    0.22853E+07         0.51176E+07         0.00000E+00
    0.00000E+00         0.00000E+00         0.12034E+07
 
    0.86062E+06         0.30648E+07         0.00000E+00
    0.30648E+07         0.52607E+07         0.00000E+00
    0.00000E+00         0.00000E+00         0.12243E+07
 
    0.11255E+07         0.41008E+07         0.00000E+00
    0.41008E+07         0.53904E+07         0.00000E+00
    0.00000E+00         0.00000E+00         0.13032E+07
 
    0.92692E+06        -0.14142E+06         0.00000E+00
   -0.14142E+06         0.16717E+07         0.00000E+00
    0.00000E+00         0.00000E+00         0.51973E+06
 
    0.14751E+07        -0.45834E+06         0.00000E+00
   -0.45834E+06         0.17126E+07         0.00000E+00
    0.00000E+00         0.00000E+00         0.63754E+06
 
    0.18670E+07        -0.78938E+06         0.00000E+00
   -0.78938E+06         0.18390E+07         0.00000E+00
    0.00000E+00         0.00000E+00         0.74121E+06
 
    0.21041E+07        -0.10940E+07         0.00000E+00
   -0.10940E+07         0.20083E+07         0.00000E+00
    0.00000E+00         0.00000E+00         0.82249E+06
 
    0.22152E+07        -0.13520E+07         0.00000E+00
   -0.13520E+07         0.22053E+07         0.00000E+00
    0.00000E+00         0.00000E+00         0.88409E+06
 
    0.22291E+07        -0.15558E+07         0.00000E+00
   -0.15558E+07         0.24053E+07         0.00000E+00
    0.00000E+00         0.00000E+00         0.92688E+06
 
    0.21738E+07        -0.17047E+07         0.00000E+00
   -0.17047E+07         0.25940E+07         0.00000E+00
    0.00000E+00         0.00000E+00         0.95357E+06
 
    0.20736E+07        -0.18044E+07         0.00000E+00
   -0.18044E+07         0.27641E+07         0.00000E+00
    0.00000E+00         0.00000E+00         0.96755E+06
 
    0.19468E+07        -0.18623E+07         0.00000E+00
   -0.18623E+07         0.29125E+07         0.00000E+00
    0.00000E+00         0.00000E+00         0.97186E+06
 
    0.18063E+07        -0.18863E+07         0.00000E+00
   -0.18863E+07         0.30385E+07         0.00000E+00
    0.00000E+00         0.00000E+00         0.96895E+06
 
    0.16608E+07        -0.18837E+07         0.00000E+00
   -0.18837E+07         0.31429E+07         0.00000E+00
    0.00000E+00         0.00000E+00         0.96074E+06
 
    0.15160E+07        -0.18606E+07         0.00000E+00
   -0.18606E+07         0.32275E+07         0.00000E+00
    0.00000E+00         0.00000E+00         0.94871E+06
 
    0.13755E+07        -0.18221E+07         0.00000E+00
   -0.18221E+07         0.32942E+07         0.00000E+00
    0.00000E+00         0.00000E+00         0.93394E+06
 
    0.12412E+07        -0.17723E+07         0.00000E+00
   -0.17723E+07         0.33452E+07         0.00000E+00
    0.00000E+00         0.00000E+00         0.91729E+06
 
    0.11143E+07        -0.17144E+07         0.00000E+00
   -0.17144E+07         0.33826E+07         0.00000E+00
    0.00000E+00         0.00000E+00         0.89938E+06
 
    0.99500E+06        -0.16511E+07         0.00000E+00
   -0.16511E+07         0.34084E+07         0.00000E+00
    0.00000E+00         0.00000E+00         0.88068E+06
 
    0.88324E+06        -0.15843E+07         0.00000E+00
   -0.15843E+07         0.34245E+07         0.00000E+00
    0.00000E+00         0.00000E+00         0.86154E+06
 
    0.77865E+06        -0.15155E+07         0.00000E+00
   -0.15155E+07         0.34325E+07         0.00000E+00
    0.00000E+00         0.00000E+00         0.84222E+06
 
    0.68067E+06        -0.14458E+07         0.00000E+00
   -0.14458E+07         0.34339E+07         0.00000E+00
    0.00000E+00         0.00000E+00         0.82291E+06
 
    0.58869E+06        -0.13759E+07         0.00000E+00
   -0.13759E+07         0.34301E+07         0.00000E+00
    0.00000E+00         0.00000E+00         0.80375E+06
 
    0.50200E+06        -0.13065E+07         0.00000E+00
   -0.13065E+07         0.34222E+07         0.00000E+00
    0.00000E+00         0.00000E+00         0.78484E+06
 
    0.41993E+06        -0.12380E+07         0.00000E+00
   -0.12380E+07         0.34112E+07         0.00000E+00
    0.00000E+00         0.00000E+00         0.76624E+06
 
    0.34178E+06        -0.11704E+07         0.00000E+00
   -0.11704E+07         0.33982E+07         0.00000E+00
    0.00000E+00         0.00000E+00         0.74799E+06
 
    0.26688E+06        -0.11038E+07         0.00000E+00
   -0.11038E+07         0.33838E+07         0.00000E+00
    0.00000E+00         0.00000E+00         0.73014E+06
 
    0.19461E+06        -0.10383E+07         0.00000E+00
   -0.10383E+07         0.33689E+07         0.00000E+00
    0.00000E+00         0.00000E+00         0.71269E+06
 
    0.12435E+06        -0.97360E+06         0.00000E+00
   -0.97360E+06         0.33539E+07         0.00000E+00
    0.00000E+00         0.00000E+00         0.69566E+06
 
    0.55535E+05        -0.90954E+06         0.00000E+00
   -0.90954E+06         0.33397E+07         0.00000E+00
    0.00000E+00         0.00000E+00         0.67904E+06
 
   -0.12372E+05        -0.84576E+06         0.00000E+00
   -0.84576E+06         0.33265E+07         0.00000E+00
    0.00000E+00         0.00000E+00         0.66283E+06
 
   -0.79864E+05        -0.78186E+06         0.00000E+00
   -0.78186E+06         0.33151E+07         0.00000E+00
    0.00000E+00         0.00000E+00         0.64705E+06
 
   -0.14739E+06        -0.71733E+06         0.00000E+00
   -0.71733E+06         0.33058E+07         0.00000E+00
    0.00000E+00         0.00000E+00         0.63168E+06
 
   -0.21535E+06        -0.65156E+06         0.00000E+00
   -0.65156E+06         0.32991E+07         0.00000E+00
    0.00000E+00         0.00000E+00         0.61674E+06
 
   -0.28409E+06        -0.58383E+06         0.00000E+00
   -0.58383E+06         0.32954E+07         0.00000E+00
    0.00000E+00         0.00000E+00         0.60226E+06
 
   -0.35384E+06        -0.51326E+06         0.00000E+00
   -0.51326E+06         0.32951E+07         0.00000E+00
    0.00000E+00         0.00000E+00         0.58825E+06
 
   -0.42478E+06        -0.43883E+06         0.00000E+00
   -0.43883E+06         0.32986E+07         0.00000E+00
    0.00000E+00         0.00000E+00         0.57477E+06
 
   -0.49691E+06        -0.35931E+06         0.00000E+00
   -0.35931E+06         0.33063E+07         0.00000E+00
    0.00000E+00         0.00000E+00         0.56188E+06
 
   -0.57005E+06        -0.27325E+06         0.00000E+00
   -0.27325E+06         0.33186E+07         0.00000E+00
    0.00000E+00         0.00000E+00         0.54971E+06
 
   -0.64375E+06        -0.17890E+06         0.00000E+00
   -0.17890E+06         0.33356E+07         0.00000E+00
    0.00000E+00         0.00000E+00         0.53837E+06
 
   -0.71720E+06        -0.74181E+05         0.00000E+00
   -0.74181E+05         0.33576E+07         0.00000E+00
    0.00000E+00         0.00000E+00         0.52808E+06
 
   -0.78905E+06         0.43360E+05         0.00000E+00
    0.43360E+05         0.33846E+07         0.00000E+00
    0.00000E+00         0.00000E+00         0.51912E+06
 
   -0.85726E+06         0.17665E+06         0.00000E+00
    0.17665E+06         0.34164E+07         0.00000E+00
    0.00000E+00         0.00000E+00         0.51183E+06
 
   -0.91876E+06         0.32910E+06         0.00000E+00
    0.32910E+06         0.34525E+07         0.00000E+00
    0.00000E+00         0.00000E+00         0.50674E+06
 
   -0.96907E+06         0.50469E+06         0.00000E+00
    0.50469E+06         0.34916E+07         0.00000E+00
    0.00000E+00         0.00000E+00         0.50451E+06
 
   -0.10018E+07         0.70785E+06         0.00000E+00
    0.70785E+06         0.35321E+07         0.00000E+00
    0.00000E+00         0.00000E+00         0.50605E+06
 
   -0.10078E+07         0.94339E+06         0.00000E+00
    0.94339E+06         0.35707E+07         0.00000E+00
    0.00000E+00         0.00000E+00         0.51257E+06
 
   -0.97451E+06         0.12160E+07         0.00000E+00
    0.12160E+07         0.36026E+07         0.00000E+00
    0.00000E+00         0.00000E+00         0.52562E+06
 
   -0.88476E+06         0.15295E+07         0.00000E+00
    0.15295E+07         0.36206E+07         0.00000E+00
    0.00000E+00         0.00000E+00         0.54717E+06
 
   -0.71635E+06         0.18847E+07         0.00000E+00
    0.18847E+07         0.36135E+07         0.00000E+00
    0.00000E+00         0.00000E+00         0.57942E+06
 
   -0.44327E+06         0.22763E+07         0.00000E+00
    0.22763E+07         0.35643E+07         0.00000E+00
    0.00000E+00         0.00000E+00         0.62421E+06
 
   -0.42811E+05         0.26860E+07         0.00000E+00
    0.26860E+07         0.34476E+07         0.00000E+00
    0.00000E+00         0.00000E+00         0.68096E+06
 
    0.48057E+06         0.30700E+07         0.00000E+00
    0.30700E+07         0.32234E+07         0.00000E+00
    0.00000E+00         0.00000E+00         0.74080E+06
 
   -0.13483E+07        -0.17672E+04         0.00000E+00
   -0.17672E+04         0.36453E+06         0.00000E+00
    0.00000E+00         0.00000E+00        -0.19675E+06
 
   -0.90620E+06        -0.13239E+06         0.00000E+00
   -0.13239E+06         0.39992E+06         0.00000E+00
    0.00000E+00         0.00000E+00        -0.10126E+06
 
   -0.54441E+06        -0.28191E+06         0.00000E+00
   -0.28191E+06         0.45318E+06         0.00000E+00
    0.00000E+00         0.00000E+00        -0.18245E+05
 
   -0.25406E+06        -0.44375E+06         0.00000E+00
   -0.44375E+06         0.53176E+06         0.00000E+00
    0.00000E+00         0.00000E+00         0.55541E+05
 
   -0.32061E+05        -0.60791E+06         0.00000E+00
   -0.60791E+06         0.63116E+06         0.00000E+00
    0.00000E+00         0.00000E+00         0.11982E+06
 
    0.12720E+06        -0.76539E+06         0.00000E+00
   -0.76539E+06         0.74819E+06         0.00000E+00
    0.00000E+00         0.00000E+00         0.17508E+06
 
    0.23086E+06        -0.90933E+06         0.00000E+00
   -0.90933E+06         0.87750E+06         0.00000E+00
    0.00000E+00         0.00000E+00         0.22167E+06
 
    0.28712E+06        -0.10350E+07         0.00000E+00
   -0.10350E+07         0.10133E+07         0.00000E+00
    0.00000E+00         0.00000E+00         0.26007E+06
 
    0.30460E+06        -0.11401E+07         0.00000E+00
   -0.11401E+07         0.11504E+07         0.00000E+00
    0.00000E+00         0.00000E+00         0.29099E+06
 
    0.29154E+06        -0.12239E+07         0.00000E+00
   -0.12239E+07         0.12849E+07         0.00000E+00
    0.00000E+00         0.00000E+00         0.31528E+06
 
    0.25525E+06        -0.12874E+07         0.00000E+00
   -0.12874E+07         0.14138E+07         0.00000E+00
    0.00000E+00         0.00000E+00         0.33382E+06
 
    0.20189E+06        -0.13320E+07         0.00000E+00
   -0.13320E+07         0.15354E+07         0.00000E+00
    0.00000E+00         0.00000E+00         0.34745E+06
 
    0.13645E+06        -0.13596E+07         0.00000E+00
   -0.13596E+07         0.16483E+07         0.00000E+00
    0.00000E+00         0.00000E+00         0.35695E+06
 
    0.62919E+05        -0.13724E+07         0.00000E+00
   -0.13724E+07         0.17521E+07         0.00000E+00
    0.00000E+00         0.00000E+00         0.36301E+06
 
   -0.15657E+05        -0.13723E+07         0.00000E+00
   -0.13723E+07         0.18467E+07         0.00000E+00
    0.00000E+00         0.00000E+00         0.36621E+06
 
   -0.96957E+05        -0.13613E+07         0.00000E+00
   -0.13613E+07         0.19323E+07         0.00000E+00
    0.00000E+00         0.00000E+00         0.36706E+06
 
   -0.17927E+06        -0.13410E+07         0.00000E+00
   -0.13410E+07         0.20092E+07         0.00000E+00
    0.00000E+00         0.00000E+00         0.36600E+06
 
   -0.26135E+06        -0.13129E+07         0.00000E+00
   -0.13129E+07         0.20782E+07         0.00000E+00
    0.00000E+00         0.00000E+00         0.36338E+06
 
   -0.34235E+06        -0.12785E+07         0.00000E+00
   -0.12785E+07         0.21399E+07         0.00000E+00
    0.00000E+00         0.00000E+00         0.35952E+06
 
   -0.42168E+06        -0.12386E+07         0.00000E+00
   -0.12386E+07         0.21950E+07         0.00000E+00
    0.00000E+00         0.00000E+00         0.35467E+06
 
   -0.49897E+06        -0.11943E+07         0.00000E+00
   -0.11943E+07         0.22443E+07         0.00000E+00
    0.00000E+00         0.00000E+00         0.34906E+06
 
   -0.57404E+06        -0.11463E+07         0.00000E+00
   -0.11463E+07         0.22884E+07         0.00000E+00
    0.00000E+00         0.00000E+00         0.34288E+06
 
   -0.64677E+06        -0.10951E+07         0.00000E+00
   -0.10951E+07         0.23281E+07         0.00000E+00
    0.00000E+00         0.00000E+00         0.33627E+06
 
   -0.71717E+06        -0.10410E+07         0.00000E+00
   -0.10410E+07         0.23641E+07         0.00000E+00
    0.00000E+00         0.00000E+00         0.32939E+06
 
   -0.78526E+06        -0.98447E+06         0.00000E+00
   -0.98447E+06         0.23970E+07         0.00000E+00
    0.00000E+00         0.00000E+00         0.32235E+06
 
   -0.85111E+06        -0.92553E+06         0.00000E+00
   -0.92553E+06         0.24274E+07         0.00000E+00
    0.00000E+00         0.00000E+00         0.31526E+06
 
   -0.91476E+06        -0.86426E+06         0.00000E+00
   -0.86426E+06         0.24559E+07         0.00000E+00
    0.00000E+00         0.00000E+00         0.30822E+06
 
   -0.97627E+06        -0.80056E+06         0.00000E+00
   -0.80056E+06         0.24829E+07         0.00000E+00
    0.00000E+00         0.00000E+00         0.30133E+06
 
   -0.10356E+07        -0.73427E+06         0.00000E+00
   -0.73427E+06         0.25090E+07         0.00000E+00
    0.00000E+00         0.00000E+00         0.29467E+06
 
   -0.10928E+07        -0.66509E+06         0.00000E+00
   -0.66509E+06         0.25345E+07         0.00000E+00
    0.00000E+00         0.00000E+00         0.28835E+06
 
   -0.11475E+07        -0.59266E+06         0.00000E+00
   -0.59266E+06         0.25598E+07         0.00000E+00
    0.00000E+00         0.00000E+00         0.28245E+06
 
   -0.11997E+07        -0.51649E+06         0.00000E+00
   -0.51649E+06         0.25852E+07         0.00000E+00
    0.00000E+00         0.00000E+00         0.27709E+06
 
   -0.12490E+07        -0.43601E+06         0.00000E+00
   -0.43601E+06         0.26108E+07         0.00000E+00
    0.00000E+00         0.00000E+00         0.27237E+06
 
   -0.12947E+07        -0.35054E+06         0.00000E+00
   -0.35054E+06         0.26369E+07         0.00000E+00
    0.00000E+00         0.00000E+00         0.26845E+06
 
   -0.13361E+07        -0.25931E+06         0.00000E+00
   -0.25931E+06         0.26634E+07         0.00000E+00
    0.00000E+00         0.00000E+00         0.26545E+06
 
   -0.13723E+07        -0.16147E+06         0.00000E+00
   -0.16147E+06         0.26902E+07         0.00000E+00
    0.00000E+00         0.00000E+00         0.26358E+06
 
   -0.14018E+07        -0.56072E+05         0.00000E+00
   -0.56072E+05         0.27169E+07         0.00000E+00
    0.00000E+00         0.00000E+00         0.26303E+06
 
   -0.14229E+07         0.57855E+05         0.00000E+00
    0.57855E+05         0.27431E+07         0.00000E+00
    0.00000E+00         0.00000E+00         0.26405E+06
 
   -0.14334E+07         0.18130E+06         0.00000E+00
    0.18130E+06         0.27680E+07         0.00000E+00
    0.00000E+00         0.00000E+00         0.26693E+06
 
   -0.14304E+07         0.31518E+06         0.00000E+00
    0.31518E+06         0.27905E+07         0.00000E+00
    0.00000E+00         0.00000E+00         0.27201E+06
 
   -0.14106E+07         0.46022E+06         0.00000E+00
    0.46022E+06         0.28088E+07         0.00000E+00
    0.00000E+00         0.00000E+00         0.27965E+06
 
   -0.13696E+07         0.61684E+06         0.00000E+00
    0.61684E+06         0.28211E+07         0.00000E+00
    0.00000E+00         0.00000E+00         0.29030E+06
 
   -0.13025E+07         0.78482E+06         0.00000E+00
    0.78482E+06         0.28245E+07         0.00000E+00
    0.00000E+00         0.00000E+00         0.30439E+06
 
   -0.12037E+07         0.96308E+06         0.00000E+00
    0.96308E+06         0.28156E+07         0.00000E+00
    0.00000E+00         0.00000E+00         0.32238E+06
 
   -0.10670E+07         0.11491E+07         0.00000E+00
    0.11491E+07         0.27903E+07         0.00000E+00
    0.00000E+00         0.00000E+00         0.34465E+06
 
   -0.88667E+06         0.13387E+07         0.00000E+00
    0.13387E+07         0.27436E+07         0.00000E+00
    0.00000E+00         0.00000E+00         0.37138E+06
 
   -0.65793E+06         0.15252E+07         0.00000E+00
    0.15252E+07         0.26704E+07         0.00000E+00
    0.00000E+00         0.00000E+00         0.40249E+06
 
   -0.37850E+06         0.16998E+07         0.00000E+00
    0.16998E+07         0.25663E+07         0.00000E+00
    0.00000E+00         0.00000E+00         0.43755E+06
 
   -0.48318E+05         0.18537E+07         0.00000E+00
    0.18537E+07         0.24299E+07         0.00000E+00
    0.00000E+00         0.00000E+00         0.47633E+06
 
    0.33775E+06         0.19834E+07         0.00000E+00
    0.19834E+07         0.22692E+07         0.00000E+00
    0.00000E+00         0.00000E+00         0.52139E+06
 
   -0.19327E+07         0.13836E+05         0.00000E+00
    0.13836E+05         0.77030E+05         0.00000E+00
    0.00000E+00         0.00000E+00        -0.37113E+06
 
   -0.16449E+07        -0.19287E+05         0.00000E+00
   -0.19287E+05         0.78154E+05         0.00000E+00
    0.00000E+00         0.00000E+00        -0.31334E+06
 
   -0.13805E+07        -0.76553E+05         0.00000E+00
   -0.76553E+05         0.94923E+05         0.00000E+00
    0.00000E+00         0.00000E+00        -0.25712E+06
 
   -0.11463E+07        -0.14996E+06         0.00000E+00
   -0.14996E+06         0.12489E+06         0.00000E+00
    0.00000E+00         0.00000E+00        -0.20428E+06
 
   -0.94392E+06        -0.23400E+06         0.00000E+00
   -0.23400E+06         0.16836E+06         0.00000E+00
    0.00000E+00         0.00000E+00        -0.15511E+06
 
   -0.77381E+06        -0.32383E+06         0.00000E+00
   -0.32383E+06         0.22430E+06         0.00000E+00
    0.00000E+00         0.00000E+00        -0.10990E+06
 
   -0.63522E+06        -0.41522E+06         0.00000E+00
   -0.41522E+06         0.29143E+06         0.00000E+00
    0.00000E+00         0.00000E+00        -0.68757E+05
 
   -0.52654E+06        -0.50458E+06         0.00000E+00
   -0.50458E+06         0.36815E+06         0.00000E+00
    0.00000E+00         0.00000E+00        -0.31678E+05
 
   -0.44554E+06        -0.58891E+06         0.00000E+00
   -0.58891E+06         0.45251E+06         0.00000E+00
    0.00000E+00         0.00000E+00         0.13947E+04
 
   -0.38947E+06        -0.66595E+06         0.00000E+00
   -0.66595E+06         0.54241E+06         0.00000E+00
    0.00000E+00         0.00000E+00         0.30588E+05
 
   -0.35534E+06        -0.73410E+06         0.00000E+00
   -0.73410E+06         0.63582E+06         0.00000E+00
    0.00000E+00         0.00000E+00         0.56097E+05
 
   -0.34005E+06        -0.79241E+06         0.00000E+00
   -0.79241E+06         0.73091E+06         0.00000E+00
    0.00000E+00         0.00000E+00         0.78171E+05
 
   -0.34063E+06        -0.84045E+06         0.00000E+00
   -0.84045E+06         0.82609E+06         0.00000E+00
    0.00000E+00         0.00000E+00         0.97093E+05
 
   -0.35428E+06        -0.87820E+06         0.00000E+00
   -0.87820E+06         0.92007E+06         0.00000E+00
    0.00000E+00         0.00000E+00         0.11316E+06
 
   -0.37850E+06        -0.90595E+06         0.00000E+00
   -0.90595E+06         0.10118E+07         0.00000E+00
    0.00000E+00         0.00000E+00         0.12667E+06
 
   -0.41109E+06        -0.92415E+06         0.00000E+00
   -0.92415E+06         0.11006E+07         0.00000E+00
    0.00000E+00         0.00000E+00         0.13791E+06
 
   -0.45016E+06        -0.93340E+06         0.00000E+00
   -0.93340E+06         0.11860E+07         0.00000E+00
    0.00000E+00         0.00000E+00         0.14716E+06
 
   -0.49407E+06        -0.93436E+06         0.00000E+00
   -0.93436E+06         0.12674E+07         0.00000E+00
    0.00000E+00         0.00000E+00         0.15467E+06
 
   -0.54148E+06        -0.92769E+06         0.00000E+00
   -0.92769E+06         0.13449E+07         0.00000E+00
    0.00000E+00         0.00000E+00         0.16069E+06
 
   -0.59124E+06        -0.91402E+06         0.00000E+00
   -0.91402E+06         0.14184E+07         0.00000E+00
    0.00000E+00         0.00000E+00         0.16543E+06
 
   -0.64243E+06        -0.89395E+06         0.00000E+00
   -0.89395E+06         0.14878E+07         0.00000E+00
    0.00000E+00         0.00000E+00         0.16908E+06
 
   -0.69426E+06        -0.86803E+06         0.00000E+00
   -0.86803E+06         0.15534E+07         0.00000E+00
    0.00000E+00         0.00000E+00         0.17183E+06
 
   -0.74607E+06        -0.83672E+06         0.00000E+00
   -0.83672E+06         0.16153E+07         0.00000E+00
    0.00000E+00         0.00000E+00         0.17384E+06
 
   -0.79732E+06        -0.80042E+06         0.00000E+00
   -0.80042E+06         0.16737E+07         0.00000E+00
    0.00000E+00         0.00000E+00         0.17528E+06
 
   -0.84754E+06        -0.75946E+06         0.00000E+00
   -0.75946E+06         0.17289E+07         0.00000E+00
    0.00000E+00         0.00000E+00         0.17626E+06
 
   -0.89629E+06        -0.71408E+06         0.00000E+00
   -0.71408E+06         0.17810E+07         0.00000E+00
    0.00000E+00         0.00000E+00         0.17694E+06
 
   -0.94317E+06        -0.66447E+06         0.00000E+00
   -0.66447E+06         0.18303E+07         0.00000E+00
    0.00000E+00         0.00000E+00         0.17743E+06
 
   -0.98780E+06        -0.61073E+06         0.00000E+00
   -0.61073E+06         0.18770E+07         0.00000E+00
    0.00000E+00         0.00000E+00         0.17785E+06
 
   -0.10298E+07        -0.55292E+06         0.00000E+00
   -0.55292E+06         0.19214E+07         0.00000E+00
    0.00000E+00         0.00000E+00         0.17832E+06
 
   -0.10686E+07        -0.49101E+06         0.00000E+00
   -0.49101E+06         0.19634E+07         0.00000E+00
    0.00000E+00         0.00000E+00         0.17895E+06
 
   -0.11039E+07        -0.42496E+06         0.00000E+00
   -0.42496E+06         0.20032E+07         0.00000E+00
    0.00000E+00         0.00000E+00         0.17985E+06
 
   -0.11350E+07        -0.35466E+06         0.00000E+00
   -0.35466E+06         0.20408E+07         0.00000E+00
    0.00000E+00         0.00000E+00         0.18115E+06
 
   -0.11613E+07        -0.27998E+06         0.00000E+00
   -0.27998E+06         0.20761E+07         0.00000E+00
    0.00000E+00         0.00000E+00         0.18297E+06
 
   -0.11820E+07        -0.20078E+06         0.00000E+00
   -0.20078E+06         0.21091E+07         0.00000E+00
    0.00000E+00         0.00000E+00         0.18543E+06
 
   -0.11961E+07        -0.11694E+06         0.00000E+00
   -0.11694E+06         0.21394E+07         0.00000E+00
    0.00000E+00         0.00000E+00         0.18866E+06
 
   -0.12027E+07        -0.28358E+05         0.00000E+00
   -0.28358E+05         0.21667E+07         0.00000E+00
    0.00000E+00         0.00000E+00         0.19280E+06
 
   -0.12004E+07         0.65001E+05         0.00000E+00
    0.65001E+05         0.21904E+07         0.00000E+00
    0.00000E+00         0.00000E+00         0.19799E+06
 
   -0.11880E+07         0.16305E+06         0.00000E+00
    0.16305E+06         0.22100E+07         0.00000E+00
    0.00000E+00         0.00000E+00         0.20439E+06
 
   -0.11638E+07         0.26555E+06         0.00000E+00
    0.26555E+06         0.22245E+07         0.00000E+00
    0.00000E+00         0.00000E+00         0.21214E+06
 
   -0.11261E+07         0.37203E+06         0.00000E+00
    0.37203E+06         0.22330E+07         0.00000E+00
    0.00000E+00         0.00000E+00         0.22139E+06
 
   -0.10730E+07         0.48170E+06         0.00000E+00
    0.48170E+06         0.22344E+07         0.00000E+00
    0.00000E+00         0.00000E+00         0.23228E+06
 
   -0.10028E+07         0.59342E+06         0.00000E+00
    0.59342E+06         0.22273E+07         0.00000E+00
    0.00000E+00         0.00000E+00         0.24491E+06
 
   -0.91357E+06         0.70554E+06         0.00000E+00
    0.70554E+06         0.22104E+07         0.00000E+00
    0.00000E+00         0.00000E+00         0.25937E+06
 
   -0.80386E+06         0.81592E+06         0.00000E+00
    0.81592E+06         0.21823E+07         0.00000E+00
    0.00000E+00         0.00000E+00         0.27568E+06
 
   -0.67258E+06         0.92189E+06         0.00000E+00
    0.92189E+06         0.21417E+07         0.00000E+00
    0.00000E+00         0.00000E+00         0.29382E+06
 
   -0.51922E+06         0.10203E+07         0.00000E+00
    0.10203E+07         0.20877E+07         0.00000E+00
    0.00000E+00         0.00000E+00         0.31370E+06
 
   -0.34393E+06         0.11077E+07         0.00000E+00
    0.11077E+07         0.20201E+07         0.00000E+00
    0.00000E+00         0.00000E+00         0.33524E+06
 
   -0.14739E+06         0.11808E+07         0.00000E+00
    0.11808E+07         0.19393E+07         0.00000E+00
    0.00000E+00         0.00000E+00         0.35838E+06
 
    0.69174E+05         0.12356E+07         0.00000E+00
    0.12356E+07         0.18460E+07         0.00000E+00
    0.00000E+00         0.00000E+00         0.38303E+06
 
    0.30130E+06         0.12662E+07         0.00000E+00
    0.12662E+07         0.17388E+07         0.00000E+00
    0.00000E+00         0.00000E+00         0.40803E+06
 
   -0.20308E+07         0.15827E+05         0.00000E+00
    0.15827E+05         0.12608E+05         0.00000E+00
    0.00000E+00         0.00000E+00        -0.40364E+06
 
   -0.18341E+07         0.13165E+05         0.00000E+00
    0.13165E+05         0.14588E+05         0.00000E+00
    0.00000E+00         0.00000E+00        -0.36391E+06
 
   -0.16476E+07        -0.17481E+04         0.00000E+00
   -0.17481E+04         0.20361E+05         0.00000E+00
    0.00000E+00         0.00000E+00        -0.32545E+06
 
   -0.14731E+07        -0.28020E+05         0.00000E+00
   -0.28020E+05         0.32431E+05         0.00000E+00
    0.00000E+00         0.00000E+00        -0.28813E+06
 
   -0.13128E+07        -0.63597E+05         0.00000E+00
   -0.63597E+05         0.51499E+05         0.00000E+00
    0.00000E+00         0.00000E+00        -0.25226E+06
 
   -0.11682E+07        -0.10627E+06         0.00000E+00
   -0.10627E+06         0.77991E+05         0.00000E+00
    0.00000E+00         0.00000E+00        -0.21805E+06
 
   -0.10402E+07        -0.15383E+06         0.00000E+00
   -0.15383E+06         0.11189E+06         0.00000E+00
    0.00000E+00         0.00000E+00        -0.18567E+06
 
   -0.92908E+06        -0.20419E+06         0.00000E+00
   -0.20419E+06         0.15287E+06         0.00000E+00
    0.00000E+00         0.00000E+00        -0.15524E+06
 
   -0.83461E+06        -0.25545E+06         0.00000E+00
   -0.25545E+06         0.20040E+06         0.00000E+00
    0.00000E+00         0.00000E+00        -0.12684E+06
 
   -0.75625E+06        -0.30593E+06         0.00000E+00
   -0.30593E+06         0.25377E+06         0.00000E+00
    0.00000E+00         0.00000E+00        -0.10050E+06
 
   -0.69317E+06        -0.35417E+06         0.00000E+00
   -0.35417E+06         0.31215E+06         0.00000E+00
    0.00000E+00         0.00000E+00        -0.76204E+05
 
   -0.64428E+06        -0.39897E+06         0.00000E+00
   -0.39897E+06         0.37465E+06         0.00000E+00
    0.00000E+00         0.00000E+00        -0.53927E+05
 
   -0.60835E+06        -0.43936E+06         0.00000E+00
   -0.43936E+06         0.44033E+06         0.00000E+00
    0.00000E+00         0.00000E+00        -0.33603E+05
 
   -0.58404E+06        -0.47465E+06         0.00000E+00
   -0.47465E+06         0.50831E+06         0.00000E+00
    0.00000E+00         0.00000E+00        -0.15146E+05
 
   -0.57000E+06        -0.50433E+06         0.00000E+00
   -0.50433E+06         0.57776E+06         0.00000E+00
    0.00000E+00         0.00000E+00         0.15514E+04
 
   -0.56488E+06        -0.52810E+06         0.00000E+00
   -0.52810E+06         0.64791E+06         0.00000E+00
    0.00000E+00         0.00000E+00         0.16606E+05
 
   -0.56740E+06        -0.54580E+06         0.00000E+00
   -0.54580E+06         0.71812E+06         0.00000E+00
    0.00000E+00         0.00000E+00         0.30144E+05
 
   -0.57631E+06        -0.55741E+06         0.00000E+00
   -0.55741E+06         0.78781E+06         0.00000E+00
    0.00000E+00         0.00000E+00         0.42298E+05
 
   -0.59050E+06        -0.56298E+06         0.00000E+00
   -0.56298E+06         0.85650E+06         0.00000E+00
    0.00000E+00         0.00000E+00         0.53200E+05
 
   -0.60891E+06        -0.56265E+06         0.00000E+00
   -0.56265E+06         0.92381E+06         0.00000E+00
    0.00000E+00         0.00000E+00         0.62981E+05
 
   -0.63057E+06        -0.55660E+06         0.00000E+00
   -0.55660E+06         0.98943E+06         0.00000E+00
    0.00000E+00         0.00000E+00         0.71771E+05
 
   -0.65464E+06        -0.54503E+06         0.00000E+00
   -0.54503E+06         0.10531E+07         0.00000E+00
    0.00000E+00         0.00000E+00         0.79694E+05
 
   -0.68030E+06        -0.52815E+06         0.00000E+00
   -0.52815E+06         0.11147E+07         0.00000E+00
    0.00000E+00         0.00000E+00         0.86871E+05
 
   -0.70682E+06        -0.50619E+06         0.00000E+00
   -0.50619E+06         0.11739E+07         0.00000E+00
    0.00000E+00         0.00000E+00         0.93419E+05
 
   -0.73355E+06        -0.47936E+06         0.00000E+00
   -0.47936E+06         0.12308E+07         0.00000E+00
    0.00000E+00         0.00000E+00         0.99448E+05
 
   -0.75983E+06        -0.44786E+06         0.00000E+00
   -0.44786E+06         0.12852E+07         0.00000E+00
    0.00000E+00         0.00000E+00         0.10507E+06
 
   -0.78509E+06        -0.41187E+06         0.00000E+00
   -0.41187E+06         0.13370E+07         0.00000E+00
    0.00000E+00         0.00000E+00         0.11038E+06
 
   -0.80873E+06        -0.37158E+06         0.00000E+00
   -0.37158E+06         0.13862E+07         0.00000E+00
    0.00000E+00         0.00000E+00         0.11549E+06
 
   -0.83018E+06        -0.32714E+06         0.00000E+00
   -0.32714E+06         0.14326E+07         0.00000E+00
    0.00000E+00         0.00000E+00         0.12048E+06
 
   -0.84887E+06        -0.27871E+06         0.00000E+00
   -0.27871E+06         0.14762E+07         0.00000E+00
    0.00000E+00         0.00000E+00         0.12546E+06
 
   -0.86421E+06        -0.22646E+06         0.00000E+00
   -0.22646E+06         0.15168E+07         0.00000E+00
    0.00000E+00         0.00000E+00         0.13052E+06
 
   -0.87560E+06        -0.17054E+06         0.00000E+00
   -0.17054E+06         0.15543E+07         0.00000E+00
    0.00000E+00         0.00000E+00         0.13575E+06
 
   -0.88239E+06        -0.11114E+06         0.00000E+00
   -0.11114E+06         0.15885E+07         0.00000E+00
    0.00000E+00         0.00000E+00         0.14122E+06
 
   -0.88392E+06        -0.48487E+05         0.00000E+00
   -0.48487E+05         0.16191E+07         0.00000E+00
    0.00000E+00         0.00000E+00         0.14704E+06
 
   -0.87949E+06         0.17163E+05         0.00000E+00
    0.17163E+05         0.16459E+07         0.00000E+00
    0.00000E+00         0.00000E+00         0.15327E+06
 
   -0.86838E+06         0.85476E+05         0.00000E+00
    0.85476E+05         0.16684E+07         0.00000E+00
    0.00000E+00         0.00000E+00         0.16001E+06
 
   -0.84985E+06         0.15603E+06         0.00000E+00
    0.15603E+06         0.16864E+07         0.00000E+00
    0.00000E+00         0.00000E+00         0.16731E+06
 
   -0.82315E+06         0.22831E+06         0.00000E+00
    0.22831E+06         0.16994E+07         0.00000E+00
    0.00000E+00         0.00000E+00         0.17525E+06
 
   -0.78755E+06         0.30166E+06         0.00000E+00
    0.30166E+06         0.17069E+07         0.00000E+00
    0.00000E+00         0.00000E+00         0.18387E+06
 
   -0.74237E+06         0.37529E+06         0.00000E+00
    0.37529E+06         0.17084E+07         0.00000E+00
    0.00000E+00         0.00000E+00         0.19322E+06
 
   -0.68705E+06         0.44822E+06         0.00000E+00
    0.44822E+06         0.17036E+07         0.00000E+00
    0.00000E+00         0.00000E+00         0.20331E+06
 
   -0.62113E+06         0.51935E+06         0.00000E+00
    0.51935E+06         0.16920E+07         0.00000E+00
    0.00000E+00         0.00000E+00         0.21417E+06
 
   -0.54436E+06         0.58740E+06         0.00000E+00
    0.58740E+06         0.16732E+07         0.00000E+00
    0.00000E+00         0.00000E+00         0.22577E+06
 
   -0.45671E+06         0.65093E+06         0.00000E+00
    0.65093E+06         0.16471E+07         0.00000E+00
    0.00000E+00         0.00000E+00         0.23809E+06
 
   -0.35841E+06         0.70843E+06         0.00000E+00
    0.70843E+06         0.16137E+07         0.00000E+00
    0.00000E+00         0.00000E+00         0.25106E+06
 
   -0.24998E+06         0.75830E+06         0.00000E+00
    0.75830E+06         0.15732E+07         0.00000E+00
    0.00000E+00         0.00000E+00         0.26464E+06
 
   -0.13230E+06         0.79887E+06         0.00000E+00
    0.79887E+06         0.15259E+07         0.00000E+00
    0.00000E+00         0.00000E+00         0.27873E+06
 
   -0.66514E+04         0.82842E+06         0.00000E+00
    0.82842E+06         0.14725E+07         0.00000E+00
    0.00000E+00         0.00000E+00         0.29318E+06
 
    0.12507E+06         0.84523E+06         0.00000E+00
    0.84523E+06         0.14139E+07         0.00000E+00
    0.00000E+00         0.00000E+00         0.30779E+06
 
    0.26121E+06         0.84854E+06         0.00000E+00
    0.84854E+06         0.13522E+07         0.00000E+00
    0.00000E+00         0.00000E+00         0.32267E+06
 
   -0.19876E+07         0.15811E+05         0.00000E+00
    0.15811E+05         0.18808E+04         0.00000E+00
    0.00000E+00         0.00000E+00        -0.39715E+06
 
   -0.18441E+07         0.28133E+05         0.00000E+00
    0.28133E+05         0.24142E+04         0.00000E+00
    0.00000E+00         0.00000E+00        -0.36834E+06
 
   -0.17053E+07         0.32418E+05         0.00000E+00
    0.32418E+05         0.57474E+04         0.00000E+00
    0.00000E+00         0.00000E+00        -0.33992E+06
 
   -0.15728E+07         0.29555E+05         0.00000E+00
    0.29555E+05         0.12148E+05         0.00000E+00
    0.00000E+00         0.00000E+00        -0.31212E+06
 
   -0.14475E+07         0.20296E+05         0.00000E+00
    0.20296E+05         0.22225E+05         0.00000E+00
    0.00000E+00         0.00000E+00        -0.28505E+06
 
   -0.13304E+07         0.55378E+04         0.00000E+00
    0.55378E+04         0.36392E+05         0.00000E+00
    0.00000E+00         0.00000E+00        -0.25879E+06
 
   -0.12222E+07        -0.13724E+05         0.00000E+00
   -0.13724E+05         0.54917E+05         0.00000E+00
    0.00000E+00         0.00000E+00        -0.23345E+06
 
   -0.11234E+07        -0.36445E+05         0.00000E+00
   -0.36445E+05         0.77909E+05         0.00000E+00
    0.00000E+00         0.00000E+00        -0.20910E+06
 
   -0.10344E+07        -0.61574E+05         0.00000E+00
   -0.61574E+05         0.10533E+06         0.00000E+00
    0.00000E+00         0.00000E+00        -0.18581E+06
 
   -0.95515E+06        -0.88092E+05         0.00000E+00
   -0.88092E+05         0.13701E+06         0.00000E+00
    0.00000E+00         0.00000E+00        -0.16363E+06
 
   -0.88563E+06        -0.11505E+06         0.00000E+00
   -0.11505E+06         0.17270E+06         0.00000E+00
    0.00000E+00         0.00000E+00        -0.14259E+06
 
   -0.82553E+06        -0.14156E+06         0.00000E+00
   -0.14156E+06         0.21203E+06         0.00000E+00
    0.00000E+00         0.00000E+00        -0.12270E+06
 
   -0.77443E+06        -0.16685E+06         0.00000E+00
   -0.16685E+06         0.25461E+06         0.00000E+00
    0.00000E+00         0.00000E+00        -0.10397E+06
 
   -0.73183E+06        -0.19023E+06         0.00000E+00
   -0.19023E+06         0.29998E+06         0.00000E+00
    0.00000E+00         0.00000E+00        -0.86370E+05
 
   -0.69709E+06        -0.21113E+06         0.00000E+00
   -0.21113E+06         0.34767E+06         0.00000E+00
    0.00000E+00         0.00000E+00        -0.69885E+05
 
   -0.66956E+06        -0.22906E+06         0.00000E+00
   -0.22906E+06         0.39720E+06         0.00000E+00
    0.00000E+00         0.00000E+00        -0.54473E+05
 
   -0.64852E+06        -0.24366E+06         0.00000E+00
   -0.24366E+06         0.44810E+06         0.00000E+00
    0.00000E+00         0.00000E+00        -0.40085E+05
 
   -0.63324E+06        -0.25463E+06         0.00000E+00
   -0.25463E+06         0.49991E+06         0.00000E+00
    0.00000E+00         0.00000E+00        -0.26665E+05
 
   -0.62297E+06        -0.26177E+06         0.00000E+00
   -0.26177E+06         0.55221E+06         0.00000E+00
    0.00000E+00         0.00000E+00        -0.14151E+05
 
   -0.61698E+06        -0.26494E+06         0.00000E+00
   -0.26494E+06         0.60460E+06         0.00000E+00
    0.00000E+00         0.00000E+00        -0.24776E+04
 
   -0.61457E+06        -0.26408E+06         0.00000E+00
   -0.26408E+06         0.65669E+06         0.00000E+00
    0.00000E+00         0.00000E+00         0.84249E+04
 
   -0.61503E+06        -0.25915E+06         0.00000E+00
   -0.25915E+06         0.70817E+06         0.00000E+00
    0.00000E+00         0.00000E+00         0.18628E+05
 
   -0.61770E+06        -0.25018E+06         0.00000E+00
   -0.25018E+06         0.75872E+06         0.00000E+00
    0.00000E+00         0.00000E+00         0.28203E+05
 
   -0.62194E+06        -0.23722E+06         0.00000E+00
   -0.23722E+06         0.80805E+06         0.00000E+00
    0.00000E+00         0.00000E+00         0.37223E+05
 
   -0.62712E+06        -0.22037E+06         0.00000E+00
   -0.22037E+06         0.85592E+06         0.00000E+00
    0.00000E+00         0.00000E+00         0.45760E+05
 
   -0.63266E+06        -0.19974E+06         0.00000E+00
   -0.19974E+06         0.90208E+06         0.00000E+00
    0.00000E+00         0.00000E+00         0.53884E+05
 
   -0.63798E+06        -0.17545E+06         0.00000E+00
   -0.17545E+06         0.94630E+06         0.00000E+00
    0.00000E+00         0.00000E+00         0.61664E+05
 
   -0.64254E+06        -0.14767E+06         0.00000E+00
   -0.14767E+06         0.98838E+06         0.00000E+00
    0.00000E+00         0.00000E+00         0.69168E+05
 
   -0.64580E+06        -0.11657E+06         0.00000E+00
   -0.11657E+06         0.10281E+07         0.00000E+00
    0.00000E+00         0.00000E+00         0.76460E+05
 
   -0.64724E+06        -0.82357E+05         0.00000E+00
   -0.82357E+05         0.10653E+07         0.00000E+00
    0.00000E+00         0.00000E+00         0.83604E+05
 
   -0.64637E+06        -0.45247E+05         0.00000E+00
   -0.45247E+05         0.10997E+07         0.00000E+00
    0.00000E+00         0.00000E+00         0.90659E+05
 
   -0.64268E+06        -0.54948E+04         0.00000E+00
   -0.54948E+04         0.11311E+07         0.00000E+00
    0.00000E+00         0.00000E+00         0.97681E+05
 
   -0.63571E+06         0.36614E+05         0.00000E+00
    0.36614E+05         0.11593E+07         0.00000E+00
    0.00000E+00         0.00000E+00         0.10472E+06
 
   -0.62499E+06         0.80755E+05         0.00000E+00
    0.80755E+05         0.11842E+07         0.00000E+00
    0.00000E+00         0.00000E+00         0.11183E+06
 
   -0.61010E+06         0.12656E+06         0.00000E+00
    0.12656E+06         0.12054E+07         0.00000E+00
    0.00000E+00         0.00000E+00         0.11905E+06
 
   -0.59062E+06         0.17361E+06         0.00000E+00
    0.17361E+06         0.12227E+07         0.00000E+00
    0.00000E+00         0.00000E+00         0.12642E+06
 
   -0.56620E+06         0.22144E+06         0.00000E+00
    0.22144E+06         0.12361E+07         0.00000E+00
    0.00000E+00         0.00000E+00         0.13397E+06
 
   -0.53652E+06         0.26952E+06         0.00000E+00
    0.26952E+06         0.12451E+07         0.00000E+00
    0.00000E+00         0.00000E+00         0.14172E+06
 
   -0.50134E+06         0.31724E+06         0.00000E+00
    0.31724E+06         0.12498E+07         0.00000E+00
    0.00000E+00         0.00000E+00         0.14969E+06
 
   -0.46048E+06         0.36398E+06         0.00000E+00
    0.36398E+06         0.12499E+07         0.00000E+00
    0.00000E+00         0.00000E+00         0.15788E+06
 
   -0.41388E+06         0.40901E+06         0.00000E+00
    0.40901E+06         0.12454E+07         0.00000E+00
    0.00000E+00         0.00000E+00         0.16630E+06
 
   -0.36157E+06         0.45158E+06         0.00000E+00
    0.45158E+06         0.12362E+07         0.00000E+00
    0.00000E+00         0.00000E+00         0.17492E+06
 
   -0.30373E+06         0.49091E+06         0.00000E+00
    0.49091E+06         0.12224E+07         0.00000E+00
    0.00000E+00         0.00000E+00         0.18373E+06
 
   -0.24065E+06         0.52618E+06         0.00000E+00
    0.52618E+06         0.12041E+07         0.00000E+00
    0.00000E+00         0.00000E+00         0.19270E+06
 
   -0.17278E+06         0.55656E+06         0.00000E+00
    0.55656E+06         0.11816E+07         0.00000E+00
    0.00000E+00         0.00000E+00         0.20177E+06
 
   -0.10073E+06         0.58123E+06         0.00000E+00
    0.58123E+06         0.11553E+07         0.00000E+00
    0.00000E+00         0.00000E+00         0.21091E+06
 
   -0.25310E+05         0.59941E+06         0.00000E+00
    0.59941E+06         0.11255E+07         0.00000E+00
    0.00000E+00         0.00000E+00         0.22004E+06
 
    0.52570E+05         0.61039E+06         0.00000E+00
    0.61039E+06         0.10929E+07         0.00000E+00
    0.00000E+00         0.00000E+00         0.22910E+06
 
    0.13190E+06         0.61362E+06         0.00000E+00
    0.61362E+06         0.10583E+07         0.00000E+00
    0.00000E+00         0.00000E+00         0.23805E+06
 
    0.21139E+06         0.60842E+06         0.00000E+00
    0.60842E+06         0.10223E+07         0.00000E+00
    0.00000E+00         0.00000E+00         0.24673E+06
 
   -0.18901E+07         0.16695E+05         0.00000E+00
    0.16695E+05        -0.84484E+02         0.00000E+00
    0.00000E+00         0.00000E+00        -0.37804E+06
 
   -0.17797E+07         0.37044E+05         0.00000E+00
    0.37044E+05         0.58708E+03         0.00000E+00
    0.00000E+00         0.00000E+00        -0.35583E+06
 
   -0.16722E+07         0.52138E+05         0.00000E+00
    0.52138E+05         0.26312E+04         0.00000E+00
    0.00000E+00         0.00000E+00        -0.33392E+06
 
   -0.15682E+07         0.62232E+05         0.00000E+00
    0.62232E+05         0.65187E+04         0.00000E+00
    0.00000E+00         0.00000E+00        -0.31234E+06
 
   -0.14683E+07         0.67747E+05         0.00000E+00
    0.67747E+05         0.12531E+05         0.00000E+00
    0.00000E+00         0.00000E+00        -0.29116E+06
 
   -0.13732E+07         0.69155E+05         0.00000E+00
    0.69155E+05         0.20923E+05         0.00000E+00
    0.00000E+00         0.00000E+00        -0.27045E+06
 
   -0.12831E+07         0.66971E+05         0.00000E+00
    0.66971E+05         0.31890E+05         0.00000E+00
    0.00000E+00         0.00000E+00        -0.25025E+06
 
   -0.11986E+07         0.61748E+05         0.00000E+00
    0.61748E+05         0.45567E+05         0.00000E+00
    0.00000E+00         0.00000E+00        -0.23060E+06
 
   -0.11198E+07         0.54061E+05         0.00000E+00
    0.54061E+05         0.62026E+05         0.00000E+00
    0.00000E+00         0.00000E+00        -0.21156E+06
 
   -0.10470E+07         0.44495E+05         0.00000E+00
    0.44495E+05         0.81271E+05         0.00000E+00
    0.00000E+00         0.00000E+00        -0.19316E+06
 
   -0.98029E+06         0.33628E+05         0.00000E+00
    0.33628E+05         0.10324E+06         0.00000E+00
    0.00000E+00         0.00000E+00        -0.17541E+06
 
   -0.91955E+06         0.22024E+05         0.00000E+00
    0.22024E+05         0.12783E+06         0.00000E+00
    0.00000E+00         0.00000E+00        -0.15834E+06
 
   -0.86473E+06         0.10214E+05         0.00000E+00
    0.10214E+05         0.15487E+06         0.00000E+00
    0.00000E+00         0.00000E+00        -0.14197E+06
 
   -0.81564E+06        -0.13065E+04         0.00000E+00
   -0.13065E+04         0.18415E+06         0.00000E+00
    0.00000E+00         0.00000E+00        -0.12630E+06
 
   -0.77204E+06        -0.12086E+05         0.00000E+00
   -0.12086E+05         0.21544E+06         0.00000E+00
    0.00000E+00         0.00000E+00        -0.11132E+06
 
   -0.73361E+06        -0.21720E+05         0.00000E+00
   -0.21720E+05         0.24848E+06         0.00000E+00
    0.00000E+00         0.00000E+00        -0.97026E+05
 
   -0.70001E+06        -0.29856E+05         0.00000E+00
   -0.29856E+05         0.28298E+06         0.00000E+00
    0.00000E+00         0.00000E+00        -0.83405E+05
 
   -0.67083E+06        -0.36191E+05         0.00000E+00
   -0.36191E+05         0.31865E+06         0.00000E+00
    0.00000E+00         0.00000E+00        -0.70435E+05
 
   -0.64565E+06        -0.40476E+05         0.00000E+00
   -0.40476E+05         0.35520E+06         0.00000E+00
    0.00000E+00         0.00000E+00        -0.58090E+05
 
   -0.62403E+06        -0.42510E+05         0.00000E+00
   -0.42510E+05         0.39232E+06         0.00000E+00
    0.00000E+00         0.00000E+00        -0.46342E+05
 
   -0.60550E+06        -0.42139E+05         0.00000E+00
   -0.42139E+05         0.42971E+06         0.00000E+00
    0.00000E+00         0.00000E+00        -0.35157E+05
 
   -0.58961E+06        -0.39254E+05         0.00000E+00
   -0.39254E+05         0.46710E+06         0.00000E+00
    0.00000E+00         0.00000E+00        -0.24501E+05
 
   -0.57589E+06        -0.33789E+05         0.00000E+00
   -0.33789E+05         0.50421E+06         0.00000E+00
    0.00000E+00         0.00000E+00        -0.14336E+05
 
   -0.56387E+06        -0.25716E+05         0.00000E+00
   -0.25716E+05         0.54075E+06         0.00000E+00
    0.00000E+00         0.00000E+00        -0.46236E+04
 
   -0.55310E+06        -0.15044E+05         0.00000E+00
   -0.15044E+05         0.57648E+06         0.00000E+00
    0.00000E+00         0.00000E+00         0.46761E+04
 
   -0.54314E+06        -0.18163E+04         0.00000E+00
   -0.18163E+04         0.61115E+06         0.00000E+00
    0.00000E+00         0.00000E+00         0.13602E+05
 
   -0.53355E+06         0.13892E+05         0.00000E+00
    0.13892E+05         0.64452E+06         0.00000E+00
    0.00000E+00         0.00000E+00         0.22195E+05
 
   -0.52391E+06         0.31976E+05         0.00000E+00
    0.31976E+05         0.67637E+06         0.00000E+00
    0.00000E+00         0.00000E+00         0.30491E+05
 
   -0.51383E+06         0.52299E+05         0.00000E+00
    0.52299E+05         0.70648E+06         0.00000E+00
    0.00000E+00         0.00000E+00         0.38530E+05
 
   -0.50291E+06         0.74697E+05         0.00000E+00
    0.74697E+05         0.73463E+06         0.00000E+00
    0.00000E+00         0.00000E+00         0.46345E+05
 
   -0.49080E+06         0.98976E+05         0.00000E+00
    0.98976E+05         0.76065E+06         0.00000E+00
    0.00000E+00         0.00000E+00         0.53971E+05
 
   -0.47715E+06         0.12491E+06         0.00000E+00
    0.12491E+06         0.78435E+06         0.00000E+00
    0.00000E+00         0.00000E+00         0.61439E+05
 
   -0.46166E+06         0.15226E+06         0.00000E+00
    0.15226E+06         0.80555E+06         0.00000E+00
    0.00000E+00         0.00000E+00         0.68776E+05
 
   -0.44405E+06         0.18072E+06         0.00000E+00
    0.18072E+06         0.82409E+06         0.00000E+00
    0.00000E+00         0.00000E+00         0.76007E+05
 
   -0.42407E+06         0.21000E+06         0.00000E+00
    0.21000E+06         0.83983E+06         0.00000E+00
    0.00000E+00         0.00000E+00         0.83152E+05
 
   -0.40152E+06         0.23975E+06         0.00000E+00
    0.23975E+06         0.85266E+06         0.00000E+00
    0.00000E+00         0.00000E+00         0.90228E+05
 
   -0.37623E+06         0.26959E+06         0.00000E+00
    0.26959E+06         0.86247E+06         0.00000E+00
    0.00000E+00         0.00000E+00         0.97248E+05
 
   -0.34810E+06         0.29915E+06         0.00000E+00
    0.29915E+06         0.86919E+06         0.00000E+00
    0.00000E+00         0.00000E+00         0.10422E+06
 
   -0.31707E+06         0.32799E+06         0.00000E+00
    0.32799E+06         0.87277E+06         0.00000E+00
    0.00000E+00         0.00000E+00         0.11114E+06
 
   -0.28316E+06         0.35568E+06         0.00000E+00
    0.35568E+06         0.87322E+06         0.00000E+00
    0.00000E+00         0.00000E+00         0.11801E+06
 
   -0.24645E+06         0.38176E+06         0.00000E+00
    0.38176E+06         0.87057E+06         0.00000E+00
    0.00000E+00         0.00000E+00         0.12482E+06
 
   -0.20708E+06         0.40577E+06         0.00000E+00
    0.40577E+06         0.86491E+06         0.00000E+00
    0.00000E+00         0.00000E+00         0.13157E+06
 
   -0.16528E+06         0.42726E+06         0.00000E+00
    0.42726E+06         0.85636E+06         0.00000E+00
    0.00000E+00         0.00000E+00         0.13822E+06
 
   -0.12137E+06         0.44575E+06         0.00000E+00
    0.44575E+06         0.84512E+06         0.00000E+00
    0.00000E+00         0.00000E+00         0.14475E+06
 
   -0.75722E+05         0.46082E+06         0.00000E+00
    0.46082E+06         0.83142E+06         0.00000E+00
    0.00000E+00         0.00000E+00         0.15114E+06
 
   -0.28812E+05         0.47204E+06         0.00000E+00
    0.47204E+06         0.81557E+06         0.00000E+00
    0.00000E+00         0.00000E+00         0.15735E+06
 
    0.18822E+05         0.47905E+06         0.00000E+00
    0.47905E+06         0.79793E+06         0.00000E+00
    0.00000E+00         0.00000E+00         0.16335E+06
 
    0.66567E+05         0.48152E+06         0.00000E+00
    0.48152E+06         0.77889E+06         0.00000E+00
    0.00000E+00         0.00000E+00         0.16909E+06
 
    0.11372E+06         0.47914E+06         0.00000E+00
    0.47914E+06         0.75888E+06         0.00000E+00
    0.00000E+00         0.00000E+00         0.17452E+06
 
    0.15956E+06         0.47175E+06         0.00000E+00
    0.47175E+06         0.73848E+06         0.00000E+00
    0.00000E+00         0.00000E+00         0.17961E+06
 
   -0.17635E+07         0.17528E+05         0.00000E+00
    0.17528E+05        -0.21794E+03         0.00000E+00
    0.00000E+00         0.00000E+00        -0.35274E+06
 
   -0.16765E+07         0.42880E+05         0.00000E+00
    0.42880E+05         0.16235E+03         0.00000E+00
    0.00000E+00         0.00000E+00        -0.33526E+06
 
   -0.15911E+07         0.64282E+05         0.00000E+00
    0.64282E+05         0.14266E+04         0.00000E+00
    0.00000E+00         0.00000E+00        -0.31794E+06
 
   -0.15079E+07         0.81962E+05         0.00000E+00
    0.81962E+05         0.37406E+04         0.00000E+00
    0.00000E+00         0.00000E+00        -0.30083E+06
 
   -0.14271E+07         0.96163E+05         0.00000E+00
    0.96163E+05         0.72974E+04         0.00000E+00
    0.00000E+00         0.00000E+00        -0.28395E+06
 
   -0.13490E+07         0.10716E+06         0.00000E+00
    0.10716E+06         0.12257E+05         0.00000E+00
    0.00000E+00         0.00000E+00        -0.26735E+06
 
   -0.12740E+07         0.11526E+06         0.00000E+00
    0.11526E+06         0.18753E+05         0.00000E+00
    0.00000E+00         0.00000E+00        -0.25105E+06
 
   -0.12023E+07         0.12080E+06         0.00000E+00
    0.12080E+06         0.26886E+05         0.00000E+00
    0.00000E+00         0.00000E+00        -0.23508E+06
 
   -0.11341E+07         0.12412E+06         0.00000E+00
    0.12412E+06         0.36725E+05         0.00000E+00
    0.00000E+00         0.00000E+00        -0.21947E+06
 
   -0.10695E+07         0.12557E+06         0.00000E+00
    0.12557E+06         0.48307E+05         0.00000E+00
    0.00000E+00         0.00000E+00        -0.20424E+06
 
   -0.10087E+07         0.12550E+06         0.00000E+00
    0.12550E+06         0.61634E+05         0.00000E+00
    0.00000E+00         0.00000E+00        -0.18941E+06
 
   -0.95166E+06         0.12428E+06         0.00000E+00
    0.12428E+06         0.76676E+05         0.00000E+00
    0.00000E+00         0.00000E+00        -0.17500E+06
 
   -0.89846E+06         0.12226E+06         0.00000E+00
    0.12226E+06         0.93370E+05         0.00000E+00
    0.00000E+00         0.00000E+00        -0.16102E+06
 
   -0.84902E+06         0.11975E+06         0.00000E+00
    0.11975E+06         0.11163E+06         0.00000E+00
    0.00000E+00         0.00000E+00        -0.14748E+06
 
   -0.80325E+06         0.11708E+06         0.00000E+00
    0.11708E+06         0.13133E+06         0.00000E+00
    0.00000E+00         0.00000E+00        -0.13438E+06
 
   -0.76101E+06         0.11455E+06         0.00000E+00
    0.11455E+06         0.15234E+06         0.00000E+00
    0.00000E+00         0.00000E+00        -0.12173E+06
 
   -0.72215E+06         0.11241E+06         0.00000E+00
    0.11241E+06         0.17450E+06         0.00000E+00
    0.00000E+00         0.00000E+00        -0.10953E+06
 
   -0.68645E+06         0.11091E+06         0.00000E+00
    0.11091E+06         0.19763E+06         0.00000E+00
    0.00000E+00         0.00000E+00        -0.97765E+05
 
   -0.65371E+06         0.11026E+06         0.00000E+00
    0.11026E+06         0.22155E+06         0.00000E+00
    0.00000E+00         0.00000E+00        -0.86432E+05
 
   -0.62366E+06         0.11064E+06         0.00000E+00
    0.11064E+06         0.24606E+06         0.00000E+00
    0.00000E+00         0.00000E+00        -0.75520E+05
 
   -0.59604E+06         0.11219E+06         0.00000E+00
    0.11219E+06         0.27096E+06         0.00000E+00
    0.00000E+00         0.00000E+00        -0.65016E+05
 
   -0.57058E+06         0.11503E+06         0.00000E+00
    0.11503E+06         0.29605E+06         0.00000E+00
    0.00000E+00         0.00000E+00        -0.54905E+05
 
   -0.54698E+06         0.11926E+06         0.00000E+00
    0.11926E+06         0.32112E+06         0.00000E+00
    0.00000E+00         0.00000E+00        -0.45171E+05
 
   -0.52495E+06         0.12493E+06         0.00000E+00
    0.12493E+06         0.34597E+06         0.00000E+00
    0.00000E+00         0.00000E+00        -0.35797E+05
 
   -0.50421E+06         0.13205E+06         0.00000E+00
    0.13205E+06         0.37039E+06         0.00000E+00
    0.00000E+00         0.00000E+00        -0.26763E+05
 
   -0.48445E+06         0.14064E+06         0.00000E+00
    0.14064E+06         0.39419E+06         0.00000E+00
    0.00000E+00         0.00000E+00        -0.18050E+05
 
   -0.46539E+06         0.15065E+06         0.00000E+00
    0.15065E+06         0.41719E+06         0.00000E+00
    0.00000E+00         0.00000E+00        -0.96406E+04
 
   -0.44676E+06         0.16204E+06         0.00000E+00
    0.16204E+06         0.43919E+06         0.00000E+00
    0.00000E+00         0.00000E+00        -0.15144E+04
 
   -0.42830E+06         0.17471E+06         0.00000E+00
    0.17471E+06         0.46003E+06         0.00000E+00
    0.00000E+00         0.00000E+00         0.63462E+04
 
   -0.40975E+06         0.18857E+06         0.00000E+00
    0.18857E+06         0.47955E+06         0.00000E+00
    0.00000E+00         0.00000E+00         0.13959E+05
 
   -0.39089E+06         0.20347E+06         0.00000E+00
    0.20347E+06         0.49759E+06         0.00000E+00
    0.00000E+00         0.00000E+00         0.21339E+05
 
   -0.37151E+06         0.21926E+06         0.00000E+00
    0.21926E+06         0.51402E+06         0.00000E+00
    0.00000E+00         0.00000E+00         0.28502E+05
 
   -0.35141E+06         0.23576E+06         0.00000E+00
    0.23576E+06         0.52871E+06         0.00000E+00
    0.00000E+00         0.00000E+00         0.35460E+05
 
   -0.33045E+06         0.25279E+06         0.00000E+00
    0.25279E+06         0.54157E+06         0.00000E+00
    0.00000E+00         0.00000E+00         0.42225E+05
 
   -0.30848E+06         0.27011E+06         0.00000E+00
    0.27011E+06         0.55250E+06         0.00000E+00
    0.00000E+00         0.00000E+00         0.48803E+05
 
   -0.28542E+06         0.28751E+06         0.00000E+00
    0.28751E+06         0.56143E+06         0.00000E+00
    0.00000E+00         0.00000E+00         0.55201E+05
 
   -0.26120E+06         0.30473E+06         0.00000E+00
    0.30473E+06         0.56832E+06         0.00000E+00
    0.00000E+00         0.00000E+00         0.61423E+05
 
   -0.23580E+06         0.32152E+06         0.00000E+00
    0.32152E+06         0.57315E+06         0.00000E+00
    0.00000E+00         0.00000E+00         0.67469E+05
 
   -0.20923E+06         0.33762E+06         0.00000E+00
    0.33762E+06         0.57591E+06         0.00000E+00
    0.00000E+00         0.00000E+00         0.73335E+05
 
   -0.18156E+06         0.35274E+06         0.00000E+00
    0.35274E+06         0.57665E+06         0.00000E+00
    0.00000E+00         0.00000E+00         0.79018E+05
 
   -0.15288E+06         0.36662E+06         0.00000E+00
    0.36662E+06         0.57542E+06         0.00000E+00
    0.00000E+00         0.00000E+00         0.84508E+05
 
   -0.12334E+06         0.37899E+06         0.00000E+00
    0.37899E+06         0.57231E+06         0.00000E+00
    0.00000E+00         0.00000E+00         0.89795E+05
 
   -0.93130E+05         0.38958E+06         0.00000E+00
    0.38958E+06         0.56744E+06         0.00000E+00
    0.00000E+00         0.00000E+00         0.94863E+05
 
   -0.62498E+05         0.39815E+06         0.00000E+00
    0.39815E+06         0.56098E+06         0.00000E+00
    0.00000E+00         0.00000E+00         0.99696E+05
 
   -0.31724E+05         0.40447E+06         0.00000E+00
    0.40447E+06         0.55309E+06         0.00000E+00
    0.00000E+00         0.00000E+00         0.10427E+06
 
   -0.11349E+04         0.40833E+06         0.00000E+00
    0.40833E+06         0.54400E+06         0.00000E+00
    0.00000E+00         0.00000E+00         0.10857E+06
 
    0.28900E+05         0.40953E+06         0.00000E+00
    0.40953E+06         0.53394E+06         0.00000E+00
    0.00000E+00         0.00000E+00         0.11257E+06
 
    0.57973E+05         0.40793E+06         0.00000E+00
    0.40793E+06         0.52320E+06         0.00000E+00
    0.00000E+00         0.00000E+00         0.11623E+06
 
    0.85646E+05         0.40342E+06         0.00000E+00
    0.40342E+06         0.51206E+06         0.00000E+00
    0.00000E+00         0.00000E+00         0.11954E+06
 
    0.11144E+06         0.39591E+06         0.00000E+00
    0.39591E+06         0.50084E+06         0.00000E+00
    0.00000E+00         0.00000E+00         0.12246E+06
 
   -0.16202E+07         0.17908E+05         0.00000E+00
    0.17908E+05        -0.14275E+03         0.00000E+00
    0.00000E+00         0.00000E+00        -0.32406E+06
 
   -0.15511E+07         0.45998E+05         0.00000E+00
    0.45998E+05        -0.18813E+02         0.00000E+00
    0.00000E+00         0.00000E+00        -0.31022E+06
 
   -0.14829E+07         0.70966E+05         0.00000E+00
    0.70966E+05         0.52968E+03         0.00000E+00
    0.00000E+00         0.00000E+00        -0.29647E+06
 
   -0.14157E+07         0.92965E+05         0.00000E+00
    0.92965E+05         0.16415E+04         0.00000E+00
    0.00000E+00         0.00000E+00        -0.28282E+06
 
   -0.13499E+07         0.11217E+06         0.00000E+00
    0.11217E+06         0.34319E+04         0.00000E+00
    0.00000E+00         0.00000E+00        -0.26930E+06
 
   -0.12857E+07         0.12877E+06         0.00000E+00
    0.12877E+06         0.60072E+04         0.00000E+00
    0.00000E+00         0.00000E+00        -0.25593E+06
 
   -0.12232E+07         0.14296E+06         0.00000E+00
    0.14296E+06         0.94592E+04         0.00000E+00
    0.00000E+00         0.00000E+00        -0.24274E+06
 
   -0.11626E+07         0.15496E+06         0.00000E+00
    0.15496E+06         0.13863E+05         0.00000E+00
    0.00000E+00         0.00000E+00        -0.22975E+06
 
   -0.11041E+07         0.16500E+06         0.00000E+00
    0.16500E+06         0.19275E+05         0.00000E+00
    0.00000E+00         0.00000E+00        -0.21697E+06
 
   -0.10479E+07         0.17328E+06         0.00000E+00
    0.17328E+06         0.25733E+05         0.00000E+00
    0.00000E+00         0.00000E+00        -0.20443E+06
 
   -0.99390E+06         0.18006E+06         0.00000E+00
    0.18006E+06         0.33257E+05         0.00000E+00
    0.00000E+00         0.00000E+00        -0.19213E+06
 
   -0.94230E+06         0.18555E+06         0.00000E+00
    0.18555E+06         0.41844E+05         0.00000E+00
    0.00000E+00         0.00000E+00        -0.18009E+06
 
   -0.89312E+06         0.18998E+06         0.00000E+00
    0.18998E+06         0.51476E+05         0.00000E+00
    0.00000E+00         0.00000E+00        -0.16833E+06
 
   -0.84636E+06         0.19358E+06         0.00000E+00
    0.19358E+06         0.62112E+05         0.00000E+00
    0.00000E+00         0.00000E+00        -0.15685E+06
 
   -0.80199E+06         0.19656E+06         0.00000E+00
    0.19656E+06         0.73698E+05         0.00000E+00
    0.00000E+00         0.00000E+00        -0.14566E+06
 
   -0.75999E+06         0.19912E+06         0.00000E+00
    0.19912E+06         0.86161E+05         0.00000E+00
    0.00000E+00         0.00000E+00        -0.13477E+06
 
   -0.72028E+06         0.20146E+06         0.00000E+00
    0.20146E+06         0.99415E+05         0.00000E+00
    0.00000E+00         0.00000E+00        -0.12417E+06
 
   -0.68277E+06         0.20373E+06         0.00000E+00
    0.20373E+06         0.11336E+06         0.00000E+00
    0.00000E+00         0.00000E+00        -0.11388E+06
 
   -0.64735E+06         0.20611E+06         0.00000E+00
    0.20611E+06         0.12789E+06         0.00000E+00
    0.00000E+00         0.00000E+00        -0.10389E+06
 
   -0.61390E+06         0.20873E+06         0.00000E+00
    0.20873E+06         0.14287E+06         0.00000E+00
    0.00000E+00         0.00000E+00        -0.94205E+05
 
   -0.58228E+06         0.21170E+06         0.00000E+00
    0.21170E+06         0.15820E+06         0.00000E+00
    0.00000E+00         0.00000E+00        -0.84816E+05
 
   -0.55232E+06         0.21514E+06         0.00000E+00
    0.21514E+06         0.17372E+06         0.00000E+00
    0.00000E+00         0.00000E+00        -0.75721E+05
 
   -0.52389E+06         0.21911E+06         0.00000E+00
    0.21911E+06         0.18931E+06         0.00000E+00
    0.00000E+00         0.00000E+00        -0.66915E+05
 
   -0.49680E+06         0.22368E+06         0.00000E+00
    0.22368E+06         0.20484E+06         0.00000E+00
    0.00000E+00         0.00000E+00        -0.58393E+05
 
   -0.47089E+06         0.22888E+06         0.00000E+00
    0.22888E+06         0.22015E+06         0.00000E+00
    0.00000E+00         0.00000E+00        -0.50147E+05
 
   -0.44599E+06         0.23473E+06         0.00000E+00
    0.23473E+06         0.23513E+06         0.00000E+00
    0.00000E+00         0.00000E+00        -0.42172E+05
 
   -0.42193E+06         0.24124E+06         0.00000E+00
    0.24124E+06         0.24963E+06         0.00000E+00
    0.00000E+00         0.00000E+00        -0.34459E+05
 
   -0.39855E+06         0.24836E+06         0.00000E+00
    0.24836E+06         0.26354E+06         0.00000E+00
    0.00000E+00         0.00000E+00        -0.27002E+05
 
   -0.37570E+06         0.25608E+06         0.00000E+00
    0.25608E+06         0.27673E+06         0.00000E+00
    0.00000E+00         0.00000E+00        -0.19794E+05
 
   -0.35322E+06         0.26431E+06         0.00000E+00
    0.26431E+06         0.28908E+06         0.00000E+00
    0.00000E+00         0.00000E+00        -0.12828E+05
 
   -0.33100E+06         0.27300E+06         0.00000E+00
    0.27300E+06         0.30051E+06         0.00000E+00
    0.00000E+00         0.00000E+00        -0.60990E+04
 
   -0.30891E+06         0.28205E+06         0.00000E+00
    0.28205E+06         0.31090E+06         0.00000E+00
    0.00000E+00         0.00000E+00         0.39875E+03
 
   -0.28685E+06         0.29135E+06         0.00000E+00
    0.29135E+06         0.32020E+06         0.00000E+00
    0.00000E+00         0.00000E+00         0.66691E+04
 
   -0.26474E+06         0.30078E+06         0.00000E+00
    0.30078E+06         0.32832E+06         0.00000E+00
    0.00000E+00         0.00000E+00         0.12715E+05
 
   -0.24252E+06         0.31022E+06         0.00000E+00
    0.31022E+06         0.33521E+06         0.00000E+00
    0.00000E+00         0.00000E+00         0.18538E+05
 
   -0.22015E+06         0.31952E+06         0.00000E+00
    0.31952E+06         0.34084E+06         0.00000E+00
    0.00000E+00         0.00000E+00         0.24139E+05
 
   -0.19761E+06         0.32854E+06         0.00000E+00
    0.32854E+06         0.34519E+06         0.00000E+00
    0.00000E+00         0.00000E+00         0.29516E+05
 
   -0.17491E+06         0.33713E+06         0.00000E+00
    0.33713E+06         0.34825E+06         0.00000E+00
    0.00000E+00         0.00000E+00         0.34668E+05
 
   -0.15209E+06         0.34513E+06         0.00000E+00
    0.34513E+06         0.35003E+06         0.00000E+00
    0.00000E+00         0.00000E+00         0.39589E+05
 
   -0.12921E+06         0.35239E+06         0.00000E+00
    0.35239E+06         0.35058E+06         0.00000E+00
    0.00000E+00         0.00000E+00         0.44273E+05
 
   -0.10636E+06         0.35876E+06         0.00000E+00
    0.35876E+06         0.34994E+06         0.00000E+00
    0.00000E+00         0.00000E+00         0.48714E+05
 
   -0.83665E+05         0.36409E+06         0.00000E+00
    0.36409E+06         0.34818E+06         0.00000E+00
    0.00000E+00         0.00000E+00         0.52902E+05
 
   -0.61260E+05         0.36824E+06         0.00000E+00
    0.36824E+06         0.34539E+06         0.00000E+00
    0.00000E+00         0.00000E+00         0.56827E+05
 
   -0.39319E+05         0.37107E+06         0.00000E+00
    0.37107E+06         0.34169E+06         0.00000E+00
    0.00000E+00         0.00000E+00         0.60475E+05
 
   -0.18041E+05         0.37249E+06         0.00000E+00
    0.37249E+06         0.33721E+06         0.00000E+00
    0.00000E+00         0.00000E+00         0.63834E+05
 
    0.23516E+04         0.37238E+06         0.00000E+00
    0.37238E+06         0.33208E+06         0.00000E+00
    0.00000E+00         0.00000E+00         0.66886E+05
 
    0.21613E+05         0.37067E+06         0.00000E+00
    0.37067E+06         0.32647E+06         0.00000E+00
    0.00000E+00         0.00000E+00         0.69617E+05
 
    0.39478E+05         0.36731E+06         0.00000E+00
    0.36731E+06         0.32056E+06         0.00000E+00
    0.00000E+00         0.00000E+00         0.72008E+05
 
    0.55659E+05         0.36224E+06         0.00000E+00
    0.36224E+06         0.31454E+06         0.00000E+00
    0.00000E+00         0.00000E+00         0.74040E+05
 
    0.69857E+05         0.35548E+06         0.00000E+00
    0.35548E+06         0.30860E+06         0.00000E+00
    0.00000E+00         0.00000E+00         0.75692E+05
 
   -0.14694E+07         0.17689E+05         0.00000E+00
    0.17689E+05        -0.43815E+02         0.00000E+00
    0.00000E+00         0.00000E+00        -0.29388E+06
 
   -0.14148E+07         0.46768E+05         0.00000E+00
    0.46768E+05        -0.17804E+03         0.00000E+00
    0.00000E+00         0.00000E+00        -0.28299E+06
 
   -0.13603E+07         0.73293E+05         0.00000E+00
    0.73293E+05        -0.20714E+03         0.00000E+00
    0.00000E+00         0.00000E+00        -0.27211E+06
 
   -0.13063E+07         0.97381E+05         0.00000E+00
    0.97381E+05        -0.37151E+02         0.00000E+00
    0.00000E+00         0.00000E+00        -0.26127E+06
 
   -0.12528E+07         0.11916E+06         0.00000E+00
    0.11916E+06         0.42164E+03         0.00000E+00
    0.00000E+00         0.00000E+00        -0.25048E+06
 
   -0.12001E+07         0.13875E+06         0.00000E+00
    0.13875E+06         0.12487E+04         0.00000E+00
    0.00000E+00         0.00000E+00        -0.23977E+06
 
   -0.11482E+07         0.15630E+06         0.00000E+00
    0.15630E+06         0.25138E+04         0.00000E+00
    0.00000E+00         0.00000E+00        -0.22914E+06
 
   -0.10974E+07         0.17195E+06         0.00000E+00
    0.17195E+06         0.42760E+04         0.00000E+00
    0.00000E+00         0.00000E+00        -0.21863E+06
 
   -0.10477E+07         0.18585E+06         0.00000E+00
    0.18585E+06         0.65831E+04         0.00000E+00
    0.00000E+00         0.00000E+00        -0.20823E+06
 
   -0.99935E+06         0.19816E+06         0.00000E+00
    0.19816E+06         0.94712E+04         0.00000E+00
    0.00000E+00         0.00000E+00        -0.19798E+06
 
   -0.95230E+06         0.20902E+06         0.00000E+00
    0.20902E+06         0.12964E+05         0.00000E+00
    0.00000E+00         0.00000E+00        -0.18787E+06
 
   -0.90668E+06         0.21858E+06         0.00000E+00
    0.21858E+06         0.17074E+05         0.00000E+00
    0.00000E+00         0.00000E+00        -0.17792E+06
 
   -0.86254E+06         0.22702E+06         0.00000E+00
    0.22702E+06         0.21801E+05         0.00000E+00
    0.00000E+00         0.00000E+00        -0.16815E+06
 
   -0.81992E+06         0.23446E+06         0.00000E+00
    0.23446E+06         0.27131E+05         0.00000E+00
    0.00000E+00         0.00000E+00        -0.15856E+06
 
   -0.77883E+06         0.24106E+06         0.00000E+00
    0.24106E+06         0.33043E+05         0.00000E+00
    0.00000E+00         0.00000E+00        -0.14916E+06
 
   -0.73928E+06         0.24695E+06         0.00000E+00
    0.24695E+06         0.39500E+05         0.00000E+00
    0.00000E+00         0.00000E+00        -0.13996E+06
 
   -0.70126E+06         0.25228E+06         0.00000E+00
    0.25228E+06         0.46460E+05         0.00000E+00
    0.00000E+00         0.00000E+00        -0.13096E+06
 
   -0.66473E+06         0.25715E+06         0.00000E+00
    0.25715E+06         0.53868E+05         0.00000E+00
    0.00000E+00         0.00000E+00        -0.12217E+06
 
   -0.62966E+06         0.26169E+06         0.00000E+00
    0.26169E+06         0.61664E+05         0.00000E+00
    0.00000E+00         0.00000E+00        -0.11360E+06
 
   -0.59600E+06         0.26599E+06         0.00000E+00
    0.26599E+06         0.69777E+05         0.00000E+00
    0.00000E+00         0.00000E+00        -0.10524E+06
 
   -0.56368E+06         0.27014E+06         0.00000E+00
    0.27014E+06         0.78135E+05         0.00000E+00
    0.00000E+00         0.00000E+00        -0.97110E+05
 
   -0.53264E+06         0.27423E+06         0.00000E+00
    0.27423E+06         0.86659E+05         0.00000E+00
    0.00000E+00         0.00000E+00        -0.89196E+05
 
   -0.50279E+06         0.27833E+06         0.00000E+00
    0.27833E+06         0.95265E+05         0.00000E+00
    0.00000E+00         0.00000E+00        -0.81504E+05
 
   -0.47405E+06         0.28247E+06         0.00000E+00
    0.28247E+06         0.10387E+06         0.00000E+00
    0.00000E+00         0.00000E+00        -0.74036E+05
 
   -0.44634E+06         0.28670E+06         0.00000E+00
    0.28670E+06         0.11239E+06         0.00000E+00
    0.00000E+00         0.00000E+00        -0.66790E+05
 
   -0.41957E+06         0.29106E+06         0.00000E+00
    0.29106E+06         0.12074E+06         0.00000E+00
    0.00000E+00         0.00000E+00        -0.59766E+05
 
   -0.39365E+06         0.29554E+06         0.00000E+00
    0.29554E+06         0.12883E+06         0.00000E+00
    0.00000E+00         0.00000E+00        -0.52964E+05
 
   -0.36851E+06         0.30015E+06         0.00000E+00
    0.30015E+06         0.13659E+06         0.00000E+00
    0.00000E+00         0.00000E+00        -0.46383E+05
 
   -0.34406E+06         0.30489E+06         0.00000E+00
    0.30489E+06         0.14394E+06         0.00000E+00
    0.00000E+00         0.00000E+00        -0.40023E+05
 
   -0.32022E+06         0.30972E+06         0.00000E+00
    0.30972E+06         0.15081E+06         0.00000E+00
    0.00000E+00         0.00000E+00        -0.33882E+05
 
   -0.29694E+06         0.31461E+06         0.00000E+00
    0.31461E+06         0.15714E+06         0.00000E+00
    0.00000E+00         0.00000E+00        -0.27961E+05
 
   -0.27416E+06         0.31951E+06         0.00000E+00
    0.31951E+06         0.16286E+06         0.00000E+00
    0.00000E+00         0.00000E+00        -0.22260E+05
 
   -0.25182E+06         0.32438E+06         0.00000E+00
    0.32438E+06         0.16793E+06         0.00000E+00
    0.00000E+00         0.00000E+00        -0.16778E+05
 
   -0.22990E+06         0.32915E+06         0.00000E+00
    0.32915E+06         0.17231E+06         0.00000E+00
    0.00000E+00         0.00000E+00        -0.11518E+05
 
   -0.20837E+06         0.33375E+06         0.00000E+00
    0.33375E+06         0.17597E+06         0.00000E+00
    0.00000E+00         0.00000E+00        -0.64813E+04
 
   -0.18723E+06         0.33812E+06         0.00000E+00
    0.33812E+06         0.17888E+06         0.00000E+00
    0.00000E+00         0.00000E+00        -0.16696E+04
 
   -0.16648E+06         0.34217E+06         0.00000E+00
    0.34217E+06         0.18105E+06         0.00000E+00
    0.00000E+00         0.00000E+00         0.29137E+04
 
   -0.14614E+06         0.34583E+06         0.00000E+00
    0.34583E+06         0.18247E+06         0.00000E+00
    0.00000E+00         0.00000E+00         0.72647E+04
 
   -0.12626E+06         0.34901E+06         0.00000E+00
    0.34901E+06         0.18315E+06         0.00000E+00
    0.00000E+00         0.00000E+00         0.11379E+05
 
   -0.10688E+06         0.35164E+06         0.00000E+00
    0.35164E+06         0.18313E+06         0.00000E+00
    0.00000E+00         0.00000E+00         0.15250E+05
 
   -0.88083E+05         0.35364E+06         0.00000E+00
    0.35364E+06         0.18244E+06         0.00000E+00
    0.00000E+00         0.00000E+00         0.18872E+05
 
   -0.69950E+05         0.35495E+06         0.00000E+00
    0.35495E+06         0.18114E+06         0.00000E+00
    0.00000E+00         0.00000E+00         0.22238E+05
 
   -0.52585E+05         0.35549E+06         0.00000E+00
    0.35549E+06         0.17928E+06         0.00000E+00
    0.00000E+00         0.00000E+00         0.25339E+05
 
   -0.36108E+05         0.35522E+06         0.00000E+00
    0.35522E+06         0.17694E+06         0.00000E+00
    0.00000E+00         0.00000E+00         0.28167E+05
 
   -0.20652E+05         0.35408E+06         0.00000E+00
    0.35408E+06         0.17421E+06         0.00000E+00
    0.00000E+00         0.00000E+00         0.30712E+05
 
   -0.63656E+04         0.35205E+06         0.00000E+00
    0.35205E+06         0.17118E+06         0.00000E+00
    0.00000E+00         0.00000E+00         0.32963E+05
 
    0.65923E+04         0.34909E+06         0.00000E+00
    0.34909E+06         0.16796E+06         0.00000E+00
    0.00000E+00         0.00000E+00         0.34910E+05
 
    0.18050E+05         0.34521E+06         0.00000E+00
    0.34521E+06         0.16465E+06         0.00000E+00
    0.00000E+00         0.00000E+00         0.36540E+05
 
    0.27827E+05         0.34041E+06         0.00000E+00
    0.34041E+06         0.16138E+06         0.00000E+00
    0.00000E+00         0.00000E+00         0.37842E+05
 
    0.35733E+05         0.33473E+06         0.00000E+00
    0.33473E+06         0.15828E+06         0.00000E+00
    0.00000E+00         0.00000E+00         0.38802E+05
 
   -0.13185E+07         0.16935E+05         0.00000E+00
    0.16935E+05         0.31849E+02         0.00000E+00
    0.00000E+00         0.00000E+00        -0.26369E+06
 
   -0.12757E+07         0.45652E+05         0.00000E+00
    0.45652E+05        -0.30131E+03         0.00000E+00
    0.00000E+00         0.00000E+00        -0.25520E+06
 
   -0.12327E+07         0.72266E+05         0.00000E+00
    0.72266E+05        -0.77105E+03         0.00000E+00
    0.00000E+00         0.00000E+00        -0.24669E+06
 
   -0.11895E+07         0.96857E+05         0.00000E+00
    0.96857E+05        -0.12977E+04         0.00000E+00
    0.00000E+00         0.00000E+00        -0.23816E+06
 
   -0.11463E+07         0.11951E+06         0.00000E+00
    0.11951E+06        -0.18089E+04         0.00000E+00
    0.00000E+00         0.00000E+00        -0.22963E+06
 
   -0.11033E+07         0.14033E+06         0.00000E+00
    0.14033E+06        -0.22391E+04         0.00000E+00
    0.00000E+00         0.00000E+00        -0.22112E+06
 
   -0.10606E+07         0.15939E+06         0.00000E+00
    0.15939E+06        -0.25298E+04         0.00000E+00
    0.00000E+00         0.00000E+00        -0.21264E+06
 
   -0.10184E+07         0.17681E+06         0.00000E+00
    0.17681E+06        -0.26300E+04         0.00000E+00
    0.00000E+00         0.00000E+00        -0.20420E+06
 
   -0.97663E+06         0.19267E+06         0.00000E+00
    0.19267E+06        -0.24966E+04         0.00000E+00
    0.00000E+00         0.00000E+00        -0.19583E+06
 
   -0.93552E+06         0.20710E+06         0.00000E+00
    0.20710E+06        -0.20944E+04         0.00000E+00
    0.00000E+00         0.00000E+00        -0.18752E+06
 
   -0.89511E+06         0.22018E+06         0.00000E+00
    0.22018E+06        -0.13965E+04         0.00000E+00
    0.00000E+00         0.00000E+00        -0.17930E+06
 
   -0.85550E+06         0.23202E+06         0.00000E+00
    0.23202E+06        -0.38395E+03         0.00000E+00
    0.00000E+00         0.00000E+00        -0.17118E+06
 
   -0.81673E+06         0.24273E+06         0.00000E+00
    0.24273E+06         0.95430E+03         0.00000E+00
    0.00000E+00         0.00000E+00        -0.16316E+06
 
   -0.77887E+06         0.25241E+06         0.00000E+00
    0.25241E+06         0.26213E+04         0.00000E+00
    0.00000E+00         0.00000E+00        -0.15525E+06
 
   -0.74194E+06         0.26116E+06         0.00000E+00
    0.26116E+06         0.46124E+04         0.00000E+00
    0.00000E+00         0.00000E+00        -0.14747E+06
 
   -0.70599E+06         0.26908E+06         0.00000E+00
    0.26908E+06         0.69160E+04         0.00000E+00
    0.00000E+00         0.00000E+00        -0.13981E+06
 
   -0.67102E+06         0.27625E+06         0.00000E+00
    0.27625E+06         0.95135E+04         0.00000E+00
    0.00000E+00         0.00000E+00        -0.13230E+06
 
   -0.63705E+06         0.28277E+06         0.00000E+00
    0.28277E+06         0.12380E+05         0.00000E+00
    0.00000E+00         0.00000E+00        -0.12493E+06
 
   -0.60408E+06         0.28871E+06         0.00000E+00
    0.28871E+06         0.15486E+05         0.00000E+00
    0.00000E+00         0.00000E+00        -0.11772E+06
 
   -0.57209E+06         0.29416E+06         0.00000E+00
    0.29416E+06         0.18795E+05         0.00000E+00
    0.00000E+00         0.00000E+00        -0.11066E+06
 
   -0.54108E+06         0.29917E+06         0.00000E+00
    0.29917E+06         0.22268E+05         0.00000E+00
    0.00000E+00         0.00000E+00        -0.10376E+06
 
   -0.51101E+06         0.30382E+06         0.00000E+00
    0.30382E+06         0.25861E+05         0.00000E+00
    0.00000E+00         0.00000E+00        -0.97030E+05
 
   -0.48188E+06         0.30814E+06         0.00000E+00
    0.30814E+06         0.29530E+05         0.00000E+00
    0.00000E+00         0.00000E+00        -0.90469E+05
 
   -0.45363E+06         0.31220E+06         0.00000E+00
    0.31220E+06         0.33226E+05         0.00000E+00
    0.00000E+00         0.00000E+00        -0.84081E+05
 
   -0.42625E+06         0.31602E+06         0.00000E+00
    0.31602E+06         0.36901E+05         0.00000E+00
    0.00000E+00         0.00000E+00        -0.77870E+05
 
   -0.39970E+06         0.31964E+06         0.00000E+00
    0.31964E+06         0.40506E+05         0.00000E+00
    0.00000E+00         0.00000E+00        -0.71839E+05
 
   -0.37394E+06         0.32307E+06         0.00000E+00
    0.32307E+06         0.43994E+05         0.00000E+00
    0.00000E+00         0.00000E+00        -0.65990E+05
 
   -0.34894E+06         0.32633E+06         0.00000E+00
    0.32633E+06         0.47317E+05         0.00000E+00
    0.00000E+00         0.00000E+00        -0.60325E+05
 
   -0.32467E+06         0.32943E+06         0.00000E+00
    0.32943E+06         0.50432E+05         0.00000E+00
    0.00000E+00         0.00000E+00        -0.54848E+05
 
   -0.30110E+06         0.33236E+06         0.00000E+00
    0.33236E+06         0.53298E+05         0.00000E+00
    0.00000E+00         0.00000E+00        -0.49561E+05
 
   -0.27821E+06         0.33512E+06         0.00000E+00
    0.33512E+06         0.55877E+05         0.00000E+00
    0.00000E+00         0.00000E+00        -0.44466E+05
 
   -0.25597E+06         0.33770E+06         0.00000E+00
    0.33770E+06         0.58137E+05         0.00000E+00
    0.00000E+00         0.00000E+00        -0.39566E+05
 
   -0.23437E+06         0.34006E+06         0.00000E+00
    0.34006E+06         0.60049E+05         0.00000E+00
    0.00000E+00         0.00000E+00        -0.34864E+05
 
   -0.21340E+06         0.34220E+06         0.00000E+00
    0.34220E+06         0.61593E+05         0.00000E+00
    0.00000E+00         0.00000E+00        -0.30362E+05
 
   -0.19307E+06         0.34408E+06         0.00000E+00
    0.34408E+06         0.62752E+05         0.00000E+00
    0.00000E+00         0.00000E+00        -0.26064E+05
 
   -0.17339E+06         0.34568E+06         0.00000E+00
    0.34568E+06         0.63516E+05         0.00000E+00
    0.00000E+00         0.00000E+00        -0.21974E+05
 
   -0.15436E+06         0.34695E+06         0.00000E+00
    0.34695E+06         0.63885E+05         0.00000E+00
    0.00000E+00         0.00000E+00        -0.18095E+05
 
   -0.13602E+06         0.34788E+06         0.00000E+00
    0.34788E+06         0.63863E+05         0.00000E+00
    0.00000E+00         0.00000E+00        -0.14431E+05
 
   -0.11840E+06         0.34843E+06         0.00000E+00
    0.34843E+06         0.63462E+05         0.00000E+00
    0.00000E+00         0.00000E+00        -0.10987E+05
 
   -0.10154E+06         0.34856E+06         0.00000E+00
    0.34856E+06         0.62702E+05         0.00000E+00
    0.00000E+00         0.00000E+00        -0.77684E+04
 
   -0.85509E+05         0.34826E+06         0.00000E+00
    0.34826E+06         0.61610E+05         0.00000E+00
    0.00000E+00         0.00000E+00        -0.47798E+04
 
   -0.70357E+05         0.34749E+06         0.00000E+00
    0.34749E+06         0.60221E+05         0.00000E+00
    0.00000E+00         0.00000E+00        -0.20272E+04
 
   -0.56158E+05         0.34624E+06         0.00000E+00
    0.34624E+06         0.58576E+05         0.00000E+00
    0.00000E+00         0.00000E+00         0.48357E+03
 
   -0.42993E+05         0.34449E+06         0.00000E+00
    0.34449E+06         0.56723E+05         0.00000E+00
    0.00000E+00         0.00000E+00         0.27460E+04
 
   -0.30949E+05         0.34224E+06         0.00000E+00
    0.34224E+06         0.54716E+05         0.00000E+00
    0.00000E+00         0.00000E+00         0.47534E+04
 
   -0.20122E+05         0.33949E+06         0.00000E+00
    0.33949E+06         0.52616E+05         0.00000E+00
    0.00000E+00         0.00000E+00         0.64988E+04
 
   -0.10613E+05         0.33625E+06         0.00000E+00
    0.33625E+06         0.50487E+05         0.00000E+00
    0.00000E+00         0.00000E+00         0.79749E+04
 
   -0.25271E+04         0.33255E+06         0.00000E+00
    0.33255E+06         0.48399E+05         0.00000E+00
    0.00000E+00         0.00000E+00         0.91744E+04
 
    0.40235E+04         0.32840E+06         0.00000E+00
    0.32840E+06         0.46424E+05         0.00000E+00
    0.00000E+00         0.00000E+00         0.10090E+05
 
    0.89258E+04         0.32387E+06         0.00000E+00
    0.32387E+06         0.44638E+05         0.00000E+00
    0.00000E+00         0.00000E+00         0.10713E+05
 
   -0.11730E+07         0.15786E+05         0.00000E+00
    0.15786E+05         0.84607E+02         0.00000E+00
    0.00000E+00         0.00000E+00        -0.23459E+06
 
   -0.11400E+07         0.43175E+05         0.00000E+00
    0.43175E+05        -0.38430E+03         0.00000E+00
    0.00000E+00         0.00000E+00        -0.22807E+06
 
   -0.11063E+07         0.68840E+05         0.00000E+00
    0.68840E+05        -0.11529E+04         0.00000E+00
    0.00000E+00         0.00000E+00        -0.22149E+06
 
   -0.10722E+07         0.92835E+05         0.00000E+00
    0.92835E+05        -0.21537E+04         0.00000E+00
    0.00000E+00         0.00000E+00        -0.21486E+06
 
   -0.10377E+07         0.11521E+06         0.00000E+00
    0.11521E+06        -0.33240E+04         0.00000E+00
    0.00000E+00         0.00000E+00        -0.20820E+06
 
   -0.10030E+07         0.13604E+06         0.00000E+00
    0.13604E+06        -0.46066E+04         0.00000E+00
    0.00000E+00         0.00000E+00        -0.20152E+06
 
   -0.96816E+06         0.15538E+06         0.00000E+00
    0.15538E+06        -0.59500E+04         0.00000E+00
    0.00000E+00         0.00000E+00        -0.19482E+06
 
   -0.93336E+06         0.17329E+06         0.00000E+00
    0.17329E+06        -0.73079E+04         0.00000E+00
    0.00000E+00         0.00000E+00        -0.18813E+06
 
   -0.89866E+06         0.18984E+06         0.00000E+00
    0.18984E+06        -0.86401E+04         0.00000E+00
    0.00000E+00         0.00000E+00        -0.18146E+06
 
   -0.86415E+06         0.20511E+06         0.00000E+00
    0.20511E+06        -0.99117E+04         0.00000E+00
    0.00000E+00         0.00000E+00        -0.17481E+06
 
   -0.82993E+06         0.21916E+06         0.00000E+00
    0.21916E+06        -0.11094E+05         0.00000E+00
    0.00000E+00         0.00000E+00        -0.16820E+06
 
   -0.79606E+06         0.23206E+06         0.00000E+00
    0.23206E+06        -0.12163E+05         0.00000E+00
    0.00000E+00         0.00000E+00        -0.16164E+06
 
   -0.76260E+06         0.24389E+06         0.00000E+00
    0.24389E+06        -0.13101E+05         0.00000E+00
    0.00000E+00         0.00000E+00        -0.15514E+06
 
   -0.72963E+06         0.25471E+06         0.00000E+00
    0.25471E+06        -0.13896E+05         0.00000E+00
    0.00000E+00         0.00000E+00        -0.14870E+06
 
   -0.69718E+06         0.26460E+06         0.00000E+00
    0.26460E+06        -0.14540E+05         0.00000E+00
    0.00000E+00         0.00000E+00        -0.14234E+06
 
   -0.66530E+06         0.27361E+06         0.00000E+00
    0.27361E+06        -0.15031E+05         0.00000E+00
    0.00000E+00         0.00000E+00        -0.13607E+06
 
   -0.63403E+06         0.28183E+06         0.00000E+00
    0.28183E+06        -0.15372E+05         0.00000E+00
    0.00000E+00         0.00000E+00        -0.12988E+06
 
   -0.60339E+06         0.28930E+06         0.00000E+00
    0.28930E+06        -0.15568E+05         0.00000E+00
    0.00000E+00         0.00000E+00        -0.12379E+06
 
   -0.57342E+06         0.29609E+06         0.00000E+00
    0.29609E+06        -0.15632E+05         0.00000E+00
    0.00000E+00         0.00000E+00        -0.11781E+06
 
   -0.54412E+06         0.30226E+06         0.00000E+00
    0.30226E+06        -0.15576E+05         0.00000E+00
    0.00000E+00         0.00000E+00        -0.11194E+06
 
   -0.51551E+06         0.30785E+06         0.00000E+00
    0.30785E+06        -0.15419E+05         0.00000E+00
    0.00000E+00         0.00000E+00        -0.10619E+06
 
   -0.48759E+06         0.31291E+06         0.00000E+00
    0.31291E+06        -0.15179E+05         0.00000E+00
    0.00000E+00         0.00000E+00        -0.10055E+06
 
   -0.46038E+06         0.31749E+06         0.00000E+00
    0.31749E+06        -0.14879E+05         0.00000E+00
    0.00000E+00         0.00000E+00        -0.95051E+05
 
   -0.43386E+06         0.32162E+06         0.00000E+00
    0.32162E+06        -0.14542E+05         0.00000E+00
    0.00000E+00         0.00000E+00        -0.89681E+05
 
   -0.40805E+06         0.32535E+06         0.00000E+00
    0.32535E+06        -0.14192E+05         0.00000E+00
    0.00000E+00         0.00000E+00        -0.84449E+05
 
   -0.38294E+06         0.32869E+06         0.00000E+00
    0.32869E+06        -0.13854E+05         0.00000E+00
    0.00000E+00         0.00000E+00        -0.79358E+05
 
   -0.35851E+06         0.33167E+06         0.00000E+00
    0.33167E+06        -0.13553E+05         0.00000E+00
    0.00000E+00         0.00000E+00        -0.74413E+05
 
   -0.33478E+06         0.33432E+06         0.00000E+00
    0.33432E+06        -0.13313E+05         0.00000E+00
    0.00000E+00         0.00000E+00        -0.69619E+05
 
   -0.31173E+06         0.33664E+06         0.00000E+00
    0.33664E+06        -0.13156E+05         0.00000E+00
    0.00000E+00         0.00000E+00        -0.64978E+05
 
   -0.28937E+06         0.33866E+06         0.00000E+00
    0.33866E+06        -0.13104E+05         0.00000E+00
    0.00000E+00         0.00000E+00        -0.60495E+05
 
   -0.26769E+06         0.34037E+06         0.00000E+00
    0.34037E+06        -0.13176E+05         0.00000E+00
    0.00000E+00         0.00000E+00        -0.56173E+05
 
   -0.24669E+06         0.34179E+06         0.00000E+00
    0.34179E+06        -0.13388E+05         0.00000E+00
    0.00000E+00         0.00000E+00        -0.52016E+05
 
   -0.22639E+06         0.34291E+06         0.00000E+00
    0.34291E+06        -0.13754E+05         0.00000E+00
    0.00000E+00         0.00000E+00        -0.48028E+05
 
   -0.20678E+06         0.34374E+06         0.00000E+00
    0.34374E+06        -0.14284E+05         0.00000E+00
    0.00000E+00         0.00000E+00        -0.44212E+05
 
   -0.18788E+06         0.34427E+06         0.00000E+00
    0.34427E+06        -0.14985E+05         0.00000E+00
    0.00000E+00         0.00000E+00        -0.40573E+05
 
   -0.16971E+06         0.34451E+06         0.00000E+00
    0.34451E+06        -0.15860E+05         0.00000E+00
    0.00000E+00         0.00000E+00        -0.37113E+05
 
   -0.15228E+06         0.34443E+06         0.00000E+00
    0.34443E+06        -0.16906E+05         0.00000E+00
    0.00000E+00         0.00000E+00        -0.33837E+05
 
   -0.13562E+06         0.34405E+06         0.00000E+00
    0.34405E+06        -0.18120E+05         0.00000E+00
    0.00000E+00         0.00000E+00        -0.30749E+05
 
   -0.11977E+06         0.34336E+06         0.00000E+00
    0.34336E+06        -0.19490E+05         0.00000E+00
    0.00000E+00         0.00000E+00        -0.27852E+05
 
   -0.10476E+06         0.34235E+06         0.00000E+00
    0.34235E+06        -0.21004E+05         0.00000E+00
    0.00000E+00         0.00000E+00        -0.25152E+05
 
   -0.90615E+05         0.34103E+06         0.00000E+00
    0.34103E+06        -0.22642E+05         0.00000E+00
    0.00000E+00         0.00000E+00        -0.22651E+05
 
   -0.77395E+05         0.33940E+06         0.00000E+00
    0.33940E+06        -0.24383E+05         0.00000E+00
    0.00000E+00         0.00000E+00        -0.20355E+05
 
   -0.65143E+05         0.33746E+06         0.00000E+00
    0.33746E+06        -0.26199E+05         0.00000E+00
    0.00000E+00         0.00000E+00        -0.18268E+05
 
   -0.53913E+05         0.33523E+06         0.00000E+00
    0.33523E+06        -0.28062E+05         0.00000E+00
    0.00000E+00         0.00000E+00        -0.16395E+05
 
   -0.43759E+05         0.33272E+06         0.00000E+00
    0.33272E+06        -0.29938E+05         0.00000E+00
    0.00000E+00         0.00000E+00        -0.14739E+05
 
   -0.34741E+05         0.32996E+06         0.00000E+00
    0.32996E+06        -0.31791E+05         0.00000E+00
    0.00000E+00         0.00000E+00        -0.13306E+05
 
   -0.26920E+05         0.32697E+06         0.00000E+00
    0.32697E+06        -0.33582E+05         0.00000E+00
    0.00000E+00         0.00000E+00        -0.12100E+05
 
   -0.20359E+05         0.32378E+06         0.00000E+00
    0.32378E+06        -0.35272E+05         0.00000E+00
    0.00000E+00         0.00000E+00        -0.11126E+05
 
   -0.15121E+05         0.32044E+06         0.00000E+00
    0.32044E+06        -0.36819E+05         0.00000E+00
    0.00000E+00         0.00000E+00        -0.10388E+05
 
   -0.11272E+05         0.31700E+06         0.00000E+00
    0.31700E+06        -0.38180E+05         0.00000E+00
    0.00000E+00         0.00000E+00        -0.98903E+04
 
   -0.10368E+07         0.14393E+05         0.00000E+00
    0.14393E+05         0.11711E+03         0.00000E+00
    0.00000E+00         0.00000E+00        -0.20734E+06
 
   -0.10117E+07         0.39832E+05         0.00000E+00
    0.39832E+05        -0.42753E+03         0.00000E+00
    0.00000E+00         0.00000E+00        -0.20242E+06
 
   -0.98568E+06         0.63873E+05         0.00000E+00
    0.63873E+05        -0.13718E+04         0.00000E+00
    0.00000E+00         0.00000E+00        -0.19741E+06
 
   -0.95900E+06         0.86548E+05         0.00000E+00
    0.86548E+05        -0.26570E+04         0.00000E+00
    0.00000E+00         0.00000E+00        -0.19233E+06
 
   -0.93175E+06         0.10789E+06         0.00000E+00
    0.10789E+06        -0.42285E+04         0.00000E+00
    0.00000E+00         0.00000E+00        -0.18720E+06
 
   -0.90403E+06         0.12793E+06         0.00000E+00
    0.12793E+06        -0.60357E+04         0.00000E+00
    0.00000E+00         0.00000E+00        -0.18201E+06
 
   -0.87595E+06         0.14672E+06         0.00000E+00
    0.14672E+06        -0.80323E+04         0.00000E+00
    0.00000E+00         0.00000E+00        -0.17680E+06
 
   -0.84760E+06         0.16429E+06         0.00000E+00
    0.16429E+06        -0.10176E+05         0.00000E+00
    0.00000E+00         0.00000E+00        -0.17156E+06
 
   -0.81908E+06         0.18068E+06         0.00000E+00
    0.18068E+06        -0.12429E+05         0.00000E+00
    0.00000E+00         0.00000E+00        -0.16630E+06
 
   -0.79046E+06         0.19595E+06         0.00000E+00
    0.19595E+06        -0.14756E+05         0.00000E+00
    0.00000E+00         0.00000E+00        -0.16104E+06
 
   -0.76183E+06         0.21014E+06         0.00000E+00
    0.21014E+06        -0.17129E+05         0.00000E+00
    0.00000E+00         0.00000E+00        -0.15579E+06
 
   -0.73326E+06         0.22330E+06         0.00000E+00
    0.22330E+06        -0.19521E+05         0.00000E+00
    0.00000E+00         0.00000E+00        -0.15056E+06
 
   -0.70481E+06         0.23547E+06         0.00000E+00
    0.23547E+06        -0.21911E+05         0.00000E+00
    0.00000E+00         0.00000E+00        -0.14534E+06
 
   -0.67655E+06         0.24670E+06         0.00000E+00
    0.24670E+06        -0.24279E+05         0.00000E+00
    0.00000E+00         0.00000E+00        -0.14017E+06
 
   -0.64853E+06         0.25704E+06         0.00000E+00
    0.25704E+06        -0.26613E+05         0.00000E+00
    0.00000E+00         0.00000E+00        -0.13503E+06
 
   -0.62081E+06         0.26654E+06         0.00000E+00
    0.26654E+06        -0.28901E+05         0.00000E+00
    0.00000E+00         0.00000E+00        -0.12994E+06
 
   -0.59341E+06         0.27524E+06         0.00000E+00
    0.27524E+06        -0.31135E+05         0.00000E+00
    0.00000E+00         0.00000E+00        -0.12491E+06
 
   -0.56639E+06         0.28319E+06         0.00000E+00
    0.28319E+06        -0.33311E+05         0.00000E+00
    0.00000E+00         0.00000E+00        -0.11994E+06
 
   -0.53979E+06         0.29043E+06         0.00000E+00
    0.29043E+06        -0.35427E+05         0.00000E+00
    0.00000E+00         0.00000E+00        -0.11504E+06
 
   -0.51362E+06         0.29700E+06         0.00000E+00
    0.29700E+06        -0.37485E+05         0.00000E+00
    0.00000E+00         0.00000E+00        -0.11022E+06
 
   -0.48792E+06         0.30294E+06         0.00000E+00
    0.30294E+06        -0.39487E+05         0.00000E+00
    0.00000E+00         0.00000E+00        -0.10548E+06
 
   -0.46272E+06         0.30830E+06         0.00000E+00
    0.30830E+06        -0.41437E+05         0.00000E+00
    0.00000E+00         0.00000E+00        -0.10083E+06
 
   -0.43802E+06         0.31310E+06         0.00000E+00
    0.31310E+06        -0.43344E+05         0.00000E+00
    0.00000E+00         0.00000E+00        -0.96274E+05
 
   -0.41386E+06         0.31738E+06         0.00000E+00
    0.31738E+06        -0.45215E+05         0.00000E+00
    0.00000E+00         0.00000E+00        -0.91816E+05
 
   -0.39025E+06         0.32117E+06         0.00000E+00
    0.32117E+06        -0.47059E+05         0.00000E+00
    0.00000E+00         0.00000E+00        -0.87462E+05
 
   -0.36720E+06         0.32449E+06         0.00000E+00
    0.32449E+06        -0.48885E+05         0.00000E+00
    0.00000E+00         0.00000E+00        -0.83218E+05
 
   -0.34473E+06         0.32737E+06         0.00000E+00
    0.32737E+06        -0.50703E+05         0.00000E+00
    0.00000E+00         0.00000E+00        -0.79087E+05
 
   -0.32285E+06         0.32984E+06         0.00000E+00
    0.32984E+06        -0.52523E+05         0.00000E+00
    0.00000E+00         0.00000E+00        -0.75074E+05
 
   -0.30157E+06         0.33192E+06         0.00000E+00
    0.33192E+06        -0.54354E+05         0.00000E+00
    0.00000E+00         0.00000E+00        -0.71184E+05
 
   -0.28090E+06         0.33361E+06         0.00000E+00
    0.33361E+06        -0.56204E+05         0.00000E+00
    0.00000E+00         0.00000E+00        -0.67421E+05
 
   -0.26086E+06         0.33495E+06         0.00000E+00
    0.33495E+06        -0.58082E+05         0.00000E+00
    0.00000E+00         0.00000E+00        -0.63788E+05
 
   -0.24145E+06         0.33594E+06         0.00000E+00
    0.33594E+06        -0.59993E+05         0.00000E+00
    0.00000E+00         0.00000E+00        -0.60289E+05
 
   -0.22270E+06         0.33660E+06         0.00000E+00
    0.33660E+06        -0.61943E+05         0.00000E+00
    0.00000E+00         0.00000E+00        -0.56929E+05
 
   -0.20462E+06         0.33694E+06         0.00000E+00
    0.33694E+06        -0.63934E+05         0.00000E+00
    0.00000E+00         0.00000E+00        -0.53711E+05
 
   -0.18723E+06         0.33697E+06         0.00000E+00
    0.33697E+06        -0.65967E+05         0.00000E+00
    0.00000E+00         0.00000E+00        -0.50639E+05
 
   -0.17054E+06         0.33671E+06         0.00000E+00
    0.33671E+06        -0.68042E+05         0.00000E+00
    0.00000E+00         0.00000E+00        -0.47716E+05
 
   -0.15458E+06         0.33616E+06         0.00000E+00
    0.33616E+06        -0.70156E+05         0.00000E+00
    0.00000E+00         0.00000E+00        -0.44946E+05
 
   -0.13936E+06         0.33534E+06         0.00000E+00
    0.33534E+06        -0.72302E+05         0.00000E+00
    0.00000E+00         0.00000E+00        -0.42333E+05
 
   -0.12492E+06         0.33426E+06         0.00000E+00
    0.33426E+06        -0.74475E+05         0.00000E+00
    0.00000E+00         0.00000E+00        -0.39879E+05
 
   -0.11128E+06         0.33293E+06         0.00000E+00
    0.33293E+06        -0.76664E+05         0.00000E+00
    0.00000E+00         0.00000E+00        -0.37589E+05
 
   -0.98467E+05         0.33136E+06         0.00000E+00
    0.33136E+06        -0.78856E+05         0.00000E+00
    0.00000E+00         0.00000E+00        -0.35465E+05
 
   -0.86514E+05         0.32958E+06         0.00000E+00
    0.32958E+06        -0.81039E+05         0.00000E+00
    0.00000E+00         0.00000E+00        -0.33511E+05
 
   -0.75451E+05         0.32761E+06         0.00000E+00
    0.32761E+06        -0.83196E+05         0.00000E+00
    0.00000E+00         0.00000E+00        -0.31729E+05
 
   -0.65313E+05         0.32547E+06         0.00000E+00
    0.32547E+06        -0.85309E+05         0.00000E+00
    0.00000E+00         0.00000E+00        -0.30124E+05
 
   -0.56132E+05         0.32318E+06         0.00000E+00
    0.32318E+06        -0.87360E+05         0.00000E+00
    0.00000E+00         0.00000E+00        -0.28698E+05
 
   -0.47944E+05         0.32077E+06         0.00000E+00
    0.32077E+06        -0.89329E+05         0.00000E+00
    0.00000E+00         0.00000E+00        -0.27455E+05
 
   -0.40784E+05         0.31829E+06         0.00000E+00
    0.31829E+06        -0.91194E+05         0.00000E+00
    0.00000E+00         0.00000E+00        -0.26396E+05
 
   -0.34685E+05         0.31576E+06         0.00000E+00
    0.31576E+06        -0.92934E+05         0.00000E+00
    0.00000E+00         0.00000E+00        -0.25524E+05
 
   -0.29682E+05         0.31323E+06         0.00000E+00
    0.31323E+06        -0.94528E+05         0.00000E+00
    0.00000E+00         0.00000E+00        -0.24842E+05
 
   -0.25807E+05         0.31075E+06         0.00000E+00
    0.31075E+06        -0.95953E+05         0.00000E+00
    0.00000E+00         0.00000E+00        -0.24352E+05
 
   -0.91213E+06         0.12892E+05         0.00000E+00
    0.12892E+05         0.13380E+03         0.00000E+00
    0.00000E+00         0.00000E+00        -0.18240E+06
 
   -0.89327E+06         0.36039E+05         0.00000E+00
    0.36039E+05        -0.43820E+03         0.00000E+00
    0.00000E+00         0.00000E+00        -0.17874E+06
 
   -0.87350E+06         0.58069E+05         0.00000E+00
    0.58069E+05        -0.14594E+04         0.00000E+00
    0.00000E+00         0.00000E+00        -0.17499E+06
 
   -0.85292E+06         0.78997E+05         0.00000E+00
    0.78997E+05        -0.28793E+04         0.00000E+00
    0.00000E+00         0.00000E+00        -0.17116E+06
 
   -0.83164E+06         0.98837E+05         0.00000E+00
    0.98837E+05        -0.46506E+04         0.00000E+00
    0.00000E+00         0.00000E+00        -0.16726E+06
 
   -0.80975E+06         0.11761E+06         0.00000E+00
    0.11761E+06        -0.67287E+04         0.00000E+00
    0.00000E+00         0.00000E+00        -0.16330E+06
 
   -0.78734E+06         0.13533E+06         0.00000E+00
    0.13533E+06        -0.90722E+04         0.00000E+00
    0.00000E+00         0.00000E+00        -0.15928E+06
 
   -0.76450E+06         0.15203E+06         0.00000E+00
    0.15203E+06        -0.11643E+05         0.00000E+00
    0.00000E+00         0.00000E+00        -0.15523E+06
 
   -0.74130E+06         0.16774E+06         0.00000E+00
    0.16774E+06        -0.14405E+05         0.00000E+00
    0.00000E+00         0.00000E+00        -0.15114E+06
 
   -0.71783E+06         0.18247E+06         0.00000E+00
    0.18247E+06        -0.17327E+05         0.00000E+00
    0.00000E+00         0.00000E+00        -0.14703E+06
 
   -0.69416E+06         0.19626E+06         0.00000E+00
    0.19626E+06        -0.20378E+05         0.00000E+00
    0.00000E+00         0.00000E+00        -0.14291E+06
 
   -0.67034E+06         0.20915E+06         0.00000E+00
    0.20915E+06        -0.23532E+05         0.00000E+00
    0.00000E+00         0.00000E+00        -0.13878E+06
 
   -0.64646E+06         0.22115E+06         0.00000E+00
    0.22115E+06        -0.26767E+05         0.00000E+00
    0.00000E+00         0.00000E+00        -0.13465E+06
 
   -0.62256E+06         0.23231E+06         0.00000E+00
    0.23231E+06        -0.30060E+05         0.00000E+00
    0.00000E+00         0.00000E+00        -0.13052E+06
 
   -0.59871E+06         0.24265E+06         0.00000E+00
    0.24265E+06        -0.33393E+05         0.00000E+00
    0.00000E+00         0.00000E+00        -0.12642E+06
 
   -0.57495E+06         0.25221E+06         0.00000E+00
    0.25221E+06        -0.36751E+05         0.00000E+00
    0.00000E+00         0.00000E+00        -0.12234E+06
 
   -0.55133E+06         0.26102E+06         0.00000E+00
    0.26102E+06        -0.40121E+05         0.00000E+00
    0.00000E+00         0.00000E+00        -0.11829E+06
 
   -0.52789E+06         0.26911E+06         0.00000E+00
    0.26911E+06        -0.43491E+05         0.00000E+00
    0.00000E+00         0.00000E+00        -0.11428E+06
 
   -0.50469E+06         0.27652E+06         0.00000E+00
    0.27652E+06        -0.46852E+05         0.00000E+00
    0.00000E+00         0.00000E+00        -0.11031E+06
 
   -0.48174E+06         0.28328E+06         0.00000E+00
    0.28328E+06        -0.50197E+05         0.00000E+00
    0.00000E+00         0.00000E+00        -0.10639E+06
 
   -0.45909E+06         0.28941E+06         0.00000E+00
    0.28941E+06        -0.53521E+05         0.00000E+00
    0.00000E+00         0.00000E+00        -0.10252E+06
 
   -0.43678E+06         0.29494E+06         0.00000E+00
    0.29494E+06        -0.56820E+05         0.00000E+00
    0.00000E+00         0.00000E+00        -0.98720E+05
 
   -0.41482E+06         0.29992E+06         0.00000E+00
    0.29992E+06        -0.60092E+05         0.00000E+00
    0.00000E+00         0.00000E+00        -0.94982E+05
 
   -0.39325E+06         0.30435E+06         0.00000E+00
    0.30435E+06        -0.63335E+05         0.00000E+00
    0.00000E+00         0.00000E+00        -0.91317E+05
 
   -0.37209E+06         0.30827E+06         0.00000E+00
    0.30827E+06        -0.66548E+05         0.00000E+00
    0.00000E+00         0.00000E+00        -0.87727E+05
 
   -0.35136E+06         0.31170E+06         0.00000E+00
    0.31170E+06        -0.69732E+05         0.00000E+00
    0.00000E+00         0.00000E+00        -0.84219E+05
 
   -0.33109E+06         0.31467E+06         0.00000E+00
    0.31467E+06        -0.72888E+05         0.00000E+00
    0.00000E+00         0.00000E+00        -0.80796E+05
 
   -0.31130E+06         0.31721E+06         0.00000E+00
    0.31721E+06        -0.76016E+05         0.00000E+00
    0.00000E+00         0.00000E+00        -0.77464E+05
 
   -0.29201E+06         0.31932E+06         0.00000E+00
    0.31932E+06        -0.79117E+05         0.00000E+00
    0.00000E+00         0.00000E+00        -0.74226E+05
 
   -0.27324E+06         0.32104E+06         0.00000E+00
    0.32104E+06        -0.82193E+05         0.00000E+00
    0.00000E+00         0.00000E+00        -0.71086E+05
 
   -0.25500E+06         0.32238E+06         0.00000E+00
    0.32238E+06        -0.85243E+05         0.00000E+00
    0.00000E+00         0.00000E+00        -0.68048E+05
 
   -0.23731E+06         0.32337E+06         0.00000E+00
    0.32337E+06        -0.88268E+05         0.00000E+00
    0.00000E+00         0.00000E+00        -0.65116E+05
 
   -0.22020E+06         0.32401E+06         0.00000E+00
    0.32401E+06        -0.91268E+05         0.00000E+00
    0.00000E+00         0.00000E+00        -0.62294E+05
 
   -0.20368E+06         0.32434E+06         0.00000E+00
    0.32434E+06        -0.94242E+05         0.00000E+00
    0.00000E+00         0.00000E+00        -0.59585E+05
 
   -0.18777E+06         0.32436E+06         0.00000E+00
    0.32436E+06        -0.97187E+05         0.00000E+00
    0.00000E+00         0.00000E+00        -0.56992E+05
 
   -0.17249E+06         0.32411E+06         0.00000E+00
    0.32411E+06        -0.10010E+06         0.00000E+00
    0.00000E+00         0.00000E+00        -0.54519E+05
 
   -0.15786E+06         0.32359E+06         0.00000E+00
    0.32359E+06        -0.10298E+06         0.00000E+00
    0.00000E+00         0.00000E+00        -0.52168E+05
 
   -0.14390E+06         0.32282E+06         0.00000E+00
    0.32282E+06        -0.10582E+06         0.00000E+00
    0.00000E+00         0.00000E+00        -0.49943E+05
 
   -0.13062E+06         0.32183E+06         0.00000E+00
    0.32183E+06        -0.10861E+06         0.00000E+00
    0.00000E+00         0.00000E+00        -0.47846E+05
 
   -0.11805E+06         0.32064E+06         0.00000E+00
    0.32064E+06        -0.11135E+06         0.00000E+00
    0.00000E+00         0.00000E+00        -0.45881E+05
 
   -0.10621E+06         0.31926E+06         0.00000E+00
    0.31926E+06        -0.11403E+06         0.00000E+00
    0.00000E+00         0.00000E+00        -0.44049E+05
 
   -0.95124E+05         0.31773E+06         0.00000E+00
    0.31773E+06        -0.11664E+06         0.00000E+00
    0.00000E+00         0.00000E+00        -0.42353E+05
 
   -0.84803E+05         0.31607E+06         0.00000E+00
    0.31607E+06        -0.11918E+06         0.00000E+00
    0.00000E+00         0.00000E+00        -0.40796E+05
 
   -0.75271E+05         0.31430E+06         0.00000E+00
    0.31430E+06        -0.12163E+06         0.00000E+00
    0.00000E+00         0.00000E+00        -0.39379E+05
 
   -0.66548E+05         0.31246E+06         0.00000E+00
    0.31246E+06        -0.12398E+06         0.00000E+00
    0.00000E+00         0.00000E+00        -0.38105E+05
 
   -0.58653E+05         0.31058E+06         0.00000E+00
    0.31058E+06        -0.12622E+06         0.00000E+00
    0.00000E+00         0.00000E+00        -0.36975E+05
 
   -0.51603E+05         0.30869E+06         0.00000E+00
    0.30869E+06        -0.12835E+06         0.00000E+00
    0.00000E+00         0.00000E+00        -0.35991E+05
 
   -0.45415E+05         0.30683E+06         0.00000E+00
    0.30683E+06        -0.13035E+06         0.00000E+00
    0.00000E+00         0.00000E+00        -0.35154E+05
 
   -0.40103E+05         0.30505E+06         0.00000E+00
    0.30505E+06        -0.13222E+06         0.00000E+00
    0.00000E+00         0.00000E+00        -0.34465E+05
 
   -0.35681E+05         0.30337E+06         0.00000E+00
    0.30337E+06        -0.13395E+06         0.00000E+00
    0.00000E+00         0.00000E+00        -0.33925E+05
 
   -0.79994E+06         0.11386E+05         0.00000E+00
    0.11386E+05         0.13881E+03         0.00000E+00
    0.00000E+00         0.00000E+00        -0.15996E+06
 
   -0.78605E+06         0.32115E+05         0.00000E+00
    0.32115E+05        -0.42502E+03         0.00000E+00
    0.00000E+00         0.00000E+00        -0.15730E+06
 
   -0.77123E+06         0.51967E+05         0.00000E+00
    0.51967E+05        -0.14506E+04         0.00000E+00
    0.00000E+00         0.00000E+00        -0.15454E+06
 
   -0.75557E+06         0.70942E+05         0.00000E+00
    0.70942E+05        -0.28952E+04         0.00000E+00
    0.00000E+00         0.00000E+00        -0.15169E+06
 
   -0.73916E+06         0.89043E+05         0.00000E+00
    0.89043E+05        -0.47182E+04         0.00000E+00
    0.00000E+00         0.00000E+00        -0.14877E+06
 
   -0.72206E+06         0.10628E+06         0.00000E+00
    0.10628E+06        -0.68813E+04         0.00000E+00
    0.00000E+00         0.00000E+00        -0.14579E+06
 
   -0.70436E+06         0.12265E+06         0.00000E+00
    0.12265E+06        -0.93479E+04         0.00000E+00
    0.00000E+00         0.00000E+00        -0.14274E+06
 
   -0.68614E+06         0.13818E+06         0.00000E+00
    0.13818E+06        -0.12084E+05         0.00000E+00
    0.00000E+00         0.00000E+00        -0.13965E+06
 
   -0.66747E+06         0.15287E+06         0.00000E+00
    0.15287E+06        -0.15057E+05         0.00000E+00
    0.00000E+00         0.00000E+00        -0.13651E+06
 
   -0.64841E+06         0.16674E+06         0.00000E+00
    0.16674E+06        -0.18238E+05         0.00000E+00
    0.00000E+00         0.00000E+00        -0.13333E+06
 
   -0.62903E+06         0.17981E+06         0.00000E+00
    0.17981E+06        -0.21597E+05         0.00000E+00
    0.00000E+00         0.00000E+00        -0.13012E+06
 
   -0.60939E+06         0.19209E+06         0.00000E+00
    0.19209E+06        -0.25111E+05         0.00000E+00
    0.00000E+00         0.00000E+00        -0.12690E+06
 
   -0.58955E+06         0.20361E+06         0.00000E+00
    0.20361E+06        -0.28754E+05         0.00000E+00
    0.00000E+00         0.00000E+00        -0.12366E+06
 
   -0.56956E+06         0.21438E+06         0.00000E+00
    0.21438E+06        -0.32506E+05         0.00000E+00
    0.00000E+00         0.00000E+00        -0.12041E+06
 
   -0.54948E+06         0.22443E+06         0.00000E+00
    0.22443E+06        -0.36346E+05         0.00000E+00
    0.00000E+00         0.00000E+00        -0.11717E+06
 
   -0.52936E+06         0.23378E+06         0.00000E+00
    0.23378E+06        -0.40256E+05         0.00000E+00
    0.00000E+00         0.00000E+00        -0.11392E+06
 
   -0.50925E+06         0.24245E+06         0.00000E+00
    0.24245E+06        -0.44221E+05         0.00000E+00
    0.00000E+00         0.00000E+00        -0.11069E+06
 
   -0.48918E+06         0.25046E+06         0.00000E+00
    0.25046E+06        -0.48225E+05         0.00000E+00
    0.00000E+00         0.00000E+00        -0.10748E+06
 
   -0.46920E+06         0.25784E+06         0.00000E+00
    0.25784E+06        -0.52256E+05         0.00000E+00
    0.00000E+00         0.00000E+00        -0.10429E+06
 
   -0.44935E+06         0.26461E+06         0.00000E+00
    0.26461E+06        -0.56303E+05         0.00000E+00
    0.00000E+00         0.00000E+00        -0.10113E+06
 
   -0.42967E+06         0.27079E+06         0.00000E+00
    0.27079E+06        -0.60354E+05         0.00000E+00
    0.00000E+00         0.00000E+00        -0.98005E+05
 
   -0.41019E+06         0.27641E+06         0.00000E+00
    0.27641E+06        -0.64402E+05         0.00000E+00
    0.00000E+00         0.00000E+00        -0.94918E+05
 
   -0.39093E+06         0.28149E+06         0.00000E+00
    0.28149E+06        -0.68439E+05         0.00000E+00
    0.00000E+00         0.00000E+00        -0.91875E+05
 
   -0.37195E+06         0.28605E+06         0.00000E+00
    0.28605E+06        -0.72458E+05         0.00000E+00
    0.00000E+00         0.00000E+00        -0.88881E+05
 
   -0.35325E+06         0.29011E+06         0.00000E+00
    0.29011E+06        -0.76452E+05         0.00000E+00
    0.00000E+00         0.00000E+00        -0.85940E+05
 
   -0.33487E+06         0.29370E+06         0.00000E+00
    0.29370E+06        -0.80417E+05         0.00000E+00
    0.00000E+00         0.00000E+00        -0.83058E+05
 
   -0.31684E+06         0.29684E+06         0.00000E+00
    0.29684E+06        -0.84348E+05         0.00000E+00
    0.00000E+00         0.00000E+00        -0.80237E+05
 
   -0.29917E+06         0.29954E+06         0.00000E+00
    0.29954E+06        -0.88241E+05         0.00000E+00
    0.00000E+00         0.00000E+00        -0.77482E+05
 
   -0.28190E+06         0.30184E+06         0.00000E+00
    0.30184E+06        -0.92093E+05         0.00000E+00
    0.00000E+00         0.00000E+00        -0.74798E+05
 
   -0.26504E+06         0.30375E+06         0.00000E+00
    0.30375E+06        -0.95898E+05         0.00000E+00
    0.00000E+00         0.00000E+00        -0.72187E+05
 
   -0.24861E+06         0.30529E+06         0.00000E+00
    0.30529E+06        -0.99655E+05         0.00000E+00
    0.00000E+00         0.00000E+00        -0.69653E+05
 
   -0.23264E+06         0.30648E+06         0.00000E+00
    0.30648E+06        -0.10336E+06         0.00000E+00
    0.00000E+00         0.00000E+00        -0.67200E+05
 
   -0.21714E+06         0.30735E+06         0.00000E+00
    0.30735E+06        -0.10701E+06         0.00000E+00
    0.00000E+00         0.00000E+00        -0.64830E+05
 
   -0.20214E+06         0.30791E+06         0.00000E+00
    0.30791E+06        -0.11060E+06         0.00000E+00
    0.00000E+00         0.00000E+00        -0.62548E+05
 
   -0.18764E+06         0.30819E+06         0.00000E+00
    0.30819E+06        -0.11413E+06         0.00000E+00
    0.00000E+00         0.00000E+00        -0.60355E+05
 
   -0.17368E+06         0.30820E+06         0.00000E+00
    0.30820E+06        -0.11759E+06         0.00000E+00
    0.00000E+00         0.00000E+00        -0.58254E+05
 
   -0.16026E+06         0.30797E+06         0.00000E+00
    0.30797E+06        -0.12098E+06         0.00000E+00
    0.00000E+00         0.00000E+00        -0.56249E+05
 
   -0.14741E+06         0.30751E+06         0.00000E+00
    0.30751E+06        -0.12430E+06         0.00000E+00
    0.00000E+00         0.00000E+00        -0.54341E+05
 
   -0.13513E+06         0.30686E+06         0.00000E+00
    0.30686E+06        -0.12754E+06         0.00000E+00
    0.00000E+00         0.00000E+00        -0.52533E+05
 
   -0.12344E+06         0.30604E+06         0.00000E+00
    0.30604E+06        -0.13069E+06         0.00000E+00
    0.00000E+00         0.00000E+00        -0.50827E+05
 
   -0.11236E+06         0.30506E+06         0.00000E+00
    0.30506E+06        -0.13376E+06         0.00000E+00
    0.00000E+00         0.00000E+00        -0.49225E+05
 
   -0.10191E+06         0.30396E+06         0.00000E+00
    0.30396E+06        -0.13674E+06         0.00000E+00
    0.00000E+00         0.00000E+00        -0.47728E+05
 
   -0.92081E+05         0.30276E+06         0.00000E+00
    0.30276E+06        -0.13961E+06         0.00000E+00
    0.00000E+00         0.00000E+00        -0.46339E+05
 
   -0.82903E+05         0.30149E+06         0.00000E+00
    0.30149E+06        -0.14239E+06         0.00000E+00
    0.00000E+00         0.00000E+00        -0.45059E+05
 
   -0.74379E+05         0.30018E+06         0.00000E+00
    0.30018E+06        -0.14506E+06         0.00000E+00
    0.00000E+00         0.00000E+00        -0.43888E+05
 
   -0.66520E+05         0.29886E+06         0.00000E+00
    0.29886E+06        -0.14762E+06         0.00000E+00
    0.00000E+00         0.00000E+00        -0.42828E+05
 
   -0.59332E+05         0.29756E+06         0.00000E+00
    0.29756E+06        -0.15007E+06         0.00000E+00
    0.00000E+00         0.00000E+00        -0.41880E+05
 
   -0.52821E+05         0.29632E+06         0.00000E+00
    0.29632E+06        -0.15240E+06         0.00000E+00
    0.00000E+00         0.00000E+00        -0.41045E+05
 
   -0.46990E+05         0.29517E+06         0.00000E+00
    0.29517E+06        -0.15462E+06         0.00000E+00
    0.00000E+00         0.00000E+00        -0.40322E+05
 
   -0.41839E+05         0.29416E+06         0.00000E+00
    0.29416E+06        -0.15672E+06         0.00000E+00
    0.00000E+00         0.00000E+00        -0.39711E+05
 
   -0.70037E+06         0.99466E+04         0.00000E+00
    0.99466E+04         0.13575E+03         0.00000E+00
    0.00000E+00         0.00000E+00        -0.14005E+06
 
   -0.69034E+06         0.28287E+05         0.00000E+00
    0.28287E+05        -0.39628E+03         0.00000E+00
    0.00000E+00         0.00000E+00        -0.13815E+06
 
   -0.67941E+06         0.45949E+05         0.00000E+00
    0.45949E+05        -0.13771E+04         0.00000E+00
    0.00000E+00         0.00000E+00        -0.13616E+06
 
   -0.66765E+06         0.62924E+05         0.00000E+00
    0.62924E+05        -0.27712E+04         0.00000E+00
    0.00000E+00         0.00000E+00        -0.13409E+06
 
   -0.65513E+06         0.79207E+05         0.00000E+00
    0.79207E+05        -0.45446E+04         0.00000E+00
    0.00000E+00         0.00000E+00        -0.13194E+06
 
   -0.64192E+06         0.94797E+05         0.00000E+00
    0.94797E+05        -0.66645E+04         0.00000E+00
    0.00000E+00         0.00000E+00        -0.12972E+06
 
   -0.62809E+06         0.10969E+06         0.00000E+00
    0.10969E+06        -0.90996E+04         0.00000E+00
    0.00000E+00         0.00000E+00        -0.12744E+06
 
   -0.61369E+06         0.12389E+06         0.00000E+00
    0.12389E+06        -0.11820E+05         0.00000E+00
    0.00000E+00         0.00000E+00        -0.12510E+06
 
   -0.59879E+06         0.13741E+06         0.00000E+00
    0.13741E+06        -0.14797E+05         0.00000E+00
    0.00000E+00         0.00000E+00        -0.12272E+06
 
   -0.58344E+06         0.15024E+06         0.00000E+00
    0.15024E+06        -0.18005E+05         0.00000E+00
    0.00000E+00         0.00000E+00        -0.12029E+06
 
   -0.56771E+06         0.16240E+06         0.00000E+00
    0.16240E+06        -0.21417E+05         0.00000E+00
    0.00000E+00         0.00000E+00        -0.11783E+06
 
   -0.55165E+06         0.17390E+06         0.00000E+00
    0.17390E+06        -0.25009E+05         0.00000E+00
    0.00000E+00         0.00000E+00        -0.11533E+06
 
   -0.53532E+06         0.18474E+06         0.00000E+00
    0.18474E+06        -0.28759E+05         0.00000E+00
    0.00000E+00         0.00000E+00        -0.11282E+06
 
   -0.51875E+06         0.19494E+06         0.00000E+00
    0.19494E+06        -0.32646E+05         0.00000E+00
    0.00000E+00         0.00000E+00        -0.11028E+06
 
   -0.50201E+06         0.20451E+06         0.00000E+00
    0.20451E+06        -0.36650E+05         0.00000E+00
    0.00000E+00         0.00000E+00        -0.10773E+06
 
   -0.48513E+06         0.21347E+06         0.00000E+00
    0.21347E+06        -0.40753E+05         0.00000E+00
    0.00000E+00         0.00000E+00        -0.10518E+06
 
   -0.46816E+06         0.22183E+06         0.00000E+00
    0.22183E+06        -0.44938E+05         0.00000E+00
    0.00000E+00         0.00000E+00        -0.10262E+06
 
   -0.45114E+06         0.22960E+06         0.00000E+00
    0.22960E+06        -0.49188E+05         0.00000E+00
    0.00000E+00         0.00000E+00        -0.10007E+06
 
   -0.43411E+06         0.23681E+06         0.00000E+00
    0.23681E+06        -0.53490E+05         0.00000E+00
    0.00000E+00         0.00000E+00        -0.97520E+05
 
   -0.41711E+06         0.24347E+06         0.00000E+00
    0.24347E+06        -0.57830E+05         0.00000E+00
    0.00000E+00         0.00000E+00        -0.94988E+05
 
   -0.40017E+06         0.24960E+06         0.00000E+00
    0.24960E+06        -0.62195E+05         0.00000E+00
    0.00000E+00         0.00000E+00        -0.92474E+05
 
   -0.38333E+06         0.25521E+06         0.00000E+00
    0.25521E+06        -0.66574E+05         0.00000E+00
    0.00000E+00         0.00000E+00        -0.89982E+05
 
   -0.36663E+06         0.26033E+06         0.00000E+00
    0.26033E+06        -0.70957E+05         0.00000E+00
    0.00000E+00         0.00000E+00        -0.87517E+05
 
   -0.35008E+06         0.26496E+06         0.00000E+00
    0.26496E+06        -0.75335E+05         0.00000E+00
    0.00000E+00         0.00000E+00        -0.85083E+05
 
   -0.33372E+06         0.26914E+06         0.00000E+00
    0.26914E+06        -0.79698E+05         0.00000E+00
    0.00000E+00         0.00000E+00        -0.82684E+05
 
   -0.31758E+06         0.27288E+06         0.00000E+00
    0.27288E+06        -0.84038E+05         0.00000E+00
    0.00000E+00         0.00000E+00        -0.80324E+05
 
   -0.30168E+06         0.27619E+06         0.00000E+00
    0.27619E+06        -0.88348E+05         0.00000E+00
    0.00000E+00         0.00000E+00        -0.78006E+05
 
   -0.28605E+06         0.27910E+06         0.00000E+00
    0.27910E+06        -0.92621E+05         0.00000E+00
    0.00000E+00         0.00000E+00        -0.75735E+05
 
   -0.27071E+06         0.28163E+06         0.00000E+00
    0.28163E+06        -0.96852E+05         0.00000E+00
    0.00000E+00         0.00000E+00        -0.73513E+05
 
   -0.25569E+06         0.28379E+06         0.00000E+00
    0.28379E+06        -0.10103E+06         0.00000E+00
    0.00000E+00         0.00000E+00        -0.71344E+05
 
   -0.24099E+06         0.28560E+06         0.00000E+00
    0.28560E+06        -0.10516E+06         0.00000E+00
    0.00000E+00         0.00000E+00        -0.69231E+05
 
   -0.22666E+06         0.28709E+06         0.00000E+00
    0.28709E+06        -0.10923E+06         0.00000E+00
    0.00000E+00         0.00000E+00        -0.67176E+05
 
   -0.21269E+06         0.28828E+06         0.00000E+00
    0.28828E+06        -0.11323E+06         0.00000E+00
    0.00000E+00         0.00000E+00        -0.65184E+05
 
   -0.19911E+06         0.28917E+06         0.00000E+00
    0.28917E+06        -0.11716E+06         0.00000E+00
    0.00000E+00         0.00000E+00        -0.63255E+05
 
   -0.18594E+06         0.28981E+06         0.00000E+00
    0.28981E+06        -0.12102E+06         0.00000E+00
    0.00000E+00         0.00000E+00        -0.61393E+05
 
   -0.17320E+06         0.29020E+06         0.00000E+00
    0.29020E+06        -0.12481E+06         0.00000E+00
    0.00000E+00         0.00000E+00        -0.59601E+05
 
   -0.16089E+06         0.29036E+06         0.00000E+00
    0.29036E+06        -0.12851E+06         0.00000E+00
    0.00000E+00         0.00000E+00        -0.57879E+05
 
   -0.14903E+06         0.29032E+06         0.00000E+00
    0.29032E+06        -0.13213E+06         0.00000E+00
    0.00000E+00         0.00000E+00        -0.56231E+05
 
   -0.13763E+06         0.29011E+06         0.00000E+00
    0.29011E+06        -0.13565E+06         0.00000E+00
    0.00000E+00         0.00000E+00        -0.54657E+05
 
   -0.12671E+06         0.28973E+06         0.00000E+00
    0.28973E+06        -0.13909E+06         0.00000E+00
    0.00000E+00         0.00000E+00        -0.53160E+05
 
   -0.11627E+06         0.28923E+06         0.00000E+00
    0.28923E+06        -0.14243E+06         0.00000E+00
    0.00000E+00         0.00000E+00        -0.51742E+05
 
   -0.10633E+06         0.28861E+06         0.00000E+00
    0.28861E+06        -0.14568E+06         0.00000E+00
    0.00000E+00         0.00000E+00        -0.50402E+05
 
   -0.96889E+05         0.28792E+06         0.00000E+00
    0.28792E+06        -0.14883E+06         0.00000E+00
    0.00000E+00         0.00000E+00        -0.49144E+05
 
   -0.87955E+05         0.28716E+06         0.00000E+00
    0.28716E+06        -0.15188E+06         0.00000E+00
    0.00000E+00         0.00000E+00        -0.47966E+05
 
   -0.79532E+05         0.28637E+06         0.00000E+00
    0.28637E+06        -0.15483E+06         0.00000E+00
    0.00000E+00         0.00000E+00        -0.46871E+05
 
   -0.71624E+05         0.28559E+06         0.00000E+00
    0.28559E+06        -0.15767E+06         0.00000E+00
    0.00000E+00         0.00000E+00        -0.45859E+05
 
   -0.64231E+05         0.28482E+06         0.00000E+00
    0.28482E+06        -0.16042E+06         0.00000E+00
    0.00000E+00         0.00000E+00        -0.44930E+05
 
   -0.57353E+05         0.28411E+06         0.00000E+00
    0.28411E+06        -0.16307E+06         0.00000E+00
    0.00000E+00         0.00000E+00        -0.44084E+05
 
   -0.50987E+05         0.28349E+06         0.00000E+00
    0.28349E+06        -0.16562E+06         0.00000E+00
    0.00000E+00         0.00000E+00        -0.43321E+05
 
   -0.45126E+05         0.28299E+06         0.00000E+00
    0.28299E+06        -0.16808E+06         0.00000E+00
    0.00000E+00         0.00000E+00        -0.42641E+05
 
   -0.61292E+06         0.86194E+04         0.00000E+00
    0.86194E+04         0.12756E+03         0.00000E+00
    0.00000E+00         0.00000E+00        -0.12256E+06
 
   -0.60583E+06         0.24699E+05         0.00000E+00
    0.24699E+05        -0.35876E+03         0.00000E+00
    0.00000E+00         0.00000E+00        -0.12124E+06
 
   -0.59791E+06         0.40263E+05         0.00000E+00
    0.40263E+05        -0.12648E+04         0.00000E+00
    0.00000E+00         0.00000E+00        -0.11983E+06
 
   -0.58919E+06         0.55298E+05         0.00000E+00
    0.55298E+05        -0.25617E+04         0.00000E+00
    0.00000E+00         0.00000E+00        -0.11835E+06
 
   -0.57976E+06         0.69793E+05         0.00000E+00
    0.69793E+05        -0.42215E+04         0.00000E+00
    0.00000E+00         0.00000E+00        -0.11680E+06
 
   -0.56965E+06         0.83742E+05         0.00000E+00
    0.83742E+05        -0.62167E+04         0.00000E+00
    0.00000E+00         0.00000E+00        -0.11517E+06
 
   -0.55892E+06         0.97137E+05         0.00000E+00
    0.97137E+05        -0.85210E+04         0.00000E+00
    0.00000E+00         0.00000E+00        -0.11349E+06
 
   -0.54763E+06         0.10998E+06         0.00000E+00
    0.10998E+06        -0.11109E+05         0.00000E+00
    0.00000E+00         0.00000E+00        -0.11175E+06
 
   -0.53583E+06         0.12226E+06         0.00000E+00
    0.12226E+06        -0.13956E+05         0.00000E+00
    0.00000E+00         0.00000E+00        -0.10996E+06
 
   -0.52357E+06         0.13398E+06         0.00000E+00
    0.13398E+06        -0.17038E+05         0.00000E+00
    0.00000E+00         0.00000E+00        -0.10812E+06
 
   -0.51090E+06         0.14514E+06         0.00000E+00
    0.14514E+06        -0.20333E+05         0.00000E+00
    0.00000E+00         0.00000E+00        -0.10625E+06
 
   -0.49786E+06         0.15576E+06         0.00000E+00
    0.15576E+06        -0.23820E+05         0.00000E+00
    0.00000E+00         0.00000E+00        -0.10434E+06
 
   -0.48450E+06         0.16582E+06         0.00000E+00
    0.16582E+06        -0.27477E+05         0.00000E+00
    0.00000E+00         0.00000E+00        -0.10239E+06
 
   -0.47086E+06         0.17534E+06         0.00000E+00
    0.17534E+06        -0.31285E+05         0.00000E+00
    0.00000E+00         0.00000E+00        -0.10043E+06
 
   -0.45699E+06         0.18433E+06         0.00000E+00
    0.18433E+06        -0.35226E+05         0.00000E+00
    0.00000E+00         0.00000E+00        -0.98443E+05
 
   -0.44293E+06         0.19279E+06         0.00000E+00
    0.19279E+06        -0.39281E+05         0.00000E+00
    0.00000E+00         0.00000E+00        -0.96442E+05
 
   -0.42871E+06         0.20073E+06         0.00000E+00
    0.20073E+06        -0.43435E+05         0.00000E+00
    0.00000E+00         0.00000E+00        -0.94430E+05
 
   -0.41438E+06         0.20817E+06         0.00000E+00
    0.20817E+06        -0.47671E+05         0.00000E+00
    0.00000E+00         0.00000E+00        -0.92411E+05
 
   -0.39997E+06         0.21511E+06         0.00000E+00
    0.21511E+06        -0.51975E+05         0.00000E+00
    0.00000E+00         0.00000E+00        -0.90390E+05
 
   -0.38552E+06         0.22157E+06         0.00000E+00
    0.22157E+06        -0.56333E+05         0.00000E+00
    0.00000E+00         0.00000E+00        -0.88370E+05
 
   -0.37105E+06         0.22755E+06         0.00000E+00
    0.22755E+06        -0.60732E+05         0.00000E+00
    0.00000E+00         0.00000E+00        -0.86356E+05
 
   -0.35660E+06         0.23308E+06         0.00000E+00
    0.23308E+06        -0.65160E+05         0.00000E+00
    0.00000E+00         0.00000E+00        -0.84352E+05
 
   -0.34220E+06         0.23817E+06         0.00000E+00
    0.23817E+06        -0.69605E+05         0.00000E+00
    0.00000E+00         0.00000E+00        -0.82361E+05
 
   -0.32788E+06         0.24282E+06         0.00000E+00
    0.24282E+06        -0.74057E+05         0.00000E+00
    0.00000E+00         0.00000E+00        -0.80387E+05
 
   -0.31366E+06         0.24707E+06         0.00000E+00
    0.24707E+06        -0.78506E+05         0.00000E+00
    0.00000E+00         0.00000E+00        -0.78434E+05
 
   -0.29958E+06         0.25091E+06         0.00000E+00
    0.25091E+06        -0.82943E+05         0.00000E+00
    0.00000E+00         0.00000E+00        -0.76504E+05
 
   -0.28565E+06         0.25437E+06         0.00000E+00
    0.25437E+06        -0.87358E+05         0.00000E+00
    0.00000E+00         0.00000E+00        -0.74602E+05
 
   -0.27190E+06         0.25746E+06         0.00000E+00
    0.25746E+06        -0.91745E+05         0.00000E+00
    0.00000E+00         0.00000E+00        -0.72729E+05
 
   -0.25835E+06         0.26021E+06         0.00000E+00
    0.26021E+06        -0.96095E+05         0.00000E+00
    0.00000E+00         0.00000E+00        -0.70889E+05
 
   -0.24502E+06         0.26262E+06         0.00000E+00
    0.26262E+06        -0.10040E+06         0.00000E+00
    0.00000E+00         0.00000E+00        -0.69085E+05
 
   -0.23194E+06         0.26471E+06         0.00000E+00
    0.26471E+06        -0.10466E+06         0.00000E+00
    0.00000E+00         0.00000E+00        -0.67320E+05
 
   -0.21911E+06         0.26650E+06         0.00000E+00
    0.26650E+06        -0.10886E+06         0.00000E+00
    0.00000E+00         0.00000E+00        -0.65595E+05
 
   -0.20657E+06         0.26802E+06         0.00000E+00
    0.26802E+06        -0.11300E+06         0.00000E+00
    0.00000E+00         0.00000E+00        -0.63914E+05
 
   -0.19431E+06         0.26927E+06         0.00000E+00
    0.26927E+06        -0.11708E+06         0.00000E+00
    0.00000E+00         0.00000E+00        -0.62278E+05
 
   -0.18237E+06         0.27027E+06         0.00000E+00
    0.27027E+06        -0.12108E+06         0.00000E+00
    0.00000E+00         0.00000E+00        -0.60689E+05
 
   -0.17074E+06         0.27105E+06         0.00000E+00
    0.27105E+06        -0.12501E+06         0.00000E+00
    0.00000E+00         0.00000E+00        -0.59150E+05
 
   -0.15945E+06         0.27163E+06         0.00000E+00
    0.27163E+06        -0.12886E+06         0.00000E+00
    0.00000E+00         0.00000E+00        -0.57662E+05
 
   -0.14850E+06         0.27202E+06         0.00000E+00
    0.27202E+06        -0.13263E+06         0.00000E+00
    0.00000E+00         0.00000E+00        -0.56227E+05
 
   -0.13791E+06         0.27224E+06         0.00000E+00
    0.27224E+06        -0.13632E+06         0.00000E+00
    0.00000E+00         0.00000E+00        -0.54846E+05
 
   -0.12769E+06         0.27232E+06         0.00000E+00
    0.27232E+06        -0.13992E+06         0.00000E+00
    0.00000E+00         0.00000E+00        -0.53520E+05
 
   -0.11783E+06         0.27228E+06         0.00000E+00
    0.27228E+06        -0.14343E+06         0.00000E+00
    0.00000E+00         0.00000E+00        -0.52251E+05
 
   -0.10835E+06         0.27213E+06         0.00000E+00
    0.27213E+06        -0.14685E+06         0.00000E+00
    0.00000E+00         0.00000E+00        -0.51040E+05
 
   -0.99252E+05         0.27191E+06         0.00000E+00
    0.27191E+06        -0.15018E+06         0.00000E+00
    0.00000E+00         0.00000E+00        -0.49887E+05
 
   -0.90537E+05         0.27163E+06         0.00000E+00
    0.27163E+06        -0.15343E+06         0.00000E+00
    0.00000E+00         0.00000E+00        -0.48793E+05
 
   -0.82208E+05         0.27131E+06         0.00000E+00
    0.27131E+06        -0.15658E+06         0.00000E+00
    0.00000E+00         0.00000E+00        -0.47758E+05
 
   -0.74264E+05         0.27099E+06         0.00000E+00
    0.27099E+06        -0.15965E+06         0.00000E+00
    0.00000E+00         0.00000E+00        -0.46783E+05
 
   -0.66702E+05         0.27068E+06         0.00000E+00
    0.27068E+06        -0.16264E+06         0.00000E+00
    0.00000E+00         0.00000E+00        -0.45868E+05
 
   -0.59518E+05         0.27041E+06         0.00000E+00
    0.27041E+06        -0.16554E+06         0.00000E+00
    0.00000E+00         0.00000E+00        -0.45012E+05
 
   -0.52706E+05         0.27020E+06         0.00000E+00
    0.27020E+06        -0.16837E+06         0.00000E+00
    0.00000E+00         0.00000E+00        -0.44215E+05
 
   -0.46257E+05         0.27008E+06         0.00000E+00
    0.27008E+06        -0.17113E+06         0.00000E+00
    0.00000E+00         0.00000E+00        -0.43477E+05
 
   -0.53669E+06         0.74272E+04         0.00000E+00
    0.74272E+04         0.11648E+03         0.00000E+00
    0.00000E+00         0.00000E+00        -0.10731E+06
 
   -0.53180E+06         0.21434E+05         0.00000E+00
    0.21434E+05        -0.31760E+03         0.00000E+00
    0.00000E+00         0.00000E+00        -0.10642E+06
 
   -0.52616E+06         0.35055E+05         0.00000E+00
    0.35055E+05        -0.11335E+04         0.00000E+00
    0.00000E+00         0.00000E+00        -0.10546E+06
 
   -0.51979E+06         0.48276E+05         0.00000E+00
    0.48276E+05        -0.23081E+04         0.00000E+00
    0.00000E+00         0.00000E+00        -0.10442E+06
 
   -0.51275E+06         0.61082E+05         0.00000E+00
    0.61082E+05        -0.38187E+04         0.00000E+00
    0.00000E+00         0.00000E+00        -0.10331E+06
 
   -0.50508E+06         0.73463E+05         0.00000E+00
    0.73463E+05        -0.56431E+04         0.00000E+00
    0.00000E+00         0.00000E+00        -0.10215E+06
 
   -0.49683E+06         0.85409E+05         0.00000E+00
    0.85409E+05        -0.77593E+04         0.00000E+00
    0.00000E+00         0.00000E+00        -0.10092E+06
 
   -0.48804E+06         0.96915E+05         0.00000E+00
    0.96915E+05        -0.10146E+05         0.00000E+00
    0.00000E+00         0.00000E+00        -0.99638E+05
 
   -0.47875E+06         0.10797E+06         0.00000E+00
    0.10797E+06        -0.12783E+05         0.00000E+00
    0.00000E+00         0.00000E+00        -0.98307E+05
 
   -0.46901E+06         0.11858E+06         0.00000E+00
    0.11858E+06        -0.15649E+05         0.00000E+00
    0.00000E+00         0.00000E+00        -0.96932E+05
 
   -0.45885E+06         0.12873E+06         0.00000E+00
    0.12873E+06        -0.18725E+05         0.00000E+00
    0.00000E+00         0.00000E+00        -0.95515E+05
 
   -0.44832E+06         0.13843E+06         0.00000E+00
    0.13843E+06        -0.21992E+05         0.00000E+00
    0.00000E+00         0.00000E+00        -0.94062E+05
 
   -0.43745E+06         0.14768E+06         0.00000E+00
    0.14768E+06        -0.25432E+05         0.00000E+00
    0.00000E+00         0.00000E+00        -0.92576E+05
 
   -0.42628E+06         0.15647E+06         0.00000E+00
    0.15647E+06        -0.29028E+05         0.00000E+00
    0.00000E+00         0.00000E+00        -0.91061E+05
 
   -0.41485E+06         0.16482E+06         0.00000E+00
    0.16482E+06        -0.32762E+05         0.00000E+00
    0.00000E+00         0.00000E+00        -0.89522E+05
 
   -0.40319E+06         0.17272E+06         0.00000E+00
    0.17272E+06        -0.36619E+05         0.00000E+00
    0.00000E+00         0.00000E+00        -0.87962E+05
 
   -0.39134E+06         0.18019E+06         0.00000E+00
    0.18019E+06        -0.40583E+05         0.00000E+00
    0.00000E+00         0.00000E+00        -0.86385E+05
 
   -0.37933E+06         0.18722E+06         0.00000E+00
    0.18722E+06        -0.44639E+05         0.00000E+00
    0.00000E+00         0.00000E+00        -0.84794E+05
 
   -0.36719E+06         0.19382E+06         0.00000E+00
    0.19382E+06        -0.48773E+05         0.00000E+00
    0.00000E+00         0.00000E+00        -0.83193E+05
 
   -0.35496E+06         0.20001E+06         0.00000E+00
    0.20001E+06        -0.52973E+05         0.00000E+00
    0.00000E+00         0.00000E+00        -0.81586E+05
 
   -0.34266E+06         0.20579E+06         0.00000E+00
    0.20579E+06        -0.57225E+05         0.00000E+00
    0.00000E+00         0.00000E+00        -0.79976E+05
 
   -0.33032E+06         0.21118E+06         0.00000E+00
    0.21118E+06        -0.61517E+05         0.00000E+00
    0.00000E+00         0.00000E+00        -0.78367E+05
 
   -0.31796E+06         0.21617E+06         0.00000E+00
    0.21617E+06        -0.65838E+05         0.00000E+00
    0.00000E+00         0.00000E+00        -0.76760E+05
 
   -0.30562E+06         0.22079E+06         0.00000E+00
    0.22079E+06        -0.70178E+05         0.00000E+00
    0.00000E+00         0.00000E+00        -0.75160E+05
 
   -0.29332E+06         0.22504E+06         0.00000E+00
    0.22504E+06        -0.74527E+05         0.00000E+00
    0.00000E+00         0.00000E+00        -0.73569E+05
 
   -0.28108E+06         0.22894E+06         0.00000E+00
    0.22894E+06        -0.78874E+05         0.00000E+00
    0.00000E+00         0.00000E+00        -0.71990E+05
 
   -0.26892E+06         0.23249E+06         0.00000E+00
    0.23249E+06        -0.83212E+05         0.00000E+00
    0.00000E+00         0.00000E+00        -0.70426E+05
 
   -0.25687E+06         0.23572E+06         0.00000E+00
    0.23572E+06        -0.87532E+05         0.00000E+00
    0.00000E+00         0.00000E+00        -0.68880E+05
 
   -0.24494E+06         0.23864E+06         0.00000E+00
    0.23864E+06        -0.91826E+05         0.00000E+00
    0.00000E+00         0.00000E+00        -0.67353E+05
 
   -0.23316E+06         0.24126E+06         0.00000E+00
    0.24126E+06        -0.96087E+05         0.00000E+00
    0.00000E+00         0.00000E+00        -0.65848E+05
 
   -0.22153E+06         0.24359E+06         0.00000E+00
    0.24359E+06        -0.10031E+06         0.00000E+00
    0.00000E+00         0.00000E+00        -0.64368E+05
 
   -0.21009E+06         0.24565E+06         0.00000E+00
    0.24565E+06        -0.10448E+06         0.00000E+00
    0.00000E+00         0.00000E+00        -0.62914E+05
 
   -0.19884E+06         0.24746E+06         0.00000E+00
    0.24746E+06        -0.10861E+06         0.00000E+00
    0.00000E+00         0.00000E+00        -0.61489E+05
 
   -0.18779E+06         0.24902E+06         0.00000E+00
    0.24902E+06        -0.11268E+06         0.00000E+00
    0.00000E+00         0.00000E+00        -0.60094E+05
 
   -0.17696E+06         0.25037E+06         0.00000E+00
    0.25037E+06        -0.11669E+06         0.00000E+00
    0.00000E+00         0.00000E+00        -0.58731E+05
 
   -0.16637E+06         0.25151E+06         0.00000E+00
    0.25151E+06        -0.12063E+06         0.00000E+00
    0.00000E+00         0.00000E+00        -0.57401E+05
 
   -0.15602E+06         0.25246E+06         0.00000E+00
    0.25246E+06        -0.12451E+06         0.00000E+00
    0.00000E+00         0.00000E+00        -0.56106E+05
 
   -0.14592E+06         0.25323E+06         0.00000E+00
    0.25323E+06        -0.12832E+06         0.00000E+00
    0.00000E+00         0.00000E+00        -0.54847E+05
 
   -0.13608E+06         0.25385E+06         0.00000E+00
    0.25385E+06        -0.13205E+06         0.00000E+00
    0.00000E+00         0.00000E+00        -0.53626E+05
 
   -0.12650E+06         0.25434E+06         0.00000E+00
    0.25434E+06        -0.13571E+06         0.00000E+00
    0.00000E+00         0.00000E+00        -0.52443E+05
 
   -0.11720E+06         0.25471E+06         0.00000E+00
    0.25471E+06        -0.13929E+06         0.00000E+00
    0.00000E+00         0.00000E+00        -0.51299E+05
 
   -0.10817E+06         0.25497E+06         0.00000E+00
    0.25497E+06        -0.14280E+06         0.00000E+00
    0.00000E+00         0.00000E+00        -0.50195E+05
 
   -0.99422E+05         0.25516E+06         0.00000E+00
    0.25516E+06        -0.14623E+06         0.00000E+00
    0.00000E+00         0.00000E+00        -0.49131E+05
 
   -0.90950E+05         0.25529E+06         0.00000E+00
    0.25529E+06        -0.14959E+06         0.00000E+00
    0.00000E+00         0.00000E+00        -0.48108E+05
 
   -0.82756E+05         0.25537E+06         0.00000E+00
    0.25537E+06        -0.15288E+06         0.00000E+00
    0.00000E+00         0.00000E+00        -0.47127E+05
 
   -0.74838E+05         0.25543E+06         0.00000E+00
    0.25543E+06        -0.15609E+06         0.00000E+00
    0.00000E+00         0.00000E+00        -0.46186E+05
 
   -0.67192E+05         0.25548E+06         0.00000E+00
    0.25548E+06        -0.15924E+06         0.00000E+00
    0.00000E+00         0.00000E+00        -0.45287E+05
 
   -0.59813E+05         0.25555E+06         0.00000E+00
    0.25555E+06        -0.16233E+06         0.00000E+00
    0.00000E+00         0.00000E+00        -0.44428E+05
 
   -0.52694E+05         0.25566E+06         0.00000E+00
    0.25566E+06        -0.16536E+06         0.00000E+00
    0.00000E+00         0.00000E+00        -0.43610E+05
 
   -0.45825E+05         0.25582E+06         0.00000E+00
    0.25582E+06        -0.16833E+06         0.00000E+00
    0.00000E+00         0.00000E+00        -0.42831E+05
 
   -0.47058E+06         0.63778E+04         0.00000E+00
    0.63778E+04         0.10413E+03         0.00000E+00
    0.00000E+00         0.00000E+00        -0.94095E+05
 
   -0.46731E+06         0.18527E+05         0.00000E+00
    0.18527E+05        -0.27633E+03         0.00000E+00
    0.00000E+00         0.00000E+00        -0.93518E+05
 
   -0.46337E+06         0.30394E+05         0.00000E+00
    0.30394E+05        -0.99697E+03         0.00000E+00
    0.00000E+00         0.00000E+00        -0.92873E+05
 
   -0.45878E+06         0.41961E+05         0.00000E+00
    0.41961E+05        -0.20397E+04         0.00000E+00
    0.00000E+00         0.00000E+00        -0.92164E+05
 
   -0.45358E+06         0.53216E+05         0.00000E+00
    0.53216E+05        -0.33864E+04         0.00000E+00
    0.00000E+00         0.00000E+00        -0.91393E+05
 
   -0.44781E+06         0.64145E+05         0.00000E+00
    0.64145E+05        -0.50193E+04         0.00000E+00
    0.00000E+00         0.00000E+00        -0.90566E+05
 
   -0.44150E+06         0.74737E+05         0.00000E+00
    0.74737E+05        -0.69204E+04         0.00000E+00
    0.00000E+00         0.00000E+00        -0.89684E+05
 
   -0.43469E+06         0.84983E+05         0.00000E+00
    0.84983E+05        -0.90725E+04         0.00000E+00
    0.00000E+00         0.00000E+00        -0.88752E+05
 
   -0.42741E+06         0.94876E+05         0.00000E+00
    0.94876E+05        -0.11458E+05         0.00000E+00
    0.00000E+00         0.00000E+00        -0.87773E+05
 
   -0.41969E+06         0.10441E+06         0.00000E+00
    0.10441E+06        -0.14061E+05         0.00000E+00
    0.00000E+00         0.00000E+00        -0.86751E+05
 
   -0.41158E+06         0.11358E+06         0.00000E+00
    0.11358E+06        -0.16863E+05         0.00000E+00
    0.00000E+00         0.00000E+00        -0.85688E+05
 
   -0.40310E+06         0.12238E+06         0.00000E+00
    0.12238E+06        -0.19850E+05         0.00000E+00
    0.00000E+00         0.00000E+00        -0.84589E+05
 
   -0.39428E+06         0.13081E+06         0.00000E+00
    0.13081E+06        -0.23005E+05         0.00000E+00
    0.00000E+00         0.00000E+00        -0.83457E+05
 
   -0.38516E+06         0.13887E+06         0.00000E+00
    0.13887E+06        -0.26314E+05         0.00000E+00
    0.00000E+00         0.00000E+00        -0.82295E+05
 
   -0.37577E+06         0.14656E+06         0.00000E+00
    0.14656E+06        -0.29760E+05         0.00000E+00
    0.00000E+00         0.00000E+00        -0.81105E+05
 
   -0.36613E+06         0.15388E+06         0.00000E+00
    0.15388E+06        -0.33331E+05         0.00000E+00
    0.00000E+00         0.00000E+00        -0.79892E+05
 
   -0.35628E+06         0.16083E+06         0.00000E+00
    0.16083E+06        -0.37012E+05         0.00000E+00
    0.00000E+00         0.00000E+00        -0.78658E+05
 
   -0.34624E+06         0.16742E+06         0.00000E+00
    0.16742E+06        -0.40791E+05         0.00000E+00
    0.00000E+00         0.00000E+00        -0.77407E+05
 
   -0.33605E+06         0.17365E+06         0.00000E+00
    0.17365E+06        -0.44653E+05         0.00000E+00
    0.00000E+00         0.00000E+00        -0.76140E+05
 
   -0.32572E+06         0.17952E+06         0.00000E+00
    0.17952E+06        -0.48588E+05         0.00000E+00
    0.00000E+00         0.00000E+00        -0.74862E+05
 
   -0.31529E+06         0.18504E+06         0.00000E+00
    0.18504E+06        -0.52583E+05         0.00000E+00
    0.00000E+00         0.00000E+00        -0.73574E+05
 
   -0.30477E+06         0.19023E+06         0.00000E+00
    0.19023E+06        -0.56628E+05         0.00000E+00
    0.00000E+00         0.00000E+00        -0.72280E+05
 
   -0.29420E+06         0.19508E+06         0.00000E+00
    0.19508E+06        -0.60711E+05         0.00000E+00
    0.00000E+00         0.00000E+00        -0.70982E+05
 
   -0.28359E+06         0.19960E+06         0.00000E+00
    0.19960E+06        -0.64823E+05         0.00000E+00
    0.00000E+00         0.00000E+00        -0.69683E+05
 
   -0.27297E+06         0.20380E+06         0.00000E+00
    0.20380E+06        -0.68954E+05         0.00000E+00
    0.00000E+00         0.00000E+00        -0.68384E+05
 
   -0.26235E+06         0.20770E+06         0.00000E+00
    0.20770E+06        -0.73095E+05         0.00000E+00
    0.00000E+00         0.00000E+00        -0.67089E+05
 
   -0.25176E+06         0.21130E+06         0.00000E+00
    0.21130E+06        -0.77237E+05         0.00000E+00
    0.00000E+00         0.00000E+00        -0.65799E+05
 
   -0.24121E+06         0.21460E+06         0.00000E+00
    0.21460E+06        -0.81374E+05         0.00000E+00
    0.00000E+00         0.00000E+00        -0.64518E+05
 
   -0.23073E+06         0.21764E+06         0.00000E+00
    0.21764E+06        -0.85496E+05         0.00000E+00
    0.00000E+00         0.00000E+00        -0.63245E+05
 
   -0.22033E+06         0.22040E+06         0.00000E+00
    0.22040E+06        -0.89598E+05         0.00000E+00
    0.00000E+00         0.00000E+00        -0.61985E+05
 
   -0.21001E+06         0.22291E+06         0.00000E+00
    0.22291E+06        -0.93673E+05         0.00000E+00
    0.00000E+00         0.00000E+00        -0.60738E+05
 
   -0.19981E+06         0.22518E+06         0.00000E+00
    0.22518E+06        -0.97716E+05         0.00000E+00
    0.00000E+00         0.00000E+00        -0.59506E+05
 
   -0.18973E+06         0.22722E+06         0.00000E+00
    0.22722E+06        -0.10172E+06         0.00000E+00
    0.00000E+00         0.00000E+00        -0.58291E+05
 
   -0.17979E+06         0.22905E+06         0.00000E+00
    0.22905E+06        -0.10568E+06         0.00000E+00
    0.00000E+00         0.00000E+00        -0.57094E+05
 
   -0.16999E+06         0.23067E+06         0.00000E+00
    0.23067E+06        -0.10960E+06         0.00000E+00
    0.00000E+00         0.00000E+00        -0.55916E+05
 
   -0.16034E+06         0.23211E+06         0.00000E+00
    0.23211E+06        -0.11346E+06         0.00000E+00
    0.00000E+00         0.00000E+00        -0.54760E+05
 
   -0.15086E+06         0.23337E+06         0.00000E+00
    0.23337E+06        -0.11727E+06         0.00000E+00
    0.00000E+00         0.00000E+00        -0.53626E+05
 
   -0.14155E+06         0.23446E+06         0.00000E+00
    0.23446E+06        -0.12102E+06         0.00000E+00
    0.00000E+00         0.00000E+00        -0.52514E+05
 
   -0.13242E+06         0.23542E+06         0.00000E+00
    0.23542E+06        -0.12472E+06         0.00000E+00
    0.00000E+00         0.00000E+00        -0.51427E+05
 
   -0.12347E+06         0.23624E+06         0.00000E+00
    0.23624E+06        -0.12835E+06         0.00000E+00
    0.00000E+00         0.00000E+00        -0.50364E+05
 
   -0.11471E+06         0.23695E+06         0.00000E+00
    0.23695E+06        -0.13193E+06         0.00000E+00
    0.00000E+00         0.00000E+00        -0.49327E+05
 
   -0.10614E+06         0.23755E+06         0.00000E+00
    0.23755E+06        -0.13544E+06         0.00000E+00
    0.00000E+00         0.00000E+00        -0.48316E+05
 
   -0.97756E+05         0.23807E+06         0.00000E+00
    0.23807E+06        -0.13890E+06         0.00000E+00
    0.00000E+00         0.00000E+00        -0.47331E+05
 
   -0.89569E+05         0.23852E+06         0.00000E+00
    0.23852E+06        -0.14230E+06         0.00000E+00
    0.00000E+00         0.00000E+00        -0.46373E+05
 
   -0.81572E+05         0.23892E+06         0.00000E+00
    0.23892E+06        -0.14564E+06         0.00000E+00
    0.00000E+00         0.00000E+00        -0.45442E+05
 
   -0.73763E+05         0.23928E+06         0.00000E+00
    0.23928E+06        -0.14892E+06         0.00000E+00
    0.00000E+00         0.00000E+00        -0.44537E+05
 
   -0.66138E+05         0.23962E+06         0.00000E+00
    0.23962E+06        -0.15216E+06         0.00000E+00
    0.00000E+00         0.00000E+00        -0.43659E+05
 
   -0.58692E+05         0.23995E+06         0.00000E+00
    0.23995E+06        -0.15534E+06         0.00000E+00
    0.00000E+00         0.00000E+00        -0.42807E+05
 
   -0.51416E+05         0.24029E+06         0.00000E+00
    0.24029E+06        -0.15849E+06         0.00000E+00
    0.00000E+00         0.00000E+00        -0.41981E+05
 
   -0.44303E+05         0.24065E+06         0.00000E+00
    0.24065E+06        -0.16160E+06         0.00000E+00
    0.00000E+00         0.00000E+00        -0.41181E+05
 
   -0.41343E+06         0.54682E+04         0.00000E+00
    0.54682E+04         0.91606E+02         0.00000E+00
    0.00000E+00         0.00000E+00        -0.82668E+05
 
   -0.41133E+06         0.15982E+05         0.00000E+00
    0.15982E+05        -0.23724E+03         0.00000E+00
    0.00000E+00         0.00000E+00        -0.82313E+05
 
   -0.40863E+06         0.26293E+05         0.00000E+00
    0.26293E+05        -0.86448E+03         0.00000E+00
    0.00000E+00         0.00000E+00        -0.81900E+05
 
   -0.40537E+06         0.36385E+05         0.00000E+00
    0.36385E+05        -0.17761E+04         0.00000E+00
    0.00000E+00         0.00000E+00        -0.81429E+05
 
   -0.40156E+06         0.46243E+05         0.00000E+00
    0.46243E+05        -0.29581E+04         0.00000E+00
    0.00000E+00         0.00000E+00        -0.80904E+05
 
   -0.39724E+06         0.55855E+05         0.00000E+00
    0.55855E+05        -0.43963E+04         0.00000E+00
    0.00000E+00         0.00000E+00        -0.80327E+05
 
   -0.39243E+06         0.65210E+05         0.00000E+00
    0.65210E+05        -0.60765E+04         0.00000E+00
    0.00000E+00         0.00000E+00        -0.79702E+05
 
   -0.38717E+06         0.74297E+05         0.00000E+00
    0.74297E+05        -0.79845E+04         0.00000E+00
    0.00000E+00         0.00000E+00        -0.79031E+05
 
   -0.38148E+06         0.83108E+05         0.00000E+00
    0.83108E+05        -0.10107E+05         0.00000E+00
    0.00000E+00         0.00000E+00        -0.78317E+05
 
   -0.37538E+06         0.91635E+05         0.00000E+00
    0.91635E+05        -0.12428E+05         0.00000E+00
    0.00000E+00         0.00000E+00        -0.77562E+05
 
   -0.36891E+06         0.99873E+05         0.00000E+00
    0.99873E+05        -0.14937E+05         0.00000E+00
    0.00000E+00         0.00000E+00        -0.76769E+05
 
   -0.36209E+06         0.10782E+06         0.00000E+00
    0.10782E+06        -0.17618E+05         0.00000E+00
    0.00000E+00         0.00000E+00        -0.75941E+05
 
   -0.35494E+06         0.11546E+06         0.00000E+00
    0.11546E+06        -0.20459E+05         0.00000E+00
    0.00000E+00         0.00000E+00        -0.75080E+05
 
   -0.34750E+06         0.12280E+06         0.00000E+00
    0.12280E+06        -0.23446E+05         0.00000E+00
    0.00000E+00         0.00000E+00        -0.74189E+05
 
   -0.33979E+06         0.12984E+06         0.00000E+00
    0.12984E+06        -0.26568E+05         0.00000E+00
    0.00000E+00         0.00000E+00        -0.73271E+05
 
   -0.33183E+06         0.13657E+06         0.00000E+00
    0.13657E+06        -0.29811E+05         0.00000E+00
    0.00000E+00         0.00000E+00        -0.72328E+05
 
   -0.32365E+06         0.14301E+06         0.00000E+00
    0.14301E+06        -0.33164E+05         0.00000E+00
    0.00000E+00         0.00000E+00        -0.71362E+05
 
   -0.31526E+06         0.14913E+06         0.00000E+00
    0.14913E+06        -0.36615E+05         0.00000E+00
    0.00000E+00         0.00000E+00        -0.70376E+05
 
   -0.30671E+06         0.15496E+06         0.00000E+00
    0.15496E+06        -0.40152E+05         0.00000E+00
    0.00000E+00         0.00000E+00        -0.69372E+05
 
   -0.29800E+06         0.16049E+06         0.00000E+00
    0.16049E+06        -0.43766E+05         0.00000E+00
    0.00000E+00         0.00000E+00        -0.68353E+05
 
   -0.28916E+06         0.16573E+06         0.00000E+00
    0.16573E+06        -0.47446E+05         0.00000E+00
    0.00000E+00         0.00000E+00        -0.67321E+05
 
   -0.28020E+06         0.17067E+06         0.00000E+00
    0.17067E+06        -0.51181E+05         0.00000E+00
    0.00000E+00         0.00000E+00        -0.66277E+05
 
   -0.27116E+06         0.17533E+06         0.00000E+00
    0.17533E+06        -0.54962E+05         0.00000E+00
    0.00000E+00         0.00000E+00        -0.65225E+05
 
   -0.26205E+06         0.17971E+06         0.00000E+00
    0.17971E+06        -0.58779E+05         0.00000E+00
    0.00000E+00         0.00000E+00        -0.64165E+05
 
   -0.25288E+06         0.18381E+06         0.00000E+00
    0.18381E+06        -0.62625E+05         0.00000E+00
    0.00000E+00         0.00000E+00        -0.63101E+05
 
   -0.24368E+06         0.18765E+06         0.00000E+00
    0.18765E+06        -0.66491E+05         0.00000E+00
    0.00000E+00         0.00000E+00        -0.62034E+05
 
   -0.23446E+06         0.19123E+06         0.00000E+00
    0.19123E+06        -0.70369E+05         0.00000E+00
    0.00000E+00         0.00000E+00        -0.60965E+05
 
   -0.22523E+06         0.19456E+06         0.00000E+00
    0.19456E+06        -0.74252E+05         0.00000E+00
    0.00000E+00         0.00000E+00        -0.59897E+05
 
   -0.21602E+06         0.19765E+06         0.00000E+00
    0.19765E+06        -0.78133E+05         0.00000E+00
    0.00000E+00         0.00000E+00        -0.58831E+05
 
   -0.20684E+06         0.20050E+06         0.00000E+00
    0.20050E+06        -0.82006E+05         0.00000E+00
    0.00000E+00         0.00000E+00        -0.57769E+05
 
   -0.19770E+06         0.20313E+06         0.00000E+00
    0.20313E+06        -0.85864E+05         0.00000E+00
    0.00000E+00         0.00000E+00        -0.56712E+05
 
   -0.18861E+06         0.20554E+06         0.00000E+00
    0.20554E+06        -0.89702E+05         0.00000E+00
    0.00000E+00         0.00000E+00        -0.55661E+05
 
   -0.17958E+06         0.20775E+06         0.00000E+00
    0.20775E+06        -0.93516E+05         0.00000E+00
    0.00000E+00         0.00000E+00        -0.54619E+05
 
   -0.17063E+06         0.20977E+06         0.00000E+00
    0.20977E+06        -0.97301E+05         0.00000E+00
    0.00000E+00         0.00000E+00        -0.53585E+05
 
   -0.16176E+06         0.21160E+06         0.00000E+00
    0.21160E+06        -0.10105E+06         0.00000E+00
    0.00000E+00         0.00000E+00        -0.52562E+05
 
   -0.15298E+06         0.21325E+06         0.00000E+00
    0.21325E+06        -0.10477E+06         0.00000E+00
    0.00000E+00         0.00000E+00        -0.51550E+05
 
   -0.14431E+06         0.21475E+06         0.00000E+00
    0.21475E+06        -0.10844E+06         0.00000E+00
    0.00000E+00         0.00000E+00        -0.50550E+05
 
   -0.13574E+06         0.21610E+06         0.00000E+00
    0.21610E+06        -0.11208E+06         0.00000E+00
    0.00000E+00         0.00000E+00        -0.49564E+05
 
   -0.12728E+06         0.21731E+06         0.00000E+00
    0.21731E+06        -0.11567E+06         0.00000E+00
    0.00000E+00         0.00000E+00        -0.48590E+05
 
   -0.11894E+06         0.21839E+06         0.00000E+00
    0.21839E+06        -0.11922E+06         0.00000E+00
    0.00000E+00         0.00000E+00        -0.47632E+05
 
   -0.11072E+06         0.21936E+06         0.00000E+00
    0.21936E+06        -0.12272E+06         0.00000E+00
    0.00000E+00         0.00000E+00        -0.46688E+05
 
   -0.10262E+06         0.22023E+06         0.00000E+00
    0.22023E+06        -0.12617E+06         0.00000E+00
    0.00000E+00         0.00000E+00        -0.45759E+05
 
   -0.94641E+05         0.22101E+06         0.00000E+00
    0.22101E+06        -0.12959E+06         0.00000E+00
    0.00000E+00         0.00000E+00        -0.44846E+05
 
   -0.86786E+05         0.22171E+06         0.00000E+00
    0.22171E+06        -0.13295E+06         0.00000E+00
    0.00000E+00         0.00000E+00        -0.43948E+05
 
   -0.79052E+05         0.22234E+06         0.00000E+00
    0.22234E+06        -0.13628E+06         0.00000E+00
    0.00000E+00         0.00000E+00        -0.43066E+05
 
   -0.71436E+05         0.22293E+06         0.00000E+00
    0.22293E+06        -0.13957E+06         0.00000E+00
    0.00000E+00         0.00000E+00        -0.42200E+05
 
   -0.63935E+05         0.22347E+06         0.00000E+00
    0.22347E+06        -0.14282E+06         0.00000E+00
    0.00000E+00         0.00000E+00        -0.41350E+05
 
   -0.56543E+05         0.22398E+06         0.00000E+00
    0.22398E+06        -0.14603E+06         0.00000E+00
    0.00000E+00         0.00000E+00        -0.40515E+05
 
   -0.49255E+05         0.22448E+06         0.00000E+00
    0.22448E+06        -0.14922E+06         0.00000E+00
    0.00000E+00         0.00000E+00        -0.39695E+05
 
   -0.42064E+05         0.22497E+06         0.00000E+00
    0.22497E+06        -0.15239E+06         0.00000E+00
    0.00000E+00         0.00000E+00        -0.38890E+05
 
   -0.36409E+06         0.46891E+04         0.00000E+00
    0.46891E+04         0.79627E+02         0.00000E+00
    0.00000E+00         0.00000E+00        -0.72802E+05
 
   -0.36281E+06         0.13782E+05         0.00000E+00
    0.13782E+05        -0.20163E+03         0.00000E+00
    0.00000E+00         0.00000E+00        -0.72602E+05
 
   -0.36101E+06         0.22733E+05         0.00000E+00
    0.22733E+05        -0.74156E+03         0.00000E+00
    0.00000E+00         0.00000E+00        -0.72350E+05
 
   -0.35871E+06         0.31525E+05         0.00000E+00
    0.31525E+05        -0.15296E+04         0.00000E+00
    0.00000E+00         0.00000E+00        -0.72049E+05
 
   -0.35595E+06         0.40147E+05         0.00000E+00
    0.40147E+05        -0.25549E+04         0.00000E+00
    0.00000E+00         0.00000E+00        -0.71700E+05
 
   -0.35272E+06         0.48585E+05         0.00000E+00
    0.48585E+05        -0.38064E+04         0.00000E+00
    0.00000E+00         0.00000E+00        -0.71306E+05
 
   -0.34907E+06         0.56828E+05         0.00000E+00
    0.56828E+05        -0.52731E+04         0.00000E+00
    0.00000E+00         0.00000E+00        -0.70868E+05
 
   -0.34500E+06         0.64867E+05         0.00000E+00
    0.64867E+05        -0.69438E+04         0.00000E+00
    0.00000E+00         0.00000E+00        -0.70389E+05
 
   -0.34055E+06         0.72692E+05         0.00000E+00
    0.72692E+05        -0.88072E+04         0.00000E+00
    0.00000E+00         0.00000E+00        -0.69871E+05
 
   -0.33572E+06         0.80296E+05         0.00000E+00
    0.80296E+05        -0.10852E+05         0.00000E+00
    0.00000E+00         0.00000E+00        -0.69315E+05
 
   -0.33056E+06         0.87671E+05         0.00000E+00
    0.87671E+05        -0.13068E+05         0.00000E+00
    0.00000E+00         0.00000E+00        -0.68725E+05
 
   -0.32506E+06         0.94813E+05         0.00000E+00
    0.94813E+05        -0.15442E+05         0.00000E+00
    0.00000E+00         0.00000E+00        -0.68101E+05
 
   -0.31927E+06         0.10171E+06         0.00000E+00
    0.10171E+06        -0.17965E+05         0.00000E+00
    0.00000E+00         0.00000E+00        -0.67447E+05
 
   -0.31319E+06         0.10837E+06         0.00000E+00
    0.10837E+06        -0.20626E+05         0.00000E+00
    0.00000E+00         0.00000E+00        -0.66763E+05
 
   -0.30685E+06         0.11479E+06         0.00000E+00
    0.11479E+06        -0.23414E+05         0.00000E+00
    0.00000E+00         0.00000E+00        -0.66053E+05
 
   -0.30027E+06         0.12095E+06         0.00000E+00
    0.12095E+06        -0.26318E+05         0.00000E+00
    0.00000E+00         0.00000E+00        -0.65317E+05
 
   -0.29347E+06         0.12687E+06         0.00000E+00
    0.12687E+06        -0.29328E+05         0.00000E+00
    0.00000E+00         0.00000E+00        -0.64559E+05
 
   -0.28646E+06         0.13254E+06         0.00000E+00
    0.13254E+06        -0.32435E+05         0.00000E+00
    0.00000E+00         0.00000E+00        -0.63779E+05
 
   -0.27927E+06         0.13795E+06         0.00000E+00
    0.13795E+06        -0.35629E+05         0.00000E+00
    0.00000E+00         0.00000E+00        -0.62980E+05
 
   -0.27192E+06         0.14312E+06         0.00000E+00
    0.14312E+06        -0.38900E+05         0.00000E+00
    0.00000E+00         0.00000E+00        -0.62164E+05
 
   -0.26442E+06         0.14804E+06         0.00000E+00
    0.14804E+06        -0.42240E+05         0.00000E+00
    0.00000E+00         0.00000E+00        -0.61332E+05
 
   -0.25679E+06         0.15272E+06         0.00000E+00
    0.15272E+06        -0.45639E+05         0.00000E+00
    0.00000E+00         0.00000E+00        -0.60486E+05
 
   -0.24905E+06         0.15716E+06         0.00000E+00
    0.15716E+06        -0.49089E+05         0.00000E+00
    0.00000E+00         0.00000E+00        -0.59628E+05
 
   -0.24122E+06         0.16136E+06         0.00000E+00
    0.16136E+06        -0.52582E+05         0.00000E+00
    0.00000E+00         0.00000E+00        -0.58760E+05
 
   -0.23330E+06         0.16532E+06         0.00000E+00
    0.16532E+06        -0.56111E+05         0.00000E+00
    0.00000E+00         0.00000E+00        -0.57882E+05
 
   -0.22532E+06         0.16906E+06         0.00000E+00
    0.16906E+06        -0.59668E+05         0.00000E+00
    0.00000E+00         0.00000E+00        -0.56997E+05
 
   -0.21728E+06         0.17257E+06         0.00000E+00
    0.17257E+06        -0.63245E+05         0.00000E+00
    0.00000E+00         0.00000E+00        -0.56106E+05
 
   -0.20921E+06         0.17587E+06         0.00000E+00
    0.17587E+06        -0.66838E+05         0.00000E+00
    0.00000E+00         0.00000E+00        -0.55210E+05
 
   -0.20111E+06         0.17895E+06         0.00000E+00
    0.17895E+06        -0.70438E+05         0.00000E+00
    0.00000E+00         0.00000E+00        -0.54311E+05
 
   -0.19301E+06         0.18183E+06         0.00000E+00
    0.18183E+06        -0.74042E+05         0.00000E+00
    0.00000E+00         0.00000E+00        -0.53409E+05
 
   -0.18489E+06         0.18451E+06         0.00000E+00
    0.18451E+06        -0.77642E+05         0.00000E+00
    0.00000E+00         0.00000E+00        -0.52507E+05
 
   -0.17679E+06         0.18700E+06         0.00000E+00
    0.18700E+06        -0.81235E+05         0.00000E+00
    0.00000E+00         0.00000E+00        -0.51606E+05
 
   -0.16871E+06         0.18931E+06         0.00000E+00
    0.18931E+06        -0.84815E+05         0.00000E+00
    0.00000E+00         0.00000E+00        -0.50705E+05
 
   -0.16066E+06         0.19145E+06         0.00000E+00
    0.19145E+06        -0.88380E+05         0.00000E+00
    0.00000E+00         0.00000E+00        -0.49807E+05
 
   -0.15264E+06         0.19342E+06         0.00000E+00
    0.19342E+06        -0.91925E+05         0.00000E+00
    0.00000E+00         0.00000E+00        -0.48912E+05
 
   -0.14466E+06         0.19523E+06         0.00000E+00
    0.19523E+06        -0.95447E+05         0.00000E+00
    0.00000E+00         0.00000E+00        -0.48021E+05
 
   -0.13673E+06         0.19689E+06         0.00000E+00
    0.19689E+06        -0.98943E+05         0.00000E+00
    0.00000E+00         0.00000E+00        -0.47135E+05
 
   -0.12886E+06         0.19841E+06         0.00000E+00
    0.19841E+06        -0.10241E+06         0.00000E+00
    0.00000E+00         0.00000E+00        -0.46254E+05
 
   -0.12105E+06         0.19981E+06         0.00000E+00
    0.19981E+06        -0.10585E+06         0.00000E+00
    0.00000E+00         0.00000E+00        -0.45380E+05
 
   -0.11330E+06         0.20108E+06         0.00000E+00
    0.20108E+06        -0.10926E+06         0.00000E+00
    0.00000E+00         0.00000E+00        -0.44511E+05
 
   -0.10561E+06         0.20224E+06         0.00000E+00
    0.20224E+06        -0.11264E+06         0.00000E+00
    0.00000E+00         0.00000E+00        -0.43650E+05
 
   -0.97996E+05         0.20330E+06         0.00000E+00
    0.20330E+06        -0.11598E+06         0.00000E+00
    0.00000E+00         0.00000E+00        -0.42796E+05
 
   -0.90447E+05         0.20426E+06         0.00000E+00
    0.20426E+06        -0.11930E+06         0.00000E+00
    0.00000E+00         0.00000E+00        -0.41949E+05
 
   -0.82967E+05         0.20514E+06         0.00000E+00
    0.20514E+06        -0.12258E+06         0.00000E+00
    0.00000E+00         0.00000E+00        -0.41110E+05
 
   -0.75554E+05         0.20595E+06         0.00000E+00
    0.20595E+06        -0.12584E+06         0.00000E+00
    0.00000E+00         0.00000E+00        -0.40279E+05
 
   -0.68206E+05         0.20669E+06         0.00000E+00
    0.20669E+06        -0.12907E+06         0.00000E+00
    0.00000E+00         0.00000E+00        -0.39455E+05
 
   -0.60921E+05         0.20737E+06         0.00000E+00
    0.20737E+06        -0.13227E+06         0.00000E+00
    0.00000E+00         0.00000E+00        -0.38639E+05
 
   -0.53693E+05         0.20801E+06         0.00000E+00
    0.20801E+06        -0.13546E+06         0.00000E+00
    0.00000E+00         0.00000E+00        -0.37830E+05
 
   -0.46518E+05         0.20861E+06         0.00000E+00
    0.20861E+06        -0.13862E+06         0.00000E+00
    0.00000E+00         0.00000E+00        -0.37028E+05
 
   -0.39389E+05         0.20918E+06         0.00000E+00
    0.20918E+06        -0.14177E+06         0.00000E+00
    0.00000E+00         0.00000E+00        -0.36232E+05
 
   -0.32148E+06         0.40277E+04         0.00000E+00
    0.40277E+04         0.68605E+02         0.00000E+00
    0.00000E+00         0.00000E+00        -0.64282E+05
 
   -0.32076E+06         0.11898E+05         0.00000E+00
    0.11898E+05        -0.17010E+03         0.00000E+00
    0.00000E+00         0.00000E+00        -0.64185E+05
 
   -0.31959E+06         0.19671E+05         0.00000E+00
    0.19671E+05        -0.63112E+03         0.00000E+00
    0.00000E+00         0.00000E+00        -0.64044E+05
 
   -0.31800E+06         0.27333E+05         0.00000E+00
    0.27333E+05        -0.13066E+04         0.00000E+00
    0.00000E+00         0.00000E+00        -0.63860E+05
 
   -0.31599E+06         0.34871E+05         0.00000E+00
    0.34871E+05        -0.21883E+04         0.00000E+00
    0.00000E+00         0.00000E+00        -0.63635E+05
 
   -0.31358E+06         0.42275E+05         0.00000E+00
    0.42275E+05        -0.32678E+04         0.00000E+00
    0.00000E+00         0.00000E+00        -0.63370E+05
 
   -0.31080E+06         0.49533E+05         0.00000E+00
    0.49533E+05        -0.45366E+04         0.00000E+00
    0.00000E+00         0.00000E+00        -0.63067E+05
 
   -0.30765E+06         0.56636E+05         0.00000E+00
    0.56636E+05        -0.59860E+04         0.00000E+00
    0.00000E+00         0.00000E+00        -0.62727E+05
 
   -0.30416E+06         0.63575E+05         0.00000E+00
    0.63575E+05        -0.76070E+04         0.00000E+00
    0.00000E+00         0.00000E+00        -0.62352E+05
 
   -0.30033E+06         0.70343E+05         0.00000E+00
    0.70343E+05        -0.93909E+04         0.00000E+00
    0.00000E+00         0.00000E+00        -0.61944E+05
 
   -0.29619E+06         0.76933E+05         0.00000E+00
    0.76933E+05        -0.11329E+05         0.00000E+00
    0.00000E+00         0.00000E+00        -0.61504E+05
 
   -0.29175E+06         0.83338E+05         0.00000E+00
    0.83338E+05        -0.13411E+05         0.00000E+00
    0.00000E+00         0.00000E+00        -0.61033E+05
 
   -0.28704E+06         0.89554E+05         0.00000E+00
    0.89554E+05        -0.15630E+05         0.00000E+00
    0.00000E+00         0.00000E+00        -0.60533E+05
 
   -0.28206E+06         0.95575E+05         0.00000E+00
    0.95575E+05        -0.17976E+05         0.00000E+00
    0.00000E+00         0.00000E+00        -0.60006E+05
 
   -0.27683E+06         0.10140E+06         0.00000E+00
    0.10140E+06        -0.20440E+05         0.00000E+00
    0.00000E+00         0.00000E+00        -0.59454E+05
 
   -0.27137E+06         0.10702E+06         0.00000E+00
    0.10702E+06        -0.23014E+05         0.00000E+00
    0.00000E+00         0.00000E+00        -0.58877E+05
 
   -0.26570E+06         0.11244E+06         0.00000E+00
    0.11244E+06        -0.25689E+05         0.00000E+00
    0.00000E+00         0.00000E+00        -0.58278E+05
 
   -0.25983E+06         0.11765E+06         0.00000E+00
    0.11765E+06        -0.28457E+05         0.00000E+00
    0.00000E+00         0.00000E+00        -0.57657E+05
 
   -0.25377E+06         0.12266E+06         0.00000E+00
    0.12266E+06        -0.31310E+05         0.00000E+00
    0.00000E+00         0.00000E+00        -0.57017E+05
 
   -0.24755E+06         0.12746E+06         0.00000E+00
    0.12746E+06        -0.34239E+05         0.00000E+00
    0.00000E+00         0.00000E+00        -0.56358E+05
 
   -0.24118E+06         0.13206E+06         0.00000E+00
    0.13206E+06        -0.37238E+05         0.00000E+00
    0.00000E+00         0.00000E+00        -0.55683E+05
 
   -0.23466E+06         0.13646E+06         0.00000E+00
    0.13646E+06        -0.40298E+05         0.00000E+00
    0.00000E+00         0.00000E+00        -0.54992E+05
 
   -0.22802E+06         0.14065E+06         0.00000E+00
    0.14065E+06        -0.43413E+05         0.00000E+00
    0.00000E+00         0.00000E+00        -0.54287E+05
 
   -0.22127E+06         0.14463E+06         0.00000E+00
    0.14463E+06        -0.46575E+05         0.00000E+00
    0.00000E+00         0.00000E+00        -0.53569E+05
 
   -0.21442E+06         0.14843E+06         0.00000E+00
    0.14843E+06        -0.49777E+05         0.00000E+00
    0.00000E+00         0.00000E+00        -0.52840E+05
 
   -0.20749E+06         0.15202E+06         0.00000E+00
    0.15202E+06        -0.53014E+05         0.00000E+00
    0.00000E+00         0.00000E+00        -0.52100E+05
 
   -0.20048E+06         0.15543E+06         0.00000E+00
    0.15543E+06        -0.56279E+05         0.00000E+00
    0.00000E+00         0.00000E+00        -0.51351E+05
 
   -0.19340E+06         0.15864E+06         0.00000E+00
    0.15864E+06        -0.59566E+05         0.00000E+00
    0.00000E+00         0.00000E+00        -0.50594E+05
 
   -0.18628E+06         0.16167E+06         0.00000E+00
    0.16167E+06        -0.62871E+05         0.00000E+00
    0.00000E+00         0.00000E+00        -0.49830E+05
 
   -0.17911E+06         0.16453E+06         0.00000E+00
    0.16453E+06        -0.66187E+05         0.00000E+00
    0.00000E+00         0.00000E+00        -0.49059E+05
 
   -0.17191E+06         0.16721E+06         0.00000E+00
    0.16721E+06        -0.69510E+05         0.00000E+00
    0.00000E+00         0.00000E+00        -0.48284E+05
 
   -0.16469E+06         0.16972E+06         0.00000E+00
    0.16972E+06        -0.72836E+05         0.00000E+00
    0.00000E+00         0.00000E+00        -0.47505E+05
 
   -0.15745E+06         0.17207E+06         0.00000E+00
    0.17207E+06        -0.76161E+05         0.00000E+00
    0.00000E+00         0.00000E+00        -0.46722E+05
 
   -0.15020E+06         0.17427E+06         0.00000E+00
    0.17427E+06        -0.79481E+05         0.00000E+00
    0.00000E+00         0.00000E+00        -0.45936E+05
 
   -0.14295E+06         0.17631E+06         0.00000E+00
    0.17631E+06        -0.82793E+05         0.00000E+00
    0.00000E+00         0.00000E+00        -0.45149E+05
 
   -0.13571E+06         0.17821E+06         0.00000E+00
    0.17821E+06        -0.86094E+05         0.00000E+00
    0.00000E+00         0.00000E+00        -0.44360E+05
 
   -0.12847E+06         0.17998E+06         0.00000E+00
    0.17998E+06        -0.89381E+05         0.00000E+00
    0.00000E+00         0.00000E+00        -0.43571E+05
 
   -0.12126E+06         0.18161E+06         0.00000E+00
    0.18161E+06        -0.92653E+05         0.00000E+00
    0.00000E+00         0.00000E+00        -0.42782E+05
 
   -0.11406E+06         0.18312E+06         0.00000E+00
    0.18312E+06        -0.95908E+05         0.00000E+00
    0.00000E+00         0.00000E+00        -0.41993E+05
 
   -0.10688E+06         0.18452E+06         0.00000E+00
    0.18452E+06        -0.99145E+05         0.00000E+00
    0.00000E+00         0.00000E+00        -0.41205E+05
 
   -0.99729E+05         0.18580E+06         0.00000E+00
    0.18580E+06        -0.10236E+06         0.00000E+00
    0.00000E+00         0.00000E+00        -0.40418E+05
 
   -0.92604E+05         0.18698E+06         0.00000E+00
    0.18698E+06        -0.10556E+06         0.00000E+00
    0.00000E+00         0.00000E+00        -0.39633E+05
 
   -0.85505E+05         0.18807E+06         0.00000E+00
    0.18807E+06        -0.10874E+06         0.00000E+00
    0.00000E+00         0.00000E+00        -0.38849E+05
 
   -0.78435E+05         0.18907E+06         0.00000E+00
    0.18907E+06        -0.11190E+06         0.00000E+00
    0.00000E+00         0.00000E+00        -0.38067E+05
 
   -0.71391E+05         0.18998E+06         0.00000E+00
    0.18998E+06        -0.11504E+06         0.00000E+00
    0.00000E+00         0.00000E+00        -0.37286E+05
 
   -0.64372E+05         0.19083E+06         0.00000E+00
    0.19083E+06        -0.11817E+06         0.00000E+00
    0.00000E+00         0.00000E+00        -0.36508E+05
 
   -0.57377E+05         0.19160E+06         0.00000E+00
    0.19160E+06        -0.12128E+06         0.00000E+00
    0.00000E+00         0.00000E+00        -0.35731E+05
 
   -0.50401E+05         0.19232E+06         0.00000E+00
    0.19232E+06        -0.12437E+06         0.00000E+00
    0.00000E+00         0.00000E+00        -0.34955E+05
 
   -0.43441E+05         0.19298E+06         0.00000E+00
    0.19298E+06        -0.12746E+06         0.00000E+00
    0.00000E+00         0.00000E+00        -0.34181E+05
 
   -0.36493E+05         0.19359E+06         0.00000E+00
    0.19359E+06        -0.13054E+06         0.00000E+00
    0.00000E+00         0.00000E+00        -0.33408E+05
 
   -0.28462E+06         0.34697E+04         0.00000E+00
    0.34697E+04         0.58742E+02         0.00000E+00
    0.00000E+00         0.00000E+00        -0.56912E+05
 
   -0.28427E+06         0.10296E+05         0.00000E+00
    0.10296E+05        -0.14279E+03         0.00000E+00
    0.00000E+00         0.00000E+00        -0.56882E+05
 
   -0.28354E+06         0.17058E+05         0.00000E+00
    0.17058E+05        -0.53422E+03         0.00000E+00
    0.00000E+00         0.00000E+00        -0.56814E+05
 
   -0.28244E+06         0.23743E+05         0.00000E+00
    0.23743E+05        -0.11098E+04         0.00000E+00
    0.00000E+00         0.00000E+00        -0.56709E+05
 
   -0.28098E+06         0.30340E+05         0.00000E+00
    0.30340E+05        -0.18634E+04         0.00000E+00
    0.00000E+00         0.00000E+00        -0.56569E+05
 
   -0.27918E+06         0.36840E+05         0.00000E+00
    0.36840E+05        -0.27888E+04         0.00000E+00
    0.00000E+00         0.00000E+00        -0.56394E+05
 
   -0.27705E+06         0.43232E+05         0.00000E+00
    0.43232E+05        -0.38795E+04         0.00000E+00
    0.00000E+00         0.00000E+00        -0.56185E+05
 
   -0.27459E+06         0.49508E+05         0.00000E+00
    0.49508E+05        -0.51286E+04         0.00000E+00
    0.00000E+00         0.00000E+00        -0.55945E+05
 
   -0.27184E+06         0.55660E+05         0.00000E+00
    0.55660E+05        -0.65294E+04         0.00000E+00
    0.00000E+00         0.00000E+00        -0.55673E+05
 
   -0.26878E+06         0.61680E+05         0.00000E+00
    0.61680E+05        -0.80749E+04         0.00000E+00
    0.00000E+00         0.00000E+00        -0.55371E+05
 
   -0.26545E+06         0.67561E+05         0.00000E+00
    0.67561E+05        -0.97580E+04         0.00000E+00
    0.00000E+00         0.00000E+00        -0.55041E+05
 
   -0.26184E+06         0.73298E+05         0.00000E+00
    0.73298E+05        -0.11572E+05         0.00000E+00
    0.00000E+00         0.00000E+00        -0.54683E+05
 
   -0.25798E+06         0.78885E+05         0.00000E+00
    0.78885E+05        -0.13509E+05         0.00000E+00
    0.00000E+00         0.00000E+00        -0.54298E+05
 
   -0.25388E+06         0.84317E+05         0.00000E+00
    0.84317E+05        -0.15562E+05         0.00000E+00
    0.00000E+00         0.00000E+00        -0.53889E+05
 
   -0.24955E+06         0.89591E+05         0.00000E+00
    0.89591E+05        -0.17724E+05         0.00000E+00
    0.00000E+00         0.00000E+00        -0.53455E+05
 
   -0.24501E+06         0.94702E+05         0.00000E+00
    0.94702E+05        -0.19988E+05         0.00000E+00
    0.00000E+00         0.00000E+00        -0.52999E+05
 
   -0.24026E+06         0.99649E+05         0.00000E+00
    0.99649E+05        -0.22348E+05         0.00000E+00
    0.00000E+00         0.00000E+00        -0.52521E+05
 
   -0.23532E+06         0.10443E+06         0.00000E+00
    0.10443E+06        -0.24795E+05         0.00000E+00
    0.00000E+00         0.00000E+00        -0.52022E+05
 
   -0.23020E+06         0.10904E+06         0.00000E+00
    0.10904E+06        -0.27324E+05         0.00000E+00
    0.00000E+00         0.00000E+00        -0.51504E+05
 
   -0.22491E+06         0.11348E+06         0.00000E+00
    0.11348E+06        -0.29927E+05         0.00000E+00
    0.00000E+00         0.00000E+00        -0.50968E+05
 
   -0.21947E+06         0.11775E+06         0.00000E+00
    0.11775E+06        -0.32599E+05         0.00000E+00
    0.00000E+00         0.00000E+00        -0.50414E+05
 
   -0.21389E+06         0.12185E+06         0.00000E+00
    0.12185E+06        -0.35333E+05         0.00000E+00
    0.00000E+00         0.00000E+00        -0.49845E+05
 
   -0.20818E+06         0.12578E+06         0.00000E+00
    0.12578E+06        -0.38122E+05         0.00000E+00
    0.00000E+00         0.00000E+00        -0.49260E+05
 
   -0.20235E+06         0.12954E+06         0.00000E+00
    0.12954E+06        -0.40961E+05         0.00000E+00
    0.00000E+00         0.00000E+00        -0.48662E+05
 
   -0.19641E+06         0.13313E+06         0.00000E+00
    0.13313E+06        -0.43845E+05         0.00000E+00
    0.00000E+00         0.00000E+00        -0.48050E+05
 
   -0.19036E+06         0.13656E+06         0.00000E+00
    0.13656E+06        -0.46767E+05         0.00000E+00
    0.00000E+00         0.00000E+00        -0.47426E+05
 
   -0.18423E+06         0.13982E+06         0.00000E+00
    0.13982E+06        -0.49722E+05         0.00000E+00
    0.00000E+00         0.00000E+00        -0.46791E+05
 
   -0.17802E+06         0.14292E+06         0.00000E+00
    0.14292E+06        -0.52706E+05         0.00000E+00
    0.00000E+00         0.00000E+00        -0.46146E+05
 
   -0.17174E+06         0.14587E+06         0.00000E+00
    0.14587E+06        -0.55713E+05         0.00000E+00
    0.00000E+00         0.00000E+00        -0.45491E+05
 
   -0.16540E+06         0.14865E+06         0.00000E+00
    0.14865E+06        -0.58740E+05         0.00000E+00
    0.00000E+00         0.00000E+00        -0.44827E+05
 
   -0.15900E+06         0.15129E+06         0.00000E+00
    0.15129E+06        -0.61782E+05         0.00000E+00
    0.00000E+00         0.00000E+00        -0.44156E+05
 
   -0.15255E+06         0.15377E+06         0.00000E+00
    0.15377E+06        -0.64835E+05         0.00000E+00
    0.00000E+00         0.00000E+00        -0.43477E+05
 
   -0.14607E+06         0.15612E+06         0.00000E+00
    0.15612E+06        -0.67895E+05         0.00000E+00
    0.00000E+00         0.00000E+00        -0.42792E+05
 
   -0.13954E+06         0.15832E+06         0.00000E+00
    0.15832E+06        -0.70961E+05         0.00000E+00
    0.00000E+00         0.00000E+00        -0.42101E+05
 
   -0.13300E+06         0.16038E+06         0.00000E+00
    0.16038E+06        -0.74027E+05         0.00000E+00
    0.00000E+00         0.00000E+00        -0.41405E+05
 
   -0.12642E+06         0.16232E+06         0.00000E+00
    0.16232E+06        -0.77093E+05         0.00000E+00
    0.00000E+00         0.00000E+00        -0.40703E+05
 
   -0.11983E+06         0.16413E+06         0.00000E+00
    0.16413E+06        -0.80155E+05         0.00000E+00
    0.00000E+00         0.00000E+00        -0.39998E+05
 
   -0.11323E+06         0.16582E+06         0.00000E+00
    0.16582E+06        -0.83212E+05         0.00000E+00
    0.00000E+00         0.00000E+00        -0.39288E+05
 
   -0.10662E+06         0.16739E+06         0.00000E+00
    0.16739E+06        -0.86262E+05         0.00000E+00
    0.00000E+00         0.00000E+00        -0.38575E+05
 
   -0.99992E+05         0.16885E+06         0.00000E+00
    0.16885E+06        -0.89304E+05         0.00000E+00
    0.00000E+00         0.00000E+00        -0.37859E+05
 
   -0.93364E+05         0.17020E+06         0.00000E+00
    0.17020E+06        -0.92337E+05         0.00000E+00
    0.00000E+00         0.00000E+00        -0.37140E+05
 
   -0.86732E+05         0.17145E+06         0.00000E+00
    0.17145E+06        -0.95360E+05         0.00000E+00
    0.00000E+00         0.00000E+00        -0.36418E+05
 
   -0.80097E+05         0.17261E+06         0.00000E+00
    0.17261E+06        -0.98373E+05         0.00000E+00
    0.00000E+00         0.00000E+00        -0.35694E+05
 
   -0.73460E+05         0.17368E+06         0.00000E+00
    0.17368E+06        -0.10138E+06         0.00000E+00
    0.00000E+00         0.00000E+00        -0.34967E+05
 
   -0.66819E+05         0.17466E+06         0.00000E+00
    0.17466E+06        -0.10437E+06         0.00000E+00
    0.00000E+00         0.00000E+00        -0.34238E+05
 
   -0.60176E+05         0.17556E+06         0.00000E+00
    0.17556E+06        -0.10736E+06         0.00000E+00
    0.00000E+00         0.00000E+00        -0.33507E+05
 
   -0.53527E+05         0.17638E+06         0.00000E+00
    0.17638E+06        -0.11034E+06         0.00000E+00
    0.00000E+00         0.00000E+00        -0.32773E+05
 
   -0.46872E+05         0.17713E+06         0.00000E+00
    0.17713E+06        -0.11331E+06         0.00000E+00
    0.00000E+00         0.00000E+00        -0.32037E+05
 
   -0.40206E+05         0.17782E+06         0.00000E+00
    0.17782E+06        -0.11628E+06         0.00000E+00
    0.00000E+00         0.00000E+00        -0.31298E+05
 
   -0.33528E+05         0.17844E+06         0.00000E+00
    0.17844E+06        -0.11925E+06         0.00000E+00
    0.00000E+00         0.00000E+00        -0.30556E+05
 
   -0.25265E+06         0.30008E+04         0.00000E+00
    0.30008E+04         0.50095E+02         0.00000E+00
    0.00000E+00         0.00000E+00        -0.50520E+05
 
   -0.25253E+06         0.89395E+04         0.00000E+00
    0.89395E+04        -0.11952E+03         0.00000E+00
    0.00000E+00         0.00000E+00        -0.50530E+05
 
   -0.25209E+06         0.14837E+05         0.00000E+00
    0.14837E+05        -0.45071E+03         0.00000E+00
    0.00000E+00         0.00000E+00        -0.50508E+05
 
   -0.25133E+06         0.20683E+05         0.00000E+00
    0.20683E+05        -0.93937E+03         0.00000E+00
    0.00000E+00         0.00000E+00        -0.50455E+05
 
   -0.25027E+06         0.26468E+05         0.00000E+00
    0.26468E+05        -0.15811E+04         0.00000E+00
    0.00000E+00         0.00000E+00        -0.50370E+05
 
   -0.24891E+06         0.32183E+05         0.00000E+00
    0.32183E+05        -0.23712E+04         0.00000E+00
    0.00000E+00         0.00000E+00        -0.50256E+05
 
   -0.24726E+06         0.37820E+05         0.00000E+00
    0.37820E+05        -0.33048E+04         0.00000E+00
    0.00000E+00         0.00000E+00        -0.50113E+05
 
   -0.24533E+06         0.43370E+05         0.00000E+00
    0.43370E+05        -0.43767E+04         0.00000E+00
    0.00000E+00         0.00000E+00        -0.49942E+05
 
   -0.24313E+06         0.48826E+05         0.00000E+00
    0.48826E+05        -0.55819E+04         0.00000E+00
    0.00000E+00         0.00000E+00        -0.49743E+05
 
   -0.24068E+06         0.54181E+05         0.00000E+00
    0.54181E+05        -0.69148E+04         0.00000E+00
    0.00000E+00         0.00000E+00        -0.49518E+05
 
   -0.23797E+06         0.59429E+05         0.00000E+00
    0.59429E+05        -0.83699E+04         0.00000E+00
    0.00000E+00         0.00000E+00        -0.49267E+05
 
   -0.23502E+06         0.64564E+05         0.00000E+00
    0.64564E+05        -0.99417E+04         0.00000E+00
    0.00000E+00         0.00000E+00        -0.48992E+05
 
   -0.23184E+06         0.69581E+05         0.00000E+00
    0.69581E+05        -0.11625E+05         0.00000E+00
    0.00000E+00         0.00000E+00        -0.48692E+05
 
   -0.22844E+06         0.74476E+05         0.00000E+00
    0.74476E+05        -0.13413E+05         0.00000E+00
    0.00000E+00         0.00000E+00        -0.48370E+05
 
   -0.22483E+06         0.79244E+05         0.00000E+00
    0.79244E+05        -0.15300E+05         0.00000E+00
    0.00000E+00         0.00000E+00        -0.48025E+05
 
   -0.22102E+06         0.83881E+05         0.00000E+00
    0.83881E+05        -0.17282E+05         0.00000E+00
    0.00000E+00         0.00000E+00        -0.47660E+05
 
   -0.21702E+06         0.88385E+05         0.00000E+00
    0.88385E+05        -0.19352E+05         0.00000E+00
    0.00000E+00         0.00000E+00        -0.47274E+05
 
   -0.21284E+06         0.92753E+05         0.00000E+00
    0.92753E+05        -0.21504E+05         0.00000E+00
    0.00000E+00         0.00000E+00        -0.46868E+05
 
   -0.20849E+06         0.96982E+05         0.00000E+00
    0.96982E+05        -0.23734E+05         0.00000E+00
    0.00000E+00         0.00000E+00        -0.46444E+05
 
   -0.20398E+06         0.10107E+06         0.00000E+00
    0.10107E+06        -0.26035E+05         0.00000E+00
    0.00000E+00         0.00000E+00        -0.46003E+05
 
   -0.19932E+06         0.10502E+06         0.00000E+00
    0.10502E+06        -0.28402E+05         0.00000E+00
    0.00000E+00         0.00000E+00        -0.45544E+05
 
   -0.19452E+06         0.10883E+06         0.00000E+00
    0.10883E+06        -0.30830E+05         0.00000E+00
    0.00000E+00         0.00000E+00        -0.45069E+05
 
   -0.18958E+06         0.11249E+06         0.00000E+00
    0.11249E+06        -0.33314E+05         0.00000E+00
    0.00000E+00         0.00000E+00        -0.44579E+05
 
   -0.18453E+06         0.11601E+06         0.00000E+00
    0.11601E+06        -0.35849E+05         0.00000E+00
    0.00000E+00         0.00000E+00        -0.44075E+05
 
   -0.17936E+06         0.11939E+06         0.00000E+00
    0.11939E+06        -0.38429E+05         0.00000E+00
    0.00000E+00         0.00000E+00        -0.43557E+05
 
   -0.17408E+06         0.12263E+06         0.00000E+00
    0.12263E+06        -0.41051E+05         0.00000E+00
    0.00000E+00         0.00000E+00        -0.43026E+05
 
   -0.16870E+06         0.12573E+06         0.00000E+00
    0.12573E+06        -0.43710E+05         0.00000E+00
    0.00000E+00         0.00000E+00        -0.42483E+05
 
   -0.16324E+06         0.12868E+06         0.00000E+00
    0.12868E+06        -0.46402E+05         0.00000E+00
    0.00000E+00         0.00000E+00        -0.41928E+05
 
   -0.15769E+06         0.13150E+06         0.00000E+00
    0.13150E+06        -0.49122E+05         0.00000E+00
    0.00000E+00         0.00000E+00        -0.41362E+05
 
   -0.15206E+06         0.13419E+06         0.00000E+00
    0.13419E+06        -0.51867E+05         0.00000E+00
    0.00000E+00         0.00000E+00        -0.40786E+05
 
   -0.14637E+06         0.13674E+06         0.00000E+00
    0.13674E+06        -0.54633E+05         0.00000E+00
    0.00000E+00         0.00000E+00        -0.40201E+05
 
   -0.14061E+06         0.13916E+06         0.00000E+00
    0.13916E+06        -0.57417E+05         0.00000E+00
    0.00000E+00         0.00000E+00        -0.39606E+05
 
   -0.13480E+06         0.14145E+06         0.00000E+00
    0.14145E+06        -0.60215E+05         0.00000E+00
    0.00000E+00         0.00000E+00        -0.39003E+05
 
   -0.12893E+06         0.14362E+06         0.00000E+00
    0.14362E+06        -0.63025E+05         0.00000E+00
    0.00000E+00         0.00000E+00        -0.38391E+05
 
   -0.12302E+06         0.14567E+06         0.00000E+00
    0.14567E+06        -0.65844E+05         0.00000E+00
    0.00000E+00         0.00000E+00        -0.37772E+05
 
   -0.11706E+06         0.14759E+06         0.00000E+00
    0.14759E+06        -0.68670E+05         0.00000E+00
    0.00000E+00         0.00000E+00        -0.37146E+05
 
   -0.11106E+06         0.14940E+06         0.00000E+00
    0.14940E+06        -0.71501E+05         0.00000E+00
    0.00000E+00         0.00000E+00        -0.36513E+05
 
   -0.10503E+06         0.15110E+06         0.00000E+00
    0.15110E+06        -0.74334E+05         0.00000E+00
    0.00000E+00         0.00000E+00        -0.35874E+05
 
   -0.98973E+05         0.15268E+06         0.00000E+00
    0.15268E+06        -0.77169E+05         0.00000E+00
    0.00000E+00         0.00000E+00        -0.35228E+05
 
   -0.92882E+05         0.15417E+06         0.00000E+00
    0.15417E+06        -0.80004E+05         0.00000E+00
    0.00000E+00         0.00000E+00        -0.34577E+05
 
   -0.86764E+05         0.15555E+06         0.00000E+00
    0.15555E+06        -0.82838E+05         0.00000E+00
    0.00000E+00         0.00000E+00        -0.33920E+05
 
   -0.80620E+05         0.15683E+06         0.00000E+00
    0.15683E+06        -0.85670E+05         0.00000E+00
    0.00000E+00         0.00000E+00        -0.33258E+05
 
   -0.74452E+05         0.15801E+06         0.00000E+00
    0.15801E+06        -0.88499E+05         0.00000E+00
    0.00000E+00         0.00000E+00        -0.32590E+05
 
   -0.68261E+05         0.15911E+06         0.00000E+00
    0.15911E+06        -0.91327E+05         0.00000E+00
    0.00000E+00         0.00000E+00        -0.31918E+05
 
   -0.62047E+05         0.16011E+06         0.00000E+00
    0.16011E+06        -0.94152E+05         0.00000E+00
    0.00000E+00         0.00000E+00        -0.31240E+05
 
   -0.55809E+05         0.16103E+06         0.00000E+00
    0.16103E+06        -0.96976E+05         0.00000E+00
    0.00000E+00         0.00000E+00        -0.30557E+05
 
   -0.49547E+05         0.16187E+06         0.00000E+00
    0.16187E+06        -0.99799E+05         0.00000E+00
    0.00000E+00         0.00000E+00        -0.29869E+05
 
   -0.43259E+05         0.16263E+06         0.00000E+00
    0.16263E+06        -0.10262E+06         0.00000E+00
    0.00000E+00         0.00000E+00        -0.29176E+05
 
   -0.36945E+05         0.16331E+06         0.00000E+00
    0.16331E+06        -0.10544E+06         0.00000E+00
    0.00000E+00         0.00000E+00        -0.28478E+05
 
   -0.30601E+05         0.16393E+06         0.00000E+00
    0.16393E+06        -0.10827E+06         0.00000E+00
    0.00000E+00         0.00000E+00        -0.27774E+05
 
   -0.22482E+06         0.26076E+04         0.00000E+00
    0.26076E+04         0.42632E+02         0.00000E+00
    0.00000E+00         0.00000E+00        -0.44956E+05
 
   -0.22484E+06         0.77936E+04         0.00000E+00
    0.77936E+04        -0.99945E+02         0.00000E+00
    0.00000E+00         0.00000E+00        -0.44988E+05
 
   -0.22458E+06         0.12955E+05         0.00000E+00
    0.12955E+05        -0.37975E+03         0.00000E+00
    0.00000E+00         0.00000E+00        -0.44993E+05
 
   -0.22406E+06         0.18083E+05         0.00000E+00
    0.18083E+05        -0.79389E+03         0.00000E+00
    0.00000E+00         0.00000E+00        -0.44971E+05
 
   -0.22327E+06         0.23169E+05         0.00000E+00
    0.23169E+05        -0.13392E+04         0.00000E+00
    0.00000E+00         0.00000E+00        -0.44923E+05
 
   -0.22223E+06         0.28206E+05         0.00000E+00
    0.28206E+05        -0.20124E+04         0.00000E+00
    0.00000E+00         0.00000E+00        -0.44849E+05
 
   -0.22094E+06         0.33186E+05         0.00000E+00
    0.33186E+05        -0.28097E+04         0.00000E+00
    0.00000E+00         0.00000E+00        -0.44749E+05
 
   -0.21940E+06         0.38101E+05         0.00000E+00
    0.38101E+05        -0.37275E+04         0.00000E+00
    0.00000E+00         0.00000E+00        -0.44626E+05
 
   -0.21763E+06         0.42946E+05         0.00000E+00
    0.42946E+05        -0.47617E+04         0.00000E+00
    0.00000E+00         0.00000E+00        -0.44478E+05
 
   -0.21563E+06         0.47714E+05         0.00000E+00
    0.47714E+05        -0.59082E+04         0.00000E+00
    0.00000E+00         0.00000E+00        -0.44307E+05
 
   -0.21340E+06         0.52399E+05         0.00000E+00
    0.52399E+05        -0.71628E+04         0.00000E+00
    0.00000E+00         0.00000E+00        -0.44113E+05
 
   -0.21097E+06         0.56997E+05         0.00000E+00
    0.56997E+05        -0.85211E+04         0.00000E+00
    0.00000E+00         0.00000E+00        -0.43898E+05
 
   -0.20832E+06         0.61501E+05         0.00000E+00
    0.61501E+05        -0.99787E+04         0.00000E+00
    0.00000E+00         0.00000E+00        -0.43661E+05
 
   -0.20548E+06         0.65908E+05         0.00000E+00
    0.65908E+05        -0.11531E+05         0.00000E+00
    0.00000E+00         0.00000E+00        -0.43403E+05
 
   -0.20245E+06         0.70214E+05         0.00000E+00
    0.70214E+05        -0.13174E+05         0.00000E+00
    0.00000E+00         0.00000E+00        -0.43125E+05
 
   -0.19923E+06         0.74416E+05         0.00000E+00
    0.74416E+05        -0.14902E+05         0.00000E+00
    0.00000E+00         0.00000E+00        -0.42827E+05
 
   -0.19584E+06         0.78509E+05         0.00000E+00
    0.78509E+05        -0.16712E+05         0.00000E+00
    0.00000E+00         0.00000E+00        -0.42511E+05
 
   -0.19229E+06         0.82491E+05         0.00000E+00
    0.82491E+05        -0.18599E+05         0.00000E+00
    0.00000E+00         0.00000E+00        -0.42177E+05
 
   -0.18857E+06         0.86359E+05         0.00000E+00
    0.86359E+05        -0.20557E+05         0.00000E+00
    0.00000E+00         0.00000E+00        -0.41825E+05
 
   -0.18470E+06         0.90113E+05         0.00000E+00
    0.90113E+05        -0.22583E+05         0.00000E+00
    0.00000E+00         0.00000E+00        -0.41456E+05
 
   -0.18069E+06         0.93749E+05         0.00000E+00
    0.93749E+05        -0.24673E+05         0.00000E+00
    0.00000E+00         0.00000E+00        -0.41072E+05
 
   -0.17654E+06         0.97266E+05         0.00000E+00
    0.97266E+05        -0.26821E+05         0.00000E+00
    0.00000E+00         0.00000E+00        -0.40671E+05
 
   -0.17226E+06         0.10066E+06         0.00000E+00
    0.10066E+06        -0.29024E+05         0.00000E+00
    0.00000E+00         0.00000E+00        -0.40256E+05
 
   -0.16786E+06         0.10394E+06         0.00000E+00
    0.10394E+06        -0.31278E+05         0.00000E+00
    0.00000E+00         0.00000E+00        -0.39827E+05
 
   -0.16334E+06         0.10710E+06         0.00000E+00
    0.10710E+06        -0.33578E+05         0.00000E+00
    0.00000E+00         0.00000E+00        -0.39383E+05
 
   -0.15872E+06         0.11014E+06         0.00000E+00
    0.11014E+06        -0.35920E+05         0.00000E+00
    0.00000E+00         0.00000E+00        -0.38927E+05
 
   -0.15399E+06         0.11305E+06         0.00000E+00
    0.11305E+06        -0.38302E+05         0.00000E+00
    0.00000E+00         0.00000E+00        -0.38458E+05
 
   -0.14917E+06         0.11585E+06         0.00000E+00
    0.11585E+06        -0.40719E+05         0.00000E+00
    0.00000E+00         0.00000E+00        -0.37977E+05
 
   -0.14425E+06         0.11853E+06         0.00000E+00
    0.11853E+06        -0.43168E+05         0.00000E+00
    0.00000E+00         0.00000E+00        -0.37484E+05
 
   -0.13926E+06         0.12109E+06         0.00000E+00
    0.12109E+06        -0.45645E+05         0.00000E+00
    0.00000E+00         0.00000E+00        -0.36981E+05
 
   -0.13419E+06         0.12353E+06         0.00000E+00
    0.12353E+06        -0.48147E+05         0.00000E+00
    0.00000E+00         0.00000E+00        -0.36467E+05
 
   -0.12904E+06         0.12586E+06         0.00000E+00
    0.12586E+06        -0.50672E+05         0.00000E+00
    0.00000E+00         0.00000E+00        -0.35942E+05
 
   -0.12382E+06         0.12807E+06         0.00000E+00
    0.12807E+06        -0.53217E+05         0.00000E+00
    0.00000E+00         0.00000E+00        -0.35408E+05
 
   -0.11854E+06         0.13017E+06         0.00000E+00
    0.13017E+06        -0.55779E+05         0.00000E+00
    0.00000E+00         0.00000E+00        -0.34865E+05
 
   -0.11321E+06         0.13216E+06         0.00000E+00
    0.13216E+06        -0.58355E+05         0.00000E+00
    0.00000E+00         0.00000E+00        -0.34312E+05
 
   -0.10781E+06         0.13404E+06         0.00000E+00
    0.13404E+06        -0.60945E+05         0.00000E+00
    0.00000E+00         0.00000E+00        -0.33752E+05
 
   -0.10237E+06         0.13581E+06         0.00000E+00
    0.13581E+06        -0.63545E+05         0.00000E+00
    0.00000E+00         0.00000E+00        -0.33182E+05
 
   -0.96873E+05         0.13748E+06         0.00000E+00
    0.13748E+06        -0.66154E+05         0.00000E+00
    0.00000E+00         0.00000E+00        -0.32605E+05
 
   -0.91332E+05         0.13905E+06         0.00000E+00
    0.13905E+06        -0.68770E+05         0.00000E+00
    0.00000E+00         0.00000E+00        -0.32020E+05
 
   -0.85748E+05         0.14052E+06         0.00000E+00
    0.14052E+06        -0.71393E+05         0.00000E+00
    0.00000E+00         0.00000E+00        -0.31428E+05
 
   -0.80122E+05         0.14189E+06         0.00000E+00
    0.14189E+06        -0.74021E+05         0.00000E+00
    0.00000E+00         0.00000E+00        -0.30829E+05
 
   -0.74456E+05         0.14316E+06         0.00000E+00
    0.14316E+06        -0.76653E+05         0.00000E+00
    0.00000E+00         0.00000E+00        -0.30222E+05
 
   -0.68752E+05         0.14434E+06         0.00000E+00
    0.14434E+06        -0.79289E+05         0.00000E+00
    0.00000E+00         0.00000E+00        -0.29608E+05
 
   -0.63011E+05         0.14543E+06         0.00000E+00
    0.14543E+06        -0.81928E+05         0.00000E+00
    0.00000E+00         0.00000E+00        -0.28988E+05
 
   -0.57233E+05         0.14644E+06         0.00000E+00
    0.14644E+06        -0.84570E+05         0.00000E+00
    0.00000E+00         0.00000E+00        -0.28361E+05
 
   -0.51418E+05         0.14735E+06         0.00000E+00
    0.14735E+06        -0.87215E+05         0.00000E+00
    0.00000E+00         0.00000E+00        -0.27727E+05
 
   -0.45566E+05         0.14818E+06         0.00000E+00
    0.14818E+06        -0.89864E+05         0.00000E+00
    0.00000E+00         0.00000E+00        -0.27086E+05
 
   -0.39677E+05         0.14893E+06         0.00000E+00
    0.14893E+06        -0.92516E+05         0.00000E+00
    0.00000E+00         0.00000E+00        -0.26439E+05
 
   -0.33750E+05         0.14960E+06         0.00000E+00
    0.14960E+06        -0.95172E+05         0.00000E+00
    0.00000E+00         0.00000E+00        -0.25785E+05
 
   -0.27784E+05         0.15018E+06         0.00000E+00
    0.15018E+06        -0.97834E+05         0.00000E+00
    0.00000E+00         0.00000E+00        -0.25124E+05
 
   -0.20050E+06         0.22779E+04         0.00000E+00
    0.22779E+04         0.36265E+02         0.00000E+00
    0.00000E+00         0.00000E+00        -0.40092E+05
 
   -0.20059E+06         0.68262E+04         0.00000E+00
    0.68262E+04        -0.83649E+02         0.00000E+00
    0.00000E+00         0.00000E+00        -0.40134E+05
 
   -0.20044E+06         0.11361E+05         0.00000E+00
    0.11361E+05        -0.32006E+03         0.00000E+00
    0.00000E+00         0.00000E+00        -0.40153E+05
 
   -0.20007E+06         0.15875E+05         0.00000E+00
    0.15875E+05        -0.67103E+03         0.00000E+00
    0.00000E+00         0.00000E+00        -0.40149E+05
 
   -0.19948E+06         0.20362E+05         0.00000E+00
    0.20362E+05        -0.11343E+04         0.00000E+00
    0.00000E+00         0.00000E+00        -0.40122E+05
 
   -0.19866E+06         0.24813E+05         0.00000E+00
    0.24813E+05        -0.17076E+04         0.00000E+00
    0.00000E+00         0.00000E+00        -0.40073E+05
 
   -0.19763E+06         0.29224E+05         0.00000E+00
    0.29224E+05        -0.23882E+04         0.00000E+00
    0.00000E+00         0.00000E+00        -0.40003E+05
 
   -0.19638E+06         0.33587E+05         0.00000E+00
    0.33587E+05        -0.31733E+04         0.00000E+00
    0.00000E+00         0.00000E+00        -0.39911E+05
 
   -0.19493E+06         0.37897E+05         0.00000E+00
    0.37897E+05        -0.40600E+04         0.00000E+00
    0.00000E+00         0.00000E+00        -0.39799E+05
 
   -0.19328E+06         0.42148E+05         0.00000E+00
    0.42148E+05        -0.50451E+04         0.00000E+00
    0.00000E+00         0.00000E+00        -0.39666E+05
 
   -0.19144E+06         0.46335E+05         0.00000E+00
    0.46335E+05        -0.61255E+04         0.00000E+00
    0.00000E+00         0.00000E+00        -0.39513E+05
 
   -0.18940E+06         0.50454E+05         0.00000E+00
    0.50454E+05        -0.72978E+04         0.00000E+00
    0.00000E+00         0.00000E+00        -0.39340E+05
 
   -0.18718E+06         0.54499E+05         0.00000E+00
    0.54499E+05        -0.85585E+04         0.00000E+00
    0.00000E+00         0.00000E+00        -0.39148E+05
 
   -0.18479E+06         0.58467E+05         0.00000E+00
    0.58467E+05        -0.99043E+04         0.00000E+00
    0.00000E+00         0.00000E+00        -0.38938E+05
 
   -0.18222E+06         0.62355E+05         0.00000E+00
    0.62355E+05        -0.11331E+05         0.00000E+00
    0.00000E+00         0.00000E+00        -0.38710E+05
 
   -0.17948E+06         0.66157E+05         0.00000E+00
    0.66157E+05        -0.12836E+05         0.00000E+00
    0.00000E+00         0.00000E+00        -0.38464E+05
 
   -0.17659E+06         0.69872E+05         0.00000E+00
    0.69872E+05        -0.14416E+05         0.00000E+00
    0.00000E+00         0.00000E+00        -0.38200E+05
 
   -0.17354E+06         0.73496E+05         0.00000E+00
    0.73496E+05        -0.16065E+05         0.00000E+00
    0.00000E+00         0.00000E+00        -0.37921E+05
 
   -0.17034E+06         0.77027E+05         0.00000E+00
    0.77027E+05        -0.17782E+05         0.00000E+00
    0.00000E+00         0.00000E+00        -0.37625E+05
 
   -0.16700E+06         0.80462E+05         0.00000E+00
    0.80462E+05        -0.19562E+05         0.00000E+00
    0.00000E+00         0.00000E+00        -0.37313E+05
 
   -0.16353E+06         0.83800E+05         0.00000E+00
    0.83800E+05        -0.21402E+05         0.00000E+00
    0.00000E+00         0.00000E+00        -0.36986E+05
 
   -0.15992E+06         0.87040E+05         0.00000E+00
    0.87040E+05        -0.23298E+05         0.00000E+00
    0.00000E+00         0.00000E+00        -0.36644E+05
 
   -0.15620E+06         0.90178E+05         0.00000E+00
    0.90178E+05        -0.25247E+05         0.00000E+00
    0.00000E+00         0.00000E+00        -0.36288E+05
 
   -0.15235E+06         0.93215E+05         0.00000E+00
    0.93215E+05        -0.27245E+05         0.00000E+00
    0.00000E+00         0.00000E+00        -0.35919E+05
 
   -0.14839E+06         0.96150E+05         0.00000E+00
    0.96150E+05        -0.29289E+05         0.00000E+00
    0.00000E+00         0.00000E+00        -0.35536E+05
 
   -0.14432E+06         0.98982E+05         0.00000E+00
    0.98982E+05        -0.31376E+05         0.00000E+00
    0.00000E+00         0.00000E+00        -0.35140E+05
 
   -0.14015E+06         0.10171E+06         0.00000E+00
    0.10171E+06        -0.33502E+05         0.00000E+00
    0.00000E+00         0.00000E+00        -0.34731E+05
 
   -0.13589E+06         0.10433E+06         0.00000E+00
    0.10433E+06        -0.35665E+05         0.00000E+00
    0.00000E+00         0.00000E+00        -0.34311E+05
 
   -0.13153E+06         0.10686E+06         0.00000E+00
    0.10686E+06        -0.37861E+05         0.00000E+00
    0.00000E+00         0.00000E+00        -0.33879E+05
 
   -0.12709E+06         0.10927E+06         0.00000E+00
    0.10927E+06        -0.40088E+05         0.00000E+00
    0.00000E+00         0.00000E+00        -0.33435E+05
 
   -0.12256E+06         0.11159E+06         0.00000E+00
    0.11159E+06        -0.42344E+05         0.00000E+00
    0.00000E+00         0.00000E+00        -0.32981E+05
 
   -0.11796E+06         0.11380E+06         0.00000E+00
    0.11380E+06        -0.44625E+05         0.00000E+00
    0.00000E+00         0.00000E+00        -0.32516E+05
 
   -0.11328E+06         0.11591E+06         0.00000E+00
    0.11591E+06        -0.46929E+05         0.00000E+00
    0.00000E+00         0.00000E+00        -0.32041E+05
 
   -0.10853E+06         0.11792E+06         0.00000E+00
    0.11792E+06        -0.49254E+05         0.00000E+00
    0.00000E+00         0.00000E+00        -0.31557E+05
 
   -0.10371E+06         0.11983E+06         0.00000E+00
    0.11983E+06        -0.51597E+05         0.00000E+00
    0.00000E+00         0.00000E+00        -0.31062E+05
 
   -0.98834E+05         0.12164E+06         0.00000E+00
    0.12164E+06        -0.53958E+05         0.00000E+00
    0.00000E+00         0.00000E+00        -0.30558E+05
 
   -0.93895E+05         0.12335E+06         0.00000E+00
    0.12335E+06        -0.56334E+05         0.00000E+00
    0.00000E+00         0.00000E+00        -0.30046E+05
 
   -0.88898E+05         0.12497E+06         0.00000E+00
    0.12497E+06        -0.58723E+05         0.00000E+00
    0.00000E+00         0.00000E+00        -0.29524E+05
 
   -0.83847E+05         0.12649E+06         0.00000E+00
    0.12649E+06        -0.61124E+05         0.00000E+00
    0.00000E+00         0.00000E+00        -0.28994E+05
 
   -0.78743E+05         0.12792E+06         0.00000E+00
    0.12792E+06        -0.63536E+05         0.00000E+00
    0.00000E+00         0.00000E+00        -0.28456E+05
 
   -0.73588E+05         0.12925E+06         0.00000E+00
    0.12925E+06        -0.65958E+05         0.00000E+00
    0.00000E+00         0.00000E+00        -0.27909E+05
 
   -0.68385E+05         0.13049E+06         0.00000E+00
    0.13049E+06        -0.68388E+05         0.00000E+00
    0.00000E+00         0.00000E+00        -0.27355E+05
 
   -0.63134E+05         0.13165E+06         0.00000E+00
    0.13165E+06        -0.70826E+05         0.00000E+00
    0.00000E+00         0.00000E+00        -0.26792E+05
 
   -0.57838E+05         0.13271E+06         0.00000E+00
    0.13271E+06        -0.73271E+05         0.00000E+00
    0.00000E+00         0.00000E+00        -0.26222E+05
 
   -0.52496E+05         0.13369E+06         0.00000E+00
    0.13369E+06        -0.75724E+05         0.00000E+00
    0.00000E+00         0.00000E+00        -0.25644E+05
 
   -0.47110E+05         0.13458E+06         0.00000E+00
    0.13458E+06        -0.78182E+05         0.00000E+00
    0.00000E+00         0.00000E+00        -0.25058E+05
 
   -0.41679E+05         0.13538E+06         0.00000E+00
    0.13538E+06        -0.80647E+05         0.00000E+00
    0.00000E+00         0.00000E+00        -0.24465E+05
 
   -0.36205E+05         0.13610E+06         0.00000E+00
    0.13610E+06        -0.83118E+05         0.00000E+00
    0.00000E+00         0.00000E+00        -0.23865E+05
 
   -0.30686E+05         0.13674E+06         0.00000E+00
    0.13674E+06        -0.85596E+05         0.00000E+00
    0.00000E+00         0.00000E+00        -0.23256E+05
 
   -0.25124E+05         0.13730E+06         0.00000E+00
    0.13730E+06        -0.88080E+05         0.00000E+00
    0.00000E+00         0.00000E+00        -0.22641E+05
 
   -0.17913E+06         0.20011E+04         0.00000E+00
    0.20011E+04         0.30879E+02         0.00000E+00
    0.00000E+00         0.00000E+00        -0.35819E+05
 
   -0.17925E+06         0.60090E+04         0.00000E+00
    0.60090E+04        -0.70176E+02         0.00000E+00
    0.00000E+00         0.00000E+00        -0.35863E+05
 
   -0.17917E+06         0.10011E+05         0.00000E+00
    0.10011E+05        -0.27025E+03         0.00000E+00
    0.00000E+00         0.00000E+00        -0.35888E+05
 
   -0.17890E+06         0.14001E+05         0.00000E+00
    0.14001E+05        -0.56806E+03         0.00000E+00
    0.00000E+00         0.00000E+00        -0.35893E+05
 
   -0.17843E+06         0.17972E+05         0.00000E+00
    0.17972E+05        -0.96213E+03         0.00000E+00
    0.00000E+00         0.00000E+00        -0.35878E+05
 
   -0.17777E+06         0.21919E+05         0.00000E+00
    0.21919E+05        -0.14508E+04         0.00000E+00
    0.00000E+00         0.00000E+00        -0.35845E+05
 
   -0.17693E+06         0.25837E+05         0.00000E+00
    0.25837E+05        -0.20321E+04         0.00000E+00
    0.00000E+00         0.00000E+00        -0.35793E+05
 
   -0.17591E+06         0.29719E+05         0.00000E+00
    0.29719E+05        -0.27041E+04         0.00000E+00
    0.00000E+00         0.00000E+00        -0.35722E+05
 
   -0.17470E+06         0.33562E+05         0.00000E+00
    0.33562E+05        -0.34646E+04         0.00000E+00
    0.00000E+00         0.00000E+00        -0.35633E+05
 
   -0.17332E+06         0.37359E+05         0.00000E+00
    0.37359E+05        -0.43114E+04         0.00000E+00
    0.00000E+00         0.00000E+00        -0.35527E+05
 
   -0.17177E+06         0.41107E+05         0.00000E+00
    0.41107E+05        -0.52418E+04         0.00000E+00
    0.00000E+00         0.00000E+00        -0.35402E+05
 
   -0.17005E+06         0.44801E+05         0.00000E+00
    0.44801E+05        -0.62535E+04         0.00000E+00
    0.00000E+00         0.00000E+00        -0.35261E+05
 
   -0.16817E+06         0.48437E+05         0.00000E+00
    0.48437E+05        -0.73438E+04         0.00000E+00
    0.00000E+00         0.00000E+00        -0.35102E+05
 
   -0.16613E+06         0.52011E+05         0.00000E+00
    0.52011E+05        -0.85100E+04         0.00000E+00
    0.00000E+00         0.00000E+00        -0.34927E+05
 
   -0.16393E+06         0.55520E+05         0.00000E+00
    0.55520E+05        -0.97493E+04         0.00000E+00
    0.00000E+00         0.00000E+00        -0.34736E+05
 
   -0.16158E+06         0.58961E+05         0.00000E+00
    0.58961E+05        -0.11059E+05         0.00000E+00
    0.00000E+00         0.00000E+00        -0.34529E+05
 
   -0.15909E+06         0.62330E+05         0.00000E+00
    0.62330E+05        -0.12436E+05         0.00000E+00
    0.00000E+00         0.00000E+00        -0.34306E+05
 
   -0.15646E+06         0.65624E+05         0.00000E+00
    0.65624E+05        -0.13878E+05         0.00000E+00
    0.00000E+00         0.00000E+00        -0.34068E+05
 
   -0.15370E+06         0.68842E+05         0.00000E+00
    0.68842E+05        -0.15381E+05         0.00000E+00
    0.00000E+00         0.00000E+00        -0.33815E+05
 
   -0.15080E+06         0.71980E+05         0.00000E+00
    0.71980E+05        -0.16943E+05         0.00000E+00
    0.00000E+00         0.00000E+00        -0.33548E+05
 
   -0.14777E+06         0.75037E+05         0.00000E+00
    0.75037E+05        -0.18561E+05         0.00000E+00
    0.00000E+00         0.00000E+00        -0.33267E+05
 
   -0.14463E+06         0.78011E+05         0.00000E+00
    0.78011E+05        -0.20232E+05         0.00000E+00
    0.00000E+00         0.00000E+00        -0.32972E+05
 
   -0.14137E+06         0.80899E+05         0.00000E+00
    0.80899E+05        -0.21953E+05         0.00000E+00
    0.00000E+00         0.00000E+00        -0.32664E+05
 
   -0.13799E+06         0.83702E+05         0.00000E+00
    0.83702E+05        -0.23721E+05         0.00000E+00
    0.00000E+00         0.00000E+00        -0.32342E+05
 
   -0.13451E+06         0.86417E+05         0.00000E+00
    0.86417E+05        -0.25534E+05         0.00000E+00
    0.00000E+00         0.00000E+00        -0.32008E+05
 
   -0.13092E+06         0.89044E+05         0.00000E+00
    0.89044E+05        -0.27389E+05         0.00000E+00
    0.00000E+00         0.00000E+00        -0.31662E+05
 
   -0.12723E+06         0.91582E+05         0.00000E+00
    0.91582E+05        -0.29283E+05         0.00000E+00
    0.00000E+00         0.00000E+00        -0.31303E+05
 
   -0.12345E+06         0.94029E+05         0.00000E+00
    0.94029E+05        -0.31213E+05         0.00000E+00
    0.00000E+00         0.00000E+00        -0.30933E+05
 
   -0.11958E+06         0.96387E+05         0.00000E+00
    0.96387E+05        -0.33178E+05         0.00000E+00
    0.00000E+00         0.00000E+00        -0.30552E+05
 
   -0.11562E+06         0.98653E+05         0.00000E+00
    0.98653E+05        -0.35175E+05         0.00000E+00
    0.00000E+00         0.00000E+00        -0.30159E+05
 
   -0.11158E+06         0.10083E+06         0.00000E+00
    0.10083E+06        -0.37202E+05         0.00000E+00
    0.00000E+00         0.00000E+00        -0.29756E+05
 
   -0.10745E+06         0.10291E+06         0.00000E+00
    0.10291E+06        -0.39255E+05         0.00000E+00
    0.00000E+00         0.00000E+00        -0.29342E+05
 
   -0.10326E+06         0.10491E+06         0.00000E+00
    0.10491E+06        -0.41334E+05         0.00000E+00
    0.00000E+00         0.00000E+00        -0.28918E+05
 
   -0.98983E+05         0.10681E+06         0.00000E+00
    0.10681E+06        -0.43437E+05         0.00000E+00
    0.00000E+00         0.00000E+00        -0.28484E+05
 
   -0.94641E+05         0.10862E+06         0.00000E+00
    0.10862E+06        -0.45560E+05         0.00000E+00
    0.00000E+00         0.00000E+00        -0.28040E+05
 
   -0.90232E+05         0.11035E+06         0.00000E+00
    0.11035E+06        -0.47704E+05         0.00000E+00
    0.00000E+00         0.00000E+00        -0.27587E+05
 
   -0.85759E+05         0.11198E+06         0.00000E+00
    0.11198E+06        -0.49865E+05         0.00000E+00
    0.00000E+00         0.00000E+00        -0.27125E+05
 
   -0.81224E+05         0.11352E+06         0.00000E+00
    0.11352E+06        -0.52043E+05         0.00000E+00
    0.00000E+00         0.00000E+00        -0.26653E+05
 
   -0.76629E+05         0.11498E+06         0.00000E+00
    0.11498E+06        -0.54235E+05         0.00000E+00
    0.00000E+00         0.00000E+00        -0.26173E+05
 
   -0.71978E+05         0.11635E+06         0.00000E+00
    0.11635E+06        -0.56442E+05         0.00000E+00
    0.00000E+00         0.00000E+00        -0.25684E+05
 
   -0.67271E+05         0.11763E+06         0.00000E+00
    0.11763E+06        -0.58661E+05         0.00000E+00
    0.00000E+00         0.00000E+00        -0.25186E+05
 
   -0.62510E+05         0.11882E+06         0.00000E+00
    0.11882E+06        -0.60892E+05         0.00000E+00
    0.00000E+00         0.00000E+00        -0.24680E+05
 
   -0.57697E+05         0.11993E+06         0.00000E+00
    0.11993E+06        -0.63134E+05         0.00000E+00
    0.00000E+00         0.00000E+00        -0.24166E+05
 
   -0.52834E+05         0.12095E+06         0.00000E+00
    0.12095E+06        -0.65386E+05         0.00000E+00
    0.00000E+00         0.00000E+00        -0.23644E+05
 
   -0.47921E+05         0.12189E+06         0.00000E+00
    0.12189E+06        -0.67647E+05         0.00000E+00
    0.00000E+00         0.00000E+00        -0.23114E+05
 
   -0.42960E+05         0.12274E+06         0.00000E+00
    0.12274E+06        -0.69916E+05         0.00000E+00
    0.00000E+00         0.00000E+00        -0.22575E+05
 
   -0.37951E+05         0.12351E+06         0.00000E+00
    0.12351E+06        -0.72194E+05         0.00000E+00
    0.00000E+00         0.00000E+00        -0.22029E+05
 
   -0.32895E+05         0.12419E+06         0.00000E+00
    0.12419E+06        -0.74480E+05         0.00000E+00
    0.00000E+00         0.00000E+00        -0.21475E+05
 
   -0.27792E+05         0.12479E+06         0.00000E+00
    0.12479E+06        -0.76774E+05         0.00000E+00
    0.00000E+00         0.00000E+00        -0.20913E+05
 
   -0.22643E+05         0.12531E+06         0.00000E+00
    0.12531E+06        -0.79076E+05         0.00000E+00
    0.00000E+00         0.00000E+00        -0.20344E+05
 
   -0.16026E+06         0.17679E+04         0.00000E+00
    0.17679E+04         0.26348E+02         0.00000E+00
    0.00000E+00         0.00000E+00        -0.32048E+05
 
   -0.16039E+06         0.53168E+04         0.00000E+00
    0.53168E+04        -0.59090E+02         0.00000E+00
    0.00000E+00         0.00000E+00        -0.32089E+05
 
   -0.16034E+06         0.88644E+04         0.00000E+00
    0.88644E+04        -0.22888E+03         0.00000E+00
    0.00000E+00         0.00000E+00        -0.32114E+05
 
   -0.16013E+06         0.12405E+05         0.00000E+00
    0.12405E+05        -0.48223E+03         0.00000E+00
    0.00000E+00         0.00000E+00        -0.32122E+05
 
   -0.15975E+06         0.15934E+05         0.00000E+00
    0.15934E+05        -0.81815E+03         0.00000E+00
    0.00000E+00         0.00000E+00        -0.32114E+05
 
   -0.15921E+06         0.19447E+05         0.00000E+00
    0.19447E+05        -0.12355E+04         0.00000E+00
    0.00000E+00         0.00000E+00        -0.32089E+05
 
   -0.15851E+06         0.22937E+05         0.00000E+00
    0.22937E+05        -0.17330E+04         0.00000E+00
    0.00000E+00         0.00000E+00        -0.32048E+05
 
   -0.15765E+06         0.26402E+05         0.00000E+00
    0.26402E+05        -0.23092E+04         0.00000E+00
    0.00000E+00         0.00000E+00        -0.31991E+05
 
   -0.15663E+06         0.29836E+05         0.00000E+00
    0.29836E+05        -0.29625E+04         0.00000E+00
    0.00000E+00         0.00000E+00        -0.31918E+05
 
   -0.15546E+06         0.33236E+05         0.00000E+00
    0.33236E+05        -0.36912E+04         0.00000E+00
    0.00000E+00         0.00000E+00        -0.31830E+05
 
   -0.15413E+06         0.36597E+05         0.00000E+00
    0.36597E+05        -0.44934E+04         0.00000E+00
    0.00000E+00         0.00000E+00        -0.31726E+05
 
   -0.15267E+06         0.39915E+05         0.00000E+00
    0.39915E+05        -0.53674E+04         0.00000E+00
    0.00000E+00         0.00000E+00        -0.31606E+05
 
   -0.15105E+06         0.43187E+05         0.00000E+00
    0.43187E+05        -0.63110E+04         0.00000E+00
    0.00000E+00         0.00000E+00        -0.31472E+05
 
   -0.14930E+06         0.46409E+05         0.00000E+00
    0.46409E+05        -0.73222E+04         0.00000E+00
    0.00000E+00         0.00000E+00        -0.31324E+05
 
   -0.14740E+06         0.49578E+05         0.00000E+00
    0.49578E+05        -0.83989E+04         0.00000E+00
    0.00000E+00         0.00000E+00        -0.31160E+05
 
   -0.14537E+06         0.52692E+05         0.00000E+00
    0.52692E+05        -0.95388E+04         0.00000E+00
    0.00000E+00         0.00000E+00        -0.30983E+05
 
   -0.14322E+06         0.55746E+05         0.00000E+00
    0.55746E+05        -0.10740E+05         0.00000E+00
    0.00000E+00         0.00000E+00        -0.30791E+05
 
   -0.14093E+06         0.58739E+05         0.00000E+00
    0.58739E+05        -0.11999E+05         0.00000E+00
    0.00000E+00         0.00000E+00        -0.30586E+05
 
   -0.13852E+06         0.61668E+05         0.00000E+00
    0.61668E+05        -0.13316E+05         0.00000E+00
    0.00000E+00         0.00000E+00        -0.30367E+05
 
   -0.13599E+06         0.64530E+05         0.00000E+00
    0.64530E+05        -0.14686E+05         0.00000E+00
    0.00000E+00         0.00000E+00        -0.30135E+05
 
   -0.13334E+06         0.67324E+05         0.00000E+00
    0.67324E+05        -0.16108E+05         0.00000E+00
    0.00000E+00         0.00000E+00        -0.29891E+05
 
   -0.13059E+06         0.70048E+05         0.00000E+00
    0.70048E+05        -0.17579E+05         0.00000E+00
    0.00000E+00         0.00000E+00        -0.29633E+05
 
   -0.12772E+06         0.72700E+05         0.00000E+00
    0.72700E+05        -0.19098E+05         0.00000E+00
    0.00000E+00         0.00000E+00        -0.29363E+05
 
   -0.12475E+06         0.75278E+05         0.00000E+00
    0.75278E+05        -0.20661E+05         0.00000E+00
    0.00000E+00         0.00000E+00        -0.29081E+05
 
   -0.12167E+06         0.77781E+05         0.00000E+00
    0.77781E+05        -0.22267E+05         0.00000E+00
    0.00000E+00         0.00000E+00        -0.28788E+05
 
   -0.11850E+06         0.80208E+05         0.00000E+00
    0.80208E+05        -0.23914E+05         0.00000E+00
    0.00000E+00         0.00000E+00        -0.28482E+05
 
   -0.11523E+06         0.82558E+05         0.00000E+00
    0.82558E+05        -0.25598E+05         0.00000E+00
    0.00000E+00         0.00000E+00        -0.28165E+05
 
   -0.11187E+06         0.84829E+05         0.00000E+00
    0.84829E+05        -0.27319E+05         0.00000E+00
    0.00000E+00         0.00000E+00        -0.27838E+05
 
   -0.10842E+06         0.87021E+05         0.00000E+00
    0.87021E+05        -0.29073E+05         0.00000E+00
    0.00000E+00         0.00000E+00        -0.27499E+05
 
   -0.10489E+06         0.89132E+05         0.00000E+00
    0.89132E+05        -0.30860E+05         0.00000E+00
    0.00000E+00         0.00000E+00        -0.27150E+05
 
   -0.10128E+06         0.91164E+05         0.00000E+00
    0.91164E+05        -0.32676E+05         0.00000E+00
    0.00000E+00         0.00000E+00        -0.26790E+05
 
   -0.97582E+05         0.93114E+05         0.00000E+00
    0.93114E+05        -0.34521E+05         0.00000E+00
    0.00000E+00         0.00000E+00        -0.26421E+05
 
   -0.93813E+05         0.94984E+05         0.00000E+00
    0.94984E+05        -0.36391E+05         0.00000E+00
    0.00000E+00         0.00000E+00        -0.26041E+05
 
   -0.89972E+05         0.96771E+05         0.00000E+00
    0.96771E+05        -0.38286E+05         0.00000E+00
    0.00000E+00         0.00000E+00        -0.25652E+05
 
   -0.86059E+05         0.98477E+05         0.00000E+00
    0.98477E+05        -0.40204E+05         0.00000E+00
    0.00000E+00         0.00000E+00        -0.25253E+05
 
   -0.82080E+05         0.10010E+06         0.00000E+00
    0.10010E+06        -0.42143E+05         0.00000E+00
    0.00000E+00         0.00000E+00        -0.24845E+05
 
   -0.78034E+05         0.10164E+06         0.00000E+00
    0.10164E+06        -0.44102E+05         0.00000E+00
    0.00000E+00         0.00000E+00        -0.24427E+05
 
   -0.73926E+05         0.10310E+06         0.00000E+00
    0.10310E+06        -0.46079E+05         0.00000E+00
    0.00000E+00         0.00000E+00        -0.24001E+05
 
   -0.69757E+05         0.10448E+06         0.00000E+00
    0.10448E+06        -0.48073E+05         0.00000E+00
    0.00000E+00         0.00000E+00        -0.23566E+05
 
   -0.65529E+05         0.10578E+06         0.00000E+00
    0.10578E+06        -0.50083E+05         0.00000E+00
    0.00000E+00         0.00000E+00        -0.23122E+05
 
   -0.61244E+05         0.10699E+06         0.00000E+00
    0.10699E+06        -0.52108E+05         0.00000E+00
    0.00000E+00         0.00000E+00        -0.22670E+05
 
   -0.56903E+05         0.10812E+06         0.00000E+00
    0.10812E+06        -0.54145E+05         0.00000E+00
    0.00000E+00         0.00000E+00        -0.22210E+05
 
   -0.52509E+05         0.10917E+06         0.00000E+00
    0.10917E+06        -0.56196E+05         0.00000E+00
    0.00000E+00         0.00000E+00        -0.21741E+05
 
   -0.48063E+05         0.11014E+06         0.00000E+00
    0.11014E+06        -0.58258E+05         0.00000E+00
    0.00000E+00         0.00000E+00        -0.21264E+05
 
   -0.43566E+05         0.11103E+06         0.00000E+00
    0.11103E+06        -0.60331E+05         0.00000E+00
    0.00000E+00         0.00000E+00        -0.20779E+05
 
   -0.39019E+05         0.11184E+06         0.00000E+00
    0.11184E+06        -0.62414E+05         0.00000E+00
    0.00000E+00         0.00000E+00        -0.20287E+05
 
   -0.34423E+05         0.11256E+06         0.00000E+00
    0.11256E+06        -0.64507E+05         0.00000E+00
    0.00000E+00         0.00000E+00        -0.19786E+05
 
   -0.29780E+05         0.11320E+06         0.00000E+00
    0.11320E+06        -0.66609E+05         0.00000E+00
    0.00000E+00         0.00000E+00        -0.19278E+05
 
   -0.25090E+05         0.11377E+06         0.00000E+00
    0.11377E+06        -0.68719E+05         0.00000E+00
    0.00000E+00         0.00000E+00        -0.18762E+05
 
   -0.20354E+05         0.11425E+06         0.00000E+00
    0.11425E+06        -0.70837E+05         0.00000E+00
    0.00000E+00         0.00000E+00        -0.18238E+05
 
   -0.14353E+06         0.15707E+04         0.00000E+00
    0.15707E+04         0.22549E+02         0.00000E+00
    0.00000E+00         0.00000E+00        -0.28701E+05
 
   -0.14364E+06         0.47288E+04         0.00000E+00
    0.47288E+04        -0.49987E+02         0.00000E+00
    0.00000E+00         0.00000E+00        -0.28738E+05
 
   -0.14360E+06         0.78880E+04         0.00000E+00
    0.78880E+04        -0.19461E+03         0.00000E+00
    0.00000E+00         0.00000E+00        -0.28760E+05
 
   -0.14343E+06         0.11044E+05         0.00000E+00
    0.11044E+05        -0.41086E+03         0.00000E+00
    0.00000E+00         0.00000E+00        -0.28768E+05
 
   -0.14311E+06         0.14193E+05         0.00000E+00
    0.14193E+05        -0.69811E+03         0.00000E+00
    0.00000E+00         0.00000E+00        -0.28761E+05
 
   -0.14265E+06         0.17329E+05         0.00000E+00
    0.17329E+05        -0.10556E+04         0.00000E+00
    0.00000E+00         0.00000E+00        -0.28741E+05
 
   -0.14205E+06         0.20451E+05         0.00000E+00
    0.20451E+05        -0.14825E+04         0.00000E+00
    0.00000E+00         0.00000E+00        -0.28707E+05
 
   -0.14131E+06         0.23552E+05         0.00000E+00
    0.23552E+05        -0.19777E+04         0.00000E+00
    0.00000E+00         0.00000E+00        -0.28658E+05
 
   -0.14044E+06         0.26630E+05         0.00000E+00
    0.26630E+05        -0.25402E+04         0.00000E+00
    0.00000E+00         0.00000E+00        -0.28596E+05
 
   -0.13943E+06         0.29681E+05         0.00000E+00
    0.29681E+05        -0.31686E+04         0.00000E+00
    0.00000E+00         0.00000E+00        -0.28520E+05
 
   -0.13829E+06         0.32701E+05         0.00000E+00
    0.32701E+05        -0.38616E+04         0.00000E+00
    0.00000E+00         0.00000E+00        -0.28431E+05
 
   -0.13702E+06         0.35687E+05         0.00000E+00
    0.35687E+05        -0.46179E+04         0.00000E+00
    0.00000E+00         0.00000E+00        -0.28328E+05
 
   -0.13562E+06         0.38635E+05         0.00000E+00
    0.38635E+05        -0.54358E+04         0.00000E+00
    0.00000E+00         0.00000E+00        -0.28212E+05
 
   -0.13410E+06         0.41543E+05         0.00000E+00
    0.41543E+05        -0.63139E+04         0.00000E+00
    0.00000E+00         0.00000E+00        -0.28083E+05
 
   -0.13246E+06         0.44408E+05         0.00000E+00
    0.44408E+05        -0.72503E+04         0.00000E+00
    0.00000E+00         0.00000E+00        -0.27941E+05
 
   -0.13069E+06         0.47227E+05         0.00000E+00
    0.47227E+05        -0.82436E+04         0.00000E+00
    0.00000E+00         0.00000E+00        -0.27787E+05
 
   -0.12881E+06         0.49996E+05         0.00000E+00
    0.49996E+05        -0.92918E+04         0.00000E+00
    0.00000E+00         0.00000E+00        -0.27620E+05
 
   -0.12681E+06         0.52715E+05         0.00000E+00
    0.52715E+05        -0.10393E+05         0.00000E+00
    0.00000E+00         0.00000E+00        -0.27440E+05
 
   -0.12470E+06         0.55379E+05         0.00000E+00
    0.55379E+05        -0.11546E+05         0.00000E+00
    0.00000E+00         0.00000E+00        -0.27249E+05
 
   -0.12248E+06         0.57988E+05         0.00000E+00
    0.57988E+05        -0.12748E+05         0.00000E+00
    0.00000E+00         0.00000E+00        -0.27045E+05
 
   -0.12015E+06         0.60539E+05         0.00000E+00
    0.60539E+05        -0.13998E+05         0.00000E+00
    0.00000E+00         0.00000E+00        -0.26830E+05
 
   -0.11772E+06         0.63030E+05         0.00000E+00
    0.63030E+05        -0.15294E+05         0.00000E+00
    0.00000E+00         0.00000E+00        -0.26603E+05
 
   -0.11519E+06         0.65459E+05         0.00000E+00
    0.65459E+05        -0.16634E+05         0.00000E+00
    0.00000E+00         0.00000E+00        -0.26365E+05
 
   -0.11257E+06         0.67825E+05         0.00000E+00
    0.67825E+05        -0.18015E+05         0.00000E+00
    0.00000E+00         0.00000E+00        -0.26116E+05
 
   -0.10984E+06         0.70126E+05         0.00000E+00
    0.70126E+05        -0.19437E+05         0.00000E+00
    0.00000E+00         0.00000E+00        -0.25856E+05
 
   -0.10703E+06         0.72361E+05         0.00000E+00
    0.72361E+05        -0.20897E+05         0.00000E+00
    0.00000E+00         0.00000E+00        -0.25585E+05
 
   -0.10412E+06         0.74528E+05         0.00000E+00
    0.74528E+05        -0.22394E+05         0.00000E+00
    0.00000E+00         0.00000E+00        -0.25304E+05
 
   -0.10113E+06         0.76627E+05         0.00000E+00
    0.76627E+05        -0.23925E+05         0.00000E+00
    0.00000E+00         0.00000E+00        -0.25012E+05
 
   -0.98061E+05         0.78656E+05         0.00000E+00
    0.78656E+05        -0.25490E+05         0.00000E+00
    0.00000E+00         0.00000E+00        -0.24710E+05
 
   -0.94906E+05         0.80615E+05         0.00000E+00
    0.80615E+05        -0.27085E+05         0.00000E+00
    0.00000E+00         0.00000E+00        -0.24398E+05
 
   -0.91673E+05         0.82501E+05         0.00000E+00
    0.82501E+05        -0.28710E+05         0.00000E+00
    0.00000E+00         0.00000E+00        -0.24077E+05
 
   -0.88364E+05         0.84316E+05         0.00000E+00
    0.84316E+05        -0.30363E+05         0.00000E+00
    0.00000E+00         0.00000E+00        -0.23745E+05
 
   -0.84982E+05         0.86057E+05         0.00000E+00
    0.86057E+05        -0.32042E+05         0.00000E+00
    0.00000E+00         0.00000E+00        -0.23405E+05
 
   -0.81529E+05         0.87725E+05         0.00000E+00
    0.87725E+05        -0.33746E+05         0.00000E+00
    0.00000E+00         0.00000E+00        -0.23055E+05
 
   -0.78007E+05         0.89319E+05         0.00000E+00
    0.89319E+05        -0.35473E+05         0.00000E+00
    0.00000E+00         0.00000E+00        -0.22696E+05
 
   -0.74419E+05         0.90838E+05         0.00000E+00
    0.90838E+05        -0.37223E+05         0.00000E+00
    0.00000E+00         0.00000E+00        -0.22328E+05
 
   -0.70766E+05         0.92283E+05         0.00000E+00
    0.92283E+05        -0.38992E+05         0.00000E+00
    0.00000E+00         0.00000E+00        -0.21952E+05
 
   -0.67052E+05         0.93652E+05         0.00000E+00
    0.93652E+05        -0.40781E+05         0.00000E+00
    0.00000E+00         0.00000E+00        -0.21567E+05
 
   -0.63277E+05         0.94945E+05         0.00000E+00
    0.94945E+05        -0.42588E+05         0.00000E+00
    0.00000E+00         0.00000E+00        -0.21173E+05
 
   -0.59444E+05         0.96162E+05         0.00000E+00
    0.96162E+05        -0.44411E+05         0.00000E+00
    0.00000E+00         0.00000E+00        -0.20771E+05
 
   -0.55555E+05         0.97303E+05         0.00000E+00
    0.97303E+05        -0.46250E+05         0.00000E+00
    0.00000E+00         0.00000E+00        -0.20361E+05
 
   -0.51610E+05         0.98367E+05         0.00000E+00
    0.98367E+05        -0.48104E+05         0.00000E+00
    0.00000E+00         0.00000E+00        -0.19943E+05
 
   -0.47613E+05         0.99354E+05         0.00000E+00
    0.99354E+05        -0.49971E+05         0.00000E+00
    0.00000E+00         0.00000E+00        -0.19517E+05
 
   -0.43563E+05         0.10026E+06         0.00000E+00
    0.10026E+06        -0.51850E+05         0.00000E+00
    0.00000E+00         0.00000E+00        -0.19083E+05
 
   -0.39464E+05         0.10110E+06         0.00000E+00
    0.10110E+06        -0.53742E+05         0.00000E+00
    0.00000E+00         0.00000E+00        -0.18641E+05
 
   -0.35315E+05         0.10185E+06         0.00000E+00
    0.10185E+06        -0.55644E+05         0.00000E+00
    0.00000E+00         0.00000E+00        -0.18192E+05
 
   -0.31119E+05         0.10253E+06         0.00000E+00
    0.10253E+06        -0.57556E+05         0.00000E+00
    0.00000E+00         0.00000E+00        -0.17735E+05
 
   -0.26877E+05         0.10313E+06         0.00000E+00
    0.10313E+06        -0.59478E+05         0.00000E+00
    0.00000E+00         0.00000E+00        -0.17271E+05
 
   -0.22589E+05         0.10365E+06         0.00000E+00
    0.10365E+06        -0.61408E+05         0.00000E+00
    0.00000E+00         0.00000E+00        -0.16799E+05
 
   -0.18257E+05         0.10409E+06         0.00000E+00
    0.10409E+06        -0.63346E+05         0.00000E+00
    0.00000E+00         0.00000E+00        -0.16321E+05
 
   -0.12861E+06         0.14032E+04         0.00000E+00
    0.14032E+04         0.19365E+02         0.00000E+00
    0.00000E+00         0.00000E+00        -0.25717E+05
 
   -0.12870E+06         0.42270E+04         0.00000E+00
    0.42270E+04        -0.42513E+02         0.00000E+00
    0.00000E+00         0.00000E+00        -0.25748E+05
 
   -0.12866E+06         0.70534E+04         0.00000E+00
    0.70534E+04        -0.16622E+03         0.00000E+00
    0.00000E+00         0.00000E+00        -0.25766E+05
 
   -0.12851E+06         0.98786E+04         0.00000E+00
    0.98786E+04        -0.35153E+03         0.00000E+00
    0.00000E+00         0.00000E+00        -0.25771E+05
 
   -0.12823E+06         0.12699E+05         0.00000E+00
    0.12699E+05        -0.59808E+03         0.00000E+00
    0.00000E+00         0.00000E+00        -0.25765E+05
 
   -0.12783E+06         0.15511E+05         0.00000E+00
    0.15511E+05        -0.90539E+03         0.00000E+00
    0.00000E+00         0.00000E+00        -0.25746E+05
 
   -0.12730E+06         0.18311E+05         0.00000E+00
    0.18311E+05        -0.12729E+04         0.00000E+00
    0.00000E+00         0.00000E+00        -0.25715E+05
 
   -0.12666E+06         0.21096E+05         0.00000E+00
    0.21096E+05        -0.16998E+04         0.00000E+00
    0.00000E+00         0.00000E+00        -0.25673E+05
 
   -0.12590E+06         0.23863E+05         0.00000E+00
    0.23863E+05        -0.21854E+04         0.00000E+00
    0.00000E+00         0.00000E+00        -0.25618E+05
 
   -0.12503E+06         0.26608E+05         0.00000E+00
    0.26608E+05        -0.27287E+04         0.00000E+00
    0.00000E+00         0.00000E+00        -0.25551E+05
 
   -0.12403E+06         0.29328E+05         0.00000E+00
    0.29328E+05        -0.33288E+04         0.00000E+00
    0.00000E+00         0.00000E+00        -0.25472E+05
 
   -0.12292E+06         0.32021E+05         0.00000E+00
    0.32021E+05        -0.39846E+04         0.00000E+00
    0.00000E+00         0.00000E+00        -0.25382E+05
 
   -0.12170E+06         0.34682E+05         0.00000E+00
    0.34682E+05        -0.46950E+04         0.00000E+00
    0.00000E+00         0.00000E+00        -0.25279E+05
 
   -0.12037E+06         0.37311E+05         0.00000E+00
    0.37311E+05        -0.54588E+04         0.00000E+00
    0.00000E+00         0.00000E+00        -0.25166E+05
 
   -0.11893E+06         0.39903E+05         0.00000E+00
    0.39903E+05        -0.62746E+04         0.00000E+00
    0.00000E+00         0.00000E+00        -0.25041E+05
 
   -0.11738E+06         0.42457E+05         0.00000E+00
    0.42457E+05        -0.71412E+04         0.00000E+00
    0.00000E+00         0.00000E+00        -0.24904E+05
 
   -0.11573E+06         0.44970E+05         0.00000E+00
    0.44970E+05        -0.80572E+04         0.00000E+00
    0.00000E+00         0.00000E+00        -0.24757E+05
 
   -0.11397E+06         0.47440E+05         0.00000E+00
    0.47440E+05        -0.90212E+04         0.00000E+00
    0.00000E+00         0.00000E+00        -0.24598E+05
 
   -0.11211E+06         0.49864E+05         0.00000E+00
    0.49864E+05        -0.10032E+05         0.00000E+00
    0.00000E+00         0.00000E+00        -0.24429E+05
 
   -0.11016E+06         0.52241E+05         0.00000E+00
    0.52241E+05        -0.11087E+05         0.00000E+00
    0.00000E+00         0.00000E+00        -0.24249E+05
 
   -0.10810E+06         0.54568E+05         0.00000E+00
    0.54568E+05        -0.12187E+05         0.00000E+00
    0.00000E+00         0.00000E+00        -0.24058E+05
 
   -0.10596E+06         0.56843E+05         0.00000E+00
    0.56843E+05        -0.13328E+05         0.00000E+00
    0.00000E+00         0.00000E+00        -0.23857E+05
 
   -0.10372E+06         0.59066E+05         0.00000E+00
    0.59066E+05        -0.14510E+05         0.00000E+00
    0.00000E+00         0.00000E+00        -0.23645E+05
 
   -0.10139E+06         0.61233E+05         0.00000E+00
    0.61233E+05        -0.15730E+05         0.00000E+00
    0.00000E+00         0.00000E+00        -0.23424E+05
 
   -0.98972E+05         0.63344E+05         0.00000E+00
    0.63344E+05        -0.16989E+05         0.00000E+00
    0.00000E+00         0.00000E+00        -0.23192E+05
 
   -0.96471E+05         0.65398E+05         0.00000E+00
    0.65398E+05        -0.18283E+05         0.00000E+00
    0.00000E+00         0.00000E+00        -0.22951E+05
 
   -0.93887E+05         0.67392E+05         0.00000E+00
    0.67392E+05        -0.19612E+05         0.00000E+00
    0.00000E+00         0.00000E+00        -0.22700E+05
 
   -0.91222E+05         0.69325E+05         0.00000E+00
    0.69325E+05        -0.20973E+05         0.00000E+00
    0.00000E+00         0.00000E+00        -0.22439E+05
 
   -0.88479E+05         0.71197E+05         0.00000E+00
    0.71197E+05        -0.22366E+05         0.00000E+00
    0.00000E+00         0.00000E+00        -0.22169E+05
 
   -0.85660E+05         0.73006E+05         0.00000E+00
    0.73006E+05        -0.23789E+05         0.00000E+00
    0.00000E+00         0.00000E+00        -0.21890E+05
 
   -0.82767E+05         0.74751E+05         0.00000E+00
    0.74751E+05        -0.25241E+05         0.00000E+00
    0.00000E+00         0.00000E+00        -0.21602E+05
 
   -0.79803E+05         0.76432E+05         0.00000E+00
    0.76432E+05        -0.26720E+05         0.00000E+00
    0.00000E+00         0.00000E+00        -0.21304E+05
 
   -0.76769E+05         0.78046E+05         0.00000E+00
    0.78046E+05        -0.28224E+05         0.00000E+00
    0.00000E+00         0.00000E+00        -0.20999E+05
 
   -0.73667E+05         0.79595E+05         0.00000E+00
    0.79595E+05        -0.29753E+05         0.00000E+00
    0.00000E+00         0.00000E+00        -0.20684E+05
 
   -0.70500E+05         0.81076E+05         0.00000E+00
    0.81076E+05        -0.31305E+05         0.00000E+00
    0.00000E+00         0.00000E+00        -0.20361E+05
 
   -0.67269E+05         0.82489E+05         0.00000E+00
    0.82489E+05        -0.32878E+05         0.00000E+00
    0.00000E+00         0.00000E+00        -0.20029E+05
 
   -0.63977E+05         0.83833E+05         0.00000E+00
    0.83833E+05        -0.34472E+05         0.00000E+00
    0.00000E+00         0.00000E+00        -0.19690E+05
 
   -0.60625E+05         0.85109E+05         0.00000E+00
    0.85109E+05        -0.36086E+05         0.00000E+00
    0.00000E+00         0.00000E+00        -0.19342E+05
 
   -0.57215E+05         0.86314E+05         0.00000E+00
    0.86314E+05        -0.37717E+05         0.00000E+00
    0.00000E+00         0.00000E+00        -0.18986E+05
 
   -0.53749E+05         0.87449E+05         0.00000E+00
    0.87449E+05        -0.39366E+05         0.00000E+00
    0.00000E+00         0.00000E+00        -0.18623E+05
 
   -0.50228E+05         0.88514E+05         0.00000E+00
    0.88514E+05        -0.41030E+05         0.00000E+00
    0.00000E+00         0.00000E+00        -0.18252E+05
 
   -0.46655E+05         0.89507E+05         0.00000E+00
    0.89507E+05        -0.42709E+05         0.00000E+00
    0.00000E+00         0.00000E+00        -0.17873E+05
 
   -0.43030E+05         0.90428E+05         0.00000E+00
    0.90428E+05        -0.44402E+05         0.00000E+00
    0.00000E+00         0.00000E+00        -0.17487E+05
 
   -0.39356E+05         0.91276E+05         0.00000E+00
    0.91276E+05        -0.46109E+05         0.00000E+00
    0.00000E+00         0.00000E+00        -0.17093E+05
 
   -0.35633E+05         0.92052E+05         0.00000E+00
    0.92052E+05        -0.47827E+05         0.00000E+00
    0.00000E+00         0.00000E+00        -0.16692E+05
 
   -0.31864E+05         0.92754E+05         0.00000E+00
    0.92754E+05        -0.49556E+05         0.00000E+00
    0.00000E+00         0.00000E+00        -0.16284E+05
 
   -0.28049E+05         0.93382E+05         0.00000E+00
    0.93382E+05        -0.51295E+05         0.00000E+00
    0.00000E+00         0.00000E+00        -0.15869E+05
 
   -0.24190E+05         0.93936E+05         0.00000E+00
    0.93936E+05        -0.53043E+05         0.00000E+00
    0.00000E+00         0.00000E+00        -0.15447E+05
 
   -0.20288E+05         0.94414E+05         0.00000E+00
    0.94414E+05        -0.54801E+05         0.00000E+00
    0.00000E+00         0.00000E+00        -0.15018E+05
 
   -0.16344E+05         0.94817E+05         0.00000E+00
    0.94817E+05        -0.56565E+05         0.00000E+00
    0.00000E+00         0.00000E+00        -0.14582E+05
 
   -0.11523E+06         0.12602E+04         0.00000E+00
    0.12602E+04         0.16695E+02         0.00000E+00
    0.00000E+00         0.00000E+00        -0.23043E+05
 
   -0.11530E+06         0.37971E+04         0.00000E+00
    0.37971E+04        -0.36359E+02         0.00000E+00
    0.00000E+00         0.00000E+00        -0.23067E+05
 
   -0.11526E+06         0.63369E+04         0.00000E+00
    0.63369E+04        -0.14266E+03         0.00000E+00
    0.00000E+00         0.00000E+00        -0.23081E+05
 
   -0.11512E+06         0.88767E+04         0.00000E+00
    0.88767E+04        -0.30213E+03         0.00000E+00
    0.00000E+00         0.00000E+00        -0.23084E+05
 
   -0.11487E+06         0.11413E+05         0.00000E+00
    0.11413E+05        -0.51457E+03         0.00000E+00
    0.00000E+00         0.00000E+00        -0.23076E+05
 
   -0.11451E+06         0.13944E+05         0.00000E+00
    0.13944E+05        -0.77969E+03         0.00000E+00
    0.00000E+00         0.00000E+00        -0.23058E+05
 
   -0.11405E+06         0.16465E+05         0.00000E+00
    0.16465E+05        -0.10971E+04         0.00000E+00
    0.00000E+00         0.00000E+00        -0.23029E+05
 
   -0.11348E+06         0.18974E+05         0.00000E+00
    0.18974E+05        -0.14663E+04         0.00000E+00
    0.00000E+00         0.00000E+00        -0.22989E+05
 
   -0.11281E+06         0.21469E+05         0.00000E+00
    0.21469E+05        -0.18868E+04         0.00000E+00
    0.00000E+00         0.00000E+00        -0.22940E+05
 
   -0.11204E+06         0.23945E+05         0.00000E+00
    0.23945E+05        -0.23579E+04         0.00000E+00
    0.00000E+00         0.00000E+00        -0.22879E+05
 
   -0.11116E+06         0.26402E+05         0.00000E+00
    0.26402E+05        -0.28789E+04         0.00000E+00
    0.00000E+00         0.00000E+00        -0.22809E+05
 
   -0.11019E+06         0.28835E+05         0.00000E+00
    0.28835E+05        -0.34490E+04         0.00000E+00
    0.00000E+00         0.00000E+00        -0.22728E+05
 
   -0.10911E+06         0.31243E+05         0.00000E+00
    0.31243E+05        -0.40673E+04         0.00000E+00
    0.00000E+00         0.00000E+00        -0.22636E+05
 
   -0.10794E+06         0.33623E+05         0.00000E+00
    0.33623E+05        -0.47329E+04         0.00000E+00
    0.00000E+00         0.00000E+00        -0.22535E+05
 
   -0.10667E+06         0.35973E+05         0.00000E+00
    0.35973E+05        -0.54449E+04         0.00000E+00
    0.00000E+00         0.00000E+00        -0.22423E+05
 
   -0.10531E+06         0.38290E+05         0.00000E+00
    0.38290E+05        -0.62022E+04         0.00000E+00
    0.00000E+00         0.00000E+00        -0.22302E+05
 
   -0.10385E+06         0.40572E+05         0.00000E+00
    0.40572E+05        -0.70038E+04         0.00000E+00
    0.00000E+00         0.00000E+00        -0.22170E+05
 
   -0.10230E+06         0.42817E+05         0.00000E+00
    0.42817E+05        -0.78485E+04         0.00000E+00
    0.00000E+00         0.00000E+00        -0.22029E+05
 
   -0.10066E+06         0.45024E+05         0.00000E+00
    0.45024E+05        -0.87353E+04         0.00000E+00
    0.00000E+00         0.00000E+00        -0.21878E+05
 
   -0.98925E+05         0.47189E+05         0.00000E+00
    0.47189E+05        -0.96628E+04         0.00000E+00
    0.00000E+00         0.00000E+00        -0.21717E+05
 
   -0.97107E+05         0.49311E+05         0.00000E+00
    0.49311E+05        -0.10630E+05         0.00000E+00
    0.00000E+00         0.00000E+00        -0.21547E+05
 
   -0.95204E+05         0.51389E+05         0.00000E+00
    0.51389E+05        -0.11636E+05         0.00000E+00
    0.00000E+00         0.00000E+00        -0.21368E+05
 
   -0.93217E+05         0.53421E+05         0.00000E+00
    0.53421E+05        -0.12678E+05         0.00000E+00
    0.00000E+00         0.00000E+00        -0.21179E+05
 
   -0.91149E+05         0.55404E+05         0.00000E+00
    0.55404E+05        -0.13757E+05         0.00000E+00
    0.00000E+00         0.00000E+00        -0.20981E+05
 
   -0.89001E+05         0.57339E+05         0.00000E+00
    0.57339E+05        -0.14870E+05         0.00000E+00
    0.00000E+00         0.00000E+00        -0.20774E+05
 
   -0.86774E+05         0.59222E+05         0.00000E+00
    0.59222E+05        -0.16017E+05         0.00000E+00
    0.00000E+00         0.00000E+00        -0.20558E+05
 
   -0.84472E+05         0.61053E+05         0.00000E+00
    0.61053E+05        -0.17196E+05         0.00000E+00
    0.00000E+00         0.00000E+00        -0.20334E+05
 
   -0.82095E+05         0.62830E+05         0.00000E+00
    0.62830E+05        -0.18406E+05         0.00000E+00
    0.00000E+00         0.00000E+00        -0.20100E+05
 
   -0.79646E+05         0.64553E+05         0.00000E+00
    0.64553E+05        -0.19645E+05         0.00000E+00
    0.00000E+00         0.00000E+00        -0.19858E+05
 
   -0.77127E+05         0.66219E+05         0.00000E+00
    0.66219E+05        -0.20913E+05         0.00000E+00
    0.00000E+00         0.00000E+00        -0.19608E+05
 
   -0.74539E+05         0.67828E+05         0.00000E+00
    0.67828E+05        -0.22207E+05         0.00000E+00
    0.00000E+00         0.00000E+00        -0.19349E+05
 
   -0.71884E+05         0.69379E+05         0.00000E+00
    0.69379E+05        -0.23528E+05         0.00000E+00
    0.00000E+00         0.00000E+00        -0.19082E+05
 
   -0.69164E+05         0.70871E+05         0.00000E+00
    0.70871E+05        -0.24873E+05         0.00000E+00
    0.00000E+00         0.00000E+00        -0.18807E+05
 
   -0.66380E+05         0.72303E+05         0.00000E+00
    0.72303E+05        -0.26242E+05         0.00000E+00
    0.00000E+00         0.00000E+00        -0.18524E+05
 
   -0.63536E+05         0.73673E+05         0.00000E+00
    0.73673E+05        -0.27633E+05         0.00000E+00
    0.00000E+00         0.00000E+00        -0.18234E+05
 
   -0.60631E+05         0.74982E+05         0.00000E+00
    0.74982E+05        -0.29045E+05         0.00000E+00
    0.00000E+00         0.00000E+00        -0.17935E+05
 
   -0.57669E+05         0.76228E+05         0.00000E+00
    0.76228E+05        -0.30477E+05         0.00000E+00
    0.00000E+00         0.00000E+00        -0.17629E+05
 
   -0.54650E+05         0.77410E+05         0.00000E+00
    0.77410E+05        -0.31928E+05         0.00000E+00
    0.00000E+00         0.00000E+00        -0.17316E+05
 
   -0.51577E+05         0.78529E+05         0.00000E+00
    0.78529E+05        -0.33397E+05         0.00000E+00
    0.00000E+00         0.00000E+00        -0.16995E+05
 
   -0.48451E+05         0.79582E+05         0.00000E+00
    0.79582E+05        -0.34883E+05         0.00000E+00
    0.00000E+00         0.00000E+00        -0.16667E+05
 
   -0.45273E+05         0.80569E+05         0.00000E+00
    0.80569E+05        -0.36384E+05         0.00000E+00
    0.00000E+00         0.00000E+00        -0.16331E+05
 
   -0.42045E+05         0.81490E+05         0.00000E+00
    0.81490E+05        -0.37900E+05         0.00000E+00
    0.00000E+00         0.00000E+00        -0.15989E+05
 
   -0.38769E+05         0.82345E+05         0.00000E+00
    0.82345E+05        -0.39430E+05         0.00000E+00
    0.00000E+00         0.00000E+00        -0.15640E+05
 
   -0.35447E+05         0.83131E+05         0.00000E+00
    0.83131E+05        -0.40972E+05         0.00000E+00
    0.00000E+00         0.00000E+00        -0.15284E+05
 
   -0.32079E+05         0.83850E+05         0.00000E+00
    0.83850E+05        -0.42526E+05         0.00000E+00
    0.00000E+00         0.00000E+00        -0.14921E+05
 
   -0.28667E+05         0.84499E+05         0.00000E+00
    0.84499E+05        -0.44091E+05         0.00000E+00
    0.00000E+00         0.00000E+00        -0.14552E+05
 
   -0.25212E+05         0.85079E+05         0.00000E+00
    0.85079E+05        -0.45667E+05         0.00000E+00
    0.00000E+00         0.00000E+00        -0.14176E+05
 
   -0.21716E+05         0.85588E+05         0.00000E+00
    0.85588E+05        -0.47251E+05         0.00000E+00
    0.00000E+00         0.00000E+00        -0.13793E+05
 
   -0.18181E+05         0.86027E+05         0.00000E+00
    0.86027E+05        -0.48843E+05         0.00000E+00
    0.00000E+00         0.00000E+00        -0.13405E+05
 
   -0.14607E+05         0.86394E+05         0.00000E+00
    0.86394E+05        -0.50443E+05         0.00000E+00
    0.00000E+00         0.00000E+00        -0.13010E+05
 
   -0.10319E+06         0.11373E+04         0.00000E+00
    0.11373E+04         0.14445E+02         0.00000E+00
    0.00000E+00         0.00000E+00        -0.20636E+05
 
   -0.10324E+06         0.34269E+04         0.00000E+00
    0.34269E+04        -0.31268E+02         0.00000E+00
    0.00000E+00         0.00000E+00        -0.20654E+05
 
   -0.10319E+06         0.57193E+04         0.00000E+00
    0.57193E+04        -0.12302E+03         0.00000E+00
    0.00000E+00         0.00000E+00        -0.20663E+05
 
   -0.10305E+06         0.80121E+04         0.00000E+00
    0.80121E+04        -0.26081E+03         0.00000E+00
    0.00000E+00         0.00000E+00        -0.20663E+05
 
   -0.10282E+06         0.10303E+05         0.00000E+00
    0.10303E+05        -0.44457E+03         0.00000E+00
    0.00000E+00         0.00000E+00        -0.20653E+05
 
   -0.10250E+06         0.12588E+05         0.00000E+00
    0.12588E+05        -0.67412E+03         0.00000E+00
    0.00000E+00         0.00000E+00        -0.20635E+05
 
   -0.10209E+06         0.14866E+05         0.00000E+00
    0.14866E+05        -0.94922E+03         0.00000E+00
    0.00000E+00         0.00000E+00        -0.20607E+05
 
   -0.10158E+06         0.17135E+05         0.00000E+00
    0.17135E+05        -0.12696E+04         0.00000E+00
    0.00000E+00         0.00000E+00        -0.20570E+05
 
   -0.10099E+06         0.19391E+05         0.00000E+00
    0.19391E+05        -0.16347E+04         0.00000E+00
    0.00000E+00         0.00000E+00        -0.20524E+05
 
   -0.10030E+06         0.21632E+05         0.00000E+00
    0.21632E+05        -0.20443E+04         0.00000E+00
    0.00000E+00         0.00000E+00        -0.20469E+05
 
   -0.99525E+05         0.23856E+05         0.00000E+00
    0.23856E+05        -0.24977E+04         0.00000E+00
    0.00000E+00         0.00000E+00        -0.20405E+05
 
   -0.98661E+05         0.26061E+05         0.00000E+00
    0.26061E+05        -0.29944E+04         0.00000E+00
    0.00000E+00         0.00000E+00        -0.20331E+05
 
   -0.97710E+05         0.28244E+05         0.00000E+00
    0.28244E+05        -0.35337E+04         0.00000E+00
    0.00000E+00         0.00000E+00        -0.20249E+05
 
   -0.96672E+05         0.30404E+05         0.00000E+00
    0.30404E+05        -0.41149E+04         0.00000E+00
    0.00000E+00         0.00000E+00        -0.20157E+05
 
   -0.95548E+05         0.32537E+05         0.00000E+00
    0.32537E+05        -0.47374E+04         0.00000E+00
    0.00000E+00         0.00000E+00        -0.20057E+05
 
   -0.94340E+05         0.34642E+05         0.00000E+00
    0.34642E+05        -0.54002E+04         0.00000E+00
    0.00000E+00         0.00000E+00        -0.19948E+05
 
   -0.93048E+05         0.36718E+05         0.00000E+00
    0.36718E+05        -0.61025E+04         0.00000E+00
    0.00000E+00         0.00000E+00        -0.19830E+05
 
   -0.91673E+05         0.38761E+05         0.00000E+00
    0.38761E+05        -0.68435E+04         0.00000E+00
    0.00000E+00         0.00000E+00        -0.19703E+05
 
   -0.90218E+05         0.40771E+05         0.00000E+00
    0.40771E+05        -0.76223E+04         0.00000E+00
    0.00000E+00         0.00000E+00        -0.19568E+05
 
   -0.88683E+05         0.42745E+05         0.00000E+00
    0.42745E+05        -0.84379E+04         0.00000E+00
    0.00000E+00         0.00000E+00        -0.19424E+05
 
   -0.87070E+05         0.44682E+05         0.00000E+00
    0.44682E+05        -0.92893E+04         0.00000E+00
    0.00000E+00         0.00000E+00        -0.19272E+05
 
   -0.85380E+05         0.46579E+05         0.00000E+00
    0.46579E+05        -0.10176E+05         0.00000E+00
    0.00000E+00         0.00000E+00        -0.19111E+05
 
   -0.83614E+05         0.48436E+05         0.00000E+00
    0.48436E+05        -0.11096E+05         0.00000E+00
    0.00000E+00         0.00000E+00        -0.18942E+05
 
   -0.81775E+05         0.50251E+05         0.00000E+00
    0.50251E+05        -0.12049E+05         0.00000E+00
    0.00000E+00         0.00000E+00        -0.18765E+05
 
   -0.79863E+05         0.52022E+05         0.00000E+00
    0.52022E+05        -0.13034E+05         0.00000E+00
    0.00000E+00         0.00000E+00        -0.18579E+05
 
   -0.77880E+05         0.53748E+05         0.00000E+00
    0.53748E+05        -0.14049E+05         0.00000E+00
    0.00000E+00         0.00000E+00        -0.18386E+05
 
   -0.75828E+05         0.55427E+05         0.00000E+00
    0.55427E+05        -0.15094E+05         0.00000E+00
    0.00000E+00         0.00000E+00        -0.18184E+05
 
   -0.73708E+05         0.57059E+05         0.00000E+00
    0.57059E+05        -0.16168E+05         0.00000E+00
    0.00000E+00         0.00000E+00        -0.17975E+05
 
   -0.71521E+05         0.58641E+05         0.00000E+00
    0.58641E+05        -0.17269E+05         0.00000E+00
    0.00000E+00         0.00000E+00        -0.17758E+05
 
   -0.69270E+05         0.60173E+05         0.00000E+00
    0.60173E+05        -0.18397E+05         0.00000E+00
    0.00000E+00         0.00000E+00        -0.17533E+05
 
   -0.66956E+05         0.61654E+05         0.00000E+00
    0.61654E+05        -0.19550E+05         0.00000E+00
    0.00000E+00         0.00000E+00        -0.17301E+05
 
   -0.64580E+05         0.63082E+05         0.00000E+00
    0.63082E+05        -0.20728E+05         0.00000E+00
    0.00000E+00         0.00000E+00        -0.17062E+05
 
   -0.62144E+05         0.64457E+05         0.00000E+00
    0.64457E+05        -0.21928E+05         0.00000E+00
    0.00000E+00         0.00000E+00        -0.16815E+05
 
   -0.59650E+05         0.65777E+05         0.00000E+00
    0.65777E+05        -0.23151E+05         0.00000E+00
    0.00000E+00         0.00000E+00        -0.16560E+05
 
   -0.57099E+05         0.67042E+05         0.00000E+00
    0.67042E+05        -0.24396E+05         0.00000E+00
    0.00000E+00         0.00000E+00        -0.16299E+05
 
   -0.54493E+05         0.68250E+05         0.00000E+00
    0.68250E+05        -0.25660E+05         0.00000E+00
    0.00000E+00         0.00000E+00        -0.16031E+05
 
   -0.51833E+05         0.69400E+05         0.00000E+00
    0.69400E+05        -0.26943E+05         0.00000E+00
    0.00000E+00         0.00000E+00        -0.15755E+05
 
   -0.49120E+05         0.70493E+05         0.00000E+00
    0.70493E+05        -0.28245E+05         0.00000E+00
    0.00000E+00         0.00000E+00        -0.15473E+05
 
   -0.46357E+05         0.71526E+05         0.00000E+00
    0.71526E+05        -0.29563E+05         0.00000E+00
    0.00000E+00         0.00000E+00        -0.15184E+05
 
   -0.43545E+05         0.72499E+05         0.00000E+00
    0.72499E+05        -0.30898E+05         0.00000E+00
    0.00000E+00         0.00000E+00        -0.14888E+05
 
   -0.40684E+05         0.73412E+05         0.00000E+00
    0.73412E+05        -0.32248E+05         0.00000E+00
    0.00000E+00         0.00000E+00        -0.14586E+05
 
   -0.37778E+05         0.74263E+05         0.00000E+00
    0.74263E+05        -0.33612E+05         0.00000E+00
    0.00000E+00         0.00000E+00        -0.14278E+05
 
   -0.34827E+05         0.75053E+05         0.00000E+00
    0.75053E+05        -0.34989E+05         0.00000E+00
    0.00000E+00         0.00000E+00        -0.13963E+05
 
   -0.31832E+05         0.75779E+05         0.00000E+00
    0.75779E+05        -0.36378E+05         0.00000E+00
    0.00000E+00         0.00000E+00        -0.13642E+05
 
   -0.28795E+05         0.76441E+05         0.00000E+00
    0.76441E+05        -0.37779E+05         0.00000E+00
    0.00000E+00         0.00000E+00        -0.13315E+05
 
   -0.25718E+05         0.77040E+05         0.00000E+00
    0.77040E+05        -0.39190E+05         0.00000E+00
    0.00000E+00         0.00000E+00        -0.12982E+05
 
   -0.22602E+05         0.77573E+05         0.00000E+00
    0.77573E+05        -0.40611E+05         0.00000E+00
    0.00000E+00         0.00000E+00        -0.12643E+05
 
   -0.19448E+05         0.78040E+05         0.00000E+00
    0.78040E+05        -0.42040E+05         0.00000E+00
    0.00000E+00         0.00000E+00        -0.12298E+05
 
   -0.16258E+05         0.78441E+05         0.00000E+00
    0.78441E+05        -0.43477E+05         0.00000E+00
    0.00000E+00         0.00000E+00        -0.11947E+05
 
   -0.13032E+05         0.78775E+05         0.00000E+00
    0.78775E+05        -0.44921E+05         0.00000E+00
    0.00000E+00         0.00000E+00        -0.11591E+05
 
   -0.92303E+05         0.10313E+04         0.00000E+00
    0.10313E+04         0.12541E+02         0.00000E+00
    0.00000E+00         0.00000E+00        -0.18458E+05
 
   -0.92328E+05         0.31068E+04         0.00000E+00
    0.31068E+04        -0.27024E+02         0.00000E+00
    0.00000E+00         0.00000E+00        -0.18471E+05
 
   -0.92274E+05         0.51848E+04         0.00000E+00
    0.51848E+04        -0.10653E+03         0.00000E+00
    0.00000E+00         0.00000E+00        -0.18476E+05
 
   -0.92140E+05         0.72631E+04         0.00000E+00
    0.72631E+04        -0.22603E+03         0.00000E+00
    0.00000E+00         0.00000E+00        -0.18473E+05
 
   -0.91925E+05         0.93396E+04         0.00000E+00
    0.93396E+04        -0.38552E+03         0.00000E+00
    0.00000E+00         0.00000E+00        -0.18462E+05
 
   -0.91631E+05         0.11412E+05         0.00000E+00
    0.11412E+05        -0.58491E+03         0.00000E+00
    0.00000E+00         0.00000E+00        -0.18443E+05
 
   -0.91257E+05         0.13478E+05         0.00000E+00
    0.13478E+05        -0.82406E+03         0.00000E+00
    0.00000E+00         0.00000E+00        -0.18416E+05
 
   -0.90804E+05         0.15536E+05         0.00000E+00
    0.15536E+05        -0.11027E+04         0.00000E+00
    0.00000E+00         0.00000E+00        -0.18381E+05
 
   -0.90271E+05         0.17583E+05         0.00000E+00
    0.17583E+05        -0.14207E+04         0.00000E+00
    0.00000E+00         0.00000E+00        -0.18338E+05
 
   -0.89659E+05         0.19617E+05         0.00000E+00
    0.19617E+05        -0.17776E+04         0.00000E+00
    0.00000E+00         0.00000E+00        -0.18287E+05
 
   -0.88968E+05         0.21637E+05         0.00000E+00
    0.21637E+05        -0.21731E+04         0.00000E+00
    0.00000E+00         0.00000E+00        -0.18228E+05
 
   -0.88200E+05         0.23640E+05         0.00000E+00
    0.23640E+05        -0.26067E+04         0.00000E+00
    0.00000E+00         0.00000E+00        -0.18161E+05
 
   -0.87355E+05         0.25625E+05         0.00000E+00
    0.25625E+05        -0.30779E+04         0.00000E+00
    0.00000E+00         0.00000E+00        -0.18087E+05
 
   -0.86433E+05         0.27588E+05         0.00000E+00
    0.27588E+05        -0.35862E+04         0.00000E+00
    0.00000E+00         0.00000E+00        -0.18004E+05
 
   -0.85435E+05         0.29530E+05         0.00000E+00
    0.29530E+05        -0.41311E+04         0.00000E+00
    0.00000E+00         0.00000E+00        -0.17913E+05
 
   -0.84362E+05         0.31447E+05         0.00000E+00
    0.31447E+05        -0.47118E+04         0.00000E+00
    0.00000E+00         0.00000E+00        -0.17815E+05
 
   -0.83215E+05         0.33337E+05         0.00000E+00
    0.33337E+05        -0.53278E+04         0.00000E+00
    0.00000E+00         0.00000E+00        -0.17708E+05
 
   -0.81994E+05         0.35200E+05         0.00000E+00
    0.35200E+05        -0.59784E+04         0.00000E+00
    0.00000E+00         0.00000E+00        -0.17595E+05
 
   -0.80702E+05         0.37033E+05         0.00000E+00
    0.37033E+05        -0.66628E+04         0.00000E+00
    0.00000E+00         0.00000E+00        -0.17473E+05
 
   -0.79338E+05         0.38834E+05         0.00000E+00
    0.38834E+05        -0.73802E+04         0.00000E+00
    0.00000E+00         0.00000E+00        -0.17344E+05
 
   -0.77905E+05         0.40603E+05         0.00000E+00
    0.40603E+05        -0.81300E+04         0.00000E+00
    0.00000E+00         0.00000E+00        -0.17207E+05
 
   -0.76402E+05         0.42337E+05         0.00000E+00
    0.42337E+05        -0.89112E+04         0.00000E+00
    0.00000E+00         0.00000E+00        -0.17063E+05
 
   -0.74832E+05         0.44035E+05         0.00000E+00
    0.44035E+05        -0.97231E+04         0.00000E+00
    0.00000E+00         0.00000E+00        -0.16911E+05
 
   -0.73195E+05         0.45696E+05         0.00000E+00
    0.45696E+05        -0.10565E+05         0.00000E+00
    0.00000E+00         0.00000E+00        -0.16752E+05
 
   -0.71493E+05         0.47318E+05         0.00000E+00
    0.47318E+05        -0.11435E+05         0.00000E+00
    0.00000E+00         0.00000E+00        -0.16586E+05
 
   -0.69727E+05         0.48899E+05         0.00000E+00
    0.48899E+05        -0.12334E+05         0.00000E+00
    0.00000E+00         0.00000E+00        -0.16412E+05
 
   -0.67898E+05         0.50439E+05         0.00000E+00
    0.50439E+05        -0.13260E+05         0.00000E+00
    0.00000E+00         0.00000E+00        -0.16232E+05
 
   -0.66008E+05         0.51936E+05         0.00000E+00
    0.51936E+05        -0.14212E+05         0.00000E+00
    0.00000E+00         0.00000E+00        -0.16044E+05
 
   -0.64057E+05         0.53388E+05         0.00000E+00
    0.53388E+05        -0.15189E+05         0.00000E+00
    0.00000E+00         0.00000E+00        -0.15849E+05
 
   -0.62048E+05         0.54796E+05         0.00000E+00
    0.54796E+05        -0.16191E+05         0.00000E+00
    0.00000E+00         0.00000E+00        -0.15648E+05
 
   -0.59981E+05         0.56157E+05         0.00000E+00
    0.56157E+05        -0.17217E+05         0.00000E+00
    0.00000E+00         0.00000E+00        -0.15439E+05
 
   -0.57858E+05         0.57470E+05         0.00000E+00
    0.57470E+05        -0.18265E+05         0.00000E+00
    0.00000E+00         0.00000E+00        -0.15224E+05
 
   -0.55680E+05         0.58735E+05         0.00000E+00
    0.58735E+05        -0.19334E+05         0.00000E+00
    0.00000E+00         0.00000E+00        -0.15003E+05
 
   -0.53449E+05         0.59950E+05         0.00000E+00
    0.59950E+05        -0.20425E+05         0.00000E+00
    0.00000E+00         0.00000E+00        -0.14775E+05
 
   -0.51165E+05         0.61114E+05         0.00000E+00
    0.61114E+05        -0.21535E+05         0.00000E+00
    0.00000E+00         0.00000E+00        -0.14540E+05
 
   -0.48831E+05         0.62227E+05         0.00000E+00
    0.62227E+05        -0.22664E+05         0.00000E+00
    0.00000E+00         0.00000E+00        -0.14299E+05
 
   -0.46448E+05         0.63287E+05         0.00000E+00
    0.63287E+05        -0.23811E+05         0.00000E+00
    0.00000E+00         0.00000E+00        -0.14052E+05
 
   -0.44017E+05         0.64294E+05         0.00000E+00
    0.64294E+05        -0.24975E+05         0.00000E+00
    0.00000E+00         0.00000E+00        -0.13798E+05
 
   -0.41539E+05         0.65247E+05         0.00000E+00
    0.65247E+05        -0.26155E+05         0.00000E+00
    0.00000E+00         0.00000E+00        -0.13539E+05
 
   -0.39016E+05         0.66144E+05         0.00000E+00
    0.66144E+05        -0.27350E+05         0.00000E+00
    0.00000E+00         0.00000E+00        -0.13273E+05
 
   -0.36450E+05         0.66986E+05         0.00000E+00
    0.66986E+05        -0.28560E+05         0.00000E+00
    0.00000E+00         0.00000E+00        -0.13002E+05
 
   -0.33840E+05         0.67770E+05         0.00000E+00
    0.67770E+05        -0.29783E+05         0.00000E+00
    0.00000E+00         0.00000E+00        -0.12725E+05
 
   -0.31190E+05         0.68497E+05         0.00000E+00
    0.68497E+05        -0.31018E+05         0.00000E+00
    0.00000E+00         0.00000E+00        -0.12442E+05
 
   -0.28500E+05         0.69166E+05         0.00000E+00
    0.69166E+05        -0.32265E+05         0.00000E+00
    0.00000E+00         0.00000E+00        -0.12153E+05
 
   -0.25772E+05         0.69776E+05         0.00000E+00
    0.69776E+05        -0.33523E+05         0.00000E+00
    0.00000E+00         0.00000E+00        -0.11859E+05
 
   -0.23007E+05         0.70326E+05         0.00000E+00
    0.70326E+05        -0.34791E+05         0.00000E+00
    0.00000E+00         0.00000E+00        -0.11560E+05
 
   -0.20207E+05         0.70815E+05         0.00000E+00
    0.70815E+05        -0.36067E+05         0.00000E+00
    0.00000E+00         0.00000E+00        -0.11255E+05
 
   -0.17372E+05         0.71243E+05         0.00000E+00
    0.71243E+05        -0.37352E+05         0.00000E+00
    0.00000E+00         0.00000E+00        -0.10945E+05
 
   -0.14504E+05         0.71609E+05         0.00000E+00
    0.71609E+05        -0.38644E+05         0.00000E+00
    0.00000E+00         0.00000E+00        -0.10630E+05
 
   -0.11605E+05         0.71913E+05         0.00000E+00
    0.71913E+05        -0.39941E+05         0.00000E+00
    0.00000E+00         0.00000E+00        -0.10309E+05
 
   -0.82410E+05         0.93948E+03         0.00000E+00
    0.93948E+03         0.10916E+02         0.00000E+00
    0.00000E+00         0.00000E+00        -0.16480E+05
 
   -0.82418E+05         0.28290E+04         0.00000E+00
    0.28290E+04        -0.23452E+02         0.00000E+00
    0.00000E+00         0.00000E+00        -0.16488E+05
 
   -0.82358E+05         0.47206E+04         0.00000E+00
    0.47206E+04        -0.92570E+02         0.00000E+00
    0.00000E+00         0.00000E+00        -0.16490E+05
 
   -0.82227E+05         0.66123E+04         0.00000E+00
    0.66123E+04        -0.19652E+03         0.00000E+00
    0.00000E+00         0.00000E+00        -0.16485E+05
 
   -0.82027E+05         0.85022E+04         0.00000E+00
    0.85022E+04        -0.33533E+03         0.00000E+00
    0.00000E+00         0.00000E+00        -0.16473E+05
 
   -0.81757E+05         0.10388E+05         0.00000E+00
    0.10388E+05        -0.50896E+03         0.00000E+00
    0.00000E+00         0.00000E+00        -0.16453E+05
 
   -0.81418E+05         0.12269E+05         0.00000E+00
    0.12269E+05        -0.71732E+03         0.00000E+00
    0.00000E+00         0.00000E+00        -0.16427E+05
 
   -0.81009E+05         0.14142E+05         0.00000E+00
    0.14142E+05        -0.96030E+03         0.00000E+00
    0.00000E+00         0.00000E+00        -0.16394E+05
 
   -0.80530E+05         0.16006E+05         0.00000E+00
    0.16006E+05        -0.12377E+04         0.00000E+00
    0.00000E+00         0.00000E+00        -0.16354E+05
 
   -0.79982E+05         0.17859E+05         0.00000E+00
    0.17859E+05        -0.15492E+04         0.00000E+00
    0.00000E+00         0.00000E+00        -0.16306E+05
 
   -0.79366E+05         0.19699E+05         0.00000E+00
    0.19699E+05        -0.18947E+04         0.00000E+00
    0.00000E+00         0.00000E+00        -0.16252E+05
 
   -0.78681E+05         0.21525E+05         0.00000E+00
    0.21525E+05        -0.22737E+04         0.00000E+00
    0.00000E+00         0.00000E+00        -0.16191E+05
 
   -0.77927E+05         0.23333E+05         0.00000E+00
    0.23333E+05        -0.26860E+04         0.00000E+00
    0.00000E+00         0.00000E+00        -0.16123E+05
 
   -0.77107E+05         0.25124E+05         0.00000E+00
    0.25124E+05        -0.31310E+04         0.00000E+00
    0.00000E+00         0.00000E+00        -0.16048E+05
 
   -0.76219E+05         0.26895E+05         0.00000E+00
    0.26895E+05        -0.36083E+04         0.00000E+00
    0.00000E+00         0.00000E+00        -0.15965E+05
 
   -0.75265E+05         0.28644E+05         0.00000E+00
    0.28644E+05        -0.41175E+04         0.00000E+00
    0.00000E+00         0.00000E+00        -0.15877E+05
 
   -0.74246E+05         0.30370E+05         0.00000E+00
    0.30370E+05        -0.46580E+04         0.00000E+00
    0.00000E+00         0.00000E+00        -0.15781E+05
 
   -0.73161E+05         0.32071E+05         0.00000E+00
    0.32071E+05        -0.52293E+04         0.00000E+00
    0.00000E+00         0.00000E+00        -0.15678E+05
 
   -0.72013E+05         0.33746E+05         0.00000E+00
    0.33746E+05        -0.58308E+04         0.00000E+00
    0.00000E+00         0.00000E+00        -0.15569E+05
 
   -0.70801E+05         0.35393E+05         0.00000E+00
    0.35393E+05        -0.64619E+04         0.00000E+00
    0.00000E+00         0.00000E+00        -0.15453E+05
 
   -0.69527E+05         0.37010E+05         0.00000E+00
    0.37010E+05        -0.71219E+04         0.00000E+00
    0.00000E+00         0.00000E+00        -0.15330E+05
 
   -0.68191E+05         0.38597E+05         0.00000E+00
    0.38597E+05        -0.78101E+04         0.00000E+00
    0.00000E+00         0.00000E+00        -0.15200E+05
 
   -0.66795E+05         0.40151E+05         0.00000E+00
    0.40151E+05        -0.85260E+04         0.00000E+00
    0.00000E+00         0.00000E+00        -0.15064E+05
 
   -0.65339E+05         0.41672E+05         0.00000E+00
    0.41672E+05        -0.92688E+04         0.00000E+00
    0.00000E+00         0.00000E+00        -0.14922E+05
 
   -0.63825E+05         0.43158E+05         0.00000E+00
    0.43158E+05        -0.10038E+05         0.00000E+00
    0.00000E+00         0.00000E+00        -0.14772E+05
 
   -0.62253E+05         0.44608E+05         0.00000E+00
    0.44608E+05        -0.10832E+05         0.00000E+00
    0.00000E+00         0.00000E+00        -0.14617E+05
 
   -0.60625E+05         0.46020E+05         0.00000E+00
    0.46020E+05        -0.11651E+05         0.00000E+00
    0.00000E+00         0.00000E+00        -0.14455E+05
 
   -0.58941E+05         0.47394E+05         0.00000E+00
    0.47394E+05        -0.12494E+05         0.00000E+00
    0.00000E+00         0.00000E+00        -0.14287E+05
 
   -0.57203E+05         0.48728E+05         0.00000E+00
    0.48728E+05        -0.13360E+05         0.00000E+00
    0.00000E+00         0.00000E+00        -0.14113E+05
 
   -0.55413E+05         0.50020E+05         0.00000E+00
    0.50020E+05        -0.14249E+05         0.00000E+00
    0.00000E+00         0.00000E+00        -0.13932E+05
 
   -0.53570E+05         0.51271E+05         0.00000E+00
    0.51271E+05        -0.15158E+05         0.00000E+00
    0.00000E+00         0.00000E+00        -0.13746E+05
 
   -0.51676E+05         0.52478E+05         0.00000E+00
    0.52478E+05        -0.16089E+05         0.00000E+00
    0.00000E+00         0.00000E+00        -0.13553E+05
 
   -0.49733E+05         0.53641E+05         0.00000E+00
    0.53641E+05        -0.17040E+05         0.00000E+00
    0.00000E+00         0.00000E+00        -0.13355E+05
 
   -0.47742E+05         0.54759E+05         0.00000E+00
    0.54759E+05        -0.18010E+05         0.00000E+00
    0.00000E+00         0.00000E+00        -0.13150E+05
 
   -0.45703E+05         0.55830E+05         0.00000E+00
    0.55830E+05        -0.18998E+05         0.00000E+00
    0.00000E+00         0.00000E+00        -0.12940E+05
 
   -0.43618E+05         0.56854E+05         0.00000E+00
    0.56854E+05        -0.20003E+05         0.00000E+00
    0.00000E+00         0.00000E+00        -0.12724E+05
 
   -0.41489E+05         0.57830E+05         0.00000E+00
    0.57830E+05        -0.21025E+05         0.00000E+00
    0.00000E+00         0.00000E+00        -0.12503E+05
 
   -0.39316E+05         0.58757E+05         0.00000E+00
    0.58757E+05        -0.22063E+05         0.00000E+00
    0.00000E+00         0.00000E+00        -0.12276E+05
 
   -0.37101E+05         0.59634E+05         0.00000E+00
    0.59634E+05        -0.23116E+05         0.00000E+00
    0.00000E+00         0.00000E+00        -0.12043E+05
 
   -0.34845E+05         0.60460E+05         0.00000E+00
    0.60460E+05        -0.24183E+05         0.00000E+00
    0.00000E+00         0.00000E+00        -0.11806E+05
 
   -0.32549E+05         0.61235E+05         0.00000E+00
    0.61235E+05        -0.25263E+05         0.00000E+00
    0.00000E+00         0.00000E+00        -0.11562E+05
 
   -0.30215E+05         0.61957E+05         0.00000E+00
    0.61957E+05        -0.26356E+05         0.00000E+00
    0.00000E+00         0.00000E+00        -0.11314E+05
 
   -0.27843E+05         0.62626E+05         0.00000E+00
    0.62626E+05        -0.27460E+05         0.00000E+00
    0.00000E+00         0.00000E+00        -0.11061E+05
 
   -0.25436E+05         0.63240E+05         0.00000E+00
    0.63240E+05        -0.28576E+05         0.00000E+00
    0.00000E+00         0.00000E+00        -0.10802E+05
 
   -0.22994E+05         0.63801E+05         0.00000E+00
    0.63801E+05        -0.29701E+05         0.00000E+00
    0.00000E+00         0.00000E+00        -0.10539E+05
 
   -0.20519E+05         0.64305E+05         0.00000E+00
    0.64305E+05        -0.30835E+05         0.00000E+00
    0.00000E+00         0.00000E+00        -0.10271E+05
 
   -0.18012E+05         0.64754E+05         0.00000E+00
    0.64754E+05        -0.31977E+05         0.00000E+00
    0.00000E+00         0.00000E+00        -0.99978E+04
 
   -0.15474E+05         0.65146E+05         0.00000E+00
    0.65146E+05        -0.33127E+05         0.00000E+00
    0.00000E+00         0.00000E+00        -0.97202E+04
 
   -0.12907E+05         0.65480E+05         0.00000E+00
    0.65480E+05        -0.34283E+05         0.00000E+00
    0.00000E+00         0.00000E+00        -0.94380E+04
 
   -0.10311E+05         0.65756E+05         0.00000E+00
    0.65756E+05        -0.35445E+05         0.00000E+00
    0.00000E+00         0.00000E+00        -0.91513E+04
 
   -0.73383E+05         0.85959E+03         0.00000E+00
    0.85959E+03         0.95168E+01         0.00000E+00
    0.00000E+00         0.00000E+00        -0.14675E+05
 
   -0.73378E+05         0.25872E+04         0.00000E+00
    0.25872E+04        -0.20412E+02         0.00000E+00
    0.00000E+00         0.00000E+00        -0.14680E+05
 
   -0.73313E+05         0.43164E+04         0.00000E+00
    0.43164E+04        -0.80628E+02         0.00000E+00
    0.00000E+00         0.00000E+00        -0.14679E+05
 
   -0.73187E+05         0.60453E+04         0.00000E+00
    0.60453E+04        -0.17122E+03         0.00000E+00
    0.00000E+00         0.00000E+00        -0.14672E+05
 
   -0.73000E+05         0.77724E+04         0.00000E+00
    0.77724E+04        -0.29223E+03         0.00000E+00
    0.00000E+00         0.00000E+00        -0.14659E+05
 
   -0.72753E+05         0.94961E+04         0.00000E+00
    0.94961E+04        -0.44366E+03         0.00000E+00
    0.00000E+00         0.00000E+00        -0.14639E+05
 
   -0.72444E+05         0.11215E+05         0.00000E+00
    0.11215E+05        -0.62546E+03         0.00000E+00
    0.00000E+00         0.00000E+00        -0.14614E+05
 
   -0.72075E+05         0.12926E+05         0.00000E+00
    0.12926E+05        -0.83754E+03         0.00000E+00
    0.00000E+00         0.00000E+00        -0.14582E+05
 
   -0.71645E+05         0.14630E+05         0.00000E+00
    0.14630E+05        -0.10798E+04         0.00000E+00
    0.00000E+00         0.00000E+00        -0.14545E+05
 
   -0.71154E+05         0.16323E+05         0.00000E+00
    0.16323E+05        -0.13520E+04         0.00000E+00
    0.00000E+00         0.00000E+00        -0.14501E+05
 
   -0.70603E+05         0.18005E+05         0.00000E+00
    0.18005E+05        -0.16540E+04         0.00000E+00
    0.00000E+00         0.00000E+00        -0.14451E+05
 
   -0.69991E+05         0.19674E+05         0.00000E+00
    0.19674E+05        -0.19855E+04         0.00000E+00
    0.00000E+00         0.00000E+00        -0.14395E+05
 
   -0.69320E+05         0.21328E+05         0.00000E+00
    0.21328E+05        -0.23462E+04         0.00000E+00
    0.00000E+00         0.00000E+00        -0.14333E+05
 
   -0.68590E+05         0.22965E+05         0.00000E+00
    0.22965E+05        -0.27358E+04         0.00000E+00
    0.00000E+00         0.00000E+00        -0.14265E+05
 
   -0.67800E+05         0.24585E+05         0.00000E+00
    0.24585E+05        -0.31540E+04         0.00000E+00
    0.00000E+00         0.00000E+00        -0.14191E+05
 
   -0.66952E+05         0.26185E+05         0.00000E+00
    0.26185E+05        -0.36004E+04         0.00000E+00
    0.00000E+00         0.00000E+00        -0.14110E+05
 
   -0.66046E+05         0.27765E+05         0.00000E+00
    0.27765E+05        -0.40745E+04         0.00000E+00
    0.00000E+00         0.00000E+00        -0.14024E+05
 
   -0.65083E+05         0.29323E+05         0.00000E+00
    0.29323E+05        -0.45760E+04         0.00000E+00
    0.00000E+00         0.00000E+00        -0.13932E+05
 
   -0.64063E+05         0.30856E+05         0.00000E+00
    0.30856E+05        -0.51043E+04         0.00000E+00
    0.00000E+00         0.00000E+00        -0.13833E+05
 
   -0.62987E+05         0.32365E+05         0.00000E+00
    0.32365E+05        -0.56589E+04         0.00000E+00
    0.00000E+00         0.00000E+00        -0.13729E+05
 
   -0.61855E+05         0.33847E+05         0.00000E+00
    0.33847E+05        -0.62393E+04         0.00000E+00
    0.00000E+00         0.00000E+00        -0.13619E+05
 
   -0.60669E+05         0.35302E+05         0.00000E+00
    0.35302E+05        -0.68450E+04         0.00000E+00
    0.00000E+00         0.00000E+00        -0.13503E+05
 
   -0.59430E+05         0.36727E+05         0.00000E+00
    0.36727E+05        -0.74755E+04         0.00000E+00
    0.00000E+00         0.00000E+00        -0.13381E+05
 
   -0.58137E+05         0.38123E+05         0.00000E+00
    0.38123E+05        -0.81300E+04         0.00000E+00
    0.00000E+00         0.00000E+00        -0.13253E+05
 
   -0.56792E+05         0.39486E+05         0.00000E+00
    0.39486E+05        -0.88080E+04         0.00000E+00
    0.00000E+00         0.00000E+00        -0.13120E+05
 
   -0.55395E+05         0.40817E+05         0.00000E+00
    0.40817E+05        -0.95089E+04         0.00000E+00
    0.00000E+00         0.00000E+00        -0.12981E+05
 
   -0.53949E+05         0.42114E+05         0.00000E+00
    0.42114E+05        -0.10232E+05         0.00000E+00
    0.00000E+00         0.00000E+00        -0.12836E+05
 
   -0.52453E+05         0.43375E+05         0.00000E+00
    0.43375E+05        -0.10977E+05         0.00000E+00
    0.00000E+00         0.00000E+00        -0.12686E+05
 
   -0.50908E+05         0.44601E+05         0.00000E+00
    0.44601E+05        -0.11743E+05         0.00000E+00
    0.00000E+00         0.00000E+00        -0.12530E+05
 
   -0.49316E+05         0.45789E+05         0.00000E+00
    0.45789E+05        -0.12529E+05         0.00000E+00
    0.00000E+00         0.00000E+00        -0.12369E+05
 
   -0.47677E+05         0.46939E+05         0.00000E+00
    0.46939E+05        -0.13334E+05         0.00000E+00
    0.00000E+00         0.00000E+00        -0.12202E+05
 
   -0.45993E+05         0.48049E+05         0.00000E+00
    0.48049E+05        -0.14158E+05         0.00000E+00
    0.00000E+00         0.00000E+00        -0.12030E+05
 
   -0.44264E+05         0.49118E+05         0.00000E+00
    0.49118E+05        -0.15001E+05         0.00000E+00
    0.00000E+00         0.00000E+00        -0.11853E+05
 
   -0.42491E+05         0.50147E+05         0.00000E+00
    0.50147E+05        -0.15861E+05         0.00000E+00
    0.00000E+00         0.00000E+00        -0.11670E+05
 
   -0.40677E+05         0.51132E+05         0.00000E+00
    0.51132E+05        -0.16737E+05         0.00000E+00
    0.00000E+00         0.00000E+00        -0.11483E+05
 
   -0.38821E+05         0.52075E+05         0.00000E+00
    0.52075E+05        -0.17630E+05         0.00000E+00
    0.00000E+00         0.00000E+00        -0.11290E+05
 
   -0.36925E+05         0.52973E+05         0.00000E+00
    0.52973E+05        -0.18538E+05         0.00000E+00
    0.00000E+00         0.00000E+00        -0.11092E+05
 
   -0.34989E+05         0.53826E+05         0.00000E+00
    0.53826E+05        -0.19460E+05         0.00000E+00
    0.00000E+00         0.00000E+00        -0.10890E+05
 
   -0.33016E+05         0.54633E+05         0.00000E+00
    0.54633E+05        -0.20396E+05         0.00000E+00
    0.00000E+00         0.00000E+00        -0.10682E+05
 
   -0.31006E+05         0.55394E+05         0.00000E+00
    0.55394E+05        -0.21345E+05         0.00000E+00
    0.00000E+00         0.00000E+00        -0.10470E+05
 
   -0.28960E+05         0.56107E+05         0.00000E+00
    0.56107E+05        -0.22306E+05         0.00000E+00
    0.00000E+00         0.00000E+00        -0.10253E+05
 
   -0.26879E+05         0.56771E+05         0.00000E+00
    0.56771E+05        -0.23279E+05         0.00000E+00
    0.00000E+00         0.00000E+00        -0.10032E+05
 
   -0.24766E+05         0.57386E+05         0.00000E+00
    0.57386E+05        -0.24262E+05         0.00000E+00
    0.00000E+00         0.00000E+00        -0.98056E+04
 
   -0.22620E+05         0.57951E+05         0.00000E+00
    0.57951E+05        -0.25255E+05         0.00000E+00
    0.00000E+00         0.00000E+00        -0.95750E+04
 
   -0.20443E+05         0.58466E+05         0.00000E+00
    0.58466E+05        -0.26258E+05         0.00000E+00
    0.00000E+00         0.00000E+00        -0.93401E+04
 
   -0.18236E+05         0.58930E+05         0.00000E+00
    0.58930E+05        -0.27268E+05         0.00000E+00
    0.00000E+00         0.00000E+00        -0.91009E+04
 
   -0.16001E+05         0.59341E+05         0.00000E+00
    0.59341E+05        -0.28286E+05         0.00000E+00
    0.00000E+00         0.00000E+00        -0.88575E+04
 
   -0.13739E+05         0.59700E+05         0.00000E+00
    0.59700E+05        -0.29311E+05         0.00000E+00
    0.00000E+00         0.00000E+00        -0.86099E+04
 
   -0.11450E+05         0.60005E+05         0.00000E+00
    0.60005E+05        -0.30342E+05         0.00000E+00
    0.00000E+00         0.00000E+00        -0.83584E+04
 
   -0.91368E+04         0.60256E+05         0.00000E+00
    0.60256E+05        -0.31377E+05         0.00000E+00
    0.00000E+00         0.00000E+00        -0.81028E+04
 
   -0.65111E+05         0.78998E+03         0.00000E+00
    0.78998E+03         0.83000E+01         0.00000E+00
    0.00000E+00         0.00000E+00        -0.13020E+05
 
   -0.65096E+05         0.23765E+04         0.00000E+00
    0.23765E+04        -0.17790E+02         0.00000E+00
    0.00000E+00         0.00000E+00        -0.13023E+05
 
   -0.65028E+05         0.39639E+04         0.00000E+00
    0.39639E+04        -0.70291E+02         0.00000E+00
    0.00000E+00         0.00000E+00        -0.13020E+05
 
   -0.64908E+05         0.55509E+04         0.00000E+00
    0.55509E+04        -0.14929E+03         0.00000E+00
    0.00000E+00         0.00000E+00        -0.13011E+05
 
   -0.64735E+05         0.71359E+04         0.00000E+00
    0.71359E+04        -0.25483E+03         0.00000E+00
    0.00000E+00         0.00000E+00        -0.12998E+05
 
   -0.64508E+05         0.87175E+04         0.00000E+00
    0.87175E+04        -0.38693E+03         0.00000E+00
    0.00000E+00         0.00000E+00        -0.12979E+05
 
   -0.64228E+05         0.10294E+05         0.00000E+00
    0.10294E+05        -0.54557E+03         0.00000E+00
    0.00000E+00         0.00000E+00        -0.12955E+05
 
   -0.63895E+05         0.11865E+05         0.00000E+00
    0.11865E+05        -0.73068E+03         0.00000E+00
    0.00000E+00         0.00000E+00        -0.12925E+05
 
   -0.63509E+05         0.13427E+05         0.00000E+00
    0.13427E+05        -0.94217E+03         0.00000E+00
    0.00000E+00         0.00000E+00        -0.12890E+05
 
   -0.63070E+05         0.14981E+05         0.00000E+00
    0.14981E+05        -0.11799E+04         0.00000E+00
    0.00000E+00         0.00000E+00        -0.12850E+05
 
   -0.62578E+05         0.16524E+05         0.00000E+00
    0.16524E+05        -0.14438E+04         0.00000E+00
    0.00000E+00         0.00000E+00        -0.12804E+05
 
   -0.62033E+05         0.18055E+05         0.00000E+00
    0.18055E+05        -0.17335E+04         0.00000E+00
    0.00000E+00         0.00000E+00        -0.12753E+05
 
   -0.61436E+05         0.19572E+05         0.00000E+00
    0.19572E+05        -0.20489E+04         0.00000E+00
    0.00000E+00         0.00000E+00        -0.12697E+05
 
   -0.60787E+05         0.21075E+05         0.00000E+00
    0.21075E+05        -0.23898E+04         0.00000E+00
    0.00000E+00         0.00000E+00        -0.12635E+05
 
   -0.60086E+05         0.22562E+05         0.00000E+00
    0.22562E+05        -0.27558E+04         0.00000E+00
    0.00000E+00         0.00000E+00        -0.12568E+05
 
   -0.59333E+05         0.24031E+05         0.00000E+00
    0.24031E+05        -0.31466E+04         0.00000E+00
    0.00000E+00         0.00000E+00        -0.12496E+05
 
   -0.58530E+05         0.25481E+05         0.00000E+00
    0.25481E+05        -0.35620E+04         0.00000E+00
    0.00000E+00         0.00000E+00        -0.12418E+05
 
   -0.57676E+05         0.26911E+05         0.00000E+00
    0.26911E+05        -0.40014E+04         0.00000E+00
    0.00000E+00         0.00000E+00        -0.12335E+05
 
   -0.56772E+05         0.28320E+05         0.00000E+00
    0.28320E+05        -0.44647E+04         0.00000E+00
    0.00000E+00         0.00000E+00        -0.12247E+05
 
   -0.55818E+05         0.29705E+05         0.00000E+00
    0.29705E+05        -0.49512E+04         0.00000E+00
    0.00000E+00         0.00000E+00        -0.12154E+05
 
   -0.54816E+05         0.31067E+05         0.00000E+00
    0.31067E+05        -0.54607E+04         0.00000E+00
    0.00000E+00         0.00000E+00        -0.12055E+05
 
   -0.53765E+05         0.32404E+05         0.00000E+00
    0.32404E+05        -0.59927E+04         0.00000E+00
    0.00000E+00         0.00000E+00        -0.11952E+05
 
   -0.52667E+05         0.33714E+05         0.00000E+00
    0.33714E+05        -0.65466E+04         0.00000E+00
    0.00000E+00         0.00000E+00        -0.11843E+05
 
   -0.51522E+05         0.34997E+05         0.00000E+00
    0.34997E+05        -0.71220E+04         0.00000E+00
    0.00000E+00         0.00000E+00        -0.11729E+05
 
   -0.50331E+05         0.36251E+05         0.00000E+00
    0.36251E+05        -0.77184E+04         0.00000E+00
    0.00000E+00         0.00000E+00        -0.11610E+05
 
   -0.49094E+05         0.37475E+05         0.00000E+00
    0.37475E+05        -0.83353E+04         0.00000E+00
    0.00000E+00         0.00000E+00        -0.11486E+05
 
   -0.47812E+05         0.38668E+05         0.00000E+00
    0.38668E+05        -0.89720E+04         0.00000E+00
    0.00000E+00         0.00000E+00        -0.11357E+05
 
   -0.46487E+05         0.39829E+05         0.00000E+00
    0.39829E+05        -0.96281E+04         0.00000E+00
    0.00000E+00         0.00000E+00        -0.11223E+05
 
   -0.45118E+05         0.40956E+05         0.00000E+00
    0.40956E+05        -0.10303E+05         0.00000E+00
    0.00000E+00         0.00000E+00        -0.11084E+05
 
   -0.43707E+05         0.42050E+05         0.00000E+00
    0.42050E+05        -0.10996E+05         0.00000E+00
    0.00000E+00         0.00000E+00        -0.10941E+05
 
   -0.42255E+05         0.43108E+05         0.00000E+00
    0.43108E+05        -0.11707E+05         0.00000E+00
    0.00000E+00         0.00000E+00        -0.10792E+05
 
   -0.40762E+05         0.44131E+05         0.00000E+00
    0.44131E+05        -0.12434E+05         0.00000E+00
    0.00000E+00         0.00000E+00        -0.10639E+05
 
   -0.39230E+05         0.45116E+05         0.00000E+00
    0.45116E+05        -0.13179E+05         0.00000E+00
    0.00000E+00         0.00000E+00        -0.10482E+05
 
   -0.37658E+05         0.46063E+05         0.00000E+00
    0.46063E+05        -0.13938E+05         0.00000E+00
    0.00000E+00         0.00000E+00        -0.10319E+05
 
   -0.36049E+05         0.46971E+05         0.00000E+00
    0.46971E+05        -0.14713E+05         0.00000E+00
    0.00000E+00         0.00000E+00        -0.10153E+05
 
   -0.34403E+05         0.47839E+05         0.00000E+00
    0.47839E+05        -0.15502E+05         0.00000E+00
    0.00000E+00         0.00000E+00        -0.99812E+04
 
   -0.32722E+05         0.48667E+05         0.00000E+00
    0.48667E+05        -0.16306E+05         0.00000E+00
    0.00000E+00         0.00000E+00        -0.98055E+04
 
   -0.31005E+05         0.49453E+05         0.00000E+00
    0.49453E+05        -0.17122E+05         0.00000E+00
    0.00000E+00         0.00000E+00        -0.96254E+04
 
   -0.29255E+05         0.50196E+05         0.00000E+00
    0.50196E+05        -0.17950E+05         0.00000E+00
    0.00000E+00         0.00000E+00        -0.94410E+04
 
   -0.27471E+05         0.50896E+05         0.00000E+00
    0.50896E+05        -0.18791E+05         0.00000E+00
    0.00000E+00         0.00000E+00        -0.92524E+04
 
   -0.25656E+05         0.51553E+05         0.00000E+00
    0.51553E+05        -0.19642E+05         0.00000E+00
    0.00000E+00         0.00000E+00        -0.90597E+04
 
   -0.23810E+05         0.52165E+05         0.00000E+00
    0.52165E+05        -0.20504E+05         0.00000E+00
    0.00000E+00         0.00000E+00        -0.88629E+04
 
   -0.21935E+05         0.52731E+05         0.00000E+00
    0.52731E+05        -0.21376E+05         0.00000E+00
    0.00000E+00         0.00000E+00        -0.86621E+04
 
   -0.20031E+05         0.53251E+05         0.00000E+00
    0.53251E+05        -0.22256E+05         0.00000E+00
    0.00000E+00         0.00000E+00        -0.84573E+04
 
   -0.18099E+05         0.53724E+05         0.00000E+00
    0.53724E+05        -0.23145E+05         0.00000E+00
    0.00000E+00         0.00000E+00        -0.82487E+04
 
   -0.16141E+05         0.54150E+05         0.00000E+00
    0.54150E+05        -0.24041E+05         0.00000E+00
    0.00000E+00         0.00000E+00        -0.80364E+04
 
   -0.14158E+05         0.54528E+05         0.00000E+00
    0.54528E+05        -0.24944E+05         0.00000E+00
    0.00000E+00         0.00000E+00        -0.78203E+04
 
   -0.12150E+05         0.54857E+05         0.00000E+00
    0.54857E+05        -0.25853E+05         0.00000E+00
    0.00000E+00         0.00000E+00        -0.76006E+04
 
   -0.10120E+05         0.55136E+05         0.00000E+00
    0.55136E+05        -0.26767E+05         0.00000E+00
    0.00000E+00         0.00000E+00        -0.73774E+04
 
   -0.80679E+04         0.55366E+05         0.00000E+00
    0.55366E+05        -0.27686E+05         0.00000E+00
    0.00000E+00         0.00000E+00        -0.71508E+04
 
   -0.57496E+05         0.72931E+03         0.00000E+00
    0.72931E+03         0.72296E+01         0.00000E+00
    0.00000E+00         0.00000E+00        -0.11498E+05
 
   -0.57474E+05         0.21928E+04         0.00000E+00
    0.21928E+04        -0.15498E+02         0.00000E+00
    0.00000E+00         0.00000E+00        -0.11498E+05
 
   -0.57407E+05         0.36568E+04         0.00000E+00
    0.36568E+04        -0.61229E+02         0.00000E+00
    0.00000E+00         0.00000E+00        -0.11494E+05
 
   -0.57293E+05         0.51199E+04         0.00000E+00
    0.51199E+04        -0.13004E+03         0.00000E+00
    0.00000E+00         0.00000E+00        -0.11485E+05
 
   -0.57134E+05         0.65809E+04         0.00000E+00
    0.65809E+04        -0.22198E+03         0.00000E+00
    0.00000E+00         0.00000E+00        -0.11471E+05
 
   -0.56928E+05         0.80385E+04         0.00000E+00
    0.80385E+04        -0.33706E+03         0.00000E+00
    0.00000E+00         0.00000E+00        -0.11453E+05
 
   -0.56675E+05         0.94914E+04         0.00000E+00
    0.94914E+04        -0.47528E+03         0.00000E+00
    0.00000E+00         0.00000E+00        -0.11430E+05
 
   -0.56376E+05         0.10938E+05         0.00000E+00
    0.10938E+05        -0.63660E+03         0.00000E+00
    0.00000E+00         0.00000E+00        -0.11403E+05
 
   -0.56031E+05         0.12378E+05         0.00000E+00
    0.12378E+05        -0.82094E+03         0.00000E+00
    0.00000E+00         0.00000E+00        -0.11370E+05
 
   -0.55639E+05         0.13809E+05         0.00000E+00
    0.13809E+05        -0.10282E+04         0.00000E+00
    0.00000E+00         0.00000E+00        -0.11333E+05
 
   -0.55202E+05         0.15231E+05         0.00000E+00
    0.15231E+05        -0.12583E+04         0.00000E+00
    0.00000E+00         0.00000E+00        -0.11292E+05
 
   -0.54718E+05         0.16641E+05         0.00000E+00
    0.16641E+05        -0.15110E+04         0.00000E+00
    0.00000E+00         0.00000E+00        -0.11246E+05
 
   -0.54188E+05         0.18039E+05         0.00000E+00
    0.18039E+05        -0.17862E+04         0.00000E+00
    0.00000E+00         0.00000E+00        -0.11195E+05
 
   -0.53613E+05         0.19423E+05         0.00000E+00
    0.19423E+05        -0.20837E+04         0.00000E+00
    0.00000E+00         0.00000E+00        -0.11139E+05
 
   -0.52993E+05         0.20792E+05         0.00000E+00
    0.20792E+05        -0.24032E+04         0.00000E+00
    0.00000E+00         0.00000E+00        -0.11079E+05
 
   -0.52327E+05         0.22146E+05         0.00000E+00
    0.22146E+05        -0.27446E+04         0.00000E+00
    0.00000E+00         0.00000E+00        -0.11014E+05
 
   -0.51617E+05         0.23482E+05         0.00000E+00
    0.23482E+05        -0.31074E+04         0.00000E+00
    0.00000E+00         0.00000E+00        -0.10945E+05
 
   -0.50863E+05         0.24800E+05         0.00000E+00
    0.24800E+05        -0.34915E+04         0.00000E+00
    0.00000E+00         0.00000E+00        -0.10871E+05
 
   -0.50064E+05         0.26098E+05         0.00000E+00
    0.26098E+05        -0.38965E+04         0.00000E+00
    0.00000E+00         0.00000E+00        -0.10792E+05
 
   -0.49223E+05         0.27375E+05         0.00000E+00
    0.27375E+05        -0.43221E+04         0.00000E+00
    0.00000E+00         0.00000E+00        -0.10709E+05
 
   -0.48338E+05         0.28630E+05         0.00000E+00
    0.28630E+05        -0.47679E+04         0.00000E+00
    0.00000E+00         0.00000E+00        -0.10621E+05
 
   -0.47411E+05         0.29862E+05         0.00000E+00
    0.29862E+05        -0.52335E+04         0.00000E+00
    0.00000E+00         0.00000E+00        -0.10529E+05
 
   -0.46442E+05         0.31070E+05         0.00000E+00
    0.31070E+05        -0.57186E+04         0.00000E+00
    0.00000E+00         0.00000E+00        -0.10432E+05
 
   -0.45432E+05         0.32253E+05         0.00000E+00
    0.32253E+05        -0.62227E+04         0.00000E+00
    0.00000E+00         0.00000E+00        -0.10331E+05
 
   -0.44381E+05         0.33409E+05         0.00000E+00
    0.33409E+05        -0.67453E+04         0.00000E+00
    0.00000E+00         0.00000E+00        -0.10225E+05
 
   -0.43290E+05         0.34538E+05         0.00000E+00
    0.34538E+05        -0.72862E+04         0.00000E+00
    0.00000E+00         0.00000E+00        -0.10115E+05
 
   -0.42160E+05         0.35638E+05         0.00000E+00
    0.35638E+05        -0.78447E+04         0.00000E+00
    0.00000E+00         0.00000E+00        -0.10001E+05
 
   -0.40991E+05         0.36709E+05         0.00000E+00
    0.36709E+05        -0.84204E+04         0.00000E+00
    0.00000E+00         0.00000E+00        -0.98822E+04
 
   -0.39784E+05         0.37749E+05         0.00000E+00
    0.37749E+05        -0.90128E+04         0.00000E+00
    0.00000E+00         0.00000E+00        -0.97593E+04
 
   -0.38539E+05         0.38758E+05         0.00000E+00
    0.38758E+05        -0.96214E+04         0.00000E+00
    0.00000E+00         0.00000E+00        -0.96321E+04
 
   -0.37258E+05         0.39735E+05         0.00000E+00
    0.39735E+05        -0.10246E+05         0.00000E+00
    0.00000E+00         0.00000E+00        -0.95007E+04
 
   -0.35941E+05         0.40679E+05         0.00000E+00
    0.40679E+05        -0.10885E+05         0.00000E+00
    0.00000E+00         0.00000E+00        -0.93652E+04
 
   -0.34589E+05         0.41588E+05         0.00000E+00
    0.41588E+05        -0.11539E+05         0.00000E+00
    0.00000E+00         0.00000E+00        -0.92256E+04
 
   -0.33203E+05         0.42462E+05         0.00000E+00
    0.42462E+05        -0.12207E+05         0.00000E+00
    0.00000E+00         0.00000E+00        -0.90820E+04
 
   -0.31783E+05         0.43300E+05         0.00000E+00
    0.43300E+05        -0.12889E+05         0.00000E+00
    0.00000E+00         0.00000E+00        -0.89344E+04
 
   -0.30331E+05         0.44101E+05         0.00000E+00
    0.44101E+05        -0.13584E+05         0.00000E+00
    0.00000E+00         0.00000E+00        -0.87829E+04
 
   -0.28847E+05         0.44865E+05         0.00000E+00
    0.44865E+05        -0.14291E+05         0.00000E+00
    0.00000E+00         0.00000E+00        -0.86275E+04
 
   -0.27332E+05         0.45590E+05         0.00000E+00
    0.45590E+05        -0.15009E+05         0.00000E+00
    0.00000E+00         0.00000E+00        -0.84682E+04
 
   -0.25787E+05         0.46277E+05         0.00000E+00
    0.46277E+05        -0.15739E+05         0.00000E+00
    0.00000E+00         0.00000E+00        -0.83053E+04
 
   -0.24213E+05         0.46923E+05         0.00000E+00
    0.46923E+05        -0.16480E+05         0.00000E+00
    0.00000E+00         0.00000E+00        -0.81386E+04
 
   -0.22611E+05         0.47528E+05         0.00000E+00
    0.47528E+05        -0.17230E+05         0.00000E+00
    0.00000E+00         0.00000E+00        -0.79683E+04
 
   -0.20982E+05         0.48093E+05         0.00000E+00
    0.48093E+05        -0.17990E+05         0.00000E+00
    0.00000E+00         0.00000E+00        -0.77944E+04
 
   -0.19327E+05         0.48615E+05         0.00000E+00
    0.48615E+05        -0.18758E+05         0.00000E+00
    0.00000E+00         0.00000E+00        -0.76170E+04
 
   -0.17647E+05         0.49094E+05         0.00000E+00
    0.49094E+05        -0.19534E+05         0.00000E+00
    0.00000E+00         0.00000E+00        -0.74362E+04
 
   -0.15942E+05         0.49530E+05         0.00000E+00
    0.49530E+05        -0.20318E+05         0.00000E+00
    0.00000E+00         0.00000E+00        -0.72520E+04
 
   -0.14214E+05         0.49923E+05         0.00000E+00
    0.49923E+05        -0.21108E+05         0.00000E+00
    0.00000E+00         0.00000E+00        -0.70645E+04
 
   -0.12464E+05         0.50270E+05         0.00000E+00
    0.50270E+05        -0.21905E+05         0.00000E+00
    0.00000E+00         0.00000E+00        -0.68738E+04
 
   -0.10693E+05         0.50572E+05         0.00000E+00
    0.50572E+05        -0.22706E+05         0.00000E+00
    0.00000E+00         0.00000E+00        -0.66799E+04
 
   -0.89021E+04         0.50829E+05         0.00000E+00
    0.50829E+05        -0.23513E+05         0.00000E+00
    0.00000E+00         0.00000E+00        -0.64830E+04
 
   -0.70920E+04         0.51039E+05         0.00000E+00
    0.51039E+05        -0.24323E+05         0.00000E+00
    0.00000E+00         0.00000E+00        -0.62830E+04
 
   -0.50454E+05         0.67651E+03         0.00000E+00
    0.67651E+03         0.62768E+01         0.00000E+00
    0.00000E+00         0.00000E+00        -0.10090E+05
 
   -0.50429E+05         0.20330E+04         0.00000E+00
    0.20330E+04        -0.13465E+02         0.00000E+00
    0.00000E+00         0.00000E+00        -0.10088E+05
 
   -0.50363E+05         0.33895E+04         0.00000E+00
    0.33895E+04        -0.53178E+02         0.00000E+00
    0.00000E+00         0.00000E+00        -0.10083E+05
 
   -0.50257E+05         0.47450E+04         0.00000E+00
    0.47450E+04        -0.11293E+03         0.00000E+00
    0.00000E+00         0.00000E+00        -0.10074E+05
 
   -0.50112E+05         0.60981E+04         0.00000E+00
    0.60981E+04        -0.19276E+03         0.00000E+00
    0.00000E+00         0.00000E+00        -0.10061E+05
 
   -0.49926E+05         0.74478E+04         0.00000E+00
    0.74478E+04        -0.29269E+03         0.00000E+00
    0.00000E+00         0.00000E+00        -0.10044E+05
 
   -0.49699E+05         0.87929E+04         0.00000E+00
    0.87929E+04        -0.41271E+03         0.00000E+00
    0.00000E+00         0.00000E+00        -0.10022E+05
 
   -0.49433E+05         0.10132E+05         0.00000E+00
    0.10132E+05        -0.55279E+03         0.00000E+00
    0.00000E+00         0.00000E+00        -0.99971E+04
 
   -0.49126E+05         0.11465E+05         0.00000E+00
    0.11465E+05        -0.71289E+03         0.00000E+00
    0.00000E+00         0.00000E+00        -0.99678E+04
 
   -0.48779E+05         0.12789E+05         0.00000E+00
    0.12789E+05        -0.89292E+03         0.00000E+00
    0.00000E+00         0.00000E+00        -0.99344E+04
 
   -0.48392E+05         0.14104E+05         0.00000E+00
    0.14104E+05        -0.10928E+04         0.00000E+00
    0.00000E+00         0.00000E+00        -0.98969E+04
 
   -0.47965E+05         0.15409E+05         0.00000E+00
    0.15409E+05        -0.13124E+04         0.00000E+00
    0.00000E+00         0.00000E+00        -0.98554E+04
 
   -0.47498E+05         0.16703E+05         0.00000E+00
    0.16703E+05        -0.15515E+04         0.00000E+00
    0.00000E+00         0.00000E+00        -0.98098E+04
 
   -0.46991E+05         0.17983E+05         0.00000E+00
    0.17983E+05        -0.18101E+04         0.00000E+00
    0.00000E+00         0.00000E+00        -0.97602E+04
 
   -0.46445E+05         0.19250E+05         0.00000E+00
    0.19250E+05        -0.20879E+04         0.00000E+00
    0.00000E+00         0.00000E+00        -0.97065E+04
 
   -0.45859E+05         0.20502E+05         0.00000E+00
    0.20502E+05        -0.23848E+04         0.00000E+00
    0.00000E+00         0.00000E+00        -0.96488E+04
 
   -0.45235E+05         0.21739E+05         0.00000E+00
    0.21739E+05        -0.27004E+04         0.00000E+00
    0.00000E+00         0.00000E+00        -0.95871E+04
 
   -0.44573E+05         0.22958E+05         0.00000E+00
    0.22958E+05        -0.30346E+04         0.00000E+00
    0.00000E+00         0.00000E+00        -0.95214E+04
 
   -0.43872E+05         0.24158E+05         0.00000E+00
    0.24158E+05        -0.33870E+04         0.00000E+00
    0.00000E+00         0.00000E+00        -0.94517E+04
 
   -0.43133E+05         0.25340E+05         0.00000E+00
    0.25340E+05        -0.37575E+04         0.00000E+00
    0.00000E+00         0.00000E+00        -0.93780E+04
 
   -0.42356E+05         0.26502E+05         0.00000E+00
    0.26502E+05        -0.41457E+04         0.00000E+00
    0.00000E+00         0.00000E+00        -0.93004E+04
 
   -0.41543E+05         0.27642E+05         0.00000E+00
    0.27642E+05        -0.45513E+04         0.00000E+00
    0.00000E+00         0.00000E+00        -0.92189E+04
 
   -0.40693E+05         0.28759E+05         0.00000E+00
    0.28759E+05        -0.49739E+04         0.00000E+00
    0.00000E+00         0.00000E+00        -0.91334E+04
 
   -0.39807E+05         0.29854E+05         0.00000E+00
    0.29854E+05        -0.54132E+04         0.00000E+00
    0.00000E+00         0.00000E+00        -0.90441E+04
 
   -0.38885E+05         0.30924E+05         0.00000E+00
    0.30924E+05        -0.58689E+04         0.00000E+00
    0.00000E+00         0.00000E+00        -0.89509E+04
 
   -0.37929E+05         0.31969E+05         0.00000E+00
    0.31969E+05        -0.63406E+04         0.00000E+00
    0.00000E+00         0.00000E+00        -0.88539E+04
 
   -0.36938E+05         0.32987E+05         0.00000E+00
    0.32987E+05        -0.68278E+04         0.00000E+00
    0.00000E+00         0.00000E+00        -0.87531E+04
 
   -0.35912E+05         0.33978E+05         0.00000E+00
    0.33978E+05        -0.73302E+04         0.00000E+00
    0.00000E+00         0.00000E+00        -0.86485E+04
 
   -0.34854E+05         0.34941E+05         0.00000E+00
    0.34941E+05        -0.78473E+04         0.00000E+00
    0.00000E+00         0.00000E+00        -0.85402E+04
 
   -0.33763E+05         0.35875E+05         0.00000E+00
    0.35875E+05        -0.83787E+04         0.00000E+00
    0.00000E+00         0.00000E+00        -0.84283E+04
 
   -0.32640E+05         0.36779E+05         0.00000E+00
    0.36779E+05        -0.89240E+04         0.00000E+00
    0.00000E+00         0.00000E+00        -0.83127E+04
 
   -0.31485E+05         0.37653E+05         0.00000E+00
    0.37653E+05        -0.94827E+04         0.00000E+00
    0.00000E+00         0.00000E+00        -0.81935E+04
 
   -0.30300E+05         0.38494E+05         0.00000E+00
    0.38494E+05        -0.10054E+05         0.00000E+00
    0.00000E+00         0.00000E+00        -0.80708E+04
 
   -0.29084E+05         0.39303E+05         0.00000E+00
    0.39303E+05        -0.10638E+05         0.00000E+00
    0.00000E+00         0.00000E+00        -0.79445E+04
 
   -0.27839E+05         0.40079E+05         0.00000E+00
    0.40079E+05        -0.11234E+05         0.00000E+00
    0.00000E+00         0.00000E+00        -0.78148E+04
 
   -0.26566E+05         0.40821E+05         0.00000E+00
    0.40821E+05        -0.11842E+05         0.00000E+00
    0.00000E+00         0.00000E+00        -0.76816E+04
 
   -0.25265E+05         0.41528E+05         0.00000E+00
    0.41528E+05        -0.12460E+05         0.00000E+00
    0.00000E+00         0.00000E+00        -0.75451E+04
 
   -0.23937E+05         0.42199E+05         0.00000E+00
    0.42199E+05        -0.13089E+05         0.00000E+00
    0.00000E+00         0.00000E+00        -0.74053E+04
 
   -0.22583E+05         0.42834E+05         0.00000E+00
    0.42834E+05        -0.13728E+05         0.00000E+00
    0.00000E+00         0.00000E+00        -0.72622E+04
 
   -0.21203E+05         0.43432E+05         0.00000E+00
    0.43432E+05        -0.14376E+05         0.00000E+00
    0.00000E+00         0.00000E+00        -0.71158E+04
 
   -0.19799E+05         0.43993E+05         0.00000E+00
    0.43993E+05        -0.15033E+05         0.00000E+00
    0.00000E+00         0.00000E+00        -0.69663E+04
 
   -0.18371E+05         0.44515E+05         0.00000E+00
    0.44515E+05        -0.15698E+05         0.00000E+00
    0.00000E+00         0.00000E+00        -0.68138E+04
 
   -0.16920E+05         0.44997E+05         0.00000E+00
    0.44997E+05        -0.16371E+05         0.00000E+00
    0.00000E+00         0.00000E+00        -0.66581E+04
 
   -0.15447E+05         0.45441E+05         0.00000E+00
    0.45441E+05        -0.17051E+05         0.00000E+00
    0.00000E+00         0.00000E+00        -0.64995E+04
 
   -0.13953E+05         0.45844E+05         0.00000E+00
    0.45844E+05        -0.17737E+05         0.00000E+00
    0.00000E+00         0.00000E+00        -0.63380E+04
 
   -0.12438E+05         0.46206E+05         0.00000E+00
    0.46206E+05        -0.18430E+05         0.00000E+00
    0.00000E+00         0.00000E+00        -0.61736E+04
 
   -0.10905E+05         0.46527E+05         0.00000E+00
    0.46527E+05        -0.19127E+05         0.00000E+00
    0.00000E+00         0.00000E+00        -0.60064E+04
 
   -0.93526E+04         0.46805E+05         0.00000E+00
    0.46805E+05        -0.19830E+05         0.00000E+00
    0.00000E+00         0.00000E+00        -0.58364E+04
 
   -0.77832E+04         0.47042E+05         0.00000E+00
    0.47042E+05        -0.20536E+05         0.00000E+00
    0.00000E+00         0.00000E+00        -0.56639E+04
 
   -0.61973E+04         0.47235E+05         0.00000E+00
    0.47235E+05        -0.21246E+05         0.00000E+00
    0.00000E+00         0.00000E+00        -0.54887E+04
 
   -0.43910E+05         0.63074E+03         0.00000E+00
    0.63074E+03         0.54181E+01         0.00000E+00
    0.00000E+00         0.00000E+00        -0.87809E+04
 
   -0.43882E+05         0.18946E+04         0.00000E+00
    0.18946E+04        -0.11635E+02         0.00000E+00
    0.00000E+00         0.00000E+00        -0.87788E+04
 
   -0.43820E+05         0.31581E+04         0.00000E+00
    0.31581E+04        -0.45930E+02         0.00000E+00
    0.00000E+00         0.00000E+00        -0.87732E+04
 
   -0.43724E+05         0.44202E+04         0.00000E+00
    0.44202E+04        -0.97518E+02         0.00000E+00
    0.00000E+00         0.00000E+00        -0.87642E+04
 
   -0.43592E+05         0.56799E+04         0.00000E+00
    0.56799E+04        -0.16644E+03         0.00000E+00
    0.00000E+00         0.00000E+00        -0.87518E+04
 
   -0.43426E+05         0.69362E+04         0.00000E+00
    0.69362E+04        -0.25270E+03         0.00000E+00
    0.00000E+00         0.00000E+00        -0.87358E+04
 
   -0.43226E+05         0.81880E+04         0.00000E+00
    0.81880E+04        -0.35631E+03         0.00000E+00
    0.00000E+00         0.00000E+00        -0.87164E+04
 
   -0.42990E+05         0.94341E+04         0.00000E+00
    0.94341E+04        -0.47724E+03         0.00000E+00
    0.00000E+00         0.00000E+00        -0.86935E+04
 
   -0.42720E+05         0.10674E+05         0.00000E+00
    0.10674E+05        -0.61544E+03         0.00000E+00
    0.00000E+00         0.00000E+00        -0.86671E+04
 
   -0.42415E+05         0.11906E+05         0.00000E+00
    0.11906E+05        -0.77087E+03         0.00000E+00
    0.00000E+00         0.00000E+00        -0.86371E+04
 
   -0.42075E+05         0.13129E+05         0.00000E+00
    0.13129E+05        -0.94343E+03         0.00000E+00
    0.00000E+00         0.00000E+00        -0.86037E+04
 
   -0.41701E+05         0.14342E+05         0.00000E+00
    0.14342E+05        -0.11330E+04         0.00000E+00
    0.00000E+00         0.00000E+00        -0.85668E+04
 
   -0.41292E+05         0.15545E+05         0.00000E+00
    0.15545E+05        -0.13396E+04         0.00000E+00
    0.00000E+00         0.00000E+00        -0.85264E+04
 
   -0.40850E+05         0.16736E+05         0.00000E+00
    0.16736E+05        -0.15629E+04         0.00000E+00
    0.00000E+00         0.00000E+00        -0.84825E+04
 
   -0.40373E+05         0.17913E+05         0.00000E+00
    0.17913E+05        -0.18029E+04         0.00000E+00
    0.00000E+00         0.00000E+00        -0.84351E+04
 
   -0.39862E+05         0.19077E+05         0.00000E+00
    0.19077E+05        -0.20593E+04         0.00000E+00
    0.00000E+00         0.00000E+00        -0.83843E+04
 
   -0.39318E+05         0.20227E+05         0.00000E+00
    0.20227E+05        -0.23320E+04         0.00000E+00
    0.00000E+00         0.00000E+00        -0.83299E+04
 
   -0.38740E+05         0.21360E+05         0.00000E+00
    0.21360E+05        -0.26208E+04         0.00000E+00
    0.00000E+00         0.00000E+00        -0.82721E+04
 
   -0.38129E+05         0.22476E+05         0.00000E+00
    0.22476E+05        -0.29255E+04         0.00000E+00
    0.00000E+00         0.00000E+00        -0.82109E+04
 
   -0.37485E+05         0.23574E+05         0.00000E+00
    0.23574E+05        -0.32458E+04         0.00000E+00
    0.00000E+00         0.00000E+00        -0.81462E+04
 
   -0.36809E+05         0.24654E+05         0.00000E+00
    0.24654E+05        -0.35815E+04         0.00000E+00
    0.00000E+00         0.00000E+00        -0.80782E+04
 
   -0.36101E+05         0.25714E+05         0.00000E+00
    0.25714E+05        -0.39323E+04         0.00000E+00
    0.00000E+00         0.00000E+00        -0.80067E+04
 
   -0.35362E+05         0.26752E+05         0.00000E+00
    0.26752E+05        -0.42979E+04         0.00000E+00
    0.00000E+00         0.00000E+00        -0.79319E+04
 
   -0.34590E+05         0.27770E+05         0.00000E+00
    0.27770E+05        -0.46781E+04         0.00000E+00
    0.00000E+00         0.00000E+00        -0.78537E+04
 
   -0.33789E+05         0.28764E+05         0.00000E+00
    0.28764E+05        -0.50725E+04         0.00000E+00
    0.00000E+00         0.00000E+00        -0.77722E+04
 
   -0.32956E+05         0.29735E+05         0.00000E+00
    0.29735E+05        -0.54808E+04         0.00000E+00
    0.00000E+00         0.00000E+00        -0.76874E+04
 
   -0.32094E+05         0.30682E+05         0.00000E+00
    0.30682E+05        -0.59027E+04         0.00000E+00
    0.00000E+00         0.00000E+00        -0.75994E+04
 
   -0.31202E+05         0.31603E+05         0.00000E+00
    0.31603E+05        -0.63378E+04         0.00000E+00
    0.00000E+00         0.00000E+00        -0.75080E+04
 
   -0.30282E+05         0.32498E+05         0.00000E+00
    0.32498E+05        -0.67858E+04         0.00000E+00
    0.00000E+00         0.00000E+00        -0.74135E+04
 
   -0.29333E+05         0.33366E+05         0.00000E+00
    0.33366E+05        -0.72463E+04         0.00000E+00
    0.00000E+00         0.00000E+00        -0.73158E+04
 
   -0.28356E+05         0.34207E+05         0.00000E+00
    0.34207E+05        -0.77188E+04         0.00000E+00
    0.00000E+00         0.00000E+00        -0.72150E+04
 
   -0.27352E+05         0.35018E+05         0.00000E+00
    0.35018E+05        -0.82031E+04         0.00000E+00
    0.00000E+00         0.00000E+00        -0.71110E+04
 
   -0.26321E+05         0.35800E+05         0.00000E+00
    0.35800E+05        -0.86988E+04         0.00000E+00
    0.00000E+00         0.00000E+00        -0.70040E+04
 
   -0.25265E+05         0.36552E+05         0.00000E+00
    0.36552E+05        -0.92053E+04         0.00000E+00
    0.00000E+00         0.00000E+00        -0.68940E+04
 
   -0.24182E+05         0.37273E+05         0.00000E+00
    0.37273E+05        -0.97223E+04         0.00000E+00
    0.00000E+00         0.00000E+00        -0.67809E+04
 
   -0.23075E+05         0.37963E+05         0.00000E+00
    0.37963E+05        -0.10249E+05         0.00000E+00
    0.00000E+00         0.00000E+00        -0.66649E+04
 
   -0.21944E+05         0.38620E+05         0.00000E+00
    0.38620E+05        -0.10786E+05         0.00000E+00
    0.00000E+00         0.00000E+00        -0.65460E+04
 
   -0.20790E+05         0.39243E+05         0.00000E+00
    0.39243E+05        -0.11332E+05         0.00000E+00
    0.00000E+00         0.00000E+00        -0.64242E+04
 
   -0.19612E+05         0.39833E+05         0.00000E+00
    0.39833E+05        -0.11886E+05         0.00000E+00
    0.00000E+00         0.00000E+00        -0.62997E+04
 
   -0.18413E+05         0.40389E+05         0.00000E+00
    0.40389E+05        -0.12449E+05         0.00000E+00
    0.00000E+00         0.00000E+00        -0.61723E+04
 
   -0.17192E+05         0.40909E+05         0.00000E+00
    0.40909E+05        -0.13019E+05         0.00000E+00
    0.00000E+00         0.00000E+00        -0.60422E+04
 
   -0.15951E+05         0.41394E+05         0.00000E+00
    0.41394E+05        -0.13596E+05         0.00000E+00
    0.00000E+00         0.00000E+00        -0.59095E+04
 
   -0.14690E+05         0.41842E+05         0.00000E+00
    0.41842E+05        -0.14181E+05         0.00000E+00
    0.00000E+00         0.00000E+00        -0.57741E+04
 
   -0.13409E+05         0.42253E+05         0.00000E+00
    0.42253E+05        -0.14771E+05         0.00000E+00
    0.00000E+00         0.00000E+00        -0.56361E+04
 
   -0.12111E+05         0.42627E+05         0.00000E+00
    0.42627E+05        -0.15367E+05         0.00000E+00
    0.00000E+00         0.00000E+00        -0.54957E+04
 
   -0.10795E+05         0.42963E+05         0.00000E+00
    0.42963E+05        -0.15969E+05         0.00000E+00
    0.00000E+00         0.00000E+00        -0.53527E+04
 
   -0.94624E+04         0.43260E+05         0.00000E+00
    0.43260E+05        -0.16575E+05         0.00000E+00
    0.00000E+00         0.00000E+00        -0.52074E+04
 
   -0.81140E+04         0.43519E+05         0.00000E+00
    0.43519E+05        -0.17185E+05         0.00000E+00
    0.00000E+00         0.00000E+00        -0.50598E+04
 
   -0.67506E+04         0.43737E+05         0.00000E+00
    0.43737E+05        -0.17798E+05         0.00000E+00
    0.00000E+00         0.00000E+00        -0.49098E+04
 
   -0.53732E+04         0.43916E+05         0.00000E+00
    0.43916E+05        -0.18415E+05         0.00000E+00
    0.00000E+00         0.00000E+00        -0.47576E+04
 
   -0.37795E+05         0.59136E+03         0.00000E+00
    0.59136E+03         0.46350E+01         0.00000E+00
    0.00000E+00         0.00000E+00        -0.75581E+04
 
   -0.37768E+05         0.17755E+04         0.00000E+00
    0.17755E+04        -0.99660E+01         0.00000E+00
    0.00000E+00         0.00000E+00        -0.75555E+04
 
   -0.37710E+05         0.29590E+04         0.00000E+00
    0.29590E+04        -0.39317E+02         0.00000E+00
    0.00000E+00         0.00000E+00        -0.75499E+04
 
   -0.37624E+05         0.41410E+04         0.00000E+00
    0.41410E+04        -0.83460E+02         0.00000E+00
    0.00000E+00         0.00000E+00        -0.75414E+04
 
   -0.37507E+05         0.53204E+04         0.00000E+00
    0.53204E+04        -0.14242E+03         0.00000E+00
    0.00000E+00         0.00000E+00        -0.75299E+04
 
   -0.37361E+05         0.64964E+04         0.00000E+00
    0.64964E+04        -0.21622E+03         0.00000E+00
    0.00000E+00         0.00000E+00        -0.75155E+04
 
   -0.37185E+05         0.76679E+04         0.00000E+00
    0.76679E+04        -0.30485E+03         0.00000E+00
    0.00000E+00         0.00000E+00        -0.74980E+04
 
   -0.36980E+05         0.88339E+04         0.00000E+00
    0.88339E+04        -0.40829E+03         0.00000E+00
    0.00000E+00         0.00000E+00        -0.74776E+04
 
   -0.36744E+05         0.99936E+04         0.00000E+00
    0.99936E+04        -0.52651E+03         0.00000E+00
    0.00000E+00         0.00000E+00        -0.74542E+04
 
   -0.36480E+05         0.11146E+05         0.00000E+00
    0.11146E+05        -0.65946E+03         0.00000E+00
    0.00000E+00         0.00000E+00        -0.74278E+04
 
   -0.36185E+05         0.12290E+05         0.00000E+00
    0.12290E+05        -0.80707E+03         0.00000E+00
    0.00000E+00         0.00000E+00        -0.73984E+04
 
   -0.35861E+05         0.13425E+05         0.00000E+00
    0.13425E+05        -0.96927E+03         0.00000E+00
    0.00000E+00         0.00000E+00        -0.73660E+04
 
   -0.35507E+05         0.14549E+05         0.00000E+00
    0.14549E+05        -0.11460E+04         0.00000E+00
    0.00000E+00         0.00000E+00        -0.73307E+04
 
   -0.35125E+05         0.15662E+05         0.00000E+00
    0.15662E+05        -0.13370E+04         0.00000E+00
    0.00000E+00         0.00000E+00        -0.72923E+04
 
   -0.34713E+05         0.16764E+05         0.00000E+00
    0.16764E+05        -0.15423E+04         0.00000E+00
    0.00000E+00         0.00000E+00        -0.72510E+04
 
   -0.34272E+05         0.17852E+05         0.00000E+00
    0.17852E+05        -0.17618E+04         0.00000E+00
    0.00000E+00         0.00000E+00        -0.72067E+04
 
   -0.33802E+05         0.18926E+05         0.00000E+00
    0.18926E+05        -0.19952E+04         0.00000E+00
    0.00000E+00         0.00000E+00        -0.71595E+04
 
   -0.33304E+05         0.19985E+05         0.00000E+00
    0.19985E+05        -0.22424E+04         0.00000E+00
    0.00000E+00         0.00000E+00        -0.71093E+04
 
   -0.32777E+05         0.21028E+05         0.00000E+00
    0.21028E+05        -0.25032E+04         0.00000E+00
    0.00000E+00         0.00000E+00        -0.70561E+04
 
   -0.32223E+05         0.22054E+05         0.00000E+00
    0.22054E+05        -0.27774E+04         0.00000E+00
    0.00000E+00         0.00000E+00        -0.70000E+04
 
   -0.31640E+05         0.23063E+05         0.00000E+00
    0.23063E+05        -0.30648E+04         0.00000E+00
    0.00000E+00         0.00000E+00        -0.69410E+04
 
   -0.31031E+05         0.24053E+05         0.00000E+00
    0.24053E+05        -0.33652E+04         0.00000E+00
    0.00000E+00         0.00000E+00        -0.68792E+04
 
   -0.30394E+05         0.25024E+05         0.00000E+00
    0.25024E+05        -0.36784E+04         0.00000E+00
    0.00000E+00         0.00000E+00        -0.68144E+04
 
   -0.29730E+05         0.25974E+05         0.00000E+00
    0.25974E+05        -0.40041E+04         0.00000E+00
    0.00000E+00         0.00000E+00        -0.67468E+04
 
   -0.29040E+05         0.26903E+05         0.00000E+00
    0.26903E+05        -0.43420E+04         0.00000E+00
    0.00000E+00         0.00000E+00        -0.66763E+04
 
   -0.28323E+05         0.27811E+05         0.00000E+00
    0.27811E+05        -0.46919E+04         0.00000E+00
    0.00000E+00         0.00000E+00        -0.66030E+04
 
   -0.27581E+05         0.28695E+05         0.00000E+00
    0.28695E+05        -0.50535E+04         0.00000E+00
    0.00000E+00         0.00000E+00        -0.65270E+04
 
   -0.26814E+05         0.29556E+05         0.00000E+00
    0.29556E+05        -0.54264E+04         0.00000E+00
    0.00000E+00         0.00000E+00        -0.64481E+04
 
   -0.26022E+05         0.30392E+05         0.00000E+00
    0.30392E+05        -0.58105E+04         0.00000E+00
    0.00000E+00         0.00000E+00        -0.63665E+04
 
   -0.25206E+05         0.31203E+05         0.00000E+00
    0.31203E+05        -0.62054E+04         0.00000E+00
    0.00000E+00         0.00000E+00        -0.62822E+04
 
   -0.24366E+05         0.31987E+05         0.00000E+00
    0.31987E+05        -0.66107E+04         0.00000E+00
    0.00000E+00         0.00000E+00        -0.61953E+04
 
   -0.23502E+05         0.32745E+05         0.00000E+00
    0.32745E+05        -0.70261E+04         0.00000E+00
    0.00000E+00         0.00000E+00        -0.61056E+04
 
   -0.22616E+05         0.33476E+05         0.00000E+00
    0.33476E+05        -0.74513E+04         0.00000E+00
    0.00000E+00         0.00000E+00        -0.60134E+04
 
   -0.21707E+05         0.34178E+05         0.00000E+00
    0.34178E+05        -0.78859E+04         0.00000E+00
    0.00000E+00         0.00000E+00        -0.59185E+04
 
   -0.20776E+05         0.34851E+05         0.00000E+00
    0.34851E+05        -0.83295E+04         0.00000E+00
    0.00000E+00         0.00000E+00        -0.58211E+04
 
   -0.19824E+05         0.35495E+05         0.00000E+00
    0.35495E+05        -0.87818E+04         0.00000E+00
    0.00000E+00         0.00000E+00        -0.57212E+04
 
   -0.18852E+05         0.36108E+05         0.00000E+00
    0.36108E+05        -0.92424E+04         0.00000E+00
    0.00000E+00         0.00000E+00        -0.56188E+04
 
   -0.17859E+05         0.36691E+05         0.00000E+00
    0.36691E+05        -0.97109E+04         0.00000E+00
    0.00000E+00         0.00000E+00        -0.55139E+04
 
   -0.16846E+05         0.37241E+05         0.00000E+00
    0.37241E+05        -0.10187E+05         0.00000E+00
    0.00000E+00         0.00000E+00        -0.54067E+04
 
   -0.15815E+05         0.37760E+05         0.00000E+00
    0.37760E+05        -0.10670E+05         0.00000E+00
    0.00000E+00         0.00000E+00        -0.52971E+04
 
   -0.14766E+05         0.38245E+05         0.00000E+00
    0.38245E+05        -0.11160E+05         0.00000E+00
    0.00000E+00         0.00000E+00        -0.51851E+04
 
   -0.13699E+05         0.38697E+05         0.00000E+00
    0.38697E+05        -0.11656E+05         0.00000E+00
    0.00000E+00         0.00000E+00        -0.50709E+04
 
   -0.12615E+05         0.39116E+05         0.00000E+00
    0.39116E+05        -0.12157E+05         0.00000E+00
    0.00000E+00         0.00000E+00        -0.49545E+04
 
   -0.11514E+05         0.39499E+05         0.00000E+00
    0.39499E+05        -0.12665E+05         0.00000E+00
    0.00000E+00         0.00000E+00        -0.48358E+04
 
   -0.10399E+05         0.39848E+05         0.00000E+00
    0.39848E+05        -0.13177E+05         0.00000E+00
    0.00000E+00         0.00000E+00        -0.47150E+04
 
   -0.92677E+04         0.40161E+05         0.00000E+00
    0.40161E+05        -0.13693E+05         0.00000E+00
    0.00000E+00         0.00000E+00        -0.45922E+04
 
   -0.81226E+04         0.40438E+05         0.00000E+00
    0.40438E+05        -0.14214E+05         0.00000E+00
    0.00000E+00         0.00000E+00        -0.44673E+04
 
   -0.69641E+04         0.40679E+05         0.00000E+00
    0.40679E+05        -0.14738E+05         0.00000E+00
    0.00000E+00         0.00000E+00        -0.43404E+04
 
   -0.57928E+04         0.40882E+05         0.00000E+00
    0.40882E+05        -0.15265E+05         0.00000E+00
    0.00000E+00         0.00000E+00        -0.42115E+04
 
   -0.46095E+04         0.41049E+05         0.00000E+00
    0.41049E+05        -0.15795E+05         0.00000E+00
    0.00000E+00         0.00000E+00        -0.40808E+04
 
   -0.32048E+05         0.55784E+03         0.00000E+00
    0.55784E+03         0.39119E+01         0.00000E+00
    0.00000E+00         0.00000E+00        -0.64088E+04
 
   -0.32022E+05         0.16742E+04         0.00000E+00
    0.16742E+04        -0.84220E+01         0.00000E+00
    0.00000E+00         0.00000E+00        -0.64060E+04
 
   -0.31970E+05         0.27897E+04         0.00000E+00
    0.27897E+04        -0.33206E+02         0.00000E+00
    0.00000E+00         0.00000E+00        -0.64007E+04
 
   -0.31894E+05         0.39036E+04         0.00000E+00
    0.39036E+04        -0.70473E+02         0.00000E+00
    0.00000E+00         0.00000E+00        -0.63929E+04
 
   -0.31793E+05         0.50147E+04         0.00000E+00
    0.50147E+04        -0.12025E+03         0.00000E+00
    0.00000E+00         0.00000E+00        -0.63826E+04
 
   -0.31667E+05         0.61224E+04         0.00000E+00
    0.61224E+04        -0.18253E+03         0.00000E+00
    0.00000E+00         0.00000E+00        -0.63698E+04
 
   -0.31515E+05         0.72257E+04         0.00000E+00
    0.72257E+04        -0.25733E+03         0.00000E+00
    0.00000E+00         0.00000E+00        -0.63545E+04
 
   -0.31339E+05         0.83237E+04         0.00000E+00
    0.83237E+04        -0.34462E+03         0.00000E+00
    0.00000E+00         0.00000E+00        -0.63367E+04
 
   -0.31138E+05         0.94155E+04         0.00000E+00
    0.94155E+04        -0.44438E+03         0.00000E+00
    0.00000E+00         0.00000E+00        -0.63164E+04
 
   -0.30911E+05         0.10500E+05         0.00000E+00
    0.10500E+05        -0.55657E+03         0.00000E+00
    0.00000E+00         0.00000E+00        -0.62935E+04
 
   -0.30660E+05         0.11577E+05         0.00000E+00
    0.11577E+05        -0.68113E+03         0.00000E+00
    0.00000E+00         0.00000E+00        -0.62681E+04
 
   -0.30383E+05         0.12645E+05         0.00000E+00
    0.12645E+05        -0.81800E+03         0.00000E+00
    0.00000E+00         0.00000E+00        -0.62402E+04
 
   -0.30082E+05         0.13703E+05         0.00000E+00
    0.13703E+05        -0.96709E+03         0.00000E+00
    0.00000E+00         0.00000E+00        -0.62098E+04
 
   -0.29756E+05         0.14750E+05         0.00000E+00
    0.14750E+05        -0.11283E+04         0.00000E+00
    0.00000E+00         0.00000E+00        -0.61769E+04
 
   -0.29406E+05         0.15786E+05         0.00000E+00
    0.15786E+05        -0.13016E+04         0.00000E+00
    0.00000E+00         0.00000E+00        -0.61415E+04
 
   -0.29031E+05         0.16809E+05         0.00000E+00
    0.16809E+05        -0.14868E+04         0.00000E+00
    0.00000E+00         0.00000E+00        -0.61035E+04
 
   -0.28632E+05         0.17819E+05         0.00000E+00
    0.17819E+05        -0.16838E+04         0.00000E+00
    0.00000E+00         0.00000E+00        -0.60631E+04
 
   -0.28208E+05         0.18815E+05         0.00000E+00
    0.18815E+05        -0.18925E+04         0.00000E+00
    0.00000E+00         0.00000E+00        -0.60202E+04
 
   -0.27761E+05         0.19796E+05         0.00000E+00
    0.19796E+05        -0.21126E+04         0.00000E+00
    0.00000E+00         0.00000E+00        -0.59748E+04
 
   -0.27290E+05         0.20761E+05         0.00000E+00
    0.20761E+05        -0.23441E+04         0.00000E+00
    0.00000E+00         0.00000E+00        -0.59269E+04
 
   -0.26796E+05         0.21710E+05         0.00000E+00
    0.21710E+05        -0.25868E+04         0.00000E+00
    0.00000E+00         0.00000E+00        -0.58766E+04
 
   -0.26279E+05         0.22640E+05         0.00000E+00
    0.22640E+05        -0.28405E+04         0.00000E+00
    0.00000E+00         0.00000E+00        -0.58238E+04
 
   -0.25738E+05         0.23553E+05         0.00000E+00
    0.23553E+05        -0.31050E+04         0.00000E+00
    0.00000E+00         0.00000E+00        -0.57687E+04
 
   -0.25175E+05         0.24446E+05         0.00000E+00
    0.24446E+05        -0.33800E+04         0.00000E+00
    0.00000E+00         0.00000E+00        -0.57111E+04
 
   -0.24590E+05         0.25320E+05         0.00000E+00
    0.25320E+05        -0.36655E+04         0.00000E+00
    0.00000E+00         0.00000E+00        -0.56511E+04
 
   -0.23983E+05         0.26172E+05         0.00000E+00
    0.26172E+05        -0.39611E+04         0.00000E+00
    0.00000E+00         0.00000E+00        -0.55887E+04
 
   -0.23354E+05         0.27003E+05         0.00000E+00
    0.27003E+05        -0.42666E+04         0.00000E+00
    0.00000E+00         0.00000E+00        -0.55240E+04
 
   -0.22703E+05         0.27812E+05         0.00000E+00
    0.27812E+05        -0.45817E+04         0.00000E+00
    0.00000E+00         0.00000E+00        -0.54570E+04
 
   -0.22032E+05         0.28597E+05         0.00000E+00
    0.28597E+05        -0.49063E+04         0.00000E+00
    0.00000E+00         0.00000E+00        -0.53877E+04
 
   -0.21340E+05         0.29359E+05         0.00000E+00
    0.29359E+05        -0.52401E+04         0.00000E+00
    0.00000E+00         0.00000E+00        -0.53160E+04
 
   -0.20628E+05         0.30097E+05         0.00000E+00
    0.30097E+05        -0.55827E+04         0.00000E+00
    0.00000E+00         0.00000E+00        -0.52421E+04
 
   -0.19896E+05         0.30809E+05         0.00000E+00
    0.30809E+05        -0.59339E+04         0.00000E+00
    0.00000E+00         0.00000E+00        -0.51660E+04
 
   -0.19145E+05         0.31495E+05         0.00000E+00
    0.31495E+05        -0.62934E+04         0.00000E+00
    0.00000E+00         0.00000E+00        -0.50877E+04
 
   -0.18375E+05         0.32155E+05         0.00000E+00
    0.32155E+05        -0.66609E+04         0.00000E+00
    0.00000E+00         0.00000E+00        -0.50072E+04
 
   -0.17587E+05         0.32787E+05         0.00000E+00
    0.32787E+05        -0.70360E+04         0.00000E+00
    0.00000E+00         0.00000E+00        -0.49245E+04
 
   -0.16780E+05         0.33391E+05         0.00000E+00
    0.33391E+05        -0.74186E+04         0.00000E+00
    0.00000E+00         0.00000E+00        -0.48397E+04
 
   -0.15956E+05         0.33967E+05         0.00000E+00
    0.33967E+05        -0.78082E+04         0.00000E+00
    0.00000E+00         0.00000E+00        -0.47529E+04
 
   -0.15115E+05         0.34514E+05         0.00000E+00
    0.34514E+05        -0.82045E+04         0.00000E+00
    0.00000E+00         0.00000E+00        -0.46639E+04
 
   -0.14258E+05         0.35031E+05         0.00000E+00
    0.35031E+05        -0.86072E+04         0.00000E+00
    0.00000E+00         0.00000E+00        -0.45730E+04
 
   -0.13384E+05         0.35518E+05         0.00000E+00
    0.35518E+05        -0.90159E+04         0.00000E+00
    0.00000E+00         0.00000E+00        -0.44801E+04
 
   -0.12496E+05         0.35973E+05         0.00000E+00
    0.35973E+05        -0.94303E+04         0.00000E+00
    0.00000E+00         0.00000E+00        -0.43852E+04
 
   -0.11592E+05         0.36398E+05         0.00000E+00
    0.36398E+05        -0.98500E+04         0.00000E+00
    0.00000E+00         0.00000E+00        -0.42884E+04
 
   -0.10674E+05         0.36790E+05         0.00000E+00
    0.36790E+05        -0.10275E+05         0.00000E+00
    0.00000E+00         0.00000E+00        -0.41897E+04
 
   -0.97423E+04         0.37150E+05         0.00000E+00
    0.37150E+05        -0.10704E+05         0.00000E+00
    0.00000E+00         0.00000E+00        -0.40892E+04
 
   -0.87975E+04         0.37477E+05         0.00000E+00
    0.37477E+05        -0.11137E+05         0.00000E+00
    0.00000E+00         0.00000E+00        -0.39869E+04
 
   -0.78401E+04         0.37771E+05         0.00000E+00
    0.37771E+05        -0.11574E+05         0.00000E+00
    0.00000E+00         0.00000E+00        -0.38829E+04
 
   -0.68707E+04         0.38030E+05         0.00000E+00
    0.38030E+05        -0.12015E+05         0.00000E+00
    0.00000E+00         0.00000E+00        -0.37771E+04
 
   -0.58901E+04         0.38256E+05         0.00000E+00
    0.38256E+05        -0.12458E+05         0.00000E+00
    0.00000E+00         0.00000E+00        -0.36697E+04
 
   -0.48988E+04         0.38447E+05         0.00000E+00
    0.38447E+05        -0.12904E+05         0.00000E+00
    0.00000E+00         0.00000E+00        -0.35606E+04
 
   -0.38974E+04         0.38602E+05         0.00000E+00
    0.38602E+05        -0.13352E+05         0.00000E+00
    0.00000E+00         0.00000E+00        -0.34500E+04
 
   -0.26611E+05         0.52977E+03         0.00000E+00
    0.52977E+03         0.32365E+01         0.00000E+00
    0.00000E+00         0.00000E+00        -0.53216E+04
 
   -0.26587E+05         0.15894E+04         0.00000E+00
    0.15894E+04        -0.69760E+01         0.00000E+00
    0.00000E+00         0.00000E+00        -0.53188E+04
 
   -0.26543E+05         0.26481E+04         0.00000E+00
    0.26481E+04        -0.27490E+02         0.00000E+00
    0.00000E+00         0.00000E+00        -0.53141E+04
 
   -0.26478E+05         0.37049E+04         0.00000E+00
    0.37049E+04        -0.58331E+02         0.00000E+00
    0.00000E+00         0.00000E+00        -0.53072E+04
 
   -0.26392E+05         0.47590E+04         0.00000E+00
    0.47590E+04        -0.99515E+02         0.00000E+00
    0.00000E+00         0.00000E+00        -0.52983E+04
 
   -0.26285E+05         0.58097E+04         0.00000E+00
    0.58097E+04        -0.15105E+03         0.00000E+00
    0.00000E+00         0.00000E+00        -0.52873E+04
 
   -0.26158E+05         0.68559E+04         0.00000E+00
    0.68559E+04        -0.21293E+03         0.00000E+00
    0.00000E+00         0.00000E+00        -0.52742E+04
 
   -0.26010E+05         0.78970E+04         0.00000E+00
    0.78970E+04        -0.28514E+03         0.00000E+00
    0.00000E+00         0.00000E+00        -0.52591E+04
 
   -0.25841E+05         0.89320E+04         0.00000E+00
    0.89320E+04        -0.36766E+03         0.00000E+00
    0.00000E+00         0.00000E+00        -0.52418E+04
 
   -0.25652E+05         0.99601E+04         0.00000E+00
    0.99601E+04        -0.46046E+03         0.00000E+00
    0.00000E+00         0.00000E+00        -0.52225E+04
 
   -0.25442E+05         0.10980E+05         0.00000E+00
    0.10980E+05        -0.56349E+03         0.00000E+00
    0.00000E+00         0.00000E+00        -0.52011E+04
 
   -0.25211E+05         0.11992E+05         0.00000E+00
    0.11992E+05        -0.67670E+03         0.00000E+00
    0.00000E+00         0.00000E+00        -0.51776E+04
 
   -0.24960E+05         0.12995E+05         0.00000E+00
    0.12995E+05        -0.80002E+03         0.00000E+00
    0.00000E+00         0.00000E+00        -0.51521E+04
 
   -0.24689E+05         0.13987E+05         0.00000E+00
    0.13987E+05        -0.93340E+03         0.00000E+00
    0.00000E+00         0.00000E+00        -0.51245E+04
 
   -0.24397E+05         0.14968E+05         0.00000E+00
    0.14968E+05        -0.10767E+04         0.00000E+00
    0.00000E+00         0.00000E+00        -0.50947E+04
 
   -0.24085E+05         0.15937E+05         0.00000E+00
    0.15937E+05        -0.12299E+04         0.00000E+00
    0.00000E+00         0.00000E+00        -0.50630E+04
 
   -0.23753E+05         0.16894E+05         0.00000E+00
    0.16894E+05        -0.13929E+04         0.00000E+00
    0.00000E+00         0.00000E+00        -0.50291E+04
 
   -0.23401E+05         0.17837E+05         0.00000E+00
    0.17837E+05        -0.15655E+04         0.00000E+00
    0.00000E+00         0.00000E+00        -0.49933E+04
 
   -0.23029E+05         0.18766E+05         0.00000E+00
    0.18766E+05        -0.17477E+04         0.00000E+00
    0.00000E+00         0.00000E+00        -0.49553E+04
 
   -0.22638E+05         0.19679E+05         0.00000E+00
    0.19679E+05        -0.19392E+04         0.00000E+00
    0.00000E+00         0.00000E+00        -0.49154E+04
 
   -0.22227E+05         0.20577E+05         0.00000E+00
    0.20577E+05        -0.21400E+04         0.00000E+00
    0.00000E+00         0.00000E+00        -0.48734E+04
 
   -0.21797E+05         0.21458E+05         0.00000E+00
    0.21458E+05        -0.23500E+04         0.00000E+00
    0.00000E+00         0.00000E+00        -0.48294E+04
 
   -0.21348E+05         0.22322E+05         0.00000E+00
    0.22322E+05        -0.25689E+04         0.00000E+00
    0.00000E+00         0.00000E+00        -0.47834E+04
 
   -0.20880E+05         0.23167E+05         0.00000E+00
    0.23167E+05        -0.27965E+04         0.00000E+00
    0.00000E+00         0.00000E+00        -0.47354E+04
 
   -0.20394E+05         0.23994E+05         0.00000E+00
    0.23994E+05        -0.30328E+04         0.00000E+00
    0.00000E+00         0.00000E+00        -0.46854E+04
 
   -0.19890E+05         0.24800E+05         0.00000E+00
    0.24800E+05        -0.32775E+04         0.00000E+00
    0.00000E+00         0.00000E+00        -0.46335E+04
 
   -0.19368E+05         0.25587E+05         0.00000E+00
    0.25587E+05        -0.35304E+04         0.00000E+00
    0.00000E+00         0.00000E+00        -0.45796E+04
 
   -0.18828E+05         0.26352E+05         0.00000E+00
    0.26352E+05        -0.37914E+04         0.00000E+00
    0.00000E+00         0.00000E+00        -0.45238E+04
 
   -0.18270E+05         0.27095E+05         0.00000E+00
    0.27095E+05        -0.40602E+04         0.00000E+00
    0.00000E+00         0.00000E+00        -0.44661E+04
 
   -0.17696E+05         0.27816E+05         0.00000E+00
    0.27816E+05        -0.43365E+04         0.00000E+00
    0.00000E+00         0.00000E+00        -0.44065E+04
 
   -0.17105E+05         0.28513E+05         0.00000E+00
    0.28513E+05        -0.46203E+04         0.00000E+00
    0.00000E+00         0.00000E+00        -0.43451E+04
 
   -0.16498E+05         0.29187E+05         0.00000E+00
    0.29187E+05        -0.49112E+04         0.00000E+00
    0.00000E+00         0.00000E+00        -0.42818E+04
 
   -0.15874E+05         0.29836E+05         0.00000E+00
    0.29836E+05        -0.52090E+04         0.00000E+00
    0.00000E+00         0.00000E+00        -0.42167E+04
 
   -0.15235E+05         0.30459E+05         0.00000E+00
    0.30459E+05        -0.55134E+04         0.00000E+00
    0.00000E+00         0.00000E+00        -0.41498E+04
 
   -0.14581E+05         0.31057E+05         0.00000E+00
    0.31057E+05        -0.58243E+04         0.00000E+00
    0.00000E+00         0.00000E+00        -0.40811E+04
 
   -0.13912E+05         0.31629E+05         0.00000E+00
    0.31629E+05        -0.61412E+04         0.00000E+00
    0.00000E+00         0.00000E+00        -0.40107E+04
 
   -0.13229E+05         0.32173E+05         0.00000E+00
    0.32173E+05        -0.64640E+04         0.00000E+00
    0.00000E+00         0.00000E+00        -0.39385E+04
 
   -0.12531E+05         0.32690E+05         0.00000E+00
    0.32690E+05        -0.67925E+04         0.00000E+00
    0.00000E+00         0.00000E+00        -0.38647E+04
 
   -0.11820E+05         0.33178E+05         0.00000E+00
    0.33178E+05        -0.71262E+04         0.00000E+00
    0.00000E+00         0.00000E+00        -0.37891E+04
 
   -0.11095E+05         0.33638E+05         0.00000E+00
    0.33638E+05        -0.74649E+04         0.00000E+00
    0.00000E+00         0.00000E+00        -0.37120E+04
 
   -0.10358E+05         0.34069E+05         0.00000E+00
    0.34069E+05        -0.78083E+04         0.00000E+00
    0.00000E+00         0.00000E+00        -0.36332E+04
 
   -0.96084E+04         0.34470E+05         0.00000E+00
    0.34470E+05        -0.81562E+04         0.00000E+00
    0.00000E+00         0.00000E+00        -0.35529E+04
 
   -0.88471E+04         0.34841E+05         0.00000E+00
    0.34841E+05        -0.85081E+04         0.00000E+00
    0.00000E+00         0.00000E+00        -0.34710E+04
 
   -0.80744E+04         0.35181E+05         0.00000E+00
    0.35181E+05        -0.88638E+04         0.00000E+00
    0.00000E+00         0.00000E+00        -0.33876E+04
 
   -0.72909E+04         0.35490E+05         0.00000E+00
    0.35490E+05        -0.92230E+04         0.00000E+00
    0.00000E+00         0.00000E+00        -0.33028E+04
 
   -0.64970E+04         0.35767E+05         0.00000E+00
    0.35767E+05        -0.95854E+04         0.00000E+00
    0.00000E+00         0.00000E+00        -0.32165E+04
 
   -0.56933E+04         0.36012E+05         0.00000E+00
    0.36012E+05        -0.99505E+04         0.00000E+00
    0.00000E+00         0.00000E+00        -0.31288E+04
 
   -0.48803E+04         0.36225E+05         0.00000E+00
    0.36225E+05        -0.10318E+05         0.00000E+00
    0.00000E+00         0.00000E+00        -0.30397E+04
 
   -0.40585E+04         0.36405E+05         0.00000E+00
    0.36405E+05        -0.10688E+05         0.00000E+00
    0.00000E+00         0.00000E+00        -0.29493E+04
 
   -0.32284E+04         0.36552E+05         0.00000E+00
    0.36552E+05        -0.11059E+05         0.00000E+00
    0.00000E+00         0.00000E+00        -0.28576E+04
 
   -0.21431E+05         0.50684E+03         0.00000E+00
    0.50684E+03         0.25984E+01         0.00000E+00
    0.00000E+00         0.00000E+00        -0.42857E+04
 
   -0.21411E+05         0.15202E+04         0.00000E+00
    0.15202E+04        -0.56055E+01         0.00000E+00
    0.00000E+00         0.00000E+00        -0.42832E+04
 
   -0.21373E+05         0.25324E+04         0.00000E+00
    0.25324E+04        -0.22080E+02         0.00000E+00
    0.00000E+00         0.00000E+00        -0.42791E+04
 
   -0.21320E+05         0.35427E+04         0.00000E+00
    0.35427E+04        -0.46845E+02         0.00000E+00
    0.00000E+00         0.00000E+00        -0.42733E+04
 
   -0.21250E+05         0.45503E+04         0.00000E+00
    0.45503E+04        -0.79912E+02         0.00000E+00
    0.00000E+00         0.00000E+00        -0.42659E+04
 
   -0.21163E+05         0.55544E+04         0.00000E+00
    0.55544E+04        -0.12129E+03         0.00000E+00
    0.00000E+00         0.00000E+00        -0.42568E+04
 
   -0.21059E+05         0.65541E+04         0.00000E+00
    0.65541E+04        -0.17096E+03         0.00000E+00
    0.00000E+00         0.00000E+00        -0.42461E+04
 
   -0.20939E+05         0.75487E+04         0.00000E+00
    0.75487E+04        -0.22893E+03         0.00000E+00
    0.00000E+00         0.00000E+00        -0.42336E+04
 
   -0.20802E+05         0.85374E+04         0.00000E+00
    0.85374E+04        -0.29517E+03         0.00000E+00
    0.00000E+00         0.00000E+00        -0.42195E+04
 
   -0.20649E+05         0.95193E+04         0.00000E+00
    0.95193E+04        -0.36966E+03         0.00000E+00
    0.00000E+00         0.00000E+00        -0.42038E+04
 
   -0.20479E+05         0.10494E+05         0.00000E+00
    0.10494E+05        -0.45237E+03         0.00000E+00
    0.00000E+00         0.00000E+00        -0.41863E+04
 
   -0.20293E+05         0.11460E+05         0.00000E+00
    0.11460E+05        -0.54325E+03         0.00000E+00
    0.00000E+00         0.00000E+00        -0.41672E+04
 
   -0.20090E+05         0.12417E+05         0.00000E+00
    0.12417E+05        -0.64225E+03         0.00000E+00
    0.00000E+00         0.00000E+00        -0.41464E+04
 
   -0.19871E+05         0.13364E+05         0.00000E+00
    0.13364E+05        -0.74931E+03         0.00000E+00
    0.00000E+00         0.00000E+00        -0.41240E+04
 
   -0.19635E+05         0.14301E+05         0.00000E+00
    0.14301E+05        -0.86437E+03         0.00000E+00
    0.00000E+00         0.00000E+00        -0.40999E+04
 
   -0.19383E+05         0.15226E+05         0.00000E+00
    0.15226E+05        -0.98737E+03         0.00000E+00
    0.00000E+00         0.00000E+00        -0.40741E+04
 
   -0.19115E+05         0.16139E+05         0.00000E+00
    0.16139E+05        -0.11182E+04         0.00000E+00
    0.00000E+00         0.00000E+00        -0.40467E+04
 
   -0.18832E+05         0.17039E+05         0.00000E+00
    0.17039E+05        -0.12568E+04         0.00000E+00
    0.00000E+00         0.00000E+00        -0.40177E+04
 
   -0.18532E+05         0.17925E+05         0.00000E+00
    0.17925E+05        -0.14031E+04         0.00000E+00
    0.00000E+00         0.00000E+00        -0.39870E+04
 
   -0.18216E+05         0.18796E+05         0.00000E+00
    0.18796E+05        -0.15569E+04         0.00000E+00
    0.00000E+00         0.00000E+00        -0.39547E+04
 
   -0.17885E+05         0.19653E+05         0.00000E+00
    0.19653E+05        -0.17181E+04         0.00000E+00
    0.00000E+00         0.00000E+00        -0.39207E+04
 
   -0.17539E+05         0.20493E+05         0.00000E+00
    0.20493E+05        -0.18867E+04         0.00000E+00
    0.00000E+00         0.00000E+00        -0.38851E+04
 
   -0.17177E+05         0.21317E+05         0.00000E+00
    0.21317E+05        -0.20625E+04         0.00000E+00
    0.00000E+00         0.00000E+00        -0.38480E+04
 
   -0.16801E+05         0.22123E+05         0.00000E+00
    0.22123E+05        -0.22454E+04         0.00000E+00
    0.00000E+00         0.00000E+00        -0.38092E+04
 
   -0.16409E+05         0.22911E+05         0.00000E+00
    0.22911E+05        -0.24352E+04         0.00000E+00
    0.00000E+00         0.00000E+00        -0.37689E+04
 
   -0.16003E+05         0.23680E+05         0.00000E+00
    0.23680E+05        -0.26318E+04         0.00000E+00
    0.00000E+00         0.00000E+00        -0.37269E+04
 
   -0.15582E+05         0.24430E+05         0.00000E+00
    0.24430E+05        -0.28350E+04         0.00000E+00
    0.00000E+00         0.00000E+00        -0.36835E+04
 
   -0.15148E+05         0.25159E+05         0.00000E+00
    0.25159E+05        -0.30446E+04         0.00000E+00
    0.00000E+00         0.00000E+00        -0.36385E+04
 
   -0.14699E+05         0.25867E+05         0.00000E+00
    0.25867E+05        -0.32606E+04         0.00000E+00
    0.00000E+00         0.00000E+00        -0.35919E+04
 
   -0.14237E+05         0.26554E+05         0.00000E+00
    0.26554E+05        -0.34827E+04         0.00000E+00
    0.00000E+00         0.00000E+00        -0.35439E+04
 
   -0.13761E+05         0.27219E+05         0.00000E+00
    0.27219E+05        -0.37108E+04         0.00000E+00
    0.00000E+00         0.00000E+00        -0.34943E+04
 
   -0.13272E+05         0.27861E+05         0.00000E+00
    0.27861E+05        -0.39446E+04         0.00000E+00
    0.00000E+00         0.00000E+00        -0.34433E+04
 
   -0.12770E+05         0.28479E+05         0.00000E+00
    0.28479E+05        -0.41839E+04         0.00000E+00
    0.00000E+00         0.00000E+00        -0.33908E+04
 
   -0.12256E+05         0.29074E+05         0.00000E+00
    0.29074E+05        -0.44286E+04         0.00000E+00
    0.00000E+00         0.00000E+00        -0.33369E+04
 
   -0.11729E+05         0.29643E+05         0.00000E+00
    0.29643E+05        -0.46785E+04         0.00000E+00
    0.00000E+00         0.00000E+00        -0.32815E+04
 
   -0.11191E+05         0.30188E+05         0.00000E+00
    0.30188E+05        -0.49333E+04         0.00000E+00
    0.00000E+00         0.00000E+00        -0.32248E+04
 
   -0.10640E+05         0.30706E+05         0.00000E+00
    0.30706E+05        -0.51929E+04         0.00000E+00
    0.00000E+00         0.00000E+00        -0.31667E+04
 
   -0.10079E+05         0.31199E+05         0.00000E+00
    0.31199E+05        -0.54569E+04         0.00000E+00
    0.00000E+00         0.00000E+00        -0.31072E+04
 
   -0.95066E+04         0.31664E+05         0.00000E+00
    0.31664E+05        -0.57253E+04         0.00000E+00
    0.00000E+00         0.00000E+00        -0.30464E+04
 
   -0.89236E+04         0.32102E+05         0.00000E+00
    0.32102E+05        -0.59977E+04         0.00000E+00
    0.00000E+00         0.00000E+00        -0.29843E+04
 
   -0.83304E+04         0.32512E+05         0.00000E+00
    0.32512E+05        -0.62738E+04         0.00000E+00
    0.00000E+00         0.00000E+00        -0.29208E+04
 
   -0.77273E+04         0.32894E+05         0.00000E+00
    0.32894E+05        -0.65536E+04         0.00000E+00
    0.00000E+00         0.00000E+00        -0.28562E+04
 
   -0.71147E+04         0.33247E+05         0.00000E+00
    0.33247E+05        -0.68366E+04         0.00000E+00
    0.00000E+00         0.00000E+00        -0.27903E+04
 
   -0.64931E+04         0.33570E+05         0.00000E+00
    0.33570E+05        -0.71227E+04         0.00000E+00
    0.00000E+00         0.00000E+00        -0.27232E+04
 
   -0.58627E+04         0.33864E+05         0.00000E+00
    0.33864E+05        -0.74116E+04         0.00000E+00
    0.00000E+00         0.00000E+00        -0.26549E+04
 
   -0.52241E+04         0.34128E+05         0.00000E+00
    0.34128E+05        -0.77030E+04         0.00000E+00
    0.00000E+00         0.00000E+00        -0.25854E+04
 
   -0.45775E+04         0.34361E+05         0.00000E+00
    0.34361E+05        -0.79967E+04         0.00000E+00
    0.00000E+00         0.00000E+00        -0.25148E+04
 
   -0.39236E+04         0.34564E+05         0.00000E+00
    0.34564E+05        -0.82923E+04         0.00000E+00
    0.00000E+00         0.00000E+00        -0.24432E+04
 
   -0.32626E+04         0.34735E+05         0.00000E+00
    0.34735E+05        -0.85897E+04         0.00000E+00
    0.00000E+00         0.00000E+00        -0.23705E+04
 
   -0.25949E+04         0.34875E+05         0.00000E+00
    0.34875E+05        -0.88885E+04         0.00000E+00
    0.00000E+00         0.00000E+00        -0.22967E+04
 
   -0.16457E+05         0.48880E+03         0.00000E+00
    0.48880E+03         0.19888E+01         0.00000E+00
    0.00000E+00         0.00000E+00        -0.32910E+04
 
   -0.16441E+05         0.14658E+04         0.00000E+00
    0.14658E+04        -0.42921E+01         0.00000E+00
    0.00000E+00         0.00000E+00        -0.32890E+04
 
   -0.16412E+05         0.24415E+04         0.00000E+00
    0.24415E+04        -0.16904E+02         0.00000E+00
    0.00000E+00         0.00000E+00        -0.32857E+04
 
   -0.16370E+05         0.34152E+04         0.00000E+00
    0.34152E+04        -0.35860E+02         0.00000E+00
    0.00000E+00         0.00000E+00        -0.32811E+04
 
   -0.16315E+05         0.43862E+04         0.00000E+00
    0.43862E+04        -0.61171E+02         0.00000E+00
    0.00000E+00         0.00000E+00        -0.32753E+04
 
   -0.16248E+05         0.53536E+04         0.00000E+00
    0.53536E+04        -0.92839E+02         0.00000E+00
    0.00000E+00         0.00000E+00        -0.32681E+04
 
   -0.16168E+05         0.63168E+04         0.00000E+00
    0.63168E+04        -0.13086E+03         0.00000E+00
    0.00000E+00         0.00000E+00        -0.32598E+04
 
   -0.16075E+05         0.72749E+04         0.00000E+00
    0.72749E+04        -0.17523E+03         0.00000E+00
    0.00000E+00         0.00000E+00        -0.32501E+04
 
   -0.15970E+05         0.82271E+04         0.00000E+00
    0.82271E+04        -0.22594E+03         0.00000E+00
    0.00000E+00         0.00000E+00        -0.32391E+04
 
   -0.15852E+05         0.91728E+04         0.00000E+00
    0.91728E+04        -0.28296E+03         0.00000E+00
    0.00000E+00         0.00000E+00        -0.32269E+04
 
   -0.15721E+05         0.10111E+05         0.00000E+00
    0.10111E+05        -0.34627E+03         0.00000E+00
    0.00000E+00         0.00000E+00        -0.32134E+04
 
   -0.15577E+05         0.11041E+05         0.00000E+00
    0.11041E+05        -0.41583E+03         0.00000E+00
    0.00000E+00         0.00000E+00        -0.31986E+04
 
   -0.15421E+05         0.11963E+05         0.00000E+00
    0.11963E+05        -0.49162E+03         0.00000E+00
    0.00000E+00         0.00000E+00        -0.31826E+04
 
   -0.15253E+05         0.12875E+05         0.00000E+00
    0.12875E+05        -0.57359E+03         0.00000E+00
    0.00000E+00         0.00000E+00        -0.31652E+04
 
   -0.15071E+05         0.13776E+05         0.00000E+00
    0.13776E+05        -0.66169E+03         0.00000E+00
    0.00000E+00         0.00000E+00        -0.31466E+04
 
   -0.14878E+05         0.14666E+05         0.00000E+00
    0.14666E+05        -0.75587E+03         0.00000E+00
    0.00000E+00         0.00000E+00        -0.31268E+04
 
   -0.14672E+05         0.15545E+05         0.00000E+00
    0.15545E+05        -0.85606E+03         0.00000E+00
    0.00000E+00         0.00000E+00        -0.31056E+04
 
   -0.14454E+05         0.16411E+05         0.00000E+00
    0.16411E+05        -0.96219E+03         0.00000E+00
    0.00000E+00         0.00000E+00        -0.30832E+04
 
   -0.14224E+05         0.17263E+05         0.00000E+00
    0.17263E+05        -0.10742E+04         0.00000E+00
    0.00000E+00         0.00000E+00        -0.30596E+04
 
   -0.13981E+05         0.18102E+05         0.00000E+00
    0.18102E+05        -0.11920E+04         0.00000E+00
    0.00000E+00         0.00000E+00        -0.30347E+04
 
   -0.13727E+05         0.18925E+05         0.00000E+00
    0.18925E+05        -0.13156E+04         0.00000E+00
    0.00000E+00         0.00000E+00        -0.30085E+04
 
   -0.13461E+05         0.19734E+05         0.00000E+00
    0.19734E+05        -0.14447E+04         0.00000E+00
    0.00000E+00         0.00000E+00        -0.29812E+04
 
   -0.13183E+05         0.20526E+05         0.00000E+00
    0.20526E+05        -0.15794E+04         0.00000E+00
    0.00000E+00         0.00000E+00        -0.29526E+04
 
   -0.12894E+05         0.21301E+05         0.00000E+00
    0.21301E+05        -0.17195E+04         0.00000E+00
    0.00000E+00         0.00000E+00        -0.29227E+04
 
   -0.12594E+05         0.22059E+05         0.00000E+00
    0.22059E+05        -0.18649E+04         0.00000E+00
    0.00000E+00         0.00000E+00        -0.28917E+04
 
   -0.12282E+05         0.22798E+05         0.00000E+00
    0.22798E+05        -0.20156E+04         0.00000E+00
    0.00000E+00         0.00000E+00        -0.28595E+04
 
   -0.11959E+05         0.23519E+05         0.00000E+00
    0.23519E+05        -0.21713E+04         0.00000E+00
    0.00000E+00         0.00000E+00        -0.28260E+04
 
   -0.11625E+05         0.24220E+05         0.00000E+00
    0.24220E+05        -0.23320E+04         0.00000E+00
    0.00000E+00         0.00000E+00        -0.27914E+04
 
   -0.11281E+05         0.24901E+05         0.00000E+00
    0.24901E+05        -0.24976E+04         0.00000E+00
    0.00000E+00         0.00000E+00        -0.27556E+04
 
   -0.10926E+05         0.25562E+05         0.00000E+00
    0.25562E+05        -0.26679E+04         0.00000E+00
    0.00000E+00         0.00000E+00        -0.27187E+04
 
   -0.10560E+05         0.26200E+05         0.00000E+00
    0.26200E+05        -0.28427E+04         0.00000E+00
    0.00000E+00         0.00000E+00        -0.26806E+04
 
   -0.10185E+05         0.26817E+05         0.00000E+00
    0.26817E+05        -0.30220E+04         0.00000E+00
    0.00000E+00         0.00000E+00        -0.26414E+04
 
   -0.97999E+04         0.27412E+05         0.00000E+00
    0.27412E+05        -0.32055E+04         0.00000E+00
    0.00000E+00         0.00000E+00        -0.26011E+04
 
   -0.94050E+04         0.27983E+05         0.00000E+00
    0.27983E+05        -0.33932E+04         0.00000E+00
    0.00000E+00         0.00000E+00        -0.25596E+04
 
   -0.90008E+04         0.28530E+05         0.00000E+00
    0.28530E+05        -0.35848E+04         0.00000E+00
    0.00000E+00         0.00000E+00        -0.25171E+04
 
   -0.85874E+04         0.29053E+05         0.00000E+00
    0.29053E+05        -0.37803E+04         0.00000E+00
    0.00000E+00         0.00000E+00        -0.24735E+04
 
   -0.81651E+04         0.29551E+05         0.00000E+00
    0.29551E+05        -0.39794E+04         0.00000E+00
    0.00000E+00         0.00000E+00        -0.24289E+04
 
   -0.77341E+04         0.30024E+05         0.00000E+00
    0.30024E+05        -0.41819E+04         0.00000E+00
    0.00000E+00         0.00000E+00        -0.23832E+04
 
   -0.72947E+04         0.30471E+05         0.00000E+00
    0.30471E+05        -0.43878E+04         0.00000E+00
    0.00000E+00         0.00000E+00        -0.23365E+04
 
   -0.68472E+04         0.30892E+05         0.00000E+00
    0.30892E+05        -0.45968E+04         0.00000E+00
    0.00000E+00         0.00000E+00        -0.22888E+04
 
   -0.63918E+04         0.31286E+05         0.00000E+00
    0.31286E+05        -0.48086E+04         0.00000E+00
    0.00000E+00         0.00000E+00        -0.22401E+04
 
   -0.59289E+04         0.31652E+05         0.00000E+00
    0.31652E+05        -0.50233E+04         0.00000E+00
    0.00000E+00         0.00000E+00        -0.21904E+04
 
   -0.54587E+04         0.31991E+05         0.00000E+00
    0.31991E+05        -0.52405E+04         0.00000E+00
    0.00000E+00         0.00000E+00        -0.21398E+04
 
   -0.49815E+04         0.32302E+05         0.00000E+00
    0.32302E+05        -0.54600E+04         0.00000E+00
    0.00000E+00         0.00000E+00        -0.20883E+04
 
   -0.44977E+04         0.32584E+05         0.00000E+00
    0.32584E+05        -0.56817E+04         0.00000E+00
    0.00000E+00         0.00000E+00        -0.20359E+04
 
   -0.40075E+04         0.32837E+05         0.00000E+00
    0.32837E+05        -0.59053E+04         0.00000E+00
    0.00000E+00         0.00000E+00        -0.19826E+04
 
   -0.35113E+04         0.33061E+05         0.00000E+00
    0.33061E+05        -0.61307E+04         0.00000E+00
    0.00000E+00         0.00000E+00        -0.19284E+04
 
   -0.30094E+04         0.33255E+05         0.00000E+00
    0.33255E+05        -0.63575E+04         0.00000E+00
    0.00000E+00         0.00000E+00        -0.18734E+04
 
   -0.25022E+04         0.33420E+05         0.00000E+00
    0.33420E+05        -0.65857E+04         0.00000E+00
    0.00000E+00         0.00000E+00        -0.18176E+04
 
   -0.19898E+04         0.33554E+05         0.00000E+00
    0.33554E+05        -0.68150E+04         0.00000E+00
    0.00000E+00         0.00000E+00        -0.17610E+04
 
   -0.11641E+05         0.47547E+03         0.00000E+00
    0.47547E+03         0.14002E+01         0.00000E+00
    0.00000E+00         0.00000E+00        -0.23280E+04
 
   -0.11629E+05         0.14255E+04         0.00000E+00
    0.14255E+04        -0.30200E+01         0.00000E+00
    0.00000E+00         0.00000E+00        -0.23265E+04
 
   -0.11608E+05         0.23743E+04         0.00000E+00
    0.23743E+04        -0.11897E+02         0.00000E+00
    0.00000E+00         0.00000E+00        -0.23240E+04
 
   -0.11579E+05         0.33210E+04         0.00000E+00
    0.33210E+04        -0.25241E+02         0.00000E+00
    0.00000E+00         0.00000E+00        -0.23208E+04
 
   -0.11540E+05         0.42649E+04         0.00000E+00
    0.42649E+04        -0.43060E+02         0.00000E+00
    0.00000E+00         0.00000E+00        -0.23166E+04
 
   -0.11492E+05         0.52053E+04         0.00000E+00
    0.52053E+04        -0.65357E+02         0.00000E+00
    0.00000E+00         0.00000E+00        -0.23115E+04
 
   -0.11435E+05         0.61414E+04         0.00000E+00
    0.61414E+04        -0.92132E+02         0.00000E+00
    0.00000E+00         0.00000E+00        -0.23055E+04
 
   -0.11370E+05         0.70725E+04         0.00000E+00
    0.70725E+04        -0.12338E+03         0.00000E+00
    0.00000E+00         0.00000E+00        -0.22986E+04
 
   -0.11295E+05         0.79979E+04         0.00000E+00
    0.79979E+04        -0.15909E+03         0.00000E+00
    0.00000E+00         0.00000E+00        -0.22908E+04
 
   -0.11211E+05         0.89167E+04         0.00000E+00
    0.89167E+04        -0.19926E+03         0.00000E+00
    0.00000E+00         0.00000E+00        -0.22821E+04
 
   -0.11119E+05         0.98284E+04         0.00000E+00
    0.98284E+04        -0.24387E+03         0.00000E+00
    0.00000E+00         0.00000E+00        -0.22725E+04
 
   -0.11017E+05         0.10732E+05         0.00000E+00
    0.10732E+05        -0.29289E+03         0.00000E+00
    0.00000E+00         0.00000E+00        -0.22621E+04
 
   -0.10907E+05         0.11627E+05         0.00000E+00
    0.11627E+05        -0.34630E+03         0.00000E+00
    0.00000E+00         0.00000E+00        -0.22507E+04
 
   -0.10788E+05         0.12513E+05         0.00000E+00
    0.12513E+05        -0.40407E+03         0.00000E+00
    0.00000E+00         0.00000E+00        -0.22384E+04
 
   -0.10660E+05         0.13388E+05         0.00000E+00
    0.13388E+05        -0.46618E+03         0.00000E+00
    0.00000E+00         0.00000E+00        -0.22252E+04
 
   -0.10523E+05         0.14252E+05         0.00000E+00
    0.14252E+05        -0.53257E+03         0.00000E+00
    0.00000E+00         0.00000E+00        -0.22111E+04
 
   -0.10378E+05         0.15105E+05         0.00000E+00
    0.15105E+05        -0.60322E+03         0.00000E+00
    0.00000E+00         0.00000E+00        -0.21962E+04
 
   -0.10223E+05         0.15946E+05         0.00000E+00
    0.15946E+05        -0.67808E+03         0.00000E+00
    0.00000E+00         0.00000E+00        -0.21803E+04
 
   -0.10061E+05         0.16774E+05         0.00000E+00
    0.16774E+05        -0.75709E+03         0.00000E+00
    0.00000E+00         0.00000E+00        -0.21635E+04
 
   -0.98894E+04         0.17588E+05         0.00000E+00
    0.17588E+05        -0.84021E+03         0.00000E+00
    0.00000E+00         0.00000E+00        -0.21459E+04
 
   -0.97097E+04         0.18387E+05         0.00000E+00
    0.18387E+05        -0.92737E+03         0.00000E+00
    0.00000E+00         0.00000E+00        -0.21274E+04
 
   -0.95216E+04         0.19172E+05         0.00000E+00
    0.19172E+05        -0.10185E+04         0.00000E+00
    0.00000E+00         0.00000E+00        -0.21080E+04
 
   -0.93253E+04         0.19941E+05         0.00000E+00
    0.19941E+05        -0.11136E+04         0.00000E+00
    0.00000E+00         0.00000E+00        -0.20878E+04
 
   -0.91209E+04         0.20693E+05         0.00000E+00
    0.20693E+05        -0.12125E+04         0.00000E+00
    0.00000E+00         0.00000E+00        -0.20667E+04
 
   -0.89084E+04         0.21428E+05         0.00000E+00
    0.21428E+05        -0.13152E+04         0.00000E+00
    0.00000E+00         0.00000E+00        -0.20447E+04
 
   -0.86879E+04         0.22146E+05         0.00000E+00
    0.22146E+05        -0.14215E+04         0.00000E+00
    0.00000E+00         0.00000E+00        -0.20219E+04
 
   -0.84596E+04         0.22845E+05         0.00000E+00
    0.22845E+05        -0.15315E+04         0.00000E+00
    0.00000E+00         0.00000E+00        -0.19982E+04
 
   -0.82236E+04         0.23525E+05         0.00000E+00
    0.23525E+05        -0.16451E+04         0.00000E+00
    0.00000E+00         0.00000E+00        -0.19737E+04
 
   -0.79800E+04         0.24186E+05         0.00000E+00
    0.24186E+05        -0.17620E+04         0.00000E+00
    0.00000E+00         0.00000E+00        -0.19484E+04
 
   -0.77290E+04         0.24826E+05         0.00000E+00
    0.24826E+05        -0.18823E+04         0.00000E+00
    0.00000E+00         0.00000E+00        -0.19223E+04
 
   -0.74707E+04         0.25446E+05         0.00000E+00
    0.25446E+05        -0.20059E+04         0.00000E+00
    0.00000E+00         0.00000E+00        -0.18953E+04
 
   -0.72053E+04         0.26044E+05         0.00000E+00
    0.26044E+05        -0.21326E+04         0.00000E+00
    0.00000E+00         0.00000E+00        -0.18676E+04
 
   -0.69328E+04         0.26620E+05         0.00000E+00
    0.26620E+05        -0.22623E+04         0.00000E+00
    0.00000E+00         0.00000E+00        -0.18390E+04
 
   -0.66536E+04         0.27174E+05         0.00000E+00
    0.27174E+05        -0.23950E+04         0.00000E+00
    0.00000E+00         0.00000E+00        -0.18097E+04
 
   -0.63676E+04         0.27705E+05         0.00000E+00
    0.27705E+05        -0.25305E+04         0.00000E+00
    0.00000E+00         0.00000E+00        -0.17796E+04
 
   -0.60751E+04         0.28212E+05         0.00000E+00
    0.28212E+05        -0.26687E+04         0.00000E+00
    0.00000E+00         0.00000E+00        -0.17488E+04
 
   -0.57764E+04         0.28695E+05         0.00000E+00
    0.28695E+05        -0.28095E+04         0.00000E+00
    0.00000E+00         0.00000E+00        -0.17172E+04
 
   -0.54714E+04         0.29154E+05         0.00000E+00
    0.29154E+05        -0.29527E+04         0.00000E+00
    0.00000E+00         0.00000E+00        -0.16848E+04
 
   -0.51605E+04         0.29587E+05         0.00000E+00
    0.29587E+05        -0.30983E+04         0.00000E+00
    0.00000E+00         0.00000E+00        -0.16518E+04
 
   -0.48439E+04         0.29995E+05         0.00000E+00
    0.29995E+05        -0.32461E+04         0.00000E+00
    0.00000E+00         0.00000E+00        -0.16180E+04
 
   -0.45217E+04         0.30376E+05         0.00000E+00
    0.30376E+05        -0.33960E+04         0.00000E+00
    0.00000E+00         0.00000E+00        -0.15835E+04
 
   -0.41941E+04         0.30732E+05         0.00000E+00
    0.30732E+05        -0.35479E+04         0.00000E+00
    0.00000E+00         0.00000E+00        -0.15484E+04
 
   -0.38614E+04         0.31060E+05         0.00000E+00
    0.31060E+05        -0.37016E+04         0.00000E+00
    0.00000E+00         0.00000E+00        -0.15126E+04
 
   -0.35237E+04         0.31361E+05         0.00000E+00
    0.31361E+05        -0.38569E+04         0.00000E+00
    0.00000E+00         0.00000E+00        -0.14761E+04
 
   -0.31813E+04         0.31635E+05         0.00000E+00
    0.31635E+05        -0.40138E+04         0.00000E+00
    0.00000E+00         0.00000E+00        -0.14390E+04
 
   -0.28344E+04         0.31880E+05         0.00000E+00
    0.31880E+05        -0.41720E+04         0.00000E+00
    0.00000E+00         0.00000E+00        -0.14013E+04
 
   -0.24832E+04         0.32097E+05         0.00000E+00
    0.32097E+05        -0.43315E+04         0.00000E+00
    0.00000E+00         0.00000E+00        -0.13629E+04
 
   -0.21280E+04         0.32285E+05         0.00000E+00
    0.32285E+05        -0.44921E+04         0.00000E+00
    0.00000E+00         0.00000E+00        -0.13240E+04
 
   -0.17690E+04         0.32444E+05         0.00000E+00
    0.32444E+05        -0.46536E+04         0.00000E+00
    0.00000E+00         0.00000E+00        -0.12845E+04
 
   -0.14064E+04         0.32574E+05         0.00000E+00
    0.32574E+05        -0.48158E+04         0.00000E+00
    0.00000E+00         0.00000E+00        -0.12445E+04
 
   -0.69364E+04         0.46672E+03         0.00000E+00
    0.46672E+03         0.82585E+00         0.00000E+00
    0.00000E+00         0.00000E+00        -0.13871E+04
 
   -0.69292E+04         0.13991E+04         0.00000E+00
    0.13991E+04        -0.17756E+01         0.00000E+00
    0.00000E+00         0.00000E+00        -0.13862E+04
 
   -0.69169E+04         0.23302E+04         0.00000E+00
    0.23302E+04        -0.70046E+01         0.00000E+00
    0.00000E+00         0.00000E+00        -0.13848E+04
 
   -0.68992E+04         0.32591E+04         0.00000E+00
    0.32591E+04        -0.14870E+02         0.00000E+00
    0.00000E+00         0.00000E+00        -0.13828E+04
 
   -0.68763E+04         0.41853E+04         0.00000E+00
    0.41853E+04        -0.25377E+02         0.00000E+00
    0.00000E+00         0.00000E+00        -0.13803E+04
 
   -0.68481E+04         0.51079E+04         0.00000E+00
    0.51079E+04        -0.38532E+02         0.00000E+00
    0.00000E+00         0.00000E+00        -0.13773E+04
 
   -0.68146E+04         0.60262E+04         0.00000E+00
    0.60262E+04        -0.54336E+02         0.00000E+00
    0.00000E+00         0.00000E+00        -0.13738E+04
 
   -0.67758E+04         0.69395E+04         0.00000E+00
    0.69395E+04        -0.72788E+02         0.00000E+00
    0.00000E+00         0.00000E+00        -0.13697E+04
 
   -0.67316E+04         0.78471E+04         0.00000E+00
    0.78471E+04        -0.93886E+02         0.00000E+00
    0.00000E+00         0.00000E+00        -0.13651E+04
 
   -0.66822E+04         0.87483E+04         0.00000E+00
    0.87483E+04        -0.11763E+03         0.00000E+00
    0.00000E+00         0.00000E+00        -0.13600E+04
 
   -0.66274E+04         0.96423E+04         0.00000E+00
    0.96423E+04        -0.14400E+03         0.00000E+00
    0.00000E+00         0.00000E+00        -0.13543E+04
 
   -0.65674E+04         0.10528E+05         0.00000E+00
    0.10528E+05        -0.17300E+03         0.00000E+00
    0.00000E+00         0.00000E+00        -0.13481E+04
 
   -0.65020E+04         0.11406E+05         0.00000E+00
    0.11406E+05        -0.20461E+03         0.00000E+00
    0.00000E+00         0.00000E+00        -0.13413E+04
 
   -0.64314E+04         0.12274E+05         0.00000E+00
    0.12274E+05        -0.23881E+03         0.00000E+00
    0.00000E+00         0.00000E+00        -0.13340E+04
 
   -0.63556E+04         0.13132E+05         0.00000E+00
    0.13132E+05        -0.27560E+03         0.00000E+00
    0.00000E+00         0.00000E+00        -0.13262E+04
 
   -0.62745E+04         0.13980E+05         0.00000E+00
    0.13980E+05        -0.31494E+03         0.00000E+00
    0.00000E+00         0.00000E+00        -0.13179E+04
 
   -0.61882E+04         0.14816E+05         0.00000E+00
    0.14816E+05        -0.35682E+03         0.00000E+00
    0.00000E+00         0.00000E+00        -0.13090E+04
 
   -0.60968E+04         0.15640E+05         0.00000E+00
    0.15640E+05        -0.40121E+03         0.00000E+00
    0.00000E+00         0.00000E+00        -0.12996E+04
 
   -0.60002E+04         0.16451E+05         0.00000E+00
    0.16451E+05        -0.44809E+03         0.00000E+00
    0.00000E+00         0.00000E+00        -0.12897E+04
 
   -0.58985E+04         0.17249E+05         0.00000E+00
    0.17249E+05        -0.49742E+03         0.00000E+00
    0.00000E+00         0.00000E+00        -0.12792E+04
 
   -0.57918E+04         0.18032E+05         0.00000E+00
    0.18032E+05        -0.54917E+03         0.00000E+00
    0.00000E+00         0.00000E+00        -0.12682E+04
 
   -0.56801E+04         0.18801E+05         0.00000E+00
    0.18801E+05        -0.60331E+03         0.00000E+00
    0.00000E+00         0.00000E+00        -0.12567E+04
 
   -0.55635E+04         0.19554E+05         0.00000E+00
    0.19554E+05        -0.65979E+03         0.00000E+00
    0.00000E+00         0.00000E+00        -0.12447E+04
 
   -0.54419E+04         0.20292E+05         0.00000E+00
    0.20292E+05        -0.71859E+03         0.00000E+00
    0.00000E+00         0.00000E+00        -0.12321E+04
 
   -0.53156E+04         0.21012E+05         0.00000E+00
    0.21012E+05        -0.77964E+03         0.00000E+00
    0.00000E+00         0.00000E+00        -0.12190E+04
 
   -0.51844E+04         0.21715E+05         0.00000E+00
    0.21715E+05        -0.84292E+03         0.00000E+00
    0.00000E+00         0.00000E+00        -0.12055E+04
 
   -0.50486E+04         0.22400E+05         0.00000E+00
    0.22400E+05        -0.90837E+03         0.00000E+00
    0.00000E+00         0.00000E+00        -0.11914E+04
 
   -0.49081E+04         0.23066E+05         0.00000E+00
    0.23066E+05        -0.97594E+03         0.00000E+00
    0.00000E+00         0.00000E+00        -0.11768E+04
 
   -0.47631E+04         0.23713E+05         0.00000E+00
    0.23713E+05        -0.10456E+04         0.00000E+00
    0.00000E+00         0.00000E+00        -0.11617E+04
 
   -0.46136E+04         0.24341E+05         0.00000E+00
    0.24341E+05        -0.11172E+04         0.00000E+00
    0.00000E+00         0.00000E+00        -0.11462E+04
 
   -0.44597E+04         0.24947E+05         0.00000E+00
    0.24947E+05        -0.11909E+04         0.00000E+00
    0.00000E+00         0.00000E+00        -0.11301E+04
 
   -0.43016E+04         0.25533E+05         0.00000E+00
    0.25533E+05        -0.12664E+04         0.00000E+00
    0.00000E+00         0.00000E+00        -0.11136E+04
 
   -0.41392E+04         0.26098E+05         0.00000E+00
    0.26098E+05        -0.13437E+04         0.00000E+00
    0.00000E+00         0.00000E+00        -0.10966E+04
 
   -0.39726E+04         0.26640E+05         0.00000E+00
    0.26640E+05        -0.14228E+04         0.00000E+00
    0.00000E+00         0.00000E+00        -0.10791E+04
 
   -0.38021E+04         0.27159E+05         0.00000E+00
    0.27159E+05        -0.15037E+04         0.00000E+00
    0.00000E+00         0.00000E+00        -0.10612E+04
 
   -0.36276E+04         0.27656E+05         0.00000E+00
    0.27656E+05        -0.15861E+04         0.00000E+00
    0.00000E+00         0.00000E+00        -0.10427E+04
 
   -0.34494E+04         0.28129E+05         0.00000E+00
    0.28129E+05        -0.16701E+04         0.00000E+00
    0.00000E+00         0.00000E+00        -0.10239E+04
 
   -0.32674E+04         0.28578E+05         0.00000E+00
    0.28578E+05        -0.17557E+04         0.00000E+00
    0.00000E+00         0.00000E+00        -0.10046E+04
 
   -0.30818E+04         0.29002E+05         0.00000E+00
    0.29002E+05        -0.18426E+04         0.00000E+00
    0.00000E+00         0.00000E+00        -0.98488E+03
 
   -0.28927E+04         0.29401E+05         0.00000E+00
    0.29401E+05        -0.19309E+04         0.00000E+00
    0.00000E+00         0.00000E+00        -0.96472E+03
 
   -0.27003E+04         0.29775E+05         0.00000E+00
    0.29775E+05        -0.20204E+04         0.00000E+00
    0.00000E+00         0.00000E+00        -0.94414E+03
 
   -0.25046E+04         0.30122E+05         0.00000E+00
    0.30122E+05        -0.21111E+04         0.00000E+00
    0.00000E+00         0.00000E+00        -0.92315E+03
 
   -0.23058E+04         0.30444E+05         0.00000E+00
    0.30444E+05        -0.22030E+04         0.00000E+00
    0.00000E+00         0.00000E+00        -0.90176E+03
 
   -0.21041E+04         0.30738E+05         0.00000E+00
    0.30738E+05        -0.22958E+04         0.00000E+00
    0.00000E+00         0.00000E+00        -0.87997E+03
 
   -0.18994E+04         0.31006E+05         0.00000E+00
    0.31006E+05        -0.23896E+04         0.00000E+00
    0.00000E+00         0.00000E+00        -0.85780E+03
 
   -0.16921E+04         0.31246E+05         0.00000E+00
    0.31246E+05        -0.24842E+04         0.00000E+00
    0.00000E+00         0.00000E+00        -0.83525E+03
 
   -0.14822E+04         0.31458E+05         0.00000E+00
    0.31458E+05        -0.25795E+04         0.00000E+00
    0.00000E+00         0.00000E+00        -0.81234E+03
 
   -0.12698E+04         0.31643E+05         0.00000E+00
    0.31643E+05        -0.26755E+04         0.00000E+00
    0.00000E+00         0.00000E+00        -0.78907E+03
 
   -0.10552E+04         0.31798E+05         0.00000E+00
    0.31798E+05        -0.27721E+04         0.00000E+00
    0.00000E+00         0.00000E+00        -0.76545E+03
 
   -0.83836E+03         0.31926E+05         0.00000E+00
    0.31926E+05        -0.28691E+04         0.00000E+00
    0.00000E+00         0.00000E+00        -0.74150E+03
 
   -0.22969E+04         0.46248E+03         0.00000E+00
    0.46248E+03         0.25973E+00         0.00000E+00
    0.00000E+00         0.00000E+00        -0.45934E+03
 
   -0.22950E+04         0.13863E+04         0.00000E+00
    0.13863E+04        -0.54651E+00         0.00000E+00
    0.00000E+00         0.00000E+00        -0.45910E+03
 
   -0.22914E+04         0.23087E+04         0.00000E+00
    0.23087E+04        -0.21770E+01         0.00000E+00
    0.00000E+00         0.00000E+00        -0.45871E+03
 
   -0.22861E+04         0.32290E+04         0.00000E+00
    0.32290E+04        -0.46390E+01         0.00000E+00
    0.00000E+00         0.00000E+00        -0.45814E+03
 
   -0.22791E+04         0.41464E+04         0.00000E+00
    0.41464E+04        -0.79389E+01         0.00000E+00
    0.00000E+00         0.00000E+00        -0.45741E+03
 
   -0.22705E+04         0.50603E+04         0.00000E+00
    0.50603E+04        -0.12082E+02         0.00000E+00
    0.00000E+00         0.00000E+00        -0.45651E+03
 
   -0.22602E+04         0.59699E+04         0.00000E+00
    0.59699E+04        -0.17075E+02         0.00000E+00
    0.00000E+00         0.00000E+00        -0.45545E+03
 
   -0.22481E+04         0.68745E+04         0.00000E+00
    0.68745E+04        -0.22920E+02         0.00000E+00
    0.00000E+00         0.00000E+00        -0.45421E+03
 
   -0.22343E+04         0.77733E+04         0.00000E+00
    0.77733E+04        -0.29622E+02         0.00000E+00
    0.00000E+00         0.00000E+00        -0.45279E+03
 
   -0.22188E+04         0.86658E+04         0.00000E+00
    0.86658E+04        -0.37183E+02         0.00000E+00
    0.00000E+00         0.00000E+00        -0.45121E+03
 
   -0.22016E+04         0.95511E+04         0.00000E+00
    0.95511E+04        -0.45604E+02         0.00000E+00
    0.00000E+00         0.00000E+00        -0.44945E+03
 
   -0.21827E+04         0.10429E+05         0.00000E+00
    0.10429E+05        -0.54887E+02         0.00000E+00
    0.00000E+00         0.00000E+00        -0.44751E+03
 
   -0.21620E+04         0.11297E+05         0.00000E+00
    0.11297E+05        -0.65031E+02         0.00000E+00
    0.00000E+00         0.00000E+00        -0.44540E+03
 
   -0.21395E+04         0.12157E+05         0.00000E+00
    0.12157E+05        -0.76035E+02         0.00000E+00
    0.00000E+00         0.00000E+00        -0.44311E+03
 
   -0.21153E+04         0.13007E+05         0.00000E+00
    0.13007E+05        -0.87897E+02         0.00000E+00
    0.00000E+00         0.00000E+00        -0.44064E+03
 
   -0.20894E+04         0.13846E+05         0.00000E+00
    0.13846E+05        -0.10061E+03         0.00000E+00
    0.00000E+00         0.00000E+00        -0.43800E+03
 
   -0.20617E+04         0.14673E+05         0.00000E+00
    0.14673E+05        -0.11418E+03         0.00000E+00
    0.00000E+00         0.00000E+00        -0.43517E+03
 
   -0.20323E+04         0.15489E+05         0.00000E+00
    0.15489E+05        -0.12860E+03         0.00000E+00
    0.00000E+00         0.00000E+00        -0.43217E+03
 
   -0.20011E+04         0.16292E+05         0.00000E+00
    0.16292E+05        -0.14385E+03         0.00000E+00
    0.00000E+00         0.00000E+00        -0.42899E+03
 
   -0.19682E+04         0.17081E+05         0.00000E+00
    0.17081E+05        -0.15994E+03         0.00000E+00
    0.00000E+00         0.00000E+00        -0.42563E+03
 
   -0.19336E+04         0.17857E+05         0.00000E+00
    0.17857E+05        -0.17685E+03         0.00000E+00
    0.00000E+00         0.00000E+00        -0.42209E+03
 
   -0.18973E+04         0.18618E+05         0.00000E+00
    0.18618E+05        -0.19458E+03         0.00000E+00
    0.00000E+00         0.00000E+00        -0.41838E+03
 
   -0.18593E+04         0.19363E+05         0.00000E+00
    0.19363E+05        -0.21311E+03         0.00000E+00
    0.00000E+00         0.00000E+00        -0.41449E+03
 
   -0.18196E+04         0.20093E+05         0.00000E+00
    0.20093E+05        -0.23244E+03         0.00000E+00
    0.00000E+00         0.00000E+00        -0.41041E+03
 
   -0.17783E+04         0.20806E+05         0.00000E+00
    0.20806E+05        -0.25255E+03         0.00000E+00
    0.00000E+00         0.00000E+00        -0.40617E+03
 
   -0.17353E+04         0.21501E+05         0.00000E+00
    0.21501E+05        -0.27343E+03         0.00000E+00
    0.00000E+00         0.00000E+00        -0.40174E+03
 
   -0.16906E+04         0.22179E+05         0.00000E+00
    0.22179E+05        -0.29506E+03         0.00000E+00
    0.00000E+00         0.00000E+00        -0.39714E+03
 
   -0.16444E+04         0.22838E+05         0.00000E+00
    0.22838E+05        -0.31744E+03         0.00000E+00
    0.00000E+00         0.00000E+00        -0.39237E+03
 
   -0.15966E+04         0.23478E+05         0.00000E+00
    0.23478E+05        -0.34054E+03         0.00000E+00
    0.00000E+00         0.00000E+00        -0.38742E+03
 
   -0.15471E+04         0.24099E+05         0.00000E+00
    0.24099E+05        -0.36434E+03         0.00000E+00
    0.00000E+00         0.00000E+00        -0.38230E+03
 
   -0.14962E+04         0.24699E+05         0.00000E+00
    0.24699E+05        -0.38883E+03         0.00000E+00
    0.00000E+00         0.00000E+00        -0.37701E+03
 
   -0.14437E+04         0.25279E+05         0.00000E+00
    0.25279E+05        -0.41400E+03         0.00000E+00
    0.00000E+00         0.00000E+00        -0.37154E+03
 
   -0.13898E+04         0.25837E+05         0.00000E+00
    0.25837E+05        -0.43981E+03         0.00000E+00
    0.00000E+00         0.00000E+00        -0.36592E+03
 
   -0.13344E+04         0.26373E+05         0.00000E+00
    0.26373E+05        -0.46625E+03         0.00000E+00
    0.00000E+00         0.00000E+00        -0.36012E+03
 
   -0.12775E+04         0.26887E+05         0.00000E+00
    0.26887E+05        -0.49330E+03         0.00000E+00
    0.00000E+00         0.00000E+00        -0.35416E+03
 
   -0.12193E+04         0.27378E+05         0.00000E+00
    0.27378E+05        -0.52093E+03         0.00000E+00
    0.00000E+00         0.00000E+00        -0.34804E+03
 
   -0.11597E+04         0.27846E+05         0.00000E+00
    0.27846E+05        -0.54912E+03         0.00000E+00
    0.00000E+00         0.00000E+00        -0.34176E+03
 
   -0.10988E+04         0.28290E+05         0.00000E+00
    0.28290E+05        -0.57784E+03         0.00000E+00
    0.00000E+00         0.00000E+00        -0.33532E+03
 
   -0.10365E+04         0.28709E+05         0.00000E+00
    0.28709E+05        -0.60708E+03         0.00000E+00
    0.00000E+00         0.00000E+00        -0.32872E+03
 
   -0.97308E+03         0.29104E+05         0.00000E+00
    0.29104E+05        -0.63679E+03         0.00000E+00
    0.00000E+00         0.00000E+00        -0.32198E+03
 
   -0.90842E+03         0.29474E+05         0.00000E+00
    0.29474E+05        -0.66696E+03         0.00000E+00
    0.00000E+00         0.00000E+00        -0.31508E+03
 
   -0.84259E+03         0.29818E+05         0.00000E+00
    0.29818E+05        -0.69756E+03         0.00000E+00
    0.00000E+00         0.00000E+00        -0.30803E+03
 
   -0.77563E+03         0.30135E+05         0.00000E+00
    0.30135E+05        -0.72856E+03         0.00000E+00
    0.00000E+00         0.00000E+00        -0.30084E+03
 
   -0.70760E+03         0.30427E+05         0.00000E+00
    0.30427E+05        -0.75992E+03         0.00000E+00
    0.00000E+00         0.00000E+00        -0.29351E+03
 
   -0.63855E+03         0.30691E+05         0.00000E+00
    0.30691E+05        -0.79163E+03         0.00000E+00
    0.00000E+00         0.00000E+00        -0.28603E+03
 
   -0.56851E+03         0.30929E+05         0.00000E+00
    0.30929E+05        -0.82363E+03         0.00000E+00
    0.00000E+00         0.00000E+00        -0.27843E+03
 
   -0.49753E+03         0.31139E+05         0.00000E+00
    0.31139E+05        -0.85591E+03         0.00000E+00
    0.00000E+00         0.00000E+00        -0.27069E+03
 
   -0.42568E+03         0.31321E+05         0.00000E+00
    0.31321E+05        -0.88843E+03         0.00000E+00
    0.00000E+00         0.00000E+00        -0.26282E+03
 
   -0.35300E+03         0.31475E+05         0.00000E+00
    0.31475E+05        -0.92115E+03         0.00000E+00
    0.00000E+00         0.00000E+00        -0.25483E+03
 
   -0.27955E+03         0.31601E+05         0.00000E+00
    0.31601E+05        -0.95404E+03         0.00000E+00
    0.00000E+00         0.00000E+00        -0.24672E+03
 
    0.23221E+04         0.46271E+03         0.00000E+00
    0.46271E+03        -0.30383E+00         0.00000E+00
    0.00000E+00         0.00000E+00         0.46435E+03
 
    0.23187E+04         0.13869E+04         0.00000E+00
    0.13869E+04         0.67866E+00         0.00000E+00
    0.00000E+00         0.00000E+00         0.46387E+03
 
    0.23134E+04         0.23097E+04         0.00000E+00
    0.23097E+04         0.26322E+01         0.00000E+00
    0.00000E+00         0.00000E+00         0.46320E+03
 
    0.23061E+04         0.32303E+04         0.00000E+00
    0.32303E+04         0.55506E+01         0.00000E+00
    0.00000E+00         0.00000E+00         0.46234E+03
 
    0.22970E+04         0.41480E+04         0.00000E+00
    0.41480E+04         0.94268E+01         0.00000E+00
    0.00000E+00         0.00000E+00         0.46128E+03
 
    0.22859E+04         0.50621E+04         0.00000E+00
    0.50621E+04         0.14253E+02         0.00000E+00
    0.00000E+00         0.00000E+00         0.46003E+03
 
    0.22730E+04         0.59719E+04         0.00000E+00
    0.59719E+04         0.20021E+02         0.00000E+00
    0.00000E+00         0.00000E+00         0.45860E+03
 
    0.22581E+04         0.68767E+04         0.00000E+00
    0.68767E+04         0.26721E+02         0.00000E+00
    0.00000E+00         0.00000E+00         0.45697E+03
 
    0.22415E+04         0.77757E+04         0.00000E+00
    0.77757E+04         0.34345E+02         0.00000E+00
    0.00000E+00         0.00000E+00         0.45516E+03
 
    0.22230E+04         0.86683E+04         0.00000E+00
    0.86683E+04         0.42881E+02         0.00000E+00
    0.00000E+00         0.00000E+00         0.45317E+03
 
    0.22026E+04         0.95536E+04         0.00000E+00
    0.95536E+04         0.52318E+02         0.00000E+00
    0.00000E+00         0.00000E+00         0.45099E+03
 
    0.21805E+04         0.10431E+05         0.00000E+00
    0.10431E+05         0.62646E+02         0.00000E+00
    0.00000E+00         0.00000E+00         0.44863E+03
 
    0.21566E+04         0.11300E+05         0.00000E+00
    0.11300E+05         0.73851E+02         0.00000E+00
    0.00000E+00         0.00000E+00         0.44609E+03
 
    0.21310E+04         0.12160E+05         0.00000E+00
    0.12160E+05         0.85922E+02         0.00000E+00
    0.00000E+00         0.00000E+00         0.44338E+03
 
    0.21036E+04         0.13009E+05         0.00000E+00
    0.13009E+05         0.98845E+02         0.00000E+00
    0.00000E+00         0.00000E+00         0.44048E+03
 
    0.20745E+04         0.13848E+05         0.00000E+00
    0.13848E+05         0.11261E+03         0.00000E+00
    0.00000E+00         0.00000E+00         0.43741E+03
 
    0.20437E+04         0.14676E+05         0.00000E+00
    0.14676E+05         0.12719E+03         0.00000E+00
    0.00000E+00         0.00000E+00         0.43417E+03
 
    0.20112E+04         0.15491E+05         0.00000E+00
    0.15491E+05         0.14258E+03         0.00000E+00
    0.00000E+00         0.00000E+00         0.43076E+03
 
    0.19771E+04         0.16294E+05         0.00000E+00
    0.16294E+05         0.15877E+03         0.00000E+00
    0.00000E+00         0.00000E+00         0.42718E+03
 
    0.19414E+04         0.17084E+05         0.00000E+00
    0.17084E+05         0.17573E+03         0.00000E+00
    0.00000E+00         0.00000E+00         0.42344E+03
 
    0.19042E+04         0.17859E+05         0.00000E+00
    0.17859E+05         0.19346E+03         0.00000E+00
    0.00000E+00         0.00000E+00         0.41953E+03
 
    0.18653E+04         0.18620E+05         0.00000E+00
    0.18620E+05         0.21193E+03         0.00000E+00
    0.00000E+00         0.00000E+00         0.41545E+03
 
    0.18250E+04         0.19365E+05         0.00000E+00
    0.19365E+05         0.23112E+03         0.00000E+00
    0.00000E+00         0.00000E+00         0.41122E+03
 
    0.17831E+04         0.20094E+05         0.00000E+00
    0.20094E+05         0.25103E+03         0.00000E+00
    0.00000E+00         0.00000E+00         0.40683E+03
 
    0.17398E+04         0.20807E+05         0.00000E+00
    0.20807E+05         0.27163E+03         0.00000E+00
    0.00000E+00         0.00000E+00         0.40228E+03
 
    0.16950E+04         0.21502E+05         0.00000E+00
    0.21502E+05         0.29289E+03         0.00000E+00
    0.00000E+00         0.00000E+00         0.39758E+03
 
    0.16488E+04         0.22179E+05         0.00000E+00
    0.22179E+05         0.31481E+03         0.00000E+00
    0.00000E+00         0.00000E+00         0.39272E+03
 
    0.16012E+04         0.22838E+05         0.00000E+00
    0.22838E+05         0.33737E+03         0.00000E+00
    0.00000E+00         0.00000E+00         0.38772E+03
 
    0.15523E+04         0.23478E+05         0.00000E+00
    0.23478E+05         0.36053E+03         0.00000E+00
    0.00000E+00         0.00000E+00         0.38258E+03
 
    0.15021E+04         0.24099E+05         0.00000E+00
    0.24099E+05         0.38429E+03         0.00000E+00
    0.00000E+00         0.00000E+00         0.37728E+03
 
    0.14506E+04         0.24699E+05         0.00000E+00
    0.24699E+05         0.40863E+03         0.00000E+00
    0.00000E+00         0.00000E+00         0.37185E+03
 
    0.13979E+04         0.25278E+05         0.00000E+00
    0.25278E+05         0.43351E+03         0.00000E+00
    0.00000E+00         0.00000E+00         0.36628E+03
 
    0.13439E+04         0.25836E+05         0.00000E+00
    0.25836E+05         0.45892E+03         0.00000E+00
    0.00000E+00         0.00000E+00         0.36057E+03
 
    0.12888E+04         0.26372E+05         0.00000E+00
    0.26372E+05         0.48484E+03         0.00000E+00
    0.00000E+00         0.00000E+00         0.35472E+03
 
    0.12325E+04         0.26886E+05         0.00000E+00
    0.26886E+05         0.51125E+03         0.00000E+00
    0.00000E+00         0.00000E+00         0.34875E+03
 
    0.11751E+04         0.27376E+05         0.00000E+00
    0.27376E+05         0.53811E+03         0.00000E+00
    0.00000E+00         0.00000E+00         0.34264E+03
 
    0.11166E+04         0.27844E+05         0.00000E+00
    0.27844E+05         0.56542E+03         0.00000E+00
    0.00000E+00         0.00000E+00         0.33641E+03
 
    0.10571E+04         0.28287E+05         0.00000E+00
    0.28287E+05         0.59315E+03         0.00000E+00
    0.00000E+00         0.00000E+00         0.33006E+03
 
    0.99663E+03         0.28707E+05         0.00000E+00
    0.28707E+05         0.62127E+03         0.00000E+00
    0.00000E+00         0.00000E+00         0.32358E+03
 
    0.93517E+03         0.29101E+05         0.00000E+00
    0.29101E+05         0.64975E+03         0.00000E+00
    0.00000E+00         0.00000E+00         0.31699E+03
 
    0.87279E+03         0.29470E+05         0.00000E+00
    0.29470E+05         0.67859E+03         0.00000E+00
    0.00000E+00         0.00000E+00         0.31027E+03
 
    0.80951E+03         0.29814E+05         0.00000E+00
    0.29814E+05         0.70775E+03         0.00000E+00
    0.00000E+00         0.00000E+00         0.30345E+03
 
    0.74539E+03         0.30131E+05         0.00000E+00
    0.30131E+05         0.73720E+03         0.00000E+00
    0.00000E+00         0.00000E+00         0.29652E+03
 
    0.68045E+03         0.30423E+05         0.00000E+00
    0.30423E+05         0.76693E+03         0.00000E+00
    0.00000E+00         0.00000E+00         0.28948E+03
 
    0.61474E+03         0.30687E+05         0.00000E+00
    0.30687E+05         0.79691E+03         0.00000E+00
    0.00000E+00         0.00000E+00         0.28233E+03
 
    0.54829E+03         0.30924E+05         0.00000E+00
    0.30924E+05         0.82711E+03         0.00000E+00
    0.00000E+00         0.00000E+00         0.27508E+03
 
    0.48115E+03         0.31134E+05         0.00000E+00
    0.31134E+05         0.85751E+03         0.00000E+00
    0.00000E+00         0.00000E+00         0.26773E+03
 
    0.41334E+03         0.31316E+05         0.00000E+00
    0.31316E+05         0.88809E+03         0.00000E+00
    0.00000E+00         0.00000E+00         0.26029E+03
 
    0.34492E+03         0.31470E+05         0.00000E+00
    0.31470E+05         0.91881E+03         0.00000E+00
    0.00000E+00         0.00000E+00         0.25275E+03
 
    0.27592E+03         0.31595E+05         0.00000E+00
    0.31595E+05         0.94966E+03         0.00000E+00
    0.00000E+00         0.00000E+00         0.24512E+03
 
    0.69655E+04         0.46742E+03         0.00000E+00
    0.46742E+03        -0.87027E+00         0.00000E+00
    0.00000E+00         0.00000E+00         0.13929E+04
 
    0.69566E+04         0.14010E+04         0.00000E+00
    0.14010E+04         0.19109E+01         0.00000E+00
    0.00000E+00         0.00000E+00         0.13917E+04
 
    0.69422E+04         0.23331E+04         0.00000E+00
    0.23331E+04         0.74677E+01         0.00000E+00
    0.00000E+00         0.00000E+00         0.13899E+04
 
    0.69223E+04         0.32630E+04         0.00000E+00
    0.32630E+04         0.15795E+02         0.00000E+00
    0.00000E+00         0.00000E+00         0.13876E+04
 
    0.68968E+04         0.41900E+04         0.00000E+00
    0.41900E+04         0.26884E+02         0.00000E+00
    0.00000E+00         0.00000E+00         0.13847E+04
 
    0.68659E+04         0.51133E+04         0.00000E+00
    0.51133E+04         0.40725E+02         0.00000E+00
    0.00000E+00         0.00000E+00         0.13813E+04
 
    0.68294E+04         0.60323E+04         0.00000E+00
    0.60323E+04         0.57307E+02         0.00000E+00
    0.00000E+00         0.00000E+00         0.13773E+04
 
    0.67875E+04         0.69462E+04         0.00000E+00
    0.69462E+04         0.76615E+02         0.00000E+00
    0.00000E+00         0.00000E+00         0.13728E+04
 
    0.67401E+04         0.78542E+04         0.00000E+00
    0.78542E+04         0.98634E+02         0.00000E+00
    0.00000E+00         0.00000E+00         0.13677E+04
 
    0.66873E+04         0.87557E+04         0.00000E+00
    0.87557E+04         0.12334E+03         0.00000E+00
    0.00000E+00         0.00000E+00         0.13621E+04
 
    0.66292E+04         0.96500E+04         0.00000E+00
    0.96500E+04         0.15073E+03         0.00000E+00
    0.00000E+00         0.00000E+00         0.13560E+04
 
    0.65656E+04         0.10536E+05         0.00000E+00
    0.10536E+05         0.18076E+03         0.00000E+00
    0.00000E+00         0.00000E+00         0.13493E+04
 
    0.64968E+04         0.11414E+05         0.00000E+00
    0.11414E+05         0.21341E+03         0.00000E+00
    0.00000E+00         0.00000E+00         0.13420E+04
 
    0.64227E+04         0.12282E+05         0.00000E+00
    0.12282E+05         0.24867E+03         0.00000E+00
    0.00000E+00         0.00000E+00         0.13343E+04
 
    0.63434E+04         0.13140E+05         0.00000E+00
    0.13140E+05         0.28649E+03         0.00000E+00
    0.00000E+00         0.00000E+00         0.13260E+04
 
    0.62589E+04         0.13988E+05         0.00000E+00
    0.13988E+05         0.32685E+03         0.00000E+00
    0.00000E+00         0.00000E+00         0.13171E+04
 
    0.61693E+04         0.14823E+05         0.00000E+00
    0.14823E+05         0.36972E+03         0.00000E+00
    0.00000E+00         0.00000E+00         0.13078E+04
 
    0.60746E+04         0.15647E+05         0.00000E+00
    0.15647E+05         0.41505E+03         0.00000E+00
    0.00000E+00         0.00000E+00         0.12979E+04
 
    0.59748E+04         0.16458E+05         0.00000E+00
    0.16458E+05         0.46282E+03         0.00000E+00
    0.00000E+00         0.00000E+00         0.12875E+04
 
    0.58702E+04         0.17255E+05         0.00000E+00
    0.17255E+05         0.51299E+03         0.00000E+00
    0.00000E+00         0.00000E+00         0.12766E+04
 
    0.57606E+04         0.18038E+05         0.00000E+00
    0.18038E+05         0.56551E+03         0.00000E+00
    0.00000E+00         0.00000E+00         0.12652E+04
 
    0.56462E+04         0.18806E+05         0.00000E+00
    0.18806E+05         0.62034E+03         0.00000E+00
    0.00000E+00         0.00000E+00         0.12533E+04
 
    0.55270E+04         0.19559E+05         0.00000E+00
    0.19559E+05         0.67743E+03         0.00000E+00
    0.00000E+00         0.00000E+00         0.12409E+04
 
    0.54031E+04         0.20295E+05         0.00000E+00
    0.20295E+05         0.73675E+03         0.00000E+00
    0.00000E+00         0.00000E+00         0.12280E+04
 
    0.52746E+04         0.21015E+05         0.00000E+00
    0.21015E+05         0.79823E+03         0.00000E+00
    0.00000E+00         0.00000E+00         0.12146E+04
 
    0.51416E+04         0.21717E+05         0.00000E+00
    0.21717E+05         0.86183E+03         0.00000E+00
    0.00000E+00         0.00000E+00         0.12007E+04
 
    0.50041E+04         0.22401E+05         0.00000E+00
    0.22401E+05         0.92750E+03         0.00000E+00
    0.00000E+00         0.00000E+00         0.11863E+04
 
    0.48622E+04         0.23067E+05         0.00000E+00
    0.23067E+05         0.99519E+03         0.00000E+00
    0.00000E+00         0.00000E+00         0.11715E+04
 
    0.47161E+04         0.23713E+05         0.00000E+00
    0.23713E+05         0.10648E+04         0.00000E+00
    0.00000E+00         0.00000E+00         0.11562E+04
 
    0.45657E+04         0.24340E+05         0.00000E+00
    0.24340E+05         0.11364E+04         0.00000E+00
    0.00000E+00         0.00000E+00         0.11404E+04
 
    0.44112E+04         0.24946E+05         0.00000E+00
    0.24946E+05         0.12097E+04         0.00000E+00
    0.00000E+00         0.00000E+00         0.11242E+04
 
    0.42527E+04         0.25531E+05         0.00000E+00
    0.25531E+05         0.12849E+04         0.00000E+00
    0.00000E+00         0.00000E+00         0.11075E+04
 
    0.40903E+04         0.26094E+05         0.00000E+00
    0.26094E+05         0.13618E+04         0.00000E+00
    0.00000E+00         0.00000E+00         0.10904E+04
 
    0.39240E+04         0.26635E+05         0.00000E+00
    0.26635E+05         0.14403E+04         0.00000E+00
    0.00000E+00         0.00000E+00         0.10729E+04
 
    0.37541E+04         0.27154E+05         0.00000E+00
    0.27154E+05         0.15204E+04         0.00000E+00
    0.00000E+00         0.00000E+00         0.10549E+04
 
    0.35805E+04         0.27650E+05         0.00000E+00
    0.27650E+05         0.16020E+04         0.00000E+00
    0.00000E+00         0.00000E+00         0.10365E+04
 
    0.34034E+04         0.28122E+05         0.00000E+00
    0.28122E+05         0.16850E+04         0.00000E+00
    0.00000E+00         0.00000E+00         0.10177E+04
 
    0.32229E+04         0.28569E+05         0.00000E+00
    0.28569E+05         0.17695E+04         0.00000E+00
    0.00000E+00         0.00000E+00         0.99846E+03
 
    0.30391E+04         0.28993E+05         0.00000E+00
    0.28993E+05         0.18552E+04         0.00000E+00
    0.00000E+00         0.00000E+00         0.97885E+03
 
    0.28521E+04         0.29391E+05         0.00000E+00
    0.29391E+05         0.19421E+04         0.00000E+00
    0.00000E+00         0.00000E+00         0.95885E+03
 
    0.26620E+04         0.29764E+05         0.00000E+00
    0.29764E+05         0.20302E+04         0.00000E+00
    0.00000E+00         0.00000E+00         0.93846E+03
 
    0.24691E+04         0.30111E+05         0.00000E+00
    0.30111E+05         0.21194E+04         0.00000E+00
    0.00000E+00         0.00000E+00         0.91770E+03
 
    0.22732E+04         0.30432E+05         0.00000E+00
    0.30432E+05         0.22096E+04         0.00000E+00
    0.00000E+00         0.00000E+00         0.89657E+03
 
    0.20747E+04         0.30726E+05         0.00000E+00
    0.30726E+05         0.23007E+04         0.00000E+00
    0.00000E+00         0.00000E+00         0.87508E+03
 
    0.18736E+04         0.30993E+05         0.00000E+00
    0.30993E+05         0.23926E+04         0.00000E+00
    0.00000E+00         0.00000E+00         0.85325E+03
 
    0.16701E+04         0.31232E+05         0.00000E+00
    0.31232E+05         0.24853E+04         0.00000E+00
    0.00000E+00         0.00000E+00         0.83108E+03
 
    0.14642E+04         0.31444E+05         0.00000E+00
    0.31444E+05         0.25787E+04         0.00000E+00
    0.00000E+00         0.00000E+00         0.80857E+03
 
    0.12561E+04         0.31628E+05         0.00000E+00
    0.31628E+05         0.26726E+04         0.00000E+00
    0.00000E+00         0.00000E+00         0.78574E+03
 
    0.10460E+04         0.31783E+05         0.00000E+00
    0.31783E+05         0.27671E+04         0.00000E+00
    0.00000E+00         0.00000E+00         0.76261E+03
 
    0.83388E+03         0.31910E+05         0.00000E+00
    0.31910E+05         0.28619E+04         0.00000E+00
    0.00000E+00         0.00000E+00         0.73916E+03
 
    0.11678E+05         0.47664E+03         0.00000E+00
    0.47664E+03        -0.14449E+01         0.00000E+00
    0.00000E+00         0.00000E+00         0.23354E+04
 
    0.11664E+05         0.14287E+04         0.00000E+00
    0.14287E+04         0.31609E+01         0.00000E+00
    0.00000E+00         0.00000E+00         0.23334E+04
 
    0.11640E+05         0.23792E+04         0.00000E+00
    0.23792E+04         0.12373E+02         0.00000E+00
    0.00000E+00         0.00000E+00         0.23305E+04
 
    0.11608E+05         0.33275E+04         0.00000E+00
    0.33275E+04         0.26187E+02         0.00000E+00
    0.00000E+00         0.00000E+00         0.23267E+04
 
    0.11566E+05         0.42728E+04         0.00000E+00
    0.42728E+04         0.44594E+02         0.00000E+00
    0.00000E+00         0.00000E+00         0.23220E+04
 
    0.11514E+05         0.52144E+04         0.00000E+00
    0.52144E+04         0.67581E+02         0.00000E+00
    0.00000E+00         0.00000E+00         0.23164E+04
 
    0.11454E+05         0.61516E+04         0.00000E+00
    0.61516E+04         0.95134E+02         0.00000E+00
    0.00000E+00         0.00000E+00         0.23098E+04
 
    0.11385E+05         0.70836E+04         0.00000E+00
    0.70836E+04         0.12723E+03         0.00000E+00
    0.00000E+00         0.00000E+00         0.23024E+04
 
    0.11306E+05         0.80096E+04         0.00000E+00
    0.80096E+04         0.16386E+03         0.00000E+00
    0.00000E+00         0.00000E+00         0.22940E+04
 
    0.11218E+05         0.89290E+04         0.00000E+00
    0.89290E+04         0.20498E+03         0.00000E+00
    0.00000E+00         0.00000E+00         0.22847E+04
 
    0.11122E+05         0.98411E+04         0.00000E+00
    0.98411E+04         0.25057E+03         0.00000E+00
    0.00000E+00         0.00000E+00         0.22745E+04
 
    0.11016E+05         0.10745E+05         0.00000E+00
    0.10745E+05         0.30059E+03         0.00000E+00
    0.00000E+00         0.00000E+00         0.22634E+04
 
    0.10902E+05         0.11640E+05         0.00000E+00
    0.11640E+05         0.35501E+03         0.00000E+00
    0.00000E+00         0.00000E+00         0.22514E+04
 
    0.10779E+05         0.12526E+05         0.00000E+00
    0.12526E+05         0.41378E+03         0.00000E+00
    0.00000E+00         0.00000E+00         0.22385E+04
 
    0.10647E+05         0.13401E+05         0.00000E+00
    0.13401E+05         0.47687E+03         0.00000E+00
    0.00000E+00         0.00000E+00         0.22247E+04
 
    0.10506E+05         0.14265E+05         0.00000E+00
    0.14265E+05         0.54422E+03         0.00000E+00
    0.00000E+00         0.00000E+00         0.22100E+04
 
    0.10357E+05         0.15117E+05         0.00000E+00
    0.15117E+05         0.61578E+03         0.00000E+00
    0.00000E+00         0.00000E+00         0.21945E+04
 
    0.10199E+05         0.15958E+05         0.00000E+00
    0.15958E+05         0.69151E+03         0.00000E+00
    0.00000E+00         0.00000E+00         0.21781E+04
 
    0.10032E+05         0.16785E+05         0.00000E+00
    0.16785E+05         0.77132E+03         0.00000E+00
    0.00000E+00         0.00000E+00         0.21608E+04
 
    0.98577E+04         0.17598E+05         0.00000E+00
    0.17598E+05         0.85518E+03         0.00000E+00
    0.00000E+00         0.00000E+00         0.21426E+04
 
    0.96748E+04         0.18396E+05         0.00000E+00
    0.18396E+05         0.94301E+03         0.00000E+00
    0.00000E+00         0.00000E+00         0.21236E+04
 
    0.94837E+04         0.19180E+05         0.00000E+00
    0.19180E+05         0.10347E+04         0.00000E+00
    0.00000E+00         0.00000E+00         0.21037E+04
 
    0.92845E+04         0.19948E+05         0.00000E+00
    0.19948E+05         0.11303E+04         0.00000E+00
    0.00000E+00         0.00000E+00         0.20830E+04
 
    0.90774E+04         0.20699E+05         0.00000E+00
    0.20699E+05         0.12296E+04         0.00000E+00
    0.00000E+00         0.00000E+00         0.20614E+04
 
    0.88625E+04         0.21433E+05         0.00000E+00
    0.21433E+05         0.13326E+04         0.00000E+00
    0.00000E+00         0.00000E+00         0.20390E+04
 
    0.86399E+04         0.22149E+05         0.00000E+00
    0.22149E+05         0.14391E+04         0.00000E+00
    0.00000E+00         0.00000E+00         0.20158E+04
 
    0.84097E+04         0.22847E+05         0.00000E+00
    0.22847E+05         0.15492E+04         0.00000E+00
    0.00000E+00         0.00000E+00         0.19918E+04
 
    0.81721E+04         0.23526E+05         0.00000E+00
    0.23526E+05         0.16627E+04         0.00000E+00
    0.00000E+00         0.00000E+00         0.19670E+04
 
    0.79273E+04         0.24185E+05         0.00000E+00
    0.24185E+05         0.17795E+04         0.00000E+00
    0.00000E+00         0.00000E+00         0.19414E+04
 
    0.76752E+04         0.24824E+05         0.00000E+00
    0.24824E+05         0.18995E+04         0.00000E+00
    0.00000E+00         0.00000E+00         0.19150E+04
 
    0.74162E+04         0.25442E+05         0.00000E+00
    0.25442E+05         0.20227E+04         0.00000E+00
    0.00000E+00         0.00000E+00         0.18878E+04
 
    0.71504E+04         0.26039E+05         0.00000E+00
    0.26039E+05         0.21488E+04         0.00000E+00
    0.00000E+00         0.00000E+00         0.18599E+04
 
    0.68779E+04         0.26614E+05         0.00000E+00
    0.26614E+05         0.22779E+04         0.00000E+00
    0.00000E+00         0.00000E+00         0.18312E+04
 
    0.65989E+04         0.27166E+05         0.00000E+00
    0.27166E+05         0.24098E+04         0.00000E+00
    0.00000E+00         0.00000E+00         0.18017E+04
 
    0.63135E+04         0.27695E+05         0.00000E+00
    0.27695E+05         0.25444E+04         0.00000E+00
    0.00000E+00         0.00000E+00         0.17716E+04
 
    0.60220E+04         0.28201E+05         0.00000E+00
    0.28201E+05         0.26816E+04         0.00000E+00
    0.00000E+00         0.00000E+00         0.17407E+04
 
    0.57245E+04         0.28682E+05         0.00000E+00
    0.28682E+05         0.28212E+04         0.00000E+00
    0.00000E+00         0.00000E+00         0.17091E+04
 
    0.54211E+04         0.29139E+05         0.00000E+00
    0.29139E+05         0.29632E+04         0.00000E+00
    0.00000E+00         0.00000E+00         0.16769E+04
 
    0.51122E+04         0.29571E+05         0.00000E+00
    0.29571E+05         0.31074E+04         0.00000E+00
    0.00000E+00         0.00000E+00         0.16439E+04
 
    0.47978E+04         0.29977E+05         0.00000E+00
    0.29977E+05         0.32537E+04         0.00000E+00
    0.00000E+00         0.00000E+00         0.16103E+04
 
    0.44782E+04         0.30358E+05         0.00000E+00
    0.30358E+05         0.34020E+04         0.00000E+00
    0.00000E+00         0.00000E+00         0.15760E+04
 
    0.41535E+04         0.30712E+05         0.00000E+00
    0.30712E+05         0.35521E+04         0.00000E+00
    0.00000E+00         0.00000E+00         0.15411E+04
 
    0.38240E+04         0.31039E+05         0.00000E+00
    0.31039E+05         0.37039E+04         0.00000E+00
    0.00000E+00         0.00000E+00         0.15056E+04
 
    0.34899E+04         0.31339E+05         0.00000E+00
    0.31339E+05         0.38573E+04         0.00000E+00
    0.00000E+00         0.00000E+00         0.14694E+04
 
    0.31514E+04         0.31611E+05         0.00000E+00
    0.31611E+05         0.40121E+04         0.00000E+00
    0.00000E+00         0.00000E+00         0.14327E+04
 
    0.28087E+04         0.31856E+05         0.00000E+00
    0.31856E+05         0.41682E+04         0.00000E+00
    0.00000E+00         0.00000E+00         0.13954E+04
 
    0.24620E+04         0.32072E+05         0.00000E+00
    0.32072E+05         0.43254E+04         0.00000E+00
    0.00000E+00         0.00000E+00         0.13575E+04
 
    0.21115E+04         0.32259E+05         0.00000E+00
    0.32259E+05         0.44837E+04         0.00000E+00
    0.00000E+00         0.00000E+00         0.13190E+04
 
    0.17575E+04         0.32418E+05         0.00000E+00
    0.32418E+05         0.46429E+04         0.00000E+00
    0.00000E+00         0.00000E+00         0.12801E+04
 
    0.14002E+04         0.32547E+05         0.00000E+00
    0.32547E+05         0.48027E+04         0.00000E+00
    0.00000E+00         0.00000E+00         0.12406E+04
 
    0.16507E+05         0.49047E+03         0.00000E+00
    0.49047E+03        -0.20332E+01         0.00000E+00
    0.00000E+00         0.00000E+00         0.33009E+04
 
    0.16487E+05         0.14702E+04         0.00000E+00
    0.14702E+04         0.44395E+01         0.00000E+00
    0.00000E+00         0.00000E+00         0.32982E+04
 
    0.16454E+05         0.24484E+04         0.00000E+00
    0.24484E+04         0.17393E+02         0.00000E+00
    0.00000E+00         0.00000E+00         0.32942E+04
 
    0.16408E+05         0.34243E+04         0.00000E+00
    0.34243E+04         0.36822E+02         0.00000E+00
    0.00000E+00         0.00000E+00         0.32889E+04
 
    0.16349E+05         0.43972E+04         0.00000E+00
    0.43972E+04         0.62720E+02         0.00000E+00
    0.00000E+00         0.00000E+00         0.32823E+04
 
    0.16277E+05         0.53663E+04         0.00000E+00
    0.53663E+04         0.95071E+02         0.00000E+00
    0.00000E+00         0.00000E+00         0.32744E+04
 
    0.16192E+05         0.63309E+04         0.00000E+00
    0.63309E+04         0.13386E+03         0.00000E+00
    0.00000E+00         0.00000E+00         0.32652E+04
 
    0.16095E+05         0.72902E+04         0.00000E+00
    0.72902E+04         0.17905E+03         0.00000E+00
    0.00000E+00         0.00000E+00         0.32548E+04
 
    0.15985E+05         0.82434E+04         0.00000E+00
    0.82434E+04         0.23063E+03         0.00000E+00
    0.00000E+00         0.00000E+00         0.32430E+04
 
    0.15861E+05         0.91899E+04         0.00000E+00
    0.91899E+04         0.28856E+03         0.00000E+00
    0.00000E+00         0.00000E+00         0.32300E+04
 
    0.15726E+05         0.10129E+05         0.00000E+00
    0.10129E+05         0.35280E+03         0.00000E+00
    0.00000E+00         0.00000E+00         0.32157E+04
 
    0.15577E+05         0.11059E+05         0.00000E+00
    0.11059E+05         0.42329E+03         0.00000E+00
    0.00000E+00         0.00000E+00         0.32001E+04
 
    0.15416E+05         0.11981E+05         0.00000E+00
    0.11981E+05         0.50001E+03         0.00000E+00
    0.00000E+00         0.00000E+00         0.31832E+04
 
    0.15243E+05         0.12892E+05         0.00000E+00
    0.12892E+05         0.58288E+03         0.00000E+00
    0.00000E+00         0.00000E+00         0.31651E+04
 
    0.15057E+05         0.13793E+05         0.00000E+00
    0.13793E+05         0.67185E+03         0.00000E+00
    0.00000E+00         0.00000E+00         0.31457E+04
 
    0.14858E+05         0.14683E+05         0.00000E+00
    0.14683E+05         0.76685E+03         0.00000E+00
    0.00000E+00         0.00000E+00         0.31251E+04
 
    0.14648E+05         0.15561E+05         0.00000E+00
    0.15561E+05         0.86782E+03         0.00000E+00
    0.00000E+00         0.00000E+00         0.31032E+04
 
    0.14425E+05         0.16426E+05         0.00000E+00
    0.16426E+05         0.97467E+03         0.00000E+00
    0.00000E+00         0.00000E+00         0.30800E+04
 
    0.14191E+05         0.17277E+05         0.00000E+00
    0.17277E+05         0.10873E+04         0.00000E+00
    0.00000E+00         0.00000E+00         0.30557E+04
 
    0.13945E+05         0.18115E+05         0.00000E+00
    0.18115E+05         0.12057E+04         0.00000E+00
    0.00000E+00         0.00000E+00         0.30301E+04
 
    0.13687E+05         0.18937E+05         0.00000E+00
    0.18937E+05         0.13297E+04         0.00000E+00
    0.00000E+00         0.00000E+00         0.30033E+04
 
    0.13417E+05         0.19744E+05         0.00000E+00
    0.19744E+05         0.14593E+04         0.00000E+00
    0.00000E+00         0.00000E+00         0.29752E+04
 
    0.13136E+05         0.20535E+05         0.00000E+00
    0.20535E+05         0.15942E+04         0.00000E+00
    0.00000E+00         0.00000E+00         0.29460E+04
 
    0.12844E+05         0.21308E+05         0.00000E+00
    0.21308E+05         0.17345E+04         0.00000E+00
    0.00000E+00         0.00000E+00         0.29156E+04
 
    0.12540E+05         0.22064E+05         0.00000E+00
    0.22064E+05         0.18800E+04         0.00000E+00
    0.00000E+00         0.00000E+00         0.28840E+04
 
    0.12226E+05         0.22802E+05         0.00000E+00
    0.22802E+05         0.20306E+04         0.00000E+00
    0.00000E+00         0.00000E+00         0.28513E+04
 
    0.11901E+05         0.23521E+05         0.00000E+00
    0.23521E+05         0.21862E+04         0.00000E+00
    0.00000E+00         0.00000E+00         0.28174E+04
 
    0.11565E+05         0.24220E+05         0.00000E+00
    0.24220E+05         0.23467E+04         0.00000E+00
    0.00000E+00         0.00000E+00         0.27823E+04
 
    0.11219E+05         0.24899E+05         0.00000E+00
    0.24899E+05         0.25118E+04         0.00000E+00
    0.00000E+00         0.00000E+00         0.27462E+04
 
    0.10863E+05         0.25557E+05         0.00000E+00
    0.25557E+05         0.26815E+04         0.00000E+00
    0.00000E+00         0.00000E+00         0.27089E+04
 
    0.10497E+05         0.26194E+05         0.00000E+00
    0.26194E+05         0.28557E+04         0.00000E+00
    0.00000E+00         0.00000E+00         0.26705E+04
 
    0.10121E+05         0.26809E+05         0.00000E+00
    0.26809E+05         0.30342E+04         0.00000E+00
    0.00000E+00         0.00000E+00         0.26310E+04
 
    0.97357E+04         0.27401E+05         0.00000E+00
    0.27401E+05         0.32168E+04         0.00000E+00
    0.00000E+00         0.00000E+00         0.25905E+04
 
    0.93411E+04         0.27969E+05         0.00000E+00
    0.27969E+05         0.34034E+04         0.00000E+00
    0.00000E+00         0.00000E+00         0.25489E+04
 
    0.89375E+04         0.28515E+05         0.00000E+00
    0.28515E+05         0.35939E+04         0.00000E+00
    0.00000E+00         0.00000E+00         0.25063E+04
 
    0.85251E+04         0.29036E+05         0.00000E+00
    0.29036E+05         0.37880E+04         0.00000E+00
    0.00000E+00         0.00000E+00         0.24626E+04
 
    0.81041E+04         0.29532E+05         0.00000E+00
    0.29532E+05         0.39857E+04         0.00000E+00
    0.00000E+00         0.00000E+00         0.24180E+04
 
    0.76749E+04         0.30002E+05         0.00000E+00
    0.30002E+05         0.41867E+04         0.00000E+00
    0.00000E+00         0.00000E+00         0.23723E+04
 
    0.72377E+04         0.30447E+05         0.00000E+00
    0.30447E+05         0.43908E+04         0.00000E+00
    0.00000E+00         0.00000E+00         0.23257E+04
 
    0.67927E+04         0.30866E+05         0.00000E+00
    0.30866E+05         0.45980E+04         0.00000E+00
    0.00000E+00         0.00000E+00         0.22781E+04
 
    0.63403E+04         0.31258E+05         0.00000E+00
    0.31258E+05         0.48079E+04         0.00000E+00
    0.00000E+00         0.00000E+00         0.22296E+04
 
    0.58806E+04         0.31623E+05         0.00000E+00
    0.31623E+05         0.50205E+04         0.00000E+00
    0.00000E+00         0.00000E+00         0.21802E+04
 
    0.54141E+04         0.31960E+05         0.00000E+00
    0.31960E+05         0.52355E+04         0.00000E+00
    0.00000E+00         0.00000E+00         0.21299E+04
 
    0.49410E+04         0.32269E+05         0.00000E+00
    0.32269E+05         0.54528E+04         0.00000E+00
    0.00000E+00         0.00000E+00         0.20787E+04
 
    0.44616E+04         0.32549E+05         0.00000E+00
    0.32549E+05         0.56721E+04         0.00000E+00
    0.00000E+00         0.00000E+00         0.20267E+04
 
    0.39761E+04         0.32801E+05         0.00000E+00
    0.32801E+05         0.58932E+04         0.00000E+00
    0.00000E+00         0.00000E+00         0.19739E+04
 
    0.34850E+04         0.33024E+05         0.00000E+00
    0.33024E+05         0.61160E+04         0.00000E+00
    0.00000E+00         0.00000E+00         0.19202E+04
 
    0.29885E+04         0.33217E+05         0.00000E+00
    0.33217E+05         0.63402E+04         0.00000E+00
    0.00000E+00         0.00000E+00         0.18658E+04
 
    0.24870E+04         0.33380E+05         0.00000E+00
    0.33380E+05         0.65657E+04         0.00000E+00
    0.00000E+00         0.00000E+00         0.18105E+04
 
    0.19807E+04         0.33514E+05         0.00000E+00
    0.33514E+05         0.67922E+04         0.00000E+00
    0.00000E+00         0.00000E+00         0.17546E+04
 
    0.21497E+05         0.50902E+03         0.00000E+00
    0.50902E+03        -0.26407E+01         0.00000E+00
    0.00000E+00         0.00000E+00         0.42989E+04
 
    0.21471E+05         0.15259E+04         0.00000E+00
    0.15259E+04         0.57580E+01         0.00000E+00
    0.00000E+00         0.00000E+00         0.42954E+04
 
    0.21429E+05         0.25413E+04         0.00000E+00
    0.25413E+04         0.22572E+02         0.00000E+00
    0.00000E+00         0.00000E+00         0.42903E+04
 
    0.21370E+05         0.35544E+04         0.00000E+00
    0.35544E+04         0.47800E+02         0.00000E+00
    0.00000E+00         0.00000E+00         0.42835E+04
 
    0.21294E+05         0.45644E+04         0.00000E+00
    0.45644E+04         0.81433E+02         0.00000E+00
    0.00000E+00         0.00000E+00         0.42750E+04
 
    0.21201E+05         0.55706E+04         0.00000E+00
    0.55706E+04         0.12345E+03         0.00000E+00
    0.00000E+00         0.00000E+00         0.42648E+04
 
    0.21091E+05         0.65721E+04         0.00000E+00
    0.65721E+04         0.17384E+03         0.00000E+00
    0.00000E+00         0.00000E+00         0.42530E+04
 
    0.20965E+05         0.75681E+04         0.00000E+00
    0.75681E+04         0.23257E+03         0.00000E+00
    0.00000E+00         0.00000E+00         0.42395E+04
 
    0.20822E+05         0.85579E+04         0.00000E+00
    0.85579E+04         0.29961E+03         0.00000E+00
    0.00000E+00         0.00000E+00         0.42243E+04
 
    0.20662E+05         0.95407E+04         0.00000E+00
    0.95407E+04         0.37490E+03         0.00000E+00
    0.00000E+00         0.00000E+00         0.42074E+04
 
    0.20486E+05         0.10516E+05         0.00000E+00
    0.10516E+05         0.45841E+03         0.00000E+00
    0.00000E+00         0.00000E+00         0.41889E+04
 
    0.20293E+05         0.11482E+05         0.00000E+00
    0.11482E+05         0.55007E+03         0.00000E+00
    0.00000E+00         0.00000E+00         0.41687E+04
 
    0.20084E+05         0.12439E+05         0.00000E+00
    0.12439E+05         0.64983E+03         0.00000E+00
    0.00000E+00         0.00000E+00         0.41468E+04
 
    0.19859E+05         0.13386E+05         0.00000E+00
    0.13386E+05         0.75762E+03         0.00000E+00
    0.00000E+00         0.00000E+00         0.41233E+04
 
    0.19618E+05         0.14322E+05         0.00000E+00
    0.14322E+05         0.87335E+03         0.00000E+00
    0.00000E+00         0.00000E+00         0.40982E+04
 
    0.19360E+05         0.15246E+05         0.00000E+00
    0.15246E+05         0.99695E+03         0.00000E+00
    0.00000E+00         0.00000E+00         0.40714E+04
 
    0.19087E+05         0.16158E+05         0.00000E+00
    0.16158E+05         0.11283E+04         0.00000E+00
    0.00000E+00         0.00000E+00         0.40430E+04
 
    0.18797E+05         0.17057E+05         0.00000E+00
    0.17057E+05         0.12674E+04         0.00000E+00
    0.00000E+00         0.00000E+00         0.40130E+04
 
    0.18493E+05         0.17941E+05         0.00000E+00
    0.17941E+05         0.14140E+04         0.00000E+00
    0.00000E+00         0.00000E+00         0.39813E+04
 
    0.18172E+05         0.18811E+05         0.00000E+00
    0.18811E+05         0.15681E+04         0.00000E+00
    0.00000E+00         0.00000E+00         0.39481E+04
 
    0.17837E+05         0.19666E+05         0.00000E+00
    0.19666E+05         0.17295E+04         0.00000E+00
    0.00000E+00         0.00000E+00         0.39133E+04
 
    0.17486E+05         0.20504E+05         0.00000E+00
    0.20504E+05         0.18982E+04         0.00000E+00
    0.00000E+00         0.00000E+00         0.38768E+04
 
    0.17120E+05         0.21326E+05         0.00000E+00
    0.21326E+05         0.20740E+04         0.00000E+00
    0.00000E+00         0.00000E+00         0.38389E+04
 
    0.16740E+05         0.22130E+05         0.00000E+00
    0.22130E+05         0.22567E+04         0.00000E+00
    0.00000E+00         0.00000E+00         0.37993E+04
 
    0.16345E+05         0.22916E+05         0.00000E+00
    0.22916E+05         0.24462E+04         0.00000E+00
    0.00000E+00         0.00000E+00         0.37583E+04
 
    0.15936E+05         0.23682E+05         0.00000E+00
    0.23682E+05         0.26424E+04         0.00000E+00
    0.00000E+00         0.00000E+00         0.37157E+04
 
    0.15513E+05         0.24429E+05         0.00000E+00
    0.24429E+05         0.28450E+04         0.00000E+00
    0.00000E+00         0.00000E+00         0.36716E+04
 
    0.15076E+05         0.25156E+05         0.00000E+00
    0.25156E+05         0.30541E+04         0.00000E+00
    0.00000E+00         0.00000E+00         0.36260E+04
 
    0.14626E+05         0.25862E+05         0.00000E+00
    0.25862E+05         0.32693E+04         0.00000E+00
    0.00000E+00         0.00000E+00         0.35790E+04
 
    0.14162E+05         0.26546E+05         0.00000E+00
    0.26546E+05         0.34904E+04         0.00000E+00
    0.00000E+00         0.00000E+00         0.35304E+04
 
    0.13685E+05         0.27208E+05         0.00000E+00
    0.27208E+05         0.37174E+04         0.00000E+00
    0.00000E+00         0.00000E+00         0.34805E+04
 
    0.13195E+05         0.27847E+05         0.00000E+00
    0.27847E+05         0.39500E+04         0.00000E+00
    0.00000E+00         0.00000E+00         0.34291E+04
 
    0.12693E+05         0.28463E+05         0.00000E+00
    0.28463E+05         0.41881E+04         0.00000E+00
    0.00000E+00         0.00000E+00         0.33763E+04
 
    0.12179E+05         0.29054E+05         0.00000E+00
    0.29054E+05         0.44313E+04         0.00000E+00
    0.00000E+00         0.00000E+00         0.33221E+04
 
    0.11653E+05         0.29621E+05         0.00000E+00
    0.29621E+05         0.46796E+04         0.00000E+00
    0.00000E+00         0.00000E+00         0.32666E+04
 
    0.11116E+05         0.30162E+05         0.00000E+00
    0.30162E+05         0.49328E+04         0.00000E+00
    0.00000E+00         0.00000E+00         0.32098E+04
 
    0.10567E+05         0.30678E+05         0.00000E+00
    0.30678E+05         0.51905E+04         0.00000E+00
    0.00000E+00         0.00000E+00         0.31516E+04
 
    0.10008E+05         0.31168E+05         0.00000E+00
    0.31168E+05         0.54525E+04         0.00000E+00
    0.00000E+00         0.00000E+00         0.30921E+04
 
    0.94380E+04         0.31630E+05         0.00000E+00
    0.31630E+05         0.57188E+04         0.00000E+00
    0.00000E+00         0.00000E+00         0.30313E+04
 
    0.88578E+04         0.32066E+05         0.00000E+00
    0.32066E+05         0.59889E+04         0.00000E+00
    0.00000E+00         0.00000E+00         0.29694E+04
 
    0.82679E+04         0.32473E+05         0.00000E+00
    0.32473E+05         0.62627E+04         0.00000E+00
    0.00000E+00         0.00000E+00         0.29061E+04
 
    0.76686E+04         0.32853E+05         0.00000E+00
    0.32853E+05         0.65400E+04         0.00000E+00
    0.00000E+00         0.00000E+00         0.28417E+04
 
    0.70603E+04         0.33203E+05         0.00000E+00
    0.33203E+05         0.68204E+04         0.00000E+00
    0.00000E+00         0.00000E+00         0.27761E+04
 
    0.64432E+04         0.33525E+05         0.00000E+00
    0.33525E+05         0.71038E+04         0.00000E+00
    0.00000E+00         0.00000E+00         0.27094E+04
 
    0.58179E+04         0.33817E+05         0.00000E+00
    0.33817E+05         0.73899E+04         0.00000E+00
    0.00000E+00         0.00000E+00         0.26416E+04
 
    0.51848E+04         0.34078E+05         0.00000E+00
    0.34078E+05         0.76784E+04         0.00000E+00
    0.00000E+00         0.00000E+00         0.25726E+04
 
    0.45441E+04         0.34310E+05         0.00000E+00
    0.34310E+05         0.79691E+04         0.00000E+00
    0.00000E+00         0.00000E+00         0.25026E+04
 
    0.38965E+04         0.34511E+05         0.00000E+00
    0.34511E+05         0.82616E+04         0.00000E+00
    0.00000E+00         0.00000E+00         0.24316E+04
 
    0.32421E+04         0.34681E+05         0.00000E+00
    0.34681E+05         0.85558E+04         0.00000E+00
    0.00000E+00         0.00000E+00         0.23596E+04
 
    0.25816E+04         0.34819E+05         0.00000E+00
    0.34819E+05         0.88513E+04         0.00000E+00
    0.00000E+00         0.00000E+00         0.22866E+04
 
    0.26698E+05         0.53248E+03         0.00000E+00
    0.53248E+03        -0.32735E+01         0.00000E+00
    0.00000E+00         0.00000E+00         0.53389E+04
 
    0.26666E+05         0.15964E+04         0.00000E+00
    0.15964E+04         0.71284E+01         0.00000E+00
    0.00000E+00         0.00000E+00         0.53347E+04
 
    0.26615E+05         0.26589E+04         0.00000E+00
    0.26589E+04         0.27961E+02         0.00000E+00
    0.00000E+00         0.00000E+00         0.53285E+04
 
    0.26542E+05         0.37190E+04         0.00000E+00
    0.37190E+04         0.59225E+02         0.00000E+00
    0.00000E+00         0.00000E+00         0.53202E+04
 
    0.26448E+05         0.47760E+04         0.00000E+00
    0.47760E+04         0.10091E+03         0.00000E+00
    0.00000E+00         0.00000E+00         0.53098E+04
 
    0.26334E+05         0.58290E+04         0.00000E+00
    0.58290E+04         0.15301E+03         0.00000E+00
    0.00000E+00         0.00000E+00         0.52973E+04
 
    0.26198E+05         0.68773E+04         0.00000E+00
    0.68773E+04         0.21549E+03         0.00000E+00
    0.00000E+00         0.00000E+00         0.52828E+04
 
    0.26042E+05         0.79199E+04         0.00000E+00
    0.79199E+04         0.28832E+03         0.00000E+00
    0.00000E+00         0.00000E+00         0.52661E+04
 
    0.25866E+05         0.89561E+04         0.00000E+00
    0.89561E+04         0.37146E+03         0.00000E+00
    0.00000E+00         0.00000E+00         0.52474E+04
 
    0.25668E+05         0.99849E+04         0.00000E+00
    0.99849E+04         0.46486E+03         0.00000E+00
    0.00000E+00         0.00000E+00         0.52266E+04
 
    0.25450E+05         0.11006E+05         0.00000E+00
    0.11006E+05         0.56846E+03         0.00000E+00
    0.00000E+00         0.00000E+00         0.52038E+04
 
    0.25212E+05         0.12018E+05         0.00000E+00
    0.12018E+05         0.68220E+03         0.00000E+00
    0.00000E+00         0.00000E+00         0.51788E+04
 
    0.24953E+05         0.13020E+05         0.00000E+00
    0.13020E+05         0.80600E+03         0.00000E+00
    0.00000E+00         0.00000E+00         0.51519E+04
 
    0.24674E+05         0.14011E+05         0.00000E+00
    0.14011E+05         0.93978E+03         0.00000E+00
    0.00000E+00         0.00000E+00         0.51228E+04
 
    0.24375E+05         0.14992E+05         0.00000E+00
    0.14992E+05         0.10834E+04         0.00000E+00
    0.00000E+00         0.00000E+00         0.50917E+04
 
    0.24056E+05         0.15960E+05         0.00000E+00
    0.15960E+05         0.12369E+04         0.00000E+00
    0.00000E+00         0.00000E+00         0.50586E+04
 
    0.23717E+05         0.16915E+05         0.00000E+00
    0.16915E+05         0.14000E+04         0.00000E+00
    0.00000E+00         0.00000E+00         0.50235E+04
 
    0.23359E+05         0.17856E+05         0.00000E+00
    0.17856E+05         0.15726E+04         0.00000E+00
    0.00000E+00         0.00000E+00         0.49863E+04
 
    0.22981E+05         0.18783E+05         0.00000E+00
    0.18783E+05         0.17547E+04         0.00000E+00
    0.00000E+00         0.00000E+00         0.49471E+04
 
    0.22584E+05         0.19695E+05         0.00000E+00
    0.19695E+05         0.19461E+04         0.00000E+00
    0.00000E+00         0.00000E+00         0.49060E+04
 
    0.22167E+05         0.20590E+05         0.00000E+00
    0.20590E+05         0.21466E+04         0.00000E+00
    0.00000E+00         0.00000E+00         0.48628E+04
 
    0.21732E+05         0.21468E+05         0.00000E+00
    0.21468E+05         0.23561E+04         0.00000E+00
    0.00000E+00         0.00000E+00         0.48177E+04
 
    0.21279E+05         0.22329E+05         0.00000E+00
    0.22329E+05         0.25745E+04         0.00000E+00
    0.00000E+00         0.00000E+00         0.47707E+04
 
    0.20807E+05         0.23172E+05         0.00000E+00
    0.23172E+05         0.28015E+04         0.00000E+00
    0.00000E+00         0.00000E+00         0.47217E+04
 
    0.20317E+05         0.23995E+05         0.00000E+00
    0.23995E+05         0.30369E+04         0.00000E+00
    0.00000E+00         0.00000E+00         0.46708E+04
 
    0.19809E+05         0.24799E+05         0.00000E+00
    0.24799E+05         0.32807E+04         0.00000E+00
    0.00000E+00         0.00000E+00         0.46180E+04
 
    0.19284E+05         0.25582E+05         0.00000E+00
    0.25582E+05         0.35326E+04         0.00000E+00
    0.00000E+00         0.00000E+00         0.45633E+04
 
    0.18741E+05         0.26344E+05         0.00000E+00
    0.26344E+05         0.37923E+04         0.00000E+00
    0.00000E+00         0.00000E+00         0.45067E+04
 
    0.18182E+05         0.27084E+05         0.00000E+00
    0.27084E+05         0.40598E+04         0.00000E+00
    0.00000E+00         0.00000E+00         0.44483E+04
 
    0.17606E+05         0.27801E+05         0.00000E+00
    0.27801E+05         0.43347E+04         0.00000E+00
    0.00000E+00         0.00000E+00         0.43881E+04
 
    0.17014E+05         0.28495E+05         0.00000E+00
    0.28495E+05         0.46168E+04         0.00000E+00
    0.00000E+00         0.00000E+00         0.43261E+04
 
    0.16406E+05         0.29165E+05         0.00000E+00
    0.29165E+05         0.49060E+04         0.00000E+00
    0.00000E+00         0.00000E+00         0.42623E+04
 
    0.15782E+05         0.29811E+05         0.00000E+00
    0.29811E+05         0.52019E+04         0.00000E+00
    0.00000E+00         0.00000E+00         0.41968E+04
 
    0.15143E+05         0.30431E+05         0.00000E+00
    0.30431E+05         0.55044E+04         0.00000E+00
    0.00000E+00         0.00000E+00         0.41295E+04
 
    0.14490E+05         0.31025E+05         0.00000E+00
    0.31025E+05         0.58131E+04         0.00000E+00
    0.00000E+00         0.00000E+00         0.40606E+04
 
    0.13822E+05         0.31593E+05         0.00000E+00
    0.31593E+05         0.61278E+04         0.00000E+00
    0.00000E+00         0.00000E+00         0.39899E+04
 
    0.13140E+05         0.32134E+05         0.00000E+00
    0.32134E+05         0.64482E+04         0.00000E+00
    0.00000E+00         0.00000E+00         0.39177E+04
 
    0.12445E+05         0.32648E+05         0.00000E+00
    0.32648E+05         0.67741E+04         0.00000E+00
    0.00000E+00         0.00000E+00         0.38438E+04
 
    0.11736E+05         0.33133E+05         0.00000E+00
    0.33133E+05         0.71052E+04         0.00000E+00
    0.00000E+00         0.00000E+00         0.37683E+04
 
    0.11015E+05         0.33590E+05         0.00000E+00
    0.33590E+05         0.74412E+04         0.00000E+00
    0.00000E+00         0.00000E+00         0.36912E+04
 
    0.10282E+05         0.34017E+05         0.00000E+00
    0.34017E+05         0.77817E+04         0.00000E+00
    0.00000E+00         0.00000E+00         0.36127E+04
 
    0.95364E+04         0.34415E+05         0.00000E+00
    0.34415E+05         0.81266E+04         0.00000E+00
    0.00000E+00         0.00000E+00         0.35326E+04
 
    0.87799E+04         0.34783E+05         0.00000E+00
    0.34783E+05         0.84754E+04         0.00000E+00
    0.00000E+00         0.00000E+00         0.34511E+04
 
    0.80126E+04         0.35120E+05         0.00000E+00
    0.35120E+05         0.88279E+04         0.00000E+00
    0.00000E+00         0.00000E+00         0.33681E+04
 
    0.72349E+04         0.35426E+05         0.00000E+00
    0.35426E+05         0.91838E+04         0.00000E+00
    0.00000E+00         0.00000E+00         0.32837E+04
 
    0.64474E+04         0.35701E+05         0.00000E+00
    0.35701E+05         0.95426E+04         0.00000E+00
    0.00000E+00         0.00000E+00         0.31980E+04
 
    0.56506E+04         0.35944E+05         0.00000E+00
    0.35944E+05         0.99042E+04         0.00000E+00
    0.00000E+00         0.00000E+00         0.31110E+04
 
    0.48449E+04         0.36155E+05         0.00000E+00
    0.36155E+05         0.10268E+05         0.00000E+00
    0.00000E+00         0.00000E+00         0.30226E+04
 
    0.40310E+04         0.36333E+05         0.00000E+00
    0.36333E+05         0.10634E+05         0.00000E+00
    0.00000E+00         0.00000E+00         0.29330E+04
 
    0.32093E+04         0.36478E+05         0.00000E+00
    0.36478E+05         0.11002E+05         0.00000E+00
    0.00000E+00         0.00000E+00         0.28422E+04
 
    0.32159E+05         0.56105E+03         0.00000E+00
    0.56105E+03        -0.39381E+01         0.00000E+00
    0.00000E+00         0.00000E+00         0.64310E+04
 
    0.32123E+05         0.16823E+04         0.00000E+00
    0.16823E+04         0.85638E+01         0.00000E+00
    0.00000E+00         0.00000E+00         0.64262E+04
 
    0.32061E+05         0.28022E+04         0.00000E+00
    0.28022E+04         0.33612E+02         0.00000E+00
    0.00000E+00         0.00000E+00         0.64189E+04
 
    0.31975E+05         0.39197E+04         0.00000E+00
    0.39197E+04         0.71212E+02         0.00000E+00
    0.00000E+00         0.00000E+00         0.64092E+04
 
    0.31863E+05         0.50340E+04         0.00000E+00
    0.50340E+04         0.12136E+03         0.00000E+00
    0.00000E+00         0.00000E+00         0.63969E+04
 
    0.31726E+05         0.61443E+04         0.00000E+00
    0.61443E+04         0.18403E+03         0.00000E+00
    0.00000E+00         0.00000E+00         0.63821E+04
 
    0.31565E+05         0.72496E+04         0.00000E+00
    0.72496E+04         0.25921E+03         0.00000E+00
    0.00000E+00         0.00000E+00         0.63648E+04
 
    0.31378E+05         0.83490E+04         0.00000E+00
    0.83490E+04         0.34686E+03         0.00000E+00
    0.00000E+00         0.00000E+00         0.63449E+04
 
    0.31166E+05         0.94418E+04         0.00000E+00
    0.94418E+04         0.44694E+03         0.00000E+00
    0.00000E+00         0.00000E+00         0.63226E+04
 
    0.30930E+05         0.10527E+05         0.00000E+00
    0.10527E+05         0.55938E+03         0.00000E+00
    0.00000E+00         0.00000E+00         0.62978E+04
 
    0.30668E+05         0.11604E+05         0.00000E+00
    0.11604E+05         0.68411E+03         0.00000E+00
    0.00000E+00         0.00000E+00         0.62705E+04
 
    0.30382E+05         0.12671E+05         0.00000E+00
    0.12671E+05         0.82107E+03         0.00000E+00
    0.00000E+00         0.00000E+00         0.62407E+04
 
    0.30072E+05         0.13729E+05         0.00000E+00
    0.13729E+05         0.97016E+03         0.00000E+00
    0.00000E+00         0.00000E+00         0.62084E+04
 
    0.29737E+05         0.14775E+05         0.00000E+00
    0.14775E+05         0.11313E+04         0.00000E+00
    0.00000E+00         0.00000E+00         0.61736E+04
 
    0.29377E+05         0.15809E+05         0.00000E+00
    0.15809E+05         0.13043E+04         0.00000E+00
    0.00000E+00         0.00000E+00         0.61364E+04
 
    0.28994E+05         0.16831E+05         0.00000E+00
    0.16831E+05         0.14892E+04         0.00000E+00
    0.00000E+00         0.00000E+00         0.60967E+04
 
    0.28587E+05         0.17839E+05         0.00000E+00
    0.17839E+05         0.16857E+04         0.00000E+00
    0.00000E+00         0.00000E+00         0.60545E+04
 
    0.28156E+05         0.18833E+05         0.00000E+00
    0.18833E+05         0.18937E+04         0.00000E+00
    0.00000E+00         0.00000E+00         0.60099E+04
 
    0.27702E+05         0.19811E+05         0.00000E+00
    0.19811E+05         0.21131E+04         0.00000E+00
    0.00000E+00         0.00000E+00         0.59629E+04
 
    0.27224E+05         0.20773E+05         0.00000E+00
    0.20773E+05         0.23437E+04         0.00000E+00
    0.00000E+00         0.00000E+00         0.59135E+04
 
    0.26723E+05         0.21719E+05         0.00000E+00
    0.21719E+05         0.25854E+04         0.00000E+00
    0.00000E+00         0.00000E+00         0.58617E+04
 
    0.26200E+05         0.22647E+05         0.00000E+00
    0.22647E+05         0.28379E+04         0.00000E+00
    0.00000E+00         0.00000E+00         0.58075E+04
 
    0.25654E+05         0.23556E+05         0.00000E+00
    0.23556E+05         0.31011E+04         0.00000E+00
    0.00000E+00         0.00000E+00         0.57510E+04
 
    0.25086E+05         0.24445E+05         0.00000E+00
    0.24445E+05         0.33747E+04         0.00000E+00
    0.00000E+00         0.00000E+00         0.56921E+04
 
    0.24496E+05         0.25315E+05         0.00000E+00
    0.25315E+05         0.36586E+04         0.00000E+00
    0.00000E+00         0.00000E+00         0.56309E+04
 
    0.23885E+05         0.26164E+05         0.00000E+00
    0.26164E+05         0.39525E+04         0.00000E+00
    0.00000E+00         0.00000E+00         0.55674E+04
 
    0.23252E+05         0.26991E+05         0.00000E+00
    0.26991E+05         0.42561E+04         0.00000E+00
    0.00000E+00         0.00000E+00         0.55016E+04
 
    0.22599E+05         0.27796E+05         0.00000E+00
    0.27796E+05         0.45693E+04         0.00000E+00
    0.00000E+00         0.00000E+00         0.54336E+04
 
    0.21925E+05         0.28577E+05         0.00000E+00
    0.28577E+05         0.48918E+04         0.00000E+00
    0.00000E+00         0.00000E+00         0.53633E+04
 
    0.21231E+05         0.29335E+05         0.00000E+00
    0.29335E+05         0.52233E+04         0.00000E+00
    0.00000E+00         0.00000E+00         0.52909E+04
 
    0.20518E+05         0.30069E+05         0.00000E+00
    0.30069E+05         0.55636E+04         0.00000E+00
    0.00000E+00         0.00000E+00         0.52162E+04
 
    0.19785E+05         0.30777E+05         0.00000E+00
    0.30777E+05         0.59123E+04         0.00000E+00
    0.00000E+00         0.00000E+00         0.51395E+04
 
    0.19034E+05         0.31459E+05         0.00000E+00
    0.31459E+05         0.62692E+04         0.00000E+00
    0.00000E+00         0.00000E+00         0.50606E+04
 
    0.18264E+05         0.32114E+05         0.00000E+00
    0.32114E+05         0.66340E+04         0.00000E+00
    0.00000E+00         0.00000E+00         0.49796E+04
 
    0.17476E+05         0.32742E+05         0.00000E+00
    0.32742E+05         0.70064E+04         0.00000E+00
    0.00000E+00         0.00000E+00         0.48965E+04
 
    0.16671E+05         0.33343E+05         0.00000E+00
    0.33343E+05         0.73860E+04         0.00000E+00
    0.00000E+00         0.00000E+00         0.48114E+04
 
    0.15849E+05         0.33915E+05         0.00000E+00
    0.33915E+05         0.77725E+04         0.00000E+00
    0.00000E+00         0.00000E+00         0.47243E+04
 
    0.15011E+05         0.34457E+05         0.00000E+00
    0.34457E+05         0.81657E+04         0.00000E+00
    0.00000E+00         0.00000E+00         0.46353E+04
 
    0.14156E+05         0.34970E+05         0.00000E+00
    0.34970E+05         0.85650E+04         0.00000E+00
    0.00000E+00         0.00000E+00         0.45443E+04
 
    0.13287E+05         0.35453E+05         0.00000E+00
    0.35453E+05         0.89704E+04         0.00000E+00
    0.00000E+00         0.00000E+00         0.44514E+04
 
    0.12402E+05         0.35905E+05         0.00000E+00
    0.35905E+05         0.93812E+04         0.00000E+00
    0.00000E+00         0.00000E+00         0.43567E+04
 
    0.11504E+05         0.36326E+05         0.00000E+00
    0.36326E+05         0.97973E+04         0.00000E+00
    0.00000E+00         0.00000E+00         0.42602E+04
 
    0.10591E+05         0.36715E+05         0.00000E+00
    0.36715E+05         0.10218E+05         0.00000E+00
    0.00000E+00         0.00000E+00         0.41619E+04
 
    0.96657E+04         0.37071E+05         0.00000E+00
    0.37071E+05         0.10643E+05         0.00000E+00
    0.00000E+00         0.00000E+00         0.40618E+04
 
    0.87276E+04         0.37395E+05         0.00000E+00
    0.37395E+05         0.11073E+05         0.00000E+00
    0.00000E+00         0.00000E+00         0.39601E+04
 
    0.77776E+04         0.37686E+05         0.00000E+00
    0.37686E+05         0.11506E+05         0.00000E+00
    0.00000E+00         0.00000E+00         0.38567E+04
 
    0.68162E+04         0.37943E+05         0.00000E+00
    0.37943E+05         0.11942E+05         0.00000E+00
    0.00000E+00         0.00000E+00         0.37517E+04
 
    0.58441E+04         0.38166E+05         0.00000E+00
    0.38166E+05         0.12381E+05         0.00000E+00
    0.00000E+00         0.00000E+00         0.36451E+04
 
    0.48620E+04         0.38354E+05         0.00000E+00
    0.38354E+05         0.12823E+05         0.00000E+00
    0.00000E+00         0.00000E+00         0.35370E+04
 
    0.38703E+04         0.38508E+05         0.00000E+00
    0.38508E+05         0.13267E+05         0.00000E+00
    0.00000E+00         0.00000E+00         0.34274E+04
 
    0.37934E+05         0.59499E+03         0.00000E+00
    0.59499E+03        -0.46418E+01         0.00000E+00
    0.00000E+00         0.00000E+00         0.75858E+04
 
    0.37892E+05         0.17845E+04         0.00000E+00
    0.17845E+04         0.10079E+02         0.00000E+00
    0.00000E+00         0.00000E+00         0.75805E+04
 
    0.37822E+05         0.29726E+04         0.00000E+00
    0.29726E+04         0.39586E+02         0.00000E+00
    0.00000E+00         0.00000E+00         0.75722E+04
 
    0.37721E+05         0.41584E+04         0.00000E+00
    0.41584E+04         0.83890E+02         0.00000E+00
    0.00000E+00         0.00000E+00         0.75610E+04
 
    0.37591E+05         0.53409E+04         0.00000E+00
    0.53409E+04         0.14299E+03         0.00000E+00
    0.00000E+00         0.00000E+00         0.75469E+04
 
    0.37432E+05         0.65193E+04         0.00000E+00
    0.65193E+04         0.21687E+03         0.00000E+00
    0.00000E+00         0.00000E+00         0.75297E+04
 
    0.37243E+05         0.76926E+04         0.00000E+00
    0.76926E+04         0.30551E+03         0.00000E+00
    0.00000E+00         0.00000E+00         0.75096E+04
 
    0.37024E+05         0.88599E+04         0.00000E+00
    0.88599E+04         0.40886E+03         0.00000E+00
    0.00000E+00         0.00000E+00         0.74866E+04
 
    0.36776E+05         0.10020E+05         0.00000E+00
    0.10020E+05         0.52688E+03         0.00000E+00
    0.00000E+00         0.00000E+00         0.74606E+04
 
    0.36499E+05         0.11173E+05         0.00000E+00
    0.11173E+05         0.65950E+03         0.00000E+00
    0.00000E+00         0.00000E+00         0.74316E+04
 
    0.36192E+05         0.12316E+05         0.00000E+00
    0.12316E+05         0.80664E+03         0.00000E+00
    0.00000E+00         0.00000E+00         0.73997E+04
 
    0.35856E+05         0.13450E+05         0.00000E+00
    0.13450E+05         0.96822E+03         0.00000E+00
    0.00000E+00         0.00000E+00         0.73648E+04
 
    0.35491E+05         0.14573E+05         0.00000E+00
    0.14573E+05         0.11441E+04         0.00000E+00
    0.00000E+00         0.00000E+00         0.73270E+04
 
    0.35097E+05         0.15685E+05         0.00000E+00
    0.15685E+05         0.13343E+04         0.00000E+00
    0.00000E+00         0.00000E+00         0.72863E+04
 
    0.34675E+05         0.16784E+05         0.00000E+00
    0.16784E+05         0.15385E+04         0.00000E+00
    0.00000E+00         0.00000E+00         0.72427E+04
 
    0.34224E+05         0.17869E+05         0.00000E+00
    0.17869E+05         0.17566E+04         0.00000E+00
    0.00000E+00         0.00000E+00         0.71961E+04
 
    0.33745E+05         0.18940E+05         0.00000E+00
    0.18940E+05         0.19886E+04         0.00000E+00
    0.00000E+00         0.00000E+00         0.71467E+04
 
    0.33238E+05         0.19997E+05         0.00000E+00
    0.19997E+05         0.22342E+04         0.00000E+00
    0.00000E+00         0.00000E+00         0.70943E+04
 
    0.32703E+05         0.21036E+05         0.00000E+00
    0.21036E+05         0.24932E+04         0.00000E+00
    0.00000E+00         0.00000E+00         0.70391E+04
 
    0.32140E+05         0.22059E+05         0.00000E+00
    0.22059E+05         0.27655E+04         0.00000E+00
    0.00000E+00         0.00000E+00         0.69811E+04
 
    0.31550E+05         0.23064E+05         0.00000E+00
    0.23064E+05         0.30508E+04         0.00000E+00
    0.00000E+00         0.00000E+00         0.69202E+04
 
    0.30934E+05         0.24051E+05         0.00000E+00
    0.24051E+05         0.33490E+04         0.00000E+00
    0.00000E+00         0.00000E+00         0.68565E+04
 
    0.30290E+05         0.25017E+05         0.00000E+00
    0.25017E+05         0.36598E+04         0.00000E+00
    0.00000E+00         0.00000E+00         0.67900E+04
 
    0.29621E+05         0.25963E+05         0.00000E+00
    0.25963E+05         0.39829E+04         0.00000E+00
    0.00000E+00         0.00000E+00         0.67207E+04
 
    0.28926E+05         0.26888E+05         0.00000E+00
    0.26888E+05         0.43181E+04         0.00000E+00
    0.00000E+00         0.00000E+00         0.66487E+04
 
    0.28205E+05         0.27791E+05         0.00000E+00
    0.27791E+05         0.46652E+04         0.00000E+00
    0.00000E+00         0.00000E+00         0.65740E+04
 
    0.27459E+05         0.28671E+05         0.00000E+00
    0.28671E+05         0.50239E+04         0.00000E+00
    0.00000E+00         0.00000E+00         0.64965E+04
 
    0.26688E+05         0.29527E+05         0.00000E+00
    0.29527E+05         0.53938E+04         0.00000E+00
    0.00000E+00         0.00000E+00         0.64164E+04
 
    0.25894E+05         0.30358E+05         0.00000E+00
    0.30358E+05         0.57747E+04         0.00000E+00
    0.00000E+00         0.00000E+00         0.63337E+04
 
    0.25075E+05         0.31165E+05         0.00000E+00
    0.31165E+05         0.61663E+04         0.00000E+00
    0.00000E+00         0.00000E+00         0.62483E+04
 
    0.24233E+05         0.31945E+05         0.00000E+00
    0.31945E+05         0.65683E+04         0.00000E+00
    0.00000E+00         0.00000E+00         0.61603E+04
 
    0.23369E+05         0.32698E+05         0.00000E+00
    0.32698E+05         0.69802E+04         0.00000E+00
    0.00000E+00         0.00000E+00         0.60698E+04
 
    0.22482E+05         0.33424E+05         0.00000E+00
    0.33424E+05         0.74019E+04         0.00000E+00
    0.00000E+00         0.00000E+00         0.59768E+04
 
    0.21574E+05         0.34122E+05         0.00000E+00
    0.34122E+05         0.78328E+04         0.00000E+00
    0.00000E+00         0.00000E+00         0.58813E+04
 
    0.20644E+05         0.34790E+05         0.00000E+00
    0.34790E+05         0.82727E+04         0.00000E+00
    0.00000E+00         0.00000E+00         0.57833E+04
 
    0.19694E+05         0.35429E+05         0.00000E+00
    0.35429E+05         0.87212E+04         0.00000E+00
    0.00000E+00         0.00000E+00         0.56830E+04
 
    0.18723E+05         0.36038E+05         0.00000E+00
    0.36038E+05         0.91779E+04         0.00000E+00
    0.00000E+00         0.00000E+00         0.55802E+04
 
    0.17733E+05         0.36616E+05         0.00000E+00
    0.36616E+05         0.96425E+04         0.00000E+00
    0.00000E+00         0.00000E+00         0.54751E+04
 
    0.16725E+05         0.37162E+05         0.00000E+00
    0.37162E+05         0.10114E+05         0.00000E+00
    0.00000E+00         0.00000E+00         0.53678E+04
 
    0.15698E+05         0.37676E+05         0.00000E+00
    0.37676E+05         0.10593E+05         0.00000E+00
    0.00000E+00         0.00000E+00         0.52582E+04
 
    0.14653E+05         0.38157E+05         0.00000E+00
    0.38157E+05         0.11079E+05         0.00000E+00
    0.00000E+00         0.00000E+00         0.51464E+04
 
    0.13592E+05         0.38605E+05         0.00000E+00
    0.38605E+05         0.11570E+05         0.00000E+00
    0.00000E+00         0.00000E+00         0.50324E+04
 
    0.12514E+05         0.39020E+05         0.00000E+00
    0.39020E+05         0.12068E+05         0.00000E+00
    0.00000E+00         0.00000E+00         0.49163E+04
 
    0.11420E+05         0.39399E+05         0.00000E+00
    0.39399E+05         0.12570E+05         0.00000E+00
    0.00000E+00         0.00000E+00         0.47981E+04
 
    0.10312E+05         0.39744E+05         0.00000E+00
    0.39744E+05         0.13078E+05         0.00000E+00
    0.00000E+00         0.00000E+00         0.46780E+04
 
    0.91895E+04         0.40054E+05         0.00000E+00
    0.40054E+05         0.13590E+05         0.00000E+00
    0.00000E+00         0.00000E+00         0.45558E+04
 
    0.80536E+04         0.40328E+05         0.00000E+00
    0.40328E+05         0.14105E+05         0.00000E+00
    0.00000E+00         0.00000E+00         0.44318E+04
 
    0.69048E+04         0.40565E+05         0.00000E+00
    0.40565E+05         0.14624E+05         0.00000E+00
    0.00000E+00         0.00000E+00         0.43058E+04
 
    0.57441E+04         0.40766E+05         0.00000E+00
    0.40766E+05         0.15146E+05         0.00000E+00
    0.00000E+00         0.00000E+00         0.41781E+04
 
    0.45721E+04         0.40930E+05         0.00000E+00
    0.40930E+05         0.15671E+05         0.00000E+00
    0.00000E+00         0.00000E+00         0.40486E+04
 
    0.44078E+05         0.63464E+03         0.00000E+00
    0.63464E+03        -0.53930E+01         0.00000E+00
    0.00000E+00         0.00000E+00         0.88145E+04
 
    0.44032E+05         0.19039E+04         0.00000E+00
    0.19039E+04         0.11691E+02         0.00000E+00
    0.00000E+00         0.00000E+00         0.88088E+04
 
    0.43952E+05         0.31718E+04         0.00000E+00
    0.31718E+04         0.45952E+02         0.00000E+00
    0.00000E+00         0.00000E+00         0.87996E+04
 
    0.43838E+05         0.44375E+04         0.00000E+00
    0.44375E+04         0.97408E+02         0.00000E+00
    0.00000E+00         0.00000E+00         0.87871E+04
 
    0.43689E+05         0.56999E+04         0.00000E+00
    0.56999E+04         0.16606E+03         0.00000E+00
    0.00000E+00         0.00000E+00         0.87711E+04
 
    0.43506E+05         0.69581E+04         0.00000E+00
    0.69581E+04         0.25191E+03         0.00000E+00
    0.00000E+00         0.00000E+00         0.87516E+04
 
    0.43289E+05         0.82109E+04         0.00000E+00
    0.82109E+04         0.35491E+03         0.00000E+00
    0.00000E+00         0.00000E+00         0.87288E+04
 
    0.43037E+05         0.94576E+04         0.00000E+00
    0.94576E+04         0.47504E+03         0.00000E+00
    0.00000E+00         0.00000E+00         0.87024E+04
 
    0.42751E+05         0.10697E+05         0.00000E+00
    0.10697E+05         0.61223E+03         0.00000E+00
    0.00000E+00         0.00000E+00         0.86727E+04
 
    0.42431E+05         0.11928E+05         0.00000E+00
    0.11928E+05         0.76642E+03         0.00000E+00
    0.00000E+00         0.00000E+00         0.86395E+04
 
    0.42077E+05         0.13150E+05         0.00000E+00
    0.13150E+05         0.93752E+03         0.00000E+00
    0.00000E+00         0.00000E+00         0.86028E+04
 
    0.41688E+05         0.14361E+05         0.00000E+00
    0.14361E+05         0.11254E+04         0.00000E+00
    0.00000E+00         0.00000E+00         0.85627E+04
 
    0.41266E+05         0.15562E+05         0.00000E+00
    0.15562E+05         0.13300E+04         0.00000E+00
    0.00000E+00         0.00000E+00         0.85192E+04
 
    0.40810E+05         0.16750E+05         0.00000E+00
    0.16750E+05         0.15512E+04         0.00000E+00
    0.00000E+00         0.00000E+00         0.84723E+04
 
    0.40321E+05         0.17924E+05         0.00000E+00
    0.17924E+05         0.17887E+04         0.00000E+00
    0.00000E+00         0.00000E+00         0.84220E+04
 
    0.39799E+05         0.19085E+05         0.00000E+00
    0.19085E+05         0.20425E+04         0.00000E+00
    0.00000E+00         0.00000E+00         0.83683E+04
 
    0.39244E+05         0.20230E+05         0.00000E+00
    0.20230E+05         0.23124E+04         0.00000E+00
    0.00000E+00         0.00000E+00         0.83112E+04
 
    0.38655E+05         0.21360E+05         0.00000E+00
    0.21360E+05         0.25981E+04         0.00000E+00
    0.00000E+00         0.00000E+00         0.82507E+04
 
    0.38035E+05         0.22472E+05         0.00000E+00
    0.22472E+05         0.28995E+04         0.00000E+00
    0.00000E+00         0.00000E+00         0.81869E+04
 
    0.37383E+05         0.23566E+05         0.00000E+00
    0.23566E+05         0.32164E+04         0.00000E+00
    0.00000E+00         0.00000E+00         0.81198E+04
 
    0.36698E+05         0.24641E+05         0.00000E+00
    0.24641E+05         0.35484E+04         0.00000E+00
    0.00000E+00         0.00000E+00         0.80493E+04
 
    0.35983E+05         0.25696E+05         0.00000E+00
    0.25696E+05         0.38954E+04         0.00000E+00
    0.00000E+00         0.00000E+00         0.79756E+04
 
    0.35236E+05         0.26730E+05         0.00000E+00
    0.26730E+05         0.42571E+04         0.00000E+00
    0.00000E+00         0.00000E+00         0.78986E+04
 
    0.34459E+05         0.27742E+05         0.00000E+00
    0.27742E+05         0.46332E+04         0.00000E+00
    0.00000E+00         0.00000E+00         0.78184E+04
 
    0.33651E+05         0.28732E+05         0.00000E+00
    0.28732E+05         0.50234E+04         0.00000E+00
    0.00000E+00         0.00000E+00         0.77349E+04
 
    0.32814E+05         0.29698E+05         0.00000E+00
    0.29698E+05         0.54274E+04         0.00000E+00
    0.00000E+00         0.00000E+00         0.76483E+04
 
    0.31948E+05         0.30639E+05         0.00000E+00
    0.30639E+05         0.58449E+04         0.00000E+00
    0.00000E+00         0.00000E+00         0.75585E+04
 
    0.31053E+05         0.31556E+05         0.00000E+00
    0.31556E+05         0.62755E+04         0.00000E+00
    0.00000E+00         0.00000E+00         0.74656E+04
 
    0.30129E+05         0.32446E+05         0.00000E+00
    0.32446E+05         0.67189E+04         0.00000E+00
    0.00000E+00         0.00000E+00         0.73696E+04
 
    0.29178E+05         0.33309E+05         0.00000E+00
    0.33309E+05         0.71747E+04         0.00000E+00
    0.00000E+00         0.00000E+00         0.72705E+04
 
    0.28200E+05         0.34144E+05         0.00000E+00
    0.34144E+05         0.76426E+04         0.00000E+00
    0.00000E+00         0.00000E+00         0.71684E+04
 
    0.27195E+05         0.34950E+05         0.00000E+00
    0.34950E+05         0.81222E+04         0.00000E+00
    0.00000E+00         0.00000E+00         0.70634E+04
 
    0.26164E+05         0.35728E+05         0.00000E+00
    0.35728E+05         0.86130E+04         0.00000E+00
    0.00000E+00         0.00000E+00         0.69553E+04
 
    0.25107E+05         0.36475E+05         0.00000E+00
    0.36475E+05         0.91147E+04         0.00000E+00
    0.00000E+00         0.00000E+00         0.68444E+04
 
    0.24026E+05         0.37191E+05         0.00000E+00
    0.37191E+05         0.96268E+04         0.00000E+00
    0.00000E+00         0.00000E+00         0.67306E+04
 
    0.22921E+05         0.37875E+05         0.00000E+00
    0.37875E+05         0.10149E+05         0.00000E+00
    0.00000E+00         0.00000E+00         0.66140E+04
 
    0.21792E+05         0.38527E+05         0.00000E+00
    0.38527E+05         0.10681E+05         0.00000E+00
    0.00000E+00         0.00000E+00         0.64946E+04
 
    0.20641E+05         0.39146E+05         0.00000E+00
    0.39146E+05         0.11221E+05         0.00000E+00
    0.00000E+00         0.00000E+00         0.63725E+04
 
    0.19468E+05         0.39731E+05         0.00000E+00
    0.39731E+05         0.11771E+05         0.00000E+00
    0.00000E+00         0.00000E+00         0.62477E+04
 
    0.18273E+05         0.40282E+05         0.00000E+00
    0.40282E+05         0.12328E+05         0.00000E+00
    0.00000E+00         0.00000E+00         0.61202E+04
 
    0.17057E+05         0.40798E+05         0.00000E+00
    0.40798E+05         0.12894E+05         0.00000E+00
    0.00000E+00         0.00000E+00         0.59902E+04
 
    0.15822E+05         0.41278E+05         0.00000E+00
    0.41278E+05         0.13466E+05         0.00000E+00
    0.00000E+00         0.00000E+00         0.58576E+04
 
    0.14568E+05         0.41722E+05         0.00000E+00
    0.41722E+05         0.14045E+05         0.00000E+00
    0.00000E+00         0.00000E+00         0.57226E+04
 
    0.13295E+05         0.42129E+05         0.00000E+00
    0.42129E+05         0.14630E+05         0.00000E+00
    0.00000E+00         0.00000E+00         0.55851E+04
 
    0.12005E+05         0.42498E+05         0.00000E+00
    0.42498E+05         0.15221E+05         0.00000E+00
    0.00000E+00         0.00000E+00         0.54453E+04
 
    0.10699E+05         0.42830E+05         0.00000E+00
    0.42830E+05         0.15817E+05         0.00000E+00
    0.00000E+00         0.00000E+00         0.53031E+04
 
    0.93760E+04         0.43124E+05         0.00000E+00
    0.43124E+05         0.16418E+05         0.00000E+00
    0.00000E+00         0.00000E+00         0.51587E+04
 
    0.80386E+04         0.43378E+05         0.00000E+00
    0.43378E+05         0.17022E+05         0.00000E+00
    0.00000E+00         0.00000E+00         0.50121E+04
 
    0.66870E+04         0.43594E+05         0.00000E+00
    0.43594E+05         0.17630E+05         0.00000E+00
    0.00000E+00         0.00000E+00         0.48634E+04
 
    0.53223E+04         0.43769E+05         0.00000E+00
    0.43769E+05         0.18241E+05         0.00000E+00
    0.00000E+00         0.00000E+00         0.47126E+04
 
    0.50651E+05         0.68039E+03         0.00000E+00
    0.68039E+03        -0.62017E+01         0.00000E+00
    0.00000E+00         0.00000E+00         0.10129E+05
 
    0.50602E+05         0.20417E+04         0.00000E+00
    0.20417E+04         0.13421E+02         0.00000E+00
    0.00000E+00         0.00000E+00         0.10123E+05
 
    0.50513E+05         0.34019E+04         0.00000E+00
    0.34019E+04         0.52793E+02         0.00000E+00
    0.00000E+00         0.00000E+00         0.10113E+05
 
    0.50385E+05         0.47599E+04         0.00000E+00
    0.47599E+04         0.11194E+03         0.00000E+00
    0.00000E+00         0.00000E+00         0.10099E+05
 
    0.50217E+05         0.61147E+04         0.00000E+00
    0.61147E+04         0.19088E+03         0.00000E+00
    0.00000E+00         0.00000E+00         0.10082E+05
 
    0.50010E+05         0.74651E+04         0.00000E+00
    0.74651E+04         0.28960E+03         0.00000E+00
    0.00000E+00         0.00000E+00         0.10060E+05
 
    0.49763E+05         0.88100E+04         0.00000E+00
    0.88100E+04         0.40808E+03         0.00000E+00
    0.00000E+00         0.00000E+00         0.10034E+05
 
    0.49477E+05         0.10148E+05         0.00000E+00
    0.10148E+05         0.54627E+03         0.00000E+00
    0.00000E+00         0.00000E+00         0.10005E+05
 
    0.49151E+05         0.11479E+05         0.00000E+00
    0.11479E+05         0.70412E+03         0.00000E+00
    0.00000E+00         0.00000E+00         0.99711E+04
 
    0.48786E+05         0.12801E+05         0.00000E+00
    0.12801E+05         0.88155E+03         0.00000E+00
    0.00000E+00         0.00000E+00         0.99335E+04
 
    0.48382E+05         0.14114E+05         0.00000E+00
    0.14114E+05         0.10785E+04         0.00000E+00
    0.00000E+00         0.00000E+00         0.98920E+04
 
    0.47938E+05         0.15415E+05         0.00000E+00
    0.15415E+05         0.12947E+04         0.00000E+00
    0.00000E+00         0.00000E+00         0.98465E+04
 
    0.47455E+05         0.16705E+05         0.00000E+00
    0.16705E+05         0.15302E+04         0.00000E+00
    0.00000E+00         0.00000E+00         0.97971E+04
 
    0.46934E+05         0.17982E+05         0.00000E+00
    0.17982E+05         0.17848E+04         0.00000E+00
    0.00000E+00         0.00000E+00         0.97437E+04
 
    0.46374E+05         0.19244E+05         0.00000E+00
    0.19244E+05         0.20583E+04         0.00000E+00
    0.00000E+00         0.00000E+00         0.96864E+04
 
    0.45776E+05         0.20492E+05         0.00000E+00
    0.20492E+05         0.23505E+04         0.00000E+00
    0.00000E+00         0.00000E+00         0.96252E+04
 
    0.45139E+05         0.21723E+05         0.00000E+00
    0.21723E+05         0.26612E+04         0.00000E+00
    0.00000E+00         0.00000E+00         0.95601E+04
 
    0.44465E+05         0.22937E+05         0.00000E+00
    0.22937E+05         0.29903E+04         0.00000E+00
    0.00000E+00         0.00000E+00         0.94911E+04
 
    0.43754E+05         0.24132E+05         0.00000E+00
    0.24132E+05         0.33373E+04         0.00000E+00
    0.00000E+00         0.00000E+00         0.94182E+04
 
    0.43005E+05         0.25309E+05         0.00000E+00
    0.25309E+05         0.37022E+04         0.00000E+00
    0.00000E+00         0.00000E+00         0.93415E+04
 
    0.42220E+05         0.26465E+05         0.00000E+00
    0.26465E+05         0.40846E+04         0.00000E+00
    0.00000E+00         0.00000E+00         0.92610E+04
 
    0.41399E+05         0.27599E+05         0.00000E+00
    0.27599E+05         0.44842E+04         0.00000E+00
    0.00000E+00         0.00000E+00         0.91766E+04
 
    0.40542E+05         0.28712E+05         0.00000E+00
    0.28712E+05         0.49007E+04         0.00000E+00
    0.00000E+00         0.00000E+00         0.90885E+04
 
    0.39649E+05         0.29801E+05         0.00000E+00
    0.29801E+05         0.53338E+04         0.00000E+00
    0.00000E+00         0.00000E+00         0.89967E+04
 
    0.38722E+05         0.30865E+05         0.00000E+00
    0.30865E+05         0.57832E+04         0.00000E+00
    0.00000E+00         0.00000E+00         0.89011E+04
 
    0.37761E+05         0.31904E+05         0.00000E+00
    0.31904E+05         0.62485E+04         0.00000E+00
    0.00000E+00         0.00000E+00         0.88018E+04
 
    0.36765E+05         0.32918E+05         0.00000E+00
    0.32918E+05         0.67293E+04         0.00000E+00
    0.00000E+00         0.00000E+00         0.86989E+04
 
    0.35737E+05         0.33903E+05         0.00000E+00
    0.33903E+05         0.72252E+04         0.00000E+00
    0.00000E+00         0.00000E+00         0.85924E+04
 
    0.34676E+05         0.34861E+05         0.00000E+00
    0.34861E+05         0.77359E+04         0.00000E+00
    0.00000E+00         0.00000E+00         0.84823E+04
 
    0.33582E+05         0.35790E+05         0.00000E+00
    0.35790E+05         0.82609E+04         0.00000E+00
    0.00000E+00         0.00000E+00         0.83686E+04
 
    0.32458E+05         0.36689E+05         0.00000E+00
    0.36689E+05         0.87997E+04         0.00000E+00
    0.00000E+00         0.00000E+00         0.82515E+04
 
    0.31302E+05         0.37557E+05         0.00000E+00
    0.37557E+05         0.93520E+04         0.00000E+00
    0.00000E+00         0.00000E+00         0.81309E+04
 
    0.30117E+05         0.38394E+05         0.00000E+00
    0.38394E+05         0.99173E+04         0.00000E+00
    0.00000E+00         0.00000E+00         0.80069E+04
 
    0.28902E+05         0.39198E+05         0.00000E+00
    0.39198E+05         0.10495E+05         0.00000E+00
    0.00000E+00         0.00000E+00         0.78795E+04
 
    0.27659E+05         0.39969E+05         0.00000E+00
    0.39969E+05         0.11085E+05         0.00000E+00
    0.00000E+00         0.00000E+00         0.77488E+04
 
    0.26388E+05         0.40706E+05         0.00000E+00
    0.40706E+05         0.11686E+05         0.00000E+00
    0.00000E+00         0.00000E+00         0.76148E+04
 
    0.25089E+05         0.41408E+05         0.00000E+00
    0.41408E+05         0.12299E+05         0.00000E+00
    0.00000E+00         0.00000E+00         0.74776E+04
 
    0.23765E+05         0.42075E+05         0.00000E+00
    0.42075E+05         0.12921E+05         0.00000E+00
    0.00000E+00         0.00000E+00         0.73372E+04
 
    0.22414E+05         0.42705E+05         0.00000E+00
    0.42705E+05         0.13554E+05         0.00000E+00
    0.00000E+00         0.00000E+00         0.71937E+04
 
    0.21040E+05         0.43298E+05         0.00000E+00
    0.43298E+05         0.14196E+05         0.00000E+00
    0.00000E+00         0.00000E+00         0.70472E+04
 
    0.19641E+05         0.43854E+05         0.00000E+00
    0.43854E+05         0.14847E+05         0.00000E+00
    0.00000E+00         0.00000E+00         0.68976E+04
 
    0.18219E+05         0.44371E+05         0.00000E+00
    0.44371E+05         0.15507E+05         0.00000E+00
    0.00000E+00         0.00000E+00         0.67451E+04
 
    0.16775E+05         0.44849E+05         0.00000E+00
    0.44849E+05         0.16173E+05         0.00000E+00
    0.00000E+00         0.00000E+00         0.65898E+04
 
    0.15311E+05         0.45288E+05         0.00000E+00
    0.45288E+05         0.16847E+05         0.00000E+00
    0.00000E+00         0.00000E+00         0.64316E+04
 
    0.13825E+05         0.45687E+05         0.00000E+00
    0.45687E+05         0.17528E+05         0.00000E+00
    0.00000E+00         0.00000E+00         0.62707E+04
 
    0.12321E+05         0.46044E+05         0.00000E+00
    0.46044E+05         0.18214E+05         0.00000E+00
    0.00000E+00         0.00000E+00         0.61070E+04
 
    0.10798E+05         0.46361E+05         0.00000E+00
    0.46361E+05         0.18906E+05         0.00000E+00
    0.00000E+00         0.00000E+00         0.59408E+04
 
    0.92578E+04         0.46635E+05         0.00000E+00
    0.46635E+05         0.19602E+05         0.00000E+00
    0.00000E+00         0.00000E+00         0.57720E+04
 
    0.77012E+04         0.46867E+05         0.00000E+00
    0.46867E+05         0.20302E+05         0.00000E+00
    0.00000E+00         0.00000E+00         0.56007E+04
 
    0.61293E+04         0.47057E+05         0.00000E+00
    0.47057E+05         0.21006E+05         0.00000E+00
    0.00000E+00         0.00000E+00         0.54270E+04
 
    0.57716E+05         0.73271E+03         0.00000E+00
    0.73271E+03        -0.70795E+01         0.00000E+00
    0.00000E+00         0.00000E+00         0.11542E+05
 
    0.57665E+05         0.21995E+04         0.00000E+00
    0.21995E+04         0.15294E+02         0.00000E+00
    0.00000E+00         0.00000E+00         0.11536E+05
 
    0.57569E+05         0.36654E+04         0.00000E+00
    0.36654E+04         0.60207E+02         0.00000E+00
    0.00000E+00         0.00000E+00         0.11526E+05
 
    0.57427E+05         0.51292E+04         0.00000E+00
    0.51292E+04         0.12770E+03         0.00000E+00
    0.00000E+00         0.00000E+00         0.11511E+05
 
    0.57240E+05         0.65897E+04         0.00000E+00
    0.65897E+04         0.21780E+03         0.00000E+00
    0.00000E+00         0.00000E+00         0.11492E+05
 
    0.57008E+05         0.80459E+04         0.00000E+00
    0.80459E+04         0.33050E+03         0.00000E+00
    0.00000E+00         0.00000E+00         0.11468E+05
 
    0.56731E+05         0.94965E+04         0.00000E+00
    0.94965E+04         0.46578E+03         0.00000E+00
    0.00000E+00         0.00000E+00         0.11439E+05
 
    0.56409E+05         0.10940E+05         0.00000E+00
    0.10940E+05         0.62359E+03         0.00000E+00
    0.00000E+00         0.00000E+00         0.11406E+05
 
    0.56041E+05         0.12376E+05         0.00000E+00
    0.12376E+05         0.80388E+03         0.00000E+00
    0.00000E+00         0.00000E+00         0.11369E+05
 
    0.55628E+05         0.13803E+05         0.00000E+00
    0.13803E+05         0.10065E+04         0.00000E+00
    0.00000E+00         0.00000E+00         0.11327E+05
 
    0.55171E+05         0.15219E+05         0.00000E+00
    0.15219E+05         0.12315E+04         0.00000E+00
    0.00000E+00         0.00000E+00         0.11280E+05
 
    0.54669E+05         0.16624E+05         0.00000E+00
    0.16624E+05         0.14786E+04         0.00000E+00
    0.00000E+00         0.00000E+00         0.11229E+05
 
    0.54122E+05         0.18016E+05         0.00000E+00
    0.18016E+05         0.17476E+04         0.00000E+00
    0.00000E+00         0.00000E+00         0.11174E+05
 
    0.53530E+05         0.19394E+05         0.00000E+00
    0.19394E+05         0.20385E+04         0.00000E+00
    0.00000E+00         0.00000E+00         0.11114E+05
 
    0.52895E+05         0.20757E+05         0.00000E+00
    0.20757E+05         0.23511E+04         0.00000E+00
    0.00000E+00         0.00000E+00         0.11049E+05
 
    0.52215E+05         0.22104E+05         0.00000E+00
    0.22104E+05         0.26850E+04         0.00000E+00
    0.00000E+00         0.00000E+00         0.10980E+05
 
    0.51492E+05         0.23434E+05         0.00000E+00
    0.23434E+05         0.30401E+04         0.00000E+00
    0.00000E+00         0.00000E+00         0.10907E+05
 
    0.50726E+05         0.24745E+05         0.00000E+00
    0.24745E+05         0.34161E+04         0.00000E+00
    0.00000E+00         0.00000E+00         0.10829E+05
 
    0.49918E+05         0.26037E+05         0.00000E+00
    0.26037E+05         0.38127E+04         0.00000E+00
    0.00000E+00         0.00000E+00         0.10746E+05
 
    0.49066E+05         0.27308E+05         0.00000E+00
    0.27308E+05         0.42297E+04         0.00000E+00
    0.00000E+00         0.00000E+00         0.10659E+05
 
    0.48173E+05         0.28557E+05         0.00000E+00
    0.28557E+05         0.46667E+04         0.00000E+00
    0.00000E+00         0.00000E+00         0.10568E+05
 
    0.47238E+05         0.29783E+05         0.00000E+00
    0.29783E+05         0.51234E+04         0.00000E+00
    0.00000E+00         0.00000E+00         0.10472E+05
 
    0.46263E+05         0.30985E+05         0.00000E+00
    0.30985E+05         0.55994E+04         0.00000E+00
    0.00000E+00         0.00000E+00         0.10372E+05
 
    0.45247E+05         0.32161E+05         0.00000E+00
    0.32161E+05         0.60944E+04         0.00000E+00
    0.00000E+00         0.00000E+00         0.10268E+05
 
    0.44191E+05         0.33312E+05         0.00000E+00
    0.33312E+05         0.66079E+04         0.00000E+00
    0.00000E+00         0.00000E+00         0.10160E+05
 
    0.43095E+05         0.34435E+05         0.00000E+00
    0.34435E+05         0.71396E+04         0.00000E+00
    0.00000E+00         0.00000E+00         0.10047E+05
 
    0.41961E+05         0.35530E+05         0.00000E+00
    0.35530E+05         0.76890E+04         0.00000E+00
    0.00000E+00         0.00000E+00         0.99301E+04
 
    0.40789E+05         0.36596E+05         0.00000E+00
    0.36596E+05         0.82557E+04         0.00000E+00
    0.00000E+00         0.00000E+00         0.98090E+04
 
    0.39580E+05         0.37632E+05         0.00000E+00
    0.37632E+05         0.88392E+04         0.00000E+00
    0.00000E+00         0.00000E+00         0.96838E+04
 
    0.38334E+05         0.38636E+05         0.00000E+00
    0.38636E+05         0.94390E+04         0.00000E+00
    0.00000E+00         0.00000E+00         0.95546E+04
 
    0.37052E+05         0.39608E+05         0.00000E+00
    0.39608E+05         0.10055E+05         0.00000E+00
    0.00000E+00         0.00000E+00         0.94213E+04
 
    0.35734E+05         0.40547E+05         0.00000E+00
    0.40547E+05         0.10686E+05         0.00000E+00
    0.00000E+00         0.00000E+00         0.92840E+04
 
    0.34383E+05         0.41451E+05         0.00000E+00
    0.41451E+05         0.11332E+05         0.00000E+00
    0.00000E+00         0.00000E+00         0.91429E+04
 
    0.32997E+05         0.42321E+05         0.00000E+00
    0.42321E+05         0.11992E+05         0.00000E+00
    0.00000E+00         0.00000E+00         0.89978E+04
 
    0.31579E+05         0.43155E+05         0.00000E+00
    0.43155E+05         0.12665E+05         0.00000E+00
    0.00000E+00         0.00000E+00         0.88490E+04
 
    0.30129E+05         0.43952E+05         0.00000E+00
    0.43952E+05         0.13352E+05         0.00000E+00
    0.00000E+00         0.00000E+00         0.86963E+04
 
    0.28648E+05         0.44712E+05         0.00000E+00
    0.44712E+05         0.14052E+05         0.00000E+00
    0.00000E+00         0.00000E+00         0.85400E+04
 
    0.27137E+05         0.45433E+05         0.00000E+00
    0.45433E+05         0.14763E+05         0.00000E+00
    0.00000E+00         0.00000E+00         0.83800E+04
 
    0.25596E+05         0.46115E+05         0.00000E+00
    0.46115E+05         0.15486E+05         0.00000E+00
    0.00000E+00         0.00000E+00         0.82165E+04
 
    0.24027E+05         0.46757E+05         0.00000E+00
    0.46757E+05         0.16220E+05         0.00000E+00
    0.00000E+00         0.00000E+00         0.80494E+04
 
    0.22431E+05         0.47358E+05         0.00000E+00
    0.47358E+05         0.16963E+05         0.00000E+00
    0.00000E+00         0.00000E+00         0.78788E+04
 
    0.20808E+05         0.47918E+05         0.00000E+00
    0.47918E+05         0.17716E+05         0.00000E+00
    0.00000E+00         0.00000E+00         0.77049E+04
 
    0.19160E+05         0.48436E+05         0.00000E+00
    0.48436E+05         0.18478E+05         0.00000E+00
    0.00000E+00         0.00000E+00         0.75277E+04
 
    0.17488E+05         0.48911E+05         0.00000E+00
    0.48911E+05         0.19248E+05         0.00000E+00
    0.00000E+00         0.00000E+00         0.73472E+04
 
    0.15792E+05         0.49342E+05         0.00000E+00
    0.49342E+05         0.20025E+05         0.00000E+00
    0.00000E+00         0.00000E+00         0.71635E+04
 
    0.14074E+05         0.49730E+05         0.00000E+00
    0.49730E+05         0.20809E+05         0.00000E+00
    0.00000E+00         0.00000E+00         0.69767E+04
 
    0.12335E+05         0.50073E+05         0.00000E+00
    0.50073E+05         0.21599E+05         0.00000E+00
    0.00000E+00         0.00000E+00         0.67869E+04
 
    0.10576E+05         0.50370E+05         0.00000E+00
    0.50370E+05         0.22395E+05         0.00000E+00
    0.00000E+00         0.00000E+00         0.65942E+04
 
    0.87981E+04         0.50622E+05         0.00000E+00
    0.50622E+05         0.23195E+05         0.00000E+00
    0.00000E+00         0.00000E+00         0.63986E+04
 
    0.70024E+04         0.50827E+05         0.00000E+00
    0.50827E+05         0.23998E+05         0.00000E+00
    0.00000E+00         0.00000E+00         0.62001E+04
 
    0.65344E+05         0.79217E+03         0.00000E+00
    0.79217E+03        -0.80409E+01         0.00000E+00
    0.00000E+00         0.00000E+00         0.13067E+05
 
    0.65292E+05         0.23789E+04         0.00000E+00
    0.23789E+04         0.17340E+02         0.00000E+00
    0.00000E+00         0.00000E+00         0.13062E+05
 
    0.65189E+05         0.39651E+04         0.00000E+00
    0.39651E+04         0.68316E+02         0.00000E+00
    0.00000E+00         0.00000E+00         0.13051E+05
 
    0.65034E+05         0.55494E+04         0.00000E+00
    0.55494E+04         0.14495E+03         0.00000E+00
    0.00000E+00         0.00000E+00         0.13036E+05
 
    0.64829E+05         0.71305E+04         0.00000E+00
    0.71305E+04         0.24726E+03         0.00000E+00
    0.00000E+00         0.00000E+00         0.13015E+05
 
    0.64571E+05         0.87072E+04         0.00000E+00
    0.87072E+04         0.37527E+03         0.00000E+00
    0.00000E+00         0.00000E+00         0.12989E+05
 
    0.64263E+05         0.10278E+05         0.00000E+00
    0.10278E+05         0.52895E+03         0.00000E+00
    0.00000E+00         0.00000E+00         0.12958E+05
 
    0.63902E+05         0.11842E+05         0.00000E+00
    0.11842E+05         0.70825E+03         0.00000E+00
    0.00000E+00         0.00000E+00         0.12922E+05
 
    0.63491E+05         0.13397E+05         0.00000E+00
    0.13397E+05         0.91311E+03         0.00000E+00
    0.00000E+00         0.00000E+00         0.12881E+05
 
    0.63028E+05         0.14943E+05         0.00000E+00
    0.14943E+05         0.11434E+04         0.00000E+00
    0.00000E+00         0.00000E+00         0.12834E+05
 
    0.62514E+05         0.16478E+05         0.00000E+00
    0.16478E+05         0.13991E+04         0.00000E+00
    0.00000E+00         0.00000E+00         0.12783E+05
 
    0.61949E+05         0.18001E+05         0.00000E+00
    0.18001E+05         0.16799E+04         0.00000E+00
    0.00000E+00         0.00000E+00         0.12726E+05
 
    0.61334E+05         0.19510E+05         0.00000E+00
    0.19510E+05         0.19857E+04         0.00000E+00
    0.00000E+00         0.00000E+00         0.12664E+05
 
    0.60667E+05         0.21004E+05         0.00000E+00
    0.21004E+05         0.23163E+04         0.00000E+00
    0.00000E+00         0.00000E+00         0.12597E+05
 
    0.59951E+05         0.22482E+05         0.00000E+00
    0.22482E+05         0.26716E+04         0.00000E+00
    0.00000E+00         0.00000E+00         0.12525E+05
 
    0.59185E+05         0.23942E+05         0.00000E+00
    0.23942E+05         0.30511E+04         0.00000E+00
    0.00000E+00         0.00000E+00         0.12447E+05
 
    0.58369E+05         0.25384E+05         0.00000E+00
    0.25384E+05         0.34547E+04         0.00000E+00
    0.00000E+00         0.00000E+00         0.12365E+05
 
    0.57504E+05         0.26806E+05         0.00000E+00
    0.26806E+05         0.38821E+04         0.00000E+00
    0.00000E+00         0.00000E+00         0.12277E+05
 
    0.56590E+05         0.28207E+05         0.00000E+00
    0.28207E+05         0.43329E+04         0.00000E+00
    0.00000E+00         0.00000E+00         0.12185E+05
 
    0.55628E+05         0.29585E+05         0.00000E+00
    0.29585E+05         0.48068E+04         0.00000E+00
    0.00000E+00         0.00000E+00         0.12087E+05
 
    0.54618E+05         0.30940E+05         0.00000E+00
    0.30940E+05         0.53035E+04         0.00000E+00
    0.00000E+00         0.00000E+00         0.11984E+05
 
    0.53561E+05         0.32270E+05         0.00000E+00
    0.32270E+05         0.58225E+04         0.00000E+00
    0.00000E+00         0.00000E+00         0.11877E+05
 
    0.52458E+05         0.33574E+05         0.00000E+00
    0.33574E+05         0.63634E+04         0.00000E+00
    0.00000E+00         0.00000E+00         0.11764E+05
 
    0.51308E+05         0.34851E+05         0.00000E+00
    0.34851E+05         0.69259E+04         0.00000E+00
    0.00000E+00         0.00000E+00         0.11647E+05
 
    0.50113E+05         0.36099E+05         0.00000E+00
    0.36099E+05         0.75094E+04         0.00000E+00
    0.00000E+00         0.00000E+00         0.11524E+05
 
    0.48873E+05         0.37318E+05         0.00000E+00
    0.37318E+05         0.81135E+04         0.00000E+00
    0.00000E+00         0.00000E+00         0.11397E+05
 
    0.47589E+05         0.38507E+05         0.00000E+00
    0.38507E+05         0.87377E+04         0.00000E+00
    0.00000E+00         0.00000E+00         0.11265E+05
 
    0.46262E+05         0.39663E+05         0.00000E+00
    0.39663E+05         0.93814E+04         0.00000E+00
    0.00000E+00         0.00000E+00         0.11129E+05
 
    0.44893E+05         0.40787E+05         0.00000E+00
    0.40787E+05         0.10044E+05         0.00000E+00
    0.00000E+00         0.00000E+00         0.10987E+05
 
    0.43481E+05         0.41877E+05         0.00000E+00
    0.41877E+05         0.10726E+05         0.00000E+00
    0.00000E+00         0.00000E+00         0.10841E+05
 
    0.42029E+05         0.42932E+05         0.00000E+00
    0.42932E+05         0.11425E+05         0.00000E+00
    0.00000E+00         0.00000E+00         0.10691E+05
 
    0.40537E+05         0.43951E+05         0.00000E+00
    0.43951E+05         0.12142E+05         0.00000E+00
    0.00000E+00         0.00000E+00         0.10536E+05
 
    0.39005E+05         0.44933E+05         0.00000E+00
    0.44933E+05         0.12875E+05         0.00000E+00
    0.00000E+00         0.00000E+00         0.10376E+05
 
    0.37435E+05         0.45877E+05         0.00000E+00
    0.45877E+05         0.13625E+05         0.00000E+00
    0.00000E+00         0.00000E+00         0.10212E+05
 
    0.35828E+05         0.46783E+05         0.00000E+00
    0.46783E+05         0.14390E+05         0.00000E+00
    0.00000E+00         0.00000E+00         0.10044E+05
 
    0.34185E+05         0.47648E+05         0.00000E+00
    0.47648E+05         0.15170E+05         0.00000E+00
    0.00000E+00         0.00000E+00         0.98709E+04
 
    0.32506E+05         0.48473E+05         0.00000E+00
    0.48473E+05         0.15964E+05         0.00000E+00
    0.00000E+00         0.00000E+00         0.96939E+04
 
    0.30793E+05         0.49256E+05         0.00000E+00
    0.49256E+05         0.16771E+05         0.00000E+00
    0.00000E+00         0.00000E+00         0.95128E+04
 
    0.29046E+05         0.49997E+05         0.00000E+00
    0.49997E+05         0.17592E+05         0.00000E+00
    0.00000E+00         0.00000E+00         0.93276E+04
 
    0.27267E+05         0.50694E+05         0.00000E+00
    0.50694E+05         0.18425E+05         0.00000E+00
    0.00000E+00         0.00000E+00         0.91383E+04
 
    0.25457E+05         0.51348E+05         0.00000E+00
    0.51348E+05         0.19269E+05         0.00000E+00
    0.00000E+00         0.00000E+00         0.89451E+04
 
    0.23616E+05         0.51956E+05         0.00000E+00
    0.51956E+05         0.20123E+05         0.00000E+00
    0.00000E+00         0.00000E+00         0.87480E+04
 
    0.21747E+05         0.52519E+05         0.00000E+00
    0.52519E+05         0.20988E+05         0.00000E+00
    0.00000E+00         0.00000E+00         0.85471E+04
 
    0.19850E+05         0.53035E+05         0.00000E+00
    0.53035E+05         0.21862E+05         0.00000E+00
    0.00000E+00         0.00000E+00         0.83425E+04
 
    0.17927E+05         0.53504E+05         0.00000E+00
    0.53504E+05         0.22744E+05         0.00000E+00
    0.00000E+00         0.00000E+00         0.81342E+04
 
    0.15978E+05         0.53925E+05         0.00000E+00
    0.53925E+05         0.23634E+05         0.00000E+00
    0.00000E+00         0.00000E+00         0.79224E+04
 
    0.14004E+05         0.54298E+05         0.00000E+00
    0.54298E+05         0.24531E+05         0.00000E+00
    0.00000E+00         0.00000E+00         0.77071E+04
 
    0.12008E+05         0.54622E+05         0.00000E+00
    0.54622E+05         0.25434E+05         0.00000E+00
    0.00000E+00         0.00000E+00         0.74884E+04
 
    0.99902E+04         0.54896E+05         0.00000E+00
    0.54896E+05         0.26342E+05         0.00000E+00
    0.00000E+00         0.00000E+00         0.72664E+04
 
    0.79519E+04         0.55120E+05         0.00000E+00
    0.55120E+05         0.27254E+05         0.00000E+00
    0.00000E+00         0.00000E+00         0.70412E+04
 
    0.73610E+05         0.85949E+03         0.00000E+00
    0.85949E+03        -0.91035E+01         0.00000E+00
    0.00000E+00         0.00000E+00         0.14720E+05
 
    0.73560E+05         0.25823E+04         0.00000E+00
    0.25823E+04         0.19598E+02         0.00000E+00
    0.00000E+00         0.00000E+00         0.14716E+05
 
    0.73451E+05         0.43048E+04         0.00000E+00
    0.43048E+04         0.77274E+02         0.00000E+00
    0.00000E+00         0.00000E+00         0.14706E+05
 
    0.73284E+05         0.60258E+04         0.00000E+00
    0.60258E+04         0.16400E+03         0.00000E+00
    0.00000E+00         0.00000E+00         0.14690E+05
 
    0.73059E+05         0.77437E+04         0.00000E+00
    0.77437E+04         0.27982E+03         0.00000E+00
    0.00000E+00         0.00000E+00         0.14668E+05
 
    0.72776E+05         0.94570E+04         0.00000E+00
    0.94570E+04         0.42474E+03         0.00000E+00
    0.00000E+00         0.00000E+00         0.14640E+05
 
    0.72435E+05         0.11165E+05         0.00000E+00
    0.11165E+05         0.59875E+03         0.00000E+00
    0.00000E+00         0.00000E+00         0.14607E+05
 
    0.72035E+05         0.12865E+05         0.00000E+00
    0.12865E+05         0.80179E+03         0.00000E+00
    0.00000E+00         0.00000E+00         0.14567E+05
 
    0.71577E+05         0.14556E+05         0.00000E+00
    0.14556E+05         0.10338E+04         0.00000E+00
    0.00000E+00         0.00000E+00         0.14522E+05
 
    0.71061E+05         0.16237E+05         0.00000E+00
    0.16237E+05         0.12946E+04         0.00000E+00
    0.00000E+00         0.00000E+00         0.14471E+05
 
    0.70487E+05         0.17906E+05         0.00000E+00
    0.17906E+05         0.15842E+04         0.00000E+00
    0.00000E+00         0.00000E+00         0.14414E+05
 
    0.69856E+05         0.19562E+05         0.00000E+00
    0.19562E+05         0.19022E+04         0.00000E+00
    0.00000E+00         0.00000E+00         0.14352E+05
 
    0.69166E+05         0.21204E+05         0.00000E+00
    0.21204E+05         0.22486E+04         0.00000E+00
    0.00000E+00         0.00000E+00         0.14283E+05
 
    0.68420E+05         0.22829E+05         0.00000E+00
    0.22829E+05         0.26231E+04         0.00000E+00
    0.00000E+00         0.00000E+00         0.14209E+05
 
    0.67616E+05         0.24438E+05         0.00000E+00
    0.24438E+05         0.30254E+04         0.00000E+00
    0.00000E+00         0.00000E+00         0.14128E+05
 
    0.66756E+05         0.26027E+05         0.00000E+00
    0.26027E+05         0.34552E+04         0.00000E+00
    0.00000E+00         0.00000E+00         0.14042E+05
 
    0.65839E+05         0.27596E+05         0.00000E+00
    0.27596E+05         0.39123E+04         0.00000E+00
    0.00000E+00         0.00000E+00         0.13950E+05
 
    0.64867E+05         0.29144E+05         0.00000E+00
    0.29144E+05         0.43962E+04         0.00000E+00
    0.00000E+00         0.00000E+00         0.13853E+05
 
    0.63840E+05         0.30668E+05         0.00000E+00
    0.30668E+05         0.49066E+04         0.00000E+00
    0.00000E+00         0.00000E+00         0.13749E+05
 
    0.62758E+05         0.32169E+05         0.00000E+00
    0.32169E+05         0.54432E+04         0.00000E+00
    0.00000E+00         0.00000E+00         0.13640E+05
 
    0.61622E+05         0.33643E+05         0.00000E+00
    0.33643E+05         0.60054E+04         0.00000E+00
    0.00000E+00         0.00000E+00         0.13526E+05
 
    0.60433E+05         0.35091E+05         0.00000E+00
    0.35091E+05         0.65929E+04         0.00000E+00
    0.00000E+00         0.00000E+00         0.13405E+05
 
    0.59190E+05         0.36510E+05         0.00000E+00
    0.36510E+05         0.72051E+04         0.00000E+00
    0.00000E+00         0.00000E+00         0.13279E+05
 
    0.57896E+05         0.37900E+05         0.00000E+00
    0.37900E+05         0.78416E+04         0.00000E+00
    0.00000E+00         0.00000E+00         0.13148E+05
 
    0.56550E+05         0.39259E+05         0.00000E+00
    0.39259E+05         0.85019E+04         0.00000E+00
    0.00000E+00         0.00000E+00         0.13010E+05
 
    0.55154E+05         0.40586E+05         0.00000E+00
    0.40586E+05         0.91854E+04         0.00000E+00
    0.00000E+00         0.00000E+00         0.12868E+05
 
    0.53707E+05         0.41880E+05         0.00000E+00
    0.41880E+05         0.98915E+04         0.00000E+00
    0.00000E+00         0.00000E+00         0.12720E+05
 
    0.52212E+05         0.43139E+05         0.00000E+00
    0.43139E+05         0.10620E+05         0.00000E+00
    0.00000E+00         0.00000E+00         0.12566E+05
 
    0.50668E+05         0.44363E+05         0.00000E+00
    0.44363E+05         0.11369E+05         0.00000E+00
    0.00000E+00         0.00000E+00         0.12408E+05
 
    0.49078E+05         0.45549E+05         0.00000E+00
    0.45549E+05         0.12140E+05         0.00000E+00
    0.00000E+00         0.00000E+00         0.12243E+05
 
    0.47441E+05         0.46698E+05         0.00000E+00
    0.46698E+05         0.12930E+05         0.00000E+00
    0.00000E+00         0.00000E+00         0.12074E+05
 
    0.45758E+05         0.47808E+05         0.00000E+00
    0.47808E+05         0.13741E+05         0.00000E+00
    0.00000E+00         0.00000E+00         0.11900E+05
 
    0.44032E+05         0.48877E+05         0.00000E+00
    0.48877E+05         0.14570E+05         0.00000E+00
    0.00000E+00         0.00000E+00         0.11720E+05
 
    0.42261E+05         0.49906E+05         0.00000E+00
    0.49906E+05         0.15417E+05         0.00000E+00
    0.00000E+00         0.00000E+00         0.11536E+05
 
    0.40449E+05         0.50891E+05         0.00000E+00
    0.50891E+05         0.16282E+05         0.00000E+00
    0.00000E+00         0.00000E+00         0.11346E+05
 
    0.38596E+05         0.51834E+05         0.00000E+00
    0.51834E+05         0.17163E+05         0.00000E+00
    0.00000E+00         0.00000E+00         0.11152E+05
 
    0.36702E+05         0.52733E+05         0.00000E+00
    0.52733E+05         0.18060E+05         0.00000E+00
    0.00000E+00         0.00000E+00         0.10952E+05
 
    0.34769E+05         0.53586E+05         0.00000E+00
    0.53586E+05         0.18973E+05         0.00000E+00
    0.00000E+00         0.00000E+00         0.10748E+05
 
    0.32799E+05         0.54393E+05         0.00000E+00
    0.54393E+05         0.19900E+05         0.00000E+00
    0.00000E+00         0.00000E+00         0.10540E+05
 
    0.30792E+05         0.55153E+05         0.00000E+00
    0.55153E+05         0.20841E+05         0.00000E+00
    0.00000E+00         0.00000E+00         0.10327E+05
 
    0.28750E+05         0.55864E+05         0.00000E+00
    0.55864E+05         0.21794E+05         0.00000E+00
    0.00000E+00         0.00000E+00         0.10109E+05
 
    0.26673E+05         0.56528E+05         0.00000E+00
    0.56528E+05         0.22760E+05         0.00000E+00
    0.00000E+00         0.00000E+00         0.98865E+04
 
    0.24564E+05         0.57141E+05         0.00000E+00
    0.57141E+05         0.23736E+05         0.00000E+00
    0.00000E+00         0.00000E+00         0.96600E+04
 
    0.22423E+05         0.57704E+05         0.00000E+00
    0.57704E+05         0.24723E+05         0.00000E+00
    0.00000E+00         0.00000E+00         0.94292E+04
 
    0.20251E+05         0.58216E+05         0.00000E+00
    0.58216E+05         0.25720E+05         0.00000E+00
    0.00000E+00         0.00000E+00         0.91942E+04
 
    0.18051E+05         0.58675E+05         0.00000E+00
    0.58675E+05         0.26725E+05         0.00000E+00
    0.00000E+00         0.00000E+00         0.89552E+04
 
    0.15823E+05         0.59082E+05         0.00000E+00
    0.59082E+05         0.27738E+05         0.00000E+00
    0.00000E+00         0.00000E+00         0.87122E+04
 
    0.13570E+05         0.59436E+05         0.00000E+00
    0.59436E+05         0.28757E+05         0.00000E+00
    0.00000E+00         0.00000E+00         0.84653E+04
 
    0.11291E+05         0.59735E+05         0.00000E+00
    0.59735E+05         0.29783E+05         0.00000E+00
    0.00000E+00         0.00000E+00         0.82147E+04
 
    0.89890E+04         0.59980E+05         0.00000E+00
    0.59980E+05         0.30813E+05         0.00000E+00
    0.00000E+00         0.00000E+00         0.79604E+04
 
    0.82599E+05         0.93552E+03         0.00000E+00
    0.93552E+03        -0.10289E+02         0.00000E+00
    0.00000E+00         0.00000E+00         0.16518E+05
 
    0.82552E+05         0.28120E+04         0.00000E+00
    0.28120E+04         0.22118E+02         0.00000E+00
    0.00000E+00         0.00000E+00         0.16515E+05
 
    0.82440E+05         0.46889E+04         0.00000E+00
    0.46889E+04         0.87271E+02         0.00000E+00
    0.00000E+00         0.00000E+00         0.16505E+05
 
    0.82262E+05         0.65644E+04         0.00000E+00
    0.65644E+04         0.18526E+03         0.00000E+00
    0.00000E+00         0.00000E+00         0.16489E+05
 
    0.82019E+05         0.84370E+04         0.00000E+00
    0.84370E+04         0.31615E+03         0.00000E+00
    0.00000E+00         0.00000E+00         0.16467E+05
 
    0.81709E+05         0.10305E+05         0.00000E+00
    0.10305E+05         0.47994E+03         0.00000E+00
    0.00000E+00         0.00000E+00         0.16438E+05
 
    0.81334E+05         0.12167E+05         0.00000E+00
    0.12167E+05         0.67662E+03         0.00000E+00
    0.00000E+00         0.00000E+00         0.16402E+05
 
    0.80893E+05         0.14021E+05         0.00000E+00
    0.14021E+05         0.90612E+03         0.00000E+00
    0.00000E+00         0.00000E+00         0.16360E+05
 
    0.80385E+05         0.15866E+05         0.00000E+00
    0.15866E+05         0.11684E+04         0.00000E+00
    0.00000E+00         0.00000E+00         0.16311E+05
 
    0.79813E+05         0.17700E+05         0.00000E+00
    0.17700E+05         0.14632E+04         0.00000E+00
    0.00000E+00         0.00000E+00         0.16255E+05
 
    0.79174E+05         0.19522E+05         0.00000E+00
    0.19522E+05         0.17905E+04         0.00000E+00
    0.00000E+00         0.00000E+00         0.16193E+05
 
    0.78470E+05         0.21329E+05         0.00000E+00
    0.21329E+05         0.21500E+04         0.00000E+00
    0.00000E+00         0.00000E+00         0.16124E+05
 
    0.77701E+05         0.23121E+05         0.00000E+00
    0.23121E+05         0.25414E+04         0.00000E+00
    0.00000E+00         0.00000E+00         0.16049E+05
 
    0.76868E+05         0.24895E+05         0.00000E+00
    0.24895E+05         0.29646E+04         0.00000E+00
    0.00000E+00         0.00000E+00         0.15966E+05
 
    0.75970E+05         0.26650E+05         0.00000E+00
    0.26650E+05         0.34192E+04         0.00000E+00
    0.00000E+00         0.00000E+00         0.15878E+05
 
    0.75008E+05         0.28385E+05         0.00000E+00
    0.28385E+05         0.39049E+04         0.00000E+00
    0.00000E+00         0.00000E+00         0.15783E+05
 
    0.73982E+05         0.30098E+05         0.00000E+00
    0.30098E+05         0.44212E+04         0.00000E+00
    0.00000E+00         0.00000E+00         0.15681E+05
 
    0.72894E+05         0.31787E+05         0.00000E+00
    0.31787E+05         0.49679E+04         0.00000E+00
    0.00000E+00         0.00000E+00         0.15572E+05
 
    0.71743E+05         0.33451E+05         0.00000E+00
    0.33451E+05         0.55444E+04         0.00000E+00
    0.00000E+00         0.00000E+00         0.15458E+05
 
    0.70531E+05         0.35089E+05         0.00000E+00
    0.35089E+05         0.61502E+04         0.00000E+00
    0.00000E+00         0.00000E+00         0.15336E+05
 
    0.69257E+05         0.36699E+05         0.00000E+00
    0.36699E+05         0.67850E+04         0.00000E+00
    0.00000E+00         0.00000E+00         0.15208E+05
 
    0.67924E+05         0.38279E+05         0.00000E+00
    0.38279E+05         0.74482E+04         0.00000E+00
    0.00000E+00         0.00000E+00         0.15074E+05
 
    0.66530E+05         0.39828E+05         0.00000E+00
    0.39828E+05         0.81391E+04         0.00000E+00
    0.00000E+00         0.00000E+00         0.14934E+05
 
    0.65078E+05         0.41345E+05         0.00000E+00
    0.41345E+05         0.88574E+04         0.00000E+00
    0.00000E+00         0.00000E+00         0.14787E+05
 
    0.63568E+05         0.42829E+05         0.00000E+00
    0.42829E+05         0.96023E+04         0.00000E+00
    0.00000E+00         0.00000E+00         0.14634E+05
 
    0.62000E+05         0.44277E+05         0.00000E+00
    0.44277E+05         0.10373E+05         0.00000E+00
    0.00000E+00         0.00000E+00         0.14475E+05
 
    0.60377E+05         0.45690E+05         0.00000E+00
    0.45690E+05         0.11170E+05         0.00000E+00
    0.00000E+00         0.00000E+00         0.14309E+05
 
    0.58698E+05         0.47064E+05         0.00000E+00
    0.47064E+05         0.11991E+05         0.00000E+00
    0.00000E+00         0.00000E+00         0.14138E+05
 
    0.56965E+05         0.48400E+05         0.00000E+00
    0.48400E+05         0.12836E+05         0.00000E+00
    0.00000E+00         0.00000E+00         0.13960E+05
 
    0.55179E+05         0.49695E+05         0.00000E+00
    0.49695E+05         0.13704E+05         0.00000E+00
    0.00000E+00         0.00000E+00         0.13777E+05
 
    0.53341E+05         0.50949E+05         0.00000E+00
    0.50949E+05         0.14595E+05         0.00000E+00
    0.00000E+00         0.00000E+00         0.13587E+05
 
    0.51451E+05         0.52160E+05         0.00000E+00
    0.52160E+05         0.15508E+05         0.00000E+00
    0.00000E+00         0.00000E+00         0.13392E+05
 
    0.49512E+05         0.53327E+05         0.00000E+00
    0.53327E+05         0.16442E+05         0.00000E+00
    0.00000E+00         0.00000E+00         0.13191E+05
 
    0.47523E+05         0.54450E+05         0.00000E+00
    0.54450E+05         0.17396E+05         0.00000E+00
    0.00000E+00         0.00000E+00         0.12984E+05
 
    0.45488E+05         0.55526E+05         0.00000E+00
    0.55526E+05         0.18370E+05         0.00000E+00
    0.00000E+00         0.00000E+00         0.12772E+05
 
    0.43405E+05         0.56555E+05         0.00000E+00
    0.56555E+05         0.19362E+05         0.00000E+00
    0.00000E+00         0.00000E+00         0.12554E+05
 
    0.41278E+05         0.57536E+05         0.00000E+00
    0.57536E+05         0.20373E+05         0.00000E+00
    0.00000E+00         0.00000E+00         0.12330E+05
 
    0.39107E+05         0.58467E+05         0.00000E+00
    0.58467E+05         0.21400E+05         0.00000E+00
    0.00000E+00         0.00000E+00         0.12101E+05
 
    0.36893E+05         0.59349E+05         0.00000E+00
    0.59349E+05         0.22443E+05         0.00000E+00
    0.00000E+00         0.00000E+00         0.11867E+05
 
    0.34638E+05         0.60178E+05         0.00000E+00
    0.60178E+05         0.23502E+05         0.00000E+00
    0.00000E+00         0.00000E+00         0.11628E+05
 
    0.32342E+05         0.60956E+05         0.00000E+00
    0.60956E+05         0.24574E+05         0.00000E+00
    0.00000E+00         0.00000E+00         0.11383E+05
 
    0.30009E+05         0.61680E+05         0.00000E+00
    0.61680E+05         0.25661E+05         0.00000E+00
    0.00000E+00         0.00000E+00         0.11134E+05
 
    0.27638E+05         0.62351E+05         0.00000E+00
    0.62351E+05         0.26759E+05         0.00000E+00
    0.00000E+00         0.00000E+00         0.10879E+05
 
    0.25231E+05         0.62966E+05         0.00000E+00
    0.62966E+05         0.27870E+05         0.00000E+00
    0.00000E+00         0.00000E+00         0.10620E+05
 
    0.22791E+05         0.63525E+05         0.00000E+00
    0.63525E+05         0.28991E+05         0.00000E+00
    0.00000E+00         0.00000E+00         0.10356E+05
 
    0.20317E+05         0.64028E+05         0.00000E+00
    0.64028E+05         0.30121E+05         0.00000E+00
    0.00000E+00         0.00000E+00         0.10088E+05
 
    0.17812E+05         0.64474E+05         0.00000E+00
    0.64474E+05         0.31260E+05         0.00000E+00
    0.00000E+00         0.00000E+00         0.98146E+04
 
    0.15278E+05         0.64861E+05         0.00000E+00
    0.64861E+05         0.32407E+05         0.00000E+00
    0.00000E+00         0.00000E+00         0.95370E+04
 
    0.12715E+05         0.65189E+05         0.00000E+00
    0.65189E+05         0.33561E+05         0.00000E+00
    0.00000E+00         0.00000E+00         0.92552E+04
 
    0.10126E+05         0.65458E+05         0.00000E+00
    0.65458E+05         0.34720E+05         0.00000E+00
    0.00000E+00         0.00000E+00         0.89692E+04
 
    0.92403E+05         0.10213E+04         0.00000E+00
    0.10213E+04        -0.11625E+02         0.00000E+00
    0.00000E+00         0.00000E+00         0.18478E+05
 
    0.92364E+05         0.30715E+04         0.00000E+00
    0.30715E+04         0.24964E+02         0.00000E+00
    0.00000E+00         0.00000E+00         0.18478E+05
 
    0.92250E+05         0.51227E+04         0.00000E+00
    0.51227E+04         0.98550E+02         0.00000E+00
    0.00000E+00         0.00000E+00         0.18470E+05
 
    0.92063E+05         0.71729E+04         0.00000E+00
    0.71729E+04         0.20924E+03         0.00000E+00
    0.00000E+00         0.00000E+00         0.18454E+05
 
    0.91801E+05         0.92204E+04         0.00000E+00
    0.92204E+04         0.35710E+03         0.00000E+00
    0.00000E+00         0.00000E+00         0.18432E+05
 
    0.91465E+05         0.11263E+05         0.00000E+00
    0.11263E+05         0.54214E+03         0.00000E+00
    0.00000E+00         0.00000E+00         0.18401E+05
 
    0.91054E+05         0.13300E+05         0.00000E+00
    0.13300E+05         0.76434E+03         0.00000E+00
    0.00000E+00         0.00000E+00         0.18364E+05
 
    0.90569E+05         0.15329E+05         0.00000E+00
    0.15329E+05         0.10236E+04         0.00000E+00
    0.00000E+00         0.00000E+00         0.18318E+05
 
    0.90009E+05         0.17347E+05         0.00000E+00
    0.17347E+05         0.13199E+04         0.00000E+00
    0.00000E+00         0.00000E+00         0.18266E+05
 
    0.89375E+05         0.19354E+05         0.00000E+00
    0.19354E+05         0.16529E+04         0.00000E+00
    0.00000E+00         0.00000E+00         0.18206E+05
 
    0.88667E+05         0.21347E+05         0.00000E+00
    0.21347E+05         0.20225E+04         0.00000E+00
    0.00000E+00         0.00000E+00         0.18138E+05
 
    0.87885E+05         0.23325E+05         0.00000E+00
    0.23325E+05         0.24285E+04         0.00000E+00
    0.00000E+00         0.00000E+00         0.18063E+05
 
    0.87030E+05         0.25285E+05         0.00000E+00
    0.25285E+05         0.28705E+04         0.00000E+00
    0.00000E+00         0.00000E+00         0.17980E+05
 
    0.86101E+05         0.27227E+05         0.00000E+00
    0.27227E+05         0.33483E+04         0.00000E+00
    0.00000E+00         0.00000E+00         0.17890E+05
 
    0.85100E+05         0.29148E+05         0.00000E+00
    0.29148E+05         0.38614E+04         0.00000E+00
    0.00000E+00         0.00000E+00         0.17792E+05
 
    0.84027E+05         0.31047E+05         0.00000E+00
    0.31047E+05         0.44095E+04         0.00000E+00
    0.00000E+00         0.00000E+00         0.17687E+05
 
    0.82883E+05         0.32921E+05         0.00000E+00
    0.32921E+05         0.49921E+04         0.00000E+00
    0.00000E+00         0.00000E+00         0.17575E+05
 
    0.81667E+05         0.34770E+05         0.00000E+00
    0.34770E+05         0.56087E+04         0.00000E+00
    0.00000E+00         0.00000E+00         0.17455E+05
 
    0.80381E+05         0.36591E+05         0.00000E+00
    0.36591E+05         0.62588E+04         0.00000E+00
    0.00000E+00         0.00000E+00         0.17328E+05
 
    0.79026E+05         0.38383E+05         0.00000E+00
    0.38383E+05         0.69419E+04         0.00000E+00
    0.00000E+00         0.00000E+00         0.17194E+05
 
    0.77602E+05         0.40145E+05         0.00000E+00
    0.40145E+05         0.76574E+04         0.00000E+00
    0.00000E+00         0.00000E+00         0.17052E+05
 
    0.76110E+05         0.41874E+05         0.00000E+00
    0.41874E+05         0.84047E+04         0.00000E+00
    0.00000E+00         0.00000E+00         0.16903E+05
 
    0.74551E+05         0.43569E+05         0.00000E+00
    0.43569E+05         0.91831E+04         0.00000E+00
    0.00000E+00         0.00000E+00         0.16747E+05
 
    0.72926E+05         0.45229E+05         0.00000E+00
    0.45229E+05         0.99920E+04         0.00000E+00
    0.00000E+00         0.00000E+00         0.16584E+05
 
    0.71236E+05         0.46851E+05         0.00000E+00
    0.46851E+05         0.10831E+05         0.00000E+00
    0.00000E+00         0.00000E+00         0.16413E+05
 
    0.69482E+05         0.48436E+05         0.00000E+00
    0.48436E+05         0.11699E+05         0.00000E+00
    0.00000E+00         0.00000E+00         0.16236E+05
 
    0.67665E+05         0.49980E+05         0.00000E+00
    0.49980E+05         0.12595E+05         0.00000E+00
    0.00000E+00         0.00000E+00         0.16052E+05
 
    0.65785E+05         0.51483E+05         0.00000E+00
    0.51483E+05         0.13518E+05         0.00000E+00
    0.00000E+00         0.00000E+00         0.15861E+05
 
    0.63845E+05         0.52944E+05         0.00000E+00
    0.52944E+05         0.14469E+05         0.00000E+00
    0.00000E+00         0.00000E+00         0.15663E+05
 
    0.61845E+05         0.54361E+05         0.00000E+00
    0.54361E+05         0.15445E+05         0.00000E+00
    0.00000E+00         0.00000E+00         0.15458E+05
 
    0.59787E+05         0.55732E+05         0.00000E+00
    0.55732E+05         0.16447E+05         0.00000E+00
    0.00000E+00         0.00000E+00         0.15247E+05
 
    0.57671E+05         0.57056E+05         0.00000E+00
    0.57056E+05         0.17473E+05         0.00000E+00
    0.00000E+00         0.00000E+00         0.15029E+05
 
    0.55499E+05         0.58332E+05         0.00000E+00
    0.58332E+05         0.18522E+05         0.00000E+00
    0.00000E+00         0.00000E+00         0.14804E+05
 
    0.53273E+05         0.59560E+05         0.00000E+00
    0.59560E+05         0.19594E+05         0.00000E+00
    0.00000E+00         0.00000E+00         0.14573E+05
 
    0.50993E+05         0.60737E+05         0.00000E+00
    0.60737E+05         0.20687E+05         0.00000E+00
    0.00000E+00         0.00000E+00         0.14336E+05
 
    0.48661E+05         0.61862E+05         0.00000E+00
    0.61862E+05         0.21801E+05         0.00000E+00
    0.00000E+00         0.00000E+00         0.14092E+05
 
    0.46278E+05         0.62934E+05         0.00000E+00
    0.62934E+05         0.22935E+05         0.00000E+00
    0.00000E+00         0.00000E+00         0.13843E+05
 
    0.43847E+05         0.63953E+05         0.00000E+00
    0.63953E+05         0.24088E+05         0.00000E+00
    0.00000E+00         0.00000E+00         0.13587E+05
 
    0.41367E+05         0.64917E+05         0.00000E+00
    0.64917E+05         0.25259E+05         0.00000E+00
    0.00000E+00         0.00000E+00         0.13325E+05
 
    0.38841E+05         0.65824E+05         0.00000E+00
    0.65824E+05         0.26446E+05         0.00000E+00
    0.00000E+00         0.00000E+00         0.13058E+05
 
    0.36271E+05         0.66675E+05         0.00000E+00
    0.66675E+05         0.27650E+05         0.00000E+00
    0.00000E+00         0.00000E+00         0.12784E+05
 
    0.33657E+05         0.67468E+05         0.00000E+00
    0.67468E+05         0.28868E+05         0.00000E+00
    0.00000E+00         0.00000E+00         0.12505E+05
 
    0.31001E+05         0.68201E+05         0.00000E+00
    0.68201E+05         0.30100E+05         0.00000E+00
    0.00000E+00         0.00000E+00         0.12220E+05
 
    0.28305E+05         0.68875E+05         0.00000E+00
    0.68875E+05         0.31345E+05         0.00000E+00
    0.00000E+00         0.00000E+00         0.11930E+05
 
    0.25570E+05         0.69488E+05         0.00000E+00
    0.69488E+05         0.32602E+05         0.00000E+00
    0.00000E+00         0.00000E+00         0.11634E+05
 
    0.22799E+05         0.70039E+05         0.00000E+00
    0.70039E+05         0.33869E+05         0.00000E+00
    0.00000E+00         0.00000E+00         0.11334E+05
 
    0.19992E+05         0.70527E+05         0.00000E+00
    0.70527E+05         0.35146E+05         0.00000E+00
    0.00000E+00         0.00000E+00         0.11028E+05
 
    0.17152E+05         0.70952E+05         0.00000E+00
    0.70952E+05         0.36432E+05         0.00000E+00
    0.00000E+00         0.00000E+00         0.10717E+05
 
    0.14280E+05         0.71313E+05         0.00000E+00
    0.71313E+05         0.37725E+05         0.00000E+00
    0.00000E+00         0.00000E+00         0.10401E+05
 
    0.11377E+05         0.71609E+05         0.00000E+00
    0.71609E+05         0.39024E+05         0.00000E+00
    0.00000E+00         0.00000E+00         0.10080E+05
 
    0.10313E+06         0.11182E+04         0.00000E+00
    0.11182E+04        -0.13146E+02         0.00000E+00
    0.00000E+00         0.00000E+00         0.20623E+05
 
    0.10310E+06         0.33648E+04         0.00000E+00
    0.33648E+04         0.28217E+02         0.00000E+00
    0.00000E+00         0.00000E+00         0.20626E+05
 
    0.10299E+06         0.56129E+04         0.00000E+00
    0.56129E+04         0.11142E+03         0.00000E+00
    0.00000E+00         0.00000E+00         0.20620E+05
 
    0.10279E+06         0.78606E+04         0.00000E+00
    0.78606E+04         0.23658E+03         0.00000E+00
    0.00000E+00         0.00000E+00         0.20606E+05
 
    0.10251E+06         0.10106E+05         0.00000E+00
    0.10106E+05         0.40376E+03         0.00000E+00
    0.00000E+00         0.00000E+00         0.20583E+05
 
    0.10215E+06         0.12346E+05         0.00000E+00
    0.12346E+05         0.61298E+03         0.00000E+00
    0.00000E+00         0.00000E+00         0.20553E+05
 
    0.10170E+06         0.14580E+05         0.00000E+00
    0.14580E+05         0.86418E+03         0.00000E+00
    0.00000E+00         0.00000E+00         0.20513E+05
 
    0.10117E+06         0.16806E+05         0.00000E+00
    0.16806E+05         0.11573E+04         0.00000E+00
    0.00000E+00         0.00000E+00         0.20465E+05
 
    0.10055E+06         0.19020E+05         0.00000E+00
    0.19020E+05         0.14921E+04         0.00000E+00
    0.00000E+00         0.00000E+00         0.20409E+05
 
    0.99853E+05         0.21222E+05         0.00000E+00
    0.21222E+05         0.18684E+04         0.00000E+00
    0.00000E+00         0.00000E+00         0.20344E+05
 
    0.99069E+05         0.23408E+05         0.00000E+00
    0.23408E+05         0.22860E+04         0.00000E+00
    0.00000E+00         0.00000E+00         0.20271E+05
 
    0.98202E+05         0.25578E+05         0.00000E+00
    0.25578E+05         0.27445E+04         0.00000E+00
    0.00000E+00         0.00000E+00         0.20189E+05
 
    0.97252E+05         0.27729E+05         0.00000E+00
    0.27729E+05         0.32437E+04         0.00000E+00
    0.00000E+00         0.00000E+00         0.20099E+05
 
    0.96220E+05         0.29859E+05         0.00000E+00
    0.29859E+05         0.37830E+04         0.00000E+00
    0.00000E+00         0.00000E+00         0.20001E+05
 
    0.95105E+05         0.31967E+05         0.00000E+00
    0.31967E+05         0.43621E+04         0.00000E+00
    0.00000E+00         0.00000E+00         0.19893E+05
 
    0.93910E+05         0.34049E+05         0.00000E+00
    0.34049E+05         0.49804E+04         0.00000E+00
    0.00000E+00         0.00000E+00         0.19778E+05
 
    0.92634E+05         0.36105E+05         0.00000E+00
    0.36105E+05         0.56375E+04         0.00000E+00
    0.00000E+00         0.00000E+00         0.19654E+05
 
    0.91279E+05         0.38133E+05         0.00000E+00
    0.38133E+05         0.63327E+04         0.00000E+00
    0.00000E+00         0.00000E+00         0.19522E+05
 
    0.89844E+05         0.40130E+05         0.00000E+00
    0.40130E+05         0.70655E+04         0.00000E+00
    0.00000E+00         0.00000E+00         0.19382E+05
 
    0.88332E+05         0.42095E+05         0.00000E+00
    0.42095E+05         0.78351E+04         0.00000E+00
    0.00000E+00         0.00000E+00         0.19233E+05
 
    0.86742E+05         0.44026E+05         0.00000E+00
    0.44026E+05         0.86409E+04         0.00000E+00
    0.00000E+00         0.00000E+00         0.19077E+05
 
    0.85076E+05         0.45922E+05         0.00000E+00
    0.45922E+05         0.94822E+04         0.00000E+00
    0.00000E+00         0.00000E+00         0.18912E+05
 
    0.83335E+05         0.47779E+05         0.00000E+00
    0.47779E+05         0.10358E+05         0.00000E+00
    0.00000E+00         0.00000E+00         0.18739E+05
 
    0.81520E+05         0.49598E+05         0.00000E+00
    0.49598E+05         0.11268E+05         0.00000E+00
    0.00000E+00         0.00000E+00         0.18558E+05
 
    0.79632E+05         0.51376E+05         0.00000E+00
    0.51376E+05         0.12212E+05         0.00000E+00
    0.00000E+00         0.00000E+00         0.18369E+05
 
    0.77672E+05         0.53112E+05         0.00000E+00
    0.53112E+05         0.13187E+05         0.00000E+00
    0.00000E+00         0.00000E+00         0.18172E+05
 
    0.75641E+05         0.54804E+05         0.00000E+00
    0.54804E+05         0.14194E+05         0.00000E+00
    0.00000E+00         0.00000E+00         0.17967E+05
 
    0.73542E+05         0.56450E+05         0.00000E+00
    0.56450E+05         0.15232E+05         0.00000E+00
    0.00000E+00         0.00000E+00         0.17755E+05
 
    0.71374E+05         0.58050E+05         0.00000E+00
    0.58050E+05         0.16299E+05         0.00000E+00
    0.00000E+00         0.00000E+00         0.17535E+05
 
    0.69139E+05         0.59601E+05         0.00000E+00
    0.59601E+05         0.17395E+05         0.00000E+00
    0.00000E+00         0.00000E+00         0.17307E+05
 
    0.66840E+05         0.61102E+05         0.00000E+00
    0.61102E+05         0.18519E+05         0.00000E+00
    0.00000E+00         0.00000E+00         0.17072E+05
 
    0.64476E+05         0.62552E+05         0.00000E+00
    0.62552E+05         0.19669E+05         0.00000E+00
    0.00000E+00         0.00000E+00         0.16829E+05
 
    0.62050E+05         0.63949E+05         0.00000E+00
    0.63949E+05         0.20846E+05         0.00000E+00
    0.00000E+00         0.00000E+00         0.16579E+05
 
    0.59562E+05         0.65292E+05         0.00000E+00
    0.65292E+05         0.22047E+05         0.00000E+00
    0.00000E+00         0.00000E+00         0.16322E+05
 
    0.57015E+05         0.66580E+05         0.00000E+00
    0.66580E+05         0.23272E+05         0.00000E+00
    0.00000E+00         0.00000E+00         0.16058E+05
 
    0.54411E+05         0.67812E+05         0.00000E+00
    0.67812E+05         0.24520E+05         0.00000E+00
    0.00000E+00         0.00000E+00         0.15786E+05
 
    0.51749E+05         0.68986E+05         0.00000E+00
    0.68986E+05         0.25790E+05         0.00000E+00
    0.00000E+00         0.00000E+00         0.15508E+05
 
    0.49033E+05         0.70101E+05         0.00000E+00
    0.70101E+05         0.27081E+05         0.00000E+00
    0.00000E+00         0.00000E+00         0.15223E+05
 
    0.46263E+05         0.71156E+05         0.00000E+00
    0.71156E+05         0.28391E+05         0.00000E+00
    0.00000E+00         0.00000E+00         0.14931E+05
 
    0.43442E+05         0.72149E+05         0.00000E+00
    0.72149E+05         0.29720E+05         0.00000E+00
    0.00000E+00         0.00000E+00         0.14632E+05
 
    0.40570E+05         0.73081E+05         0.00000E+00
    0.73081E+05         0.31066E+05         0.00000E+00
    0.00000E+00         0.00000E+00         0.14327E+05
 
    0.37650E+05         0.73949E+05         0.00000E+00
    0.73949E+05         0.32429E+05         0.00000E+00
    0.00000E+00         0.00000E+00         0.14016E+05
 
    0.34684E+05         0.74752E+05         0.00000E+00
    0.74752E+05         0.33806E+05         0.00000E+00
    0.00000E+00         0.00000E+00         0.13698E+05
 
    0.31672E+05         0.75491E+05         0.00000E+00
    0.75491E+05         0.35198E+05         0.00000E+00
    0.00000E+00         0.00000E+00         0.13374E+05
 
    0.28617E+05         0.76163E+05         0.00000E+00
    0.76163E+05         0.36603E+05         0.00000E+00
    0.00000E+00         0.00000E+00         0.13044E+05
 
    0.25521E+05         0.76767E+05         0.00000E+00
    0.76767E+05         0.38020E+05         0.00000E+00
    0.00000E+00         0.00000E+00         0.12708E+05
 
    0.22385E+05         0.77303E+05         0.00000E+00
    0.77303E+05         0.39448E+05         0.00000E+00
    0.00000E+00         0.00000E+00         0.12367E+05
 
    0.19211E+05         0.77770E+05         0.00000E+00
    0.77770E+05         0.40885E+05         0.00000E+00
    0.00000E+00         0.00000E+00         0.12019E+05
 
    0.16002E+05         0.78168E+05         0.00000E+00
    0.78168E+05         0.42330E+05         0.00000E+00
    0.00000E+00         0.00000E+00         0.11666E+05
 
    0.12758E+05         0.78494E+05         0.00000E+00
    0.78494E+05         0.43782E+05         0.00000E+00
    0.00000E+00         0.00000E+00         0.11308E+05
 
    0.11490E+06         0.12279E+04         0.00000E+00
    0.12279E+04        -0.14894E+02         0.00000E+00
    0.00000E+00         0.00000E+00         0.22977E+05
 
    0.11489E+06         0.36966E+04         0.00000E+00
    0.36966E+04         0.31981E+02         0.00000E+00
    0.00000E+00         0.00000E+00         0.22983E+05
 
    0.11478E+06         0.61677E+04         0.00000E+00
    0.61677E+04         0.12626E+03         0.00000E+00
    0.00000E+00         0.00000E+00         0.22981E+05
 
    0.11458E+06         0.86388E+04         0.00000E+00
    0.86388E+04         0.26807E+03         0.00000E+00
    0.00000E+00         0.00000E+00         0.22969E+05
 
    0.11428E+06         0.11108E+05         0.00000E+00
    0.11108E+05         0.45747E+03         0.00000E+00
    0.00000E+00         0.00000E+00         0.22947E+05
 
    0.11389E+06         0.13572E+05         0.00000E+00
    0.13572E+05         0.69445E+03         0.00000E+00
    0.00000E+00         0.00000E+00         0.22916E+05
 
    0.11340E+06         0.16028E+05         0.00000E+00
    0.16028E+05         0.97892E+03         0.00000E+00
    0.00000E+00         0.00000E+00         0.22875E+05
 
    0.11281E+06         0.18476E+05         0.00000E+00
    0.18476E+05         0.13107E+04         0.00000E+00
    0.00000E+00         0.00000E+00         0.22825E+05
 
    0.11214E+06         0.20912E+05         0.00000E+00
    0.20912E+05         0.16897E+04         0.00000E+00
    0.00000E+00         0.00000E+00         0.22765E+05
 
    0.11136E+06         0.23333E+05         0.00000E+00
    0.23333E+05         0.21155E+04         0.00000E+00
    0.00000E+00         0.00000E+00         0.22696E+05
 
    0.11050E+06         0.25738E+05         0.00000E+00
    0.25738E+05         0.25878E+04         0.00000E+00
    0.00000E+00         0.00000E+00         0.22617E+05
 
    0.10953E+06         0.28124E+05         0.00000E+00
    0.28124E+05         0.31063E+04         0.00000E+00
    0.00000E+00         0.00000E+00         0.22528E+05
 
    0.10848E+06         0.30489E+05         0.00000E+00
    0.30489E+05         0.36704E+04         0.00000E+00
    0.00000E+00         0.00000E+00         0.22430E+05
 
    0.10733E+06         0.32832E+05         0.00000E+00
    0.32832E+05         0.42798E+04         0.00000E+00
    0.00000E+00         0.00000E+00         0.22322E+05
 
    0.10609E+06         0.35148E+05         0.00000E+00
    0.35148E+05         0.49338E+04         0.00000E+00
    0.00000E+00         0.00000E+00         0.22205E+05
 
    0.10476E+06         0.37437E+05         0.00000E+00
    0.37437E+05         0.56317E+04         0.00000E+00
    0.00000E+00         0.00000E+00         0.22079E+05
 
    0.10334E+06         0.39697E+05         0.00000E+00
    0.39697E+05         0.63731E+04         0.00000E+00
    0.00000E+00         0.00000E+00         0.21943E+05
 
    0.10183E+06         0.41924E+05         0.00000E+00
    0.41924E+05         0.71571E+04         0.00000E+00
    0.00000E+00         0.00000E+00         0.21797E+05
 
    0.10023E+06         0.44118E+05         0.00000E+00
    0.44118E+05         0.79831E+04         0.00000E+00
    0.00000E+00         0.00000E+00         0.21642E+05
 
    0.98542E+05         0.46276E+05         0.00000E+00
    0.46276E+05         0.88503E+04         0.00000E+00
    0.00000E+00         0.00000E+00         0.21478E+05
 
    0.96769E+05         0.48396E+05         0.00000E+00
    0.48396E+05         0.97578E+04         0.00000E+00
    0.00000E+00         0.00000E+00         0.21305E+05
 
    0.94910E+05         0.50477E+05         0.00000E+00
    0.50477E+05         0.10705E+05         0.00000E+00
    0.00000E+00         0.00000E+00         0.21123E+05
 
    0.92967E+05         0.52516E+05         0.00000E+00
    0.52516E+05         0.11690E+05         0.00000E+00
    0.00000E+00         0.00000E+00         0.20932E+05
 
    0.90942E+05         0.54512E+05         0.00000E+00
    0.54512E+05         0.12714E+05         0.00000E+00
    0.00000E+00         0.00000E+00         0.20731E+05
 
    0.88835E+05         0.56462E+05         0.00000E+00
    0.56462E+05         0.13774E+05         0.00000E+00
    0.00000E+00         0.00000E+00         0.20522E+05
 
    0.86648E+05         0.58366E+05         0.00000E+00
    0.58366E+05         0.14869E+05         0.00000E+00
    0.00000E+00         0.00000E+00         0.20304E+05
 
    0.84383E+05         0.60221E+05         0.00000E+00
    0.60221E+05         0.16000E+05         0.00000E+00
    0.00000E+00         0.00000E+00         0.20077E+05
 
    0.82040E+05         0.62025E+05         0.00000E+00
    0.62025E+05         0.17164E+05         0.00000E+00
    0.00000E+00         0.00000E+00         0.19841E+05
 
    0.79621E+05         0.63778E+05         0.00000E+00
    0.63778E+05         0.18361E+05         0.00000E+00
    0.00000E+00         0.00000E+00         0.19597E+05
 
    0.77129E+05         0.65477E+05         0.00000E+00
    0.65477E+05         0.19590E+05         0.00000E+00
    0.00000E+00         0.00000E+00         0.19344E+05
 
    0.74564E+05         0.67122E+05         0.00000E+00
    0.67122E+05         0.20849E+05         0.00000E+00
    0.00000E+00         0.00000E+00         0.19083E+05
 
    0.71927E+05         0.68710E+05         0.00000E+00
    0.68710E+05         0.22138E+05         0.00000E+00
    0.00000E+00         0.00000E+00         0.18813E+05
 
    0.69221E+05         0.70240E+05         0.00000E+00
    0.70240E+05         0.23455E+05         0.00000E+00
    0.00000E+00         0.00000E+00         0.18535E+05
 
    0.66448E+05         0.71711E+05         0.00000E+00
    0.71711E+05         0.24799E+05         0.00000E+00
    0.00000E+00         0.00000E+00         0.18249E+05
 
    0.63608E+05         0.73121E+05         0.00000E+00
    0.73121E+05         0.26170E+05         0.00000E+00
    0.00000E+00         0.00000E+00         0.17956E+05
 
    0.60704E+05         0.74469E+05         0.00000E+00
    0.74469E+05         0.27565E+05         0.00000E+00
    0.00000E+00         0.00000E+00         0.17654E+05
 
    0.57738E+05         0.75754E+05         0.00000E+00
    0.75754E+05         0.28984E+05         0.00000E+00
    0.00000E+00         0.00000E+00         0.17344E+05
 
    0.54710E+05         0.76975E+05         0.00000E+00
    0.76975E+05         0.30426E+05         0.00000E+00
    0.00000E+00         0.00000E+00         0.17027E+05
 
    0.51623E+05         0.78130E+05         0.00000E+00
    0.78130E+05         0.31890E+05         0.00000E+00
    0.00000E+00         0.00000E+00         0.16703E+05
 
    0.48479E+05         0.79218E+05         0.00000E+00
    0.79218E+05         0.33373E+05         0.00000E+00
    0.00000E+00         0.00000E+00         0.16370E+05
 
    0.45279E+05         0.80238E+05         0.00000E+00
    0.80238E+05         0.34876E+05         0.00000E+00
    0.00000E+00         0.00000E+00         0.16031E+05
 
    0.42025E+05         0.81188E+05         0.00000E+00
    0.81188E+05         0.36396E+05         0.00000E+00
    0.00000E+00         0.00000E+00         0.15684E+05
 
    0.38719E+05         0.82069E+05         0.00000E+00
    0.82069E+05         0.37933E+05         0.00000E+00
    0.00000E+00         0.00000E+00         0.15331E+05
 
    0.35364E+05         0.82878E+05         0.00000E+00
    0.82878E+05         0.39486E+05         0.00000E+00
    0.00000E+00         0.00000E+00         0.14970E+05
 
    0.31960E+05         0.83615E+05         0.00000E+00
    0.83615E+05         0.41053E+05         0.00000E+00
    0.00000E+00         0.00000E+00         0.14602E+05
 
    0.28509E+05         0.84278E+05         0.00000E+00
    0.84278E+05         0.42632E+05         0.00000E+00
    0.00000E+00         0.00000E+00         0.14228E+05
 
    0.25015E+05         0.84867E+05         0.00000E+00
    0.84867E+05         0.44224E+05         0.00000E+00
    0.00000E+00         0.00000E+00         0.13848E+05
 
    0.21478E+05         0.85381E+05         0.00000E+00
    0.85381E+05         0.45826E+05         0.00000E+00
    0.00000E+00         0.00000E+00         0.13461E+05
 
    0.17900E+05         0.85818E+05         0.00000E+00
    0.85818E+05         0.47437E+05         0.00000E+00
    0.00000E+00         0.00000E+00         0.13067E+05
 
    0.14284E+05         0.86179E+05         0.00000E+00
    0.86179E+05         0.49056E+05         0.00000E+00
    0.00000E+00         0.00000E+00         0.12668E+05
 
    0.12785E+06         0.13524E+04         0.00000E+00
    0.13524E+04        -0.16921E+02         0.00000E+00
    0.00000E+00         0.00000E+00         0.25566E+05
 
    0.12786E+06         0.40732E+04         0.00000E+00
    0.40732E+04         0.36389E+02         0.00000E+00
    0.00000E+00         0.00000E+00         0.25578E+05
 
    0.12776E+06         0.67973E+04         0.00000E+00
    0.67973E+04         0.14357E+03         0.00000E+00
    0.00000E+00         0.00000E+00         0.25580E+05
 
    0.12755E+06         0.95217E+04         0.00000E+00
    0.95217E+04         0.30475E+03         0.00000E+00
    0.00000E+00         0.00000E+00         0.25571E+05
 
    0.12723E+06         0.12244E+05         0.00000E+00
    0.12244E+05         0.51993E+03         0.00000E+00
    0.00000E+00         0.00000E+00         0.25551E+05
 
    0.12681E+06         0.14961E+05         0.00000E+00
    0.14961E+05         0.78908E+03         0.00000E+00
    0.00000E+00         0.00000E+00         0.25520E+05
 
    0.12628E+06         0.17670E+05         0.00000E+00
    0.17670E+05         0.11120E+04         0.00000E+00
    0.00000E+00         0.00000E+00         0.25478E+05
 
    0.12564E+06         0.20369E+05         0.00000E+00
    0.20369E+05         0.14886E+04         0.00000E+00
    0.00000E+00         0.00000E+00         0.25425E+05
 
    0.12489E+06         0.23054E+05         0.00000E+00
    0.23054E+05         0.19185E+04         0.00000E+00
    0.00000E+00         0.00000E+00         0.25362E+05
 
    0.12404E+06         0.25724E+05         0.00000E+00
    0.25724E+05         0.24013E+04         0.00000E+00
    0.00000E+00         0.00000E+00         0.25288E+05
 
    0.12308E+06         0.28375E+05         0.00000E+00
    0.28375E+05         0.29366E+04         0.00000E+00
    0.00000E+00         0.00000E+00         0.25203E+05
 
    0.12201E+06         0.31005E+05         0.00000E+00
    0.31005E+05         0.35239E+04         0.00000E+00
    0.00000E+00         0.00000E+00         0.25107E+05
 
    0.12084E+06         0.33611E+05         0.00000E+00
    0.33611E+05         0.41626E+04         0.00000E+00
    0.00000E+00         0.00000E+00         0.25000E+05
 
    0.11956E+06         0.36191E+05         0.00000E+00
    0.36191E+05         0.48520E+04         0.00000E+00
    0.00000E+00         0.00000E+00         0.24882E+05
 
    0.11818E+06         0.38742E+05         0.00000E+00
    0.38742E+05         0.55916E+04         0.00000E+00
    0.00000E+00         0.00000E+00         0.24754E+05
 
    0.11670E+06         0.41262E+05         0.00000E+00
    0.41262E+05         0.63804E+04         0.00000E+00
    0.00000E+00         0.00000E+00         0.24616E+05
 
    0.11511E+06         0.43749E+05         0.00000E+00
    0.43749E+05         0.72178E+04         0.00000E+00
    0.00000E+00         0.00000E+00         0.24466E+05
 
    0.11343E+06         0.46200E+05         0.00000E+00
    0.46200E+05         0.81028E+04         0.00000E+00
    0.00000E+00         0.00000E+00         0.24306E+05
 
    0.11164E+06         0.48614E+05         0.00000E+00
    0.48614E+05         0.90346E+04         0.00000E+00
    0.00000E+00         0.00000E+00         0.24136E+05
 
    0.10976E+06         0.50987E+05         0.00000E+00
    0.50987E+05         0.10012E+05         0.00000E+00
    0.00000E+00         0.00000E+00         0.23955E+05
 
    0.10778E+06         0.53317E+05         0.00000E+00
    0.53317E+05         0.11035E+05         0.00000E+00
    0.00000E+00         0.00000E+00         0.23764E+05
 
    0.10571E+06         0.55603E+05         0.00000E+00
    0.55603E+05         0.12101E+05         0.00000E+00
    0.00000E+00         0.00000E+00         0.23562E+05
 
    0.10354E+06         0.57843E+05         0.00000E+00
    0.57843E+05         0.13210E+05         0.00000E+00
    0.00000E+00         0.00000E+00         0.23350E+05
 
    0.10128E+06         0.60034E+05         0.00000E+00
    0.60034E+05         0.14360E+05         0.00000E+00
    0.00000E+00         0.00000E+00         0.23129E+05
 
    0.98933E+05         0.62175E+05         0.00000E+00
    0.62175E+05         0.15552E+05         0.00000E+00
    0.00000E+00         0.00000E+00         0.22897E+05
 
    0.96494E+05         0.64264E+05         0.00000E+00
    0.64264E+05         0.16782E+05         0.00000E+00
    0.00000E+00         0.00000E+00         0.22655E+05
 
    0.93968E+05         0.66299E+05         0.00000E+00
    0.66299E+05         0.18051E+05         0.00000E+00
    0.00000E+00         0.00000E+00         0.22404E+05
 
    0.91356E+05         0.68277E+05         0.00000E+00
    0.68277E+05         0.19357E+05         0.00000E+00
    0.00000E+00         0.00000E+00         0.22142E+05
 
    0.88660E+05         0.70199E+05         0.00000E+00
    0.70199E+05         0.20698E+05         0.00000E+00
    0.00000E+00         0.00000E+00         0.21872E+05
 
    0.85882E+05         0.72061E+05         0.00000E+00
    0.72061E+05         0.22075E+05         0.00000E+00
    0.00000E+00         0.00000E+00         0.21591E+05
 
    0.83024E+05         0.73862E+05         0.00000E+00
    0.73862E+05         0.23484E+05         0.00000E+00
    0.00000E+00         0.00000E+00         0.21302E+05
 
    0.80087E+05         0.75601E+05         0.00000E+00
    0.75601E+05         0.24926E+05         0.00000E+00
    0.00000E+00         0.00000E+00         0.21003E+05
 
    0.77074E+05         0.77277E+05         0.00000E+00
    0.77277E+05         0.26399E+05         0.00000E+00
    0.00000E+00         0.00000E+00         0.20695E+05
 
    0.73986E+05         0.78887E+05         0.00000E+00
    0.78887E+05         0.27901E+05         0.00000E+00
    0.00000E+00         0.00000E+00         0.20377E+05
 
    0.70825E+05         0.80430E+05         0.00000E+00
    0.80430E+05         0.29432E+05         0.00000E+00
    0.00000E+00         0.00000E+00         0.20051E+05
 
    0.67593E+05         0.81905E+05         0.00000E+00
    0.81905E+05         0.30990E+05         0.00000E+00
    0.00000E+00         0.00000E+00         0.19716E+05
 
    0.64291E+05         0.83311E+05         0.00000E+00
    0.83311E+05         0.32573E+05         0.00000E+00
    0.00000E+00         0.00000E+00         0.19373E+05
 
    0.60923E+05         0.84646E+05         0.00000E+00
    0.84646E+05         0.34181E+05         0.00000E+00
    0.00000E+00         0.00000E+00         0.19021E+05
 
    0.57489E+05         0.85910E+05         0.00000E+00
    0.85910E+05         0.35812E+05         0.00000E+00
    0.00000E+00         0.00000E+00         0.18660E+05
 
    0.53992E+05         0.87100E+05         0.00000E+00
    0.87100E+05         0.37465E+05         0.00000E+00
    0.00000E+00         0.00000E+00         0.18291E+05
 
    0.50433E+05         0.88216E+05         0.00000E+00
    0.88216E+05         0.39139E+05         0.00000E+00
    0.00000E+00         0.00000E+00         0.17915E+05
 
    0.46816E+05         0.89257E+05         0.00000E+00
    0.89257E+05         0.40832E+05         0.00000E+00
    0.00000E+00         0.00000E+00         0.17530E+05
 
    0.43140E+05         0.90221E+05         0.00000E+00
    0.90221E+05         0.42543E+05         0.00000E+00
    0.00000E+00         0.00000E+00         0.17137E+05
 
    0.39409E+05         0.91107E+05         0.00000E+00
    0.91107E+05         0.44271E+05         0.00000E+00
    0.00000E+00         0.00000E+00         0.16736E+05
 
    0.35625E+05         0.91914E+05         0.00000E+00
    0.91914E+05         0.46014E+05         0.00000E+00
    0.00000E+00         0.00000E+00         0.16328E+05
 
    0.31790E+05         0.92642E+05         0.00000E+00
    0.92642E+05         0.47771E+05         0.00000E+00
    0.00000E+00         0.00000E+00         0.15912E+05
 
    0.27905E+05         0.93289E+05         0.00000E+00
    0.93289E+05         0.49541E+05         0.00000E+00
    0.00000E+00         0.00000E+00         0.15489E+05
 
    0.23973E+05         0.93854E+05         0.00000E+00
    0.93854E+05         0.51322E+05         0.00000E+00
    0.00000E+00         0.00000E+00         0.15059E+05
 
    0.19995E+05         0.94336E+05         0.00000E+00
    0.94336E+05         0.53114E+05         0.00000E+00
    0.00000E+00         0.00000E+00         0.14622E+05
 
    0.15975E+05         0.94735E+05         0.00000E+00
    0.94735E+05         0.54914E+05         0.00000E+00
    0.00000E+00         0.00000E+00         0.14178E+05
 
    0.14214E+06         0.14944E+04         0.00000E+00
    0.14944E+04        -0.19294E+02         0.00000E+00
    0.00000E+00         0.00000E+00         0.28424E+05
 
    0.14217E+06         0.45023E+04         0.00000E+00
    0.45023E+04         0.41608E+02         0.00000E+00
    0.00000E+00         0.00000E+00         0.28443E+05
 
    0.14209E+06         0.75142E+04         0.00000E+00
    0.75142E+04         0.16396E+03         0.00000E+00
    0.00000E+00         0.00000E+00         0.28450E+05
 
    0.14187E+06         0.10527E+05         0.00000E+00
    0.10527E+05         0.34785E+03         0.00000E+00
    0.00000E+00         0.00000E+00         0.28444E+05
 
    0.14154E+06         0.13537E+05         0.00000E+00
    0.13537E+05         0.59324E+03         0.00000E+00
    0.00000E+00         0.00000E+00         0.28426E+05
 
    0.14108E+06         0.16541E+05         0.00000E+00
    0.16541E+05         0.90000E+03         0.00000E+00
    0.00000E+00         0.00000E+00         0.28396E+05
 
    0.14050E+06         0.19536E+05         0.00000E+00
    0.19536E+05         0.12679E+04         0.00000E+00
    0.00000E+00         0.00000E+00         0.28353E+05
 
    0.13980E+06         0.22520E+05         0.00000E+00
    0.22520E+05         0.16966E+04         0.00000E+00
    0.00000E+00         0.00000E+00         0.28299E+05
 
    0.13897E+06         0.25488E+05         0.00000E+00
    0.25488E+05         0.21857E+04         0.00000E+00
    0.00000E+00         0.00000E+00         0.28231E+05
 
    0.13802E+06         0.28437E+05         0.00000E+00
    0.28437E+05         0.27346E+04         0.00000E+00
    0.00000E+00         0.00000E+00         0.28152E+05
 
    0.13696E+06         0.31366E+05         0.00000E+00
    0.31366E+05         0.33429E+04         0.00000E+00
    0.00000E+00         0.00000E+00         0.28060E+05
 
    0.13577E+06         0.34270E+05         0.00000E+00
    0.34270E+05         0.40097E+04         0.00000E+00
    0.00000E+00         0.00000E+00         0.27956E+05
 
    0.13446E+06         0.37147E+05         0.00000E+00
    0.37147E+05         0.47344E+04         0.00000E+00
    0.00000E+00         0.00000E+00         0.27840E+05
 
    0.13304E+06         0.39994E+05         0.00000E+00
    0.39994E+05         0.55162E+04         0.00000E+00
    0.00000E+00         0.00000E+00         0.27712E+05
 
    0.13150E+06         0.42809E+05         0.00000E+00
    0.42809E+05         0.63541E+04         0.00000E+00
    0.00000E+00         0.00000E+00         0.27571E+05
 
    0.12985E+06         0.45588E+05         0.00000E+00
    0.45588E+05         0.72471E+04         0.00000E+00
    0.00000E+00         0.00000E+00         0.27419E+05
 
    0.12808E+06         0.48328E+05         0.00000E+00
    0.48328E+05         0.81944E+04         0.00000E+00
    0.00000E+00         0.00000E+00         0.27254E+05
 
    0.12620E+06         0.51029E+05         0.00000E+00
    0.51029E+05         0.91948E+04         0.00000E+00
    0.00000E+00         0.00000E+00         0.27078E+05
 
    0.12420E+06         0.53686E+05         0.00000E+00
    0.53686E+05         0.10247E+05         0.00000E+00
    0.00000E+00         0.00000E+00         0.26890E+05
 
    0.12210E+06         0.56298E+05         0.00000E+00
    0.56298E+05         0.11351E+05         0.00000E+00
    0.00000E+00         0.00000E+00         0.26690E+05
 
    0.11989E+06         0.58861E+05         0.00000E+00
    0.58861E+05         0.12503E+05         0.00000E+00
    0.00000E+00         0.00000E+00         0.26479E+05
 
    0.11758E+06         0.61375E+05         0.00000E+00
    0.61375E+05         0.13705E+05         0.00000E+00
    0.00000E+00         0.00000E+00         0.26256E+05
 
    0.11516E+06         0.63836E+05         0.00000E+00
    0.63836E+05         0.14953E+05         0.00000E+00
    0.00000E+00         0.00000E+00         0.26022E+05
 
    0.11264E+06         0.66243E+05         0.00000E+00
    0.66243E+05         0.16248E+05         0.00000E+00
    0.00000E+00         0.00000E+00         0.25777E+05
 
    0.11002E+06         0.68593E+05         0.00000E+00
    0.68593E+05         0.17587E+05         0.00000E+00
    0.00000E+00         0.00000E+00         0.25520E+05
 
    0.10730E+06         0.70885E+05         0.00000E+00
    0.70885E+05         0.18969E+05         0.00000E+00
    0.00000E+00         0.00000E+00         0.25253E+05
 
    0.10448E+06         0.73117E+05         0.00000E+00
    0.73117E+05         0.20392E+05         0.00000E+00
    0.00000E+00         0.00000E+00         0.24974E+05
 
    0.10157E+06         0.75286E+05         0.00000E+00
    0.75286E+05         0.21857E+05         0.00000E+00
    0.00000E+00         0.00000E+00         0.24685E+05
 
    0.98564E+05         0.77391E+05         0.00000E+00
    0.77391E+05         0.23360E+05         0.00000E+00
    0.00000E+00         0.00000E+00         0.24385E+05
 
    0.95470E+05         0.79430E+05         0.00000E+00
    0.79430E+05         0.24901E+05         0.00000E+00
    0.00000E+00         0.00000E+00         0.24074E+05
 
    0.92288E+05         0.81402E+05         0.00000E+00
    0.81402E+05         0.26477E+05         0.00000E+00
    0.00000E+00         0.00000E+00         0.23753E+05
 
    0.89019E+05         0.83305E+05         0.00000E+00
    0.83305E+05         0.28089E+05         0.00000E+00
    0.00000E+00         0.00000E+00         0.23422E+05
 
    0.85667E+05         0.85138E+05         0.00000E+00
    0.85138E+05         0.29734E+05         0.00000E+00
    0.00000E+00         0.00000E+00         0.23080E+05
 
    0.82232E+05         0.86898E+05         0.00000E+00
    0.86898E+05         0.31411E+05         0.00000E+00
    0.00000E+00         0.00000E+00         0.22729E+05
 
    0.78717E+05         0.88586E+05         0.00000E+00
    0.88586E+05         0.33119E+05         0.00000E+00
    0.00000E+00         0.00000E+00         0.22367E+05
 
    0.75125E+05         0.90198E+05         0.00000E+00
    0.90198E+05         0.34855E+05         0.00000E+00
    0.00000E+00         0.00000E+00         0.21996E+05
 
    0.71457E+05         0.91734E+05         0.00000E+00
    0.91734E+05         0.36619E+05         0.00000E+00
    0.00000E+00         0.00000E+00         0.21615E+05
 
    0.67715E+05         0.93193E+05         0.00000E+00
    0.93193E+05         0.38410E+05         0.00000E+00
    0.00000E+00         0.00000E+00         0.21225E+05
 
    0.63902E+05         0.94573E+05         0.00000E+00
    0.94573E+05         0.40225E+05         0.00000E+00
    0.00000E+00         0.00000E+00         0.20825E+05
 
    0.60020E+05         0.95873E+05         0.00000E+00
    0.95873E+05         0.42063E+05         0.00000E+00
    0.00000E+00         0.00000E+00         0.20417E+05
 
    0.56070E+05         0.97092E+05         0.00000E+00
    0.97092E+05         0.43924E+05         0.00000E+00
    0.00000E+00         0.00000E+00         0.19999E+05
 
    0.52055E+05         0.98229E+05         0.00000E+00
    0.98229E+05         0.45805E+05         0.00000E+00
    0.00000E+00         0.00000E+00         0.19572E+05
 
    0.47978E+05         0.99283E+05         0.00000E+00
    0.99283E+05         0.47706E+05         0.00000E+00
    0.00000E+00         0.00000E+00         0.19137E+05
 
    0.43839E+05         0.10025E+06         0.00000E+00
    0.10025E+06         0.49624E+05         0.00000E+00
    0.00000E+00         0.00000E+00         0.18693E+05
 
    0.39642E+05         0.10114E+06         0.00000E+00
    0.10114E+06         0.51559E+05         0.00000E+00
    0.00000E+00         0.00000E+00         0.18240E+05
 
    0.35388E+05         0.10193E+06         0.00000E+00
    0.10193E+06         0.53508E+05         0.00000E+00
    0.00000E+00         0.00000E+00         0.17779E+05
 
    0.31080E+05         0.10264E+06         0.00000E+00
    0.10264E+06         0.55472E+05         0.00000E+00
    0.00000E+00         0.00000E+00         0.17310E+05
 
    0.26719E+05         0.10326E+06         0.00000E+00
    0.10326E+06         0.57448E+05         0.00000E+00
    0.00000E+00         0.00000E+00         0.16833E+05
 
    0.22308E+05         0.10380E+06         0.00000E+00
    0.10380E+06         0.59434E+05         0.00000E+00
    0.00000E+00         0.00000E+00         0.16348E+05
 
    0.17849E+05         0.10424E+06         0.00000E+00
    0.10424E+06         0.61431E+05         0.00000E+00
    0.00000E+00         0.00000E+00         0.15856E+05
 
    0.15797E+06         0.16570E+04         0.00000E+00
    0.16570E+04        -0.22091E+02         0.00000E+00
    0.00000E+00         0.00000E+00         0.31589E+05
 
    0.15803E+06         0.49933E+04         0.00000E+00
    0.49933E+04         0.47848E+02         0.00000E+00
    0.00000E+00         0.00000E+00         0.31616E+05
 
    0.15795E+06         0.83341E+04         0.00000E+00
    0.83341E+04         0.18820E+03         0.00000E+00
    0.00000E+00         0.00000E+00         0.31629E+05
 
    0.15774E+06         0.11676E+05         0.00000E+00
    0.11676E+05         0.39895E+03         0.00000E+00
    0.00000E+00         0.00000E+00         0.31627E+05
 
    0.15738E+06         0.15014E+05         0.00000E+00
    0.15014E+05         0.67998E+03         0.00000E+00
    0.00000E+00         0.00000E+00         0.31612E+05
 
    0.15688E+06         0.18345E+05         0.00000E+00
    0.18345E+05         0.10310E+04         0.00000E+00
    0.00000E+00         0.00000E+00         0.31582E+05
 
    0.15624E+06         0.21665E+05         0.00000E+00
    0.21665E+05         0.14517E+04         0.00000E+00
    0.00000E+00         0.00000E+00         0.31539E+05
 
    0.15546E+06         0.24971E+05         0.00000E+00
    0.24971E+05         0.19415E+04         0.00000E+00
    0.00000E+00         0.00000E+00         0.31481E+05
 
    0.15455E+06         0.28260E+05         0.00000E+00
    0.28260E+05         0.24999E+04         0.00000E+00
    0.00000E+00         0.00000E+00         0.31410E+05
 
    0.15349E+06         0.31526E+05         0.00000E+00
    0.31526E+05         0.31261E+04         0.00000E+00
    0.00000E+00         0.00000E+00         0.31324E+05
 
    0.15230E+06         0.34768E+05         0.00000E+00
    0.34768E+05         0.38194E+04         0.00000E+00
    0.00000E+00         0.00000E+00         0.31225E+05
 
    0.15098E+06         0.37981E+05         0.00000E+00
    0.37981E+05         0.45787E+04         0.00000E+00
    0.00000E+00         0.00000E+00         0.31112E+05
 
    0.14952E+06         0.41163E+05         0.00000E+00
    0.41163E+05         0.54033E+04         0.00000E+00
    0.00000E+00         0.00000E+00         0.30984E+05
 
    0.14793E+06         0.44310E+05         0.00000E+00
    0.44310E+05         0.62919E+04         0.00000E+00
    0.00000E+00         0.00000E+00         0.30844E+05
 
    0.14620E+06         0.47419E+05         0.00000E+00
    0.47419E+05         0.72434E+04         0.00000E+00
    0.00000E+00         0.00000E+00         0.30689E+05
 
    0.14435E+06         0.50487E+05         0.00000E+00
    0.50487E+05         0.82567E+04         0.00000E+00
    0.00000E+00         0.00000E+00         0.30522E+05
 
    0.14237E+06         0.53511E+05         0.00000E+00
    0.53511E+05         0.93304E+04         0.00000E+00
    0.00000E+00         0.00000E+00         0.30340E+05
 
    0.14026E+06         0.56489E+05         0.00000E+00
    0.56489E+05         0.10463E+05         0.00000E+00
    0.00000E+00         0.00000E+00         0.30146E+05
 
    0.13803E+06         0.59417E+05         0.00000E+00
    0.59417E+05         0.11654E+05         0.00000E+00
    0.00000E+00         0.00000E+00         0.29938E+05
 
    0.13568E+06         0.62293E+05         0.00000E+00
    0.62293E+05         0.12901E+05         0.00000E+00
    0.00000E+00         0.00000E+00         0.29717E+05
 
    0.13321E+06         0.65114E+05         0.00000E+00
    0.65114E+05         0.14202E+05         0.00000E+00
    0.00000E+00         0.00000E+00         0.29483E+05
 
    0.13062E+06         0.67878E+05         0.00000E+00
    0.67878E+05         0.15557E+05         0.00000E+00
    0.00000E+00         0.00000E+00         0.29236E+05
 
    0.12792E+06         0.70583E+05         0.00000E+00
    0.70583E+05         0.16964E+05         0.00000E+00
    0.00000E+00         0.00000E+00         0.28977E+05
 
    0.12510E+06         0.73226E+05         0.00000E+00
    0.73226E+05         0.18421E+05         0.00000E+00
    0.00000E+00         0.00000E+00         0.28705E+05
 
    0.12218E+06         0.75806E+05         0.00000E+00
    0.75806E+05         0.19927E+05         0.00000E+00
    0.00000E+00         0.00000E+00         0.28421E+05
 
    0.11914E+06         0.78319E+05         0.00000E+00
    0.78319E+05         0.21479E+05         0.00000E+00
    0.00000E+00         0.00000E+00         0.28124E+05
 
    0.11600E+06         0.80765E+05         0.00000E+00
    0.80765E+05         0.23077E+05         0.00000E+00
    0.00000E+00         0.00000E+00         0.27815E+05
 
    0.11275E+06         0.83141E+05         0.00000E+00
    0.83141E+05         0.24719E+05         0.00000E+00
    0.00000E+00         0.00000E+00         0.27494E+05
 
    0.10941E+06         0.85445E+05         0.00000E+00
    0.85445E+05         0.26403E+05         0.00000E+00
    0.00000E+00         0.00000E+00         0.27162E+05
 
    0.10596E+06         0.87676E+05         0.00000E+00
    0.87676E+05         0.28127E+05         0.00000E+00
    0.00000E+00         0.00000E+00         0.26818E+05
 
    0.10242E+06         0.89831E+05         0.00000E+00
    0.89831E+05         0.29890E+05         0.00000E+00
    0.00000E+00         0.00000E+00         0.26462E+05
 
    0.98784E+05         0.91911E+05         0.00000E+00
    0.91911E+05         0.31691E+05         0.00000E+00
    0.00000E+00         0.00000E+00         0.26095E+05
 
    0.95056E+05         0.93912E+05         0.00000E+00
    0.93912E+05         0.33527E+05         0.00000E+00
    0.00000E+00         0.00000E+00         0.25717E+05
 
    0.91239E+05         0.95833E+05         0.00000E+00
    0.95833E+05         0.35397E+05         0.00000E+00
    0.00000E+00         0.00000E+00         0.25327E+05
 
    0.87336E+05         0.97674E+05         0.00000E+00
    0.97674E+05         0.37299E+05         0.00000E+00
    0.00000E+00         0.00000E+00         0.24927E+05
 
    0.83347E+05         0.99433E+05         0.00000E+00
    0.99433E+05         0.39232E+05         0.00000E+00
    0.00000E+00         0.00000E+00         0.24516E+05
 
    0.79277E+05         0.10111E+06         0.00000E+00
    0.10111E+06         0.41195E+05         0.00000E+00
    0.00000E+00         0.00000E+00         0.24094E+05
 
    0.75127E+05         0.10270E+06         0.00000E+00
    0.10270E+06         0.43185E+05         0.00000E+00
    0.00000E+00         0.00000E+00         0.23662E+05
 
    0.70900E+05         0.10420E+06         0.00000E+00
    0.10420E+06         0.45201E+05         0.00000E+00
    0.00000E+00         0.00000E+00         0.23220E+05
 
    0.66597E+05         0.10562E+06         0.00000E+00
    0.10562E+06         0.47242E+05         0.00000E+00
    0.00000E+00         0.00000E+00         0.22768E+05
 
    0.62221E+05         0.10695E+06         0.00000E+00
    0.10695E+06         0.49306E+05         0.00000E+00
    0.00000E+00         0.00000E+00         0.22306E+05
 
    0.57775E+05         0.10819E+06         0.00000E+00
    0.10819E+06         0.51392E+05         0.00000E+00
    0.00000E+00         0.00000E+00         0.21833E+05
 
    0.53260E+05         0.10934E+06         0.00000E+00
    0.10934E+06         0.53498E+05         0.00000E+00
    0.00000E+00         0.00000E+00         0.21352E+05
 
    0.48680E+05         0.11039E+06         0.00000E+00
    0.11039E+06         0.55623E+05         0.00000E+00
    0.00000E+00         0.00000E+00         0.20861E+05
 
    0.44035E+05         0.11136E+06         0.00000E+00
    0.11136E+06         0.57765E+05         0.00000E+00
    0.00000E+00         0.00000E+00         0.20360E+05
 
    0.39328E+05         0.11223E+06         0.00000E+00
    0.11223E+06         0.59924E+05         0.00000E+00
    0.00000E+00         0.00000E+00         0.19850E+05
 
    0.34562E+05         0.11301E+06         0.00000E+00
    0.11301E+06         0.62096E+05         0.00000E+00
    0.00000E+00         0.00000E+00         0.19332E+05
 
    0.29739E+05         0.11369E+06         0.00000E+00
    0.11369E+06         0.64282E+05         0.00000E+00
    0.00000E+00         0.00000E+00         0.18804E+05
 
    0.24860E+05         0.11427E+06         0.00000E+00
    0.11427E+06         0.66480E+05         0.00000E+00
    0.00000E+00         0.00000E+00         0.18268E+05
 
    0.19928E+05         0.11476E+06         0.00000E+00
    0.11476E+06         0.68688E+05         0.00000E+00
    0.00000E+00         0.00000E+00         0.17723E+05
 
    0.17555E+06         0.18445E+04         0.00000E+00
    0.18445E+04        -0.25410E+02         0.00000E+00
    0.00000E+00         0.00000E+00         0.35106E+05
 
    0.17565E+06         0.55582E+04         0.00000E+00
    0.55582E+04         0.55371E+02         0.00000E+00
    0.00000E+00         0.00000E+00         0.35141E+05
 
    0.17559E+06         0.92764E+04         0.00000E+00
    0.92764E+04         0.21721E+03         0.00000E+00
    0.00000E+00         0.00000E+00         0.35161E+05
 
    0.17536E+06         0.12995E+05         0.00000E+00
    0.12995E+05         0.45995E+03         0.00000E+00
    0.00000E+00         0.00000E+00         0.35164E+05
 
    0.17497E+06         0.16708E+05         0.00000E+00
    0.16708E+05         0.78331E+03         0.00000E+00
    0.00000E+00         0.00000E+00         0.35151E+05
 
    0.17442E+06         0.20413E+05         0.00000E+00
    0.20413E+05         0.11868E+04         0.00000E+00
    0.00000E+00         0.00000E+00         0.35122E+05
 
    0.17372E+06         0.24104E+05         0.00000E+00
    0.24104E+05         0.16699E+04         0.00000E+00
    0.00000E+00         0.00000E+00         0.35077E+05
 
    0.17285E+06         0.27777E+05         0.00000E+00
    0.27777E+05         0.22319E+04         0.00000E+00
    0.00000E+00         0.00000E+00         0.35016E+05
 
    0.17182E+06         0.31429E+05         0.00000E+00
    0.31429E+05         0.28718E+04         0.00000E+00
    0.00000E+00         0.00000E+00         0.34939E+05
 
    0.17064E+06         0.35054E+05         0.00000E+00
    0.35054E+05         0.35887E+04         0.00000E+00
    0.00000E+00         0.00000E+00         0.34846E+05
 
    0.16931E+06         0.38650E+05         0.00000E+00
    0.38650E+05         0.43815E+04         0.00000E+00
    0.00000E+00         0.00000E+00         0.34738E+05
 
    0.16782E+06         0.42212E+05         0.00000E+00
    0.42212E+05         0.52490E+04         0.00000E+00
    0.00000E+00         0.00000E+00         0.34613E+05
 
    0.16618E+06         0.45736E+05         0.00000E+00
    0.45736E+05         0.61899E+04         0.00000E+00
    0.00000E+00         0.00000E+00         0.34473E+05
 
    0.16439E+06         0.49220E+05         0.00000E+00
    0.49220E+05         0.72027E+04         0.00000E+00
    0.00000E+00         0.00000E+00         0.34318E+05
 
    0.16245E+06         0.52658E+05         0.00000E+00
    0.52658E+05         0.82861E+04         0.00000E+00
    0.00000E+00         0.00000E+00         0.34147E+05
 
    0.16037E+06         0.56049E+05         0.00000E+00
    0.56049E+05         0.94385E+04         0.00000E+00
    0.00000E+00         0.00000E+00         0.33961E+05
 
    0.15814E+06         0.59389E+05         0.00000E+00
    0.59389E+05         0.10658E+05         0.00000E+00
    0.00000E+00         0.00000E+00         0.33760E+05
 
    0.15578E+06         0.62674E+05         0.00000E+00
    0.62674E+05         0.11944E+05         0.00000E+00
    0.00000E+00         0.00000E+00         0.33544E+05
 
    0.15327E+06         0.65902E+05         0.00000E+00
    0.65902E+05         0.13293E+05         0.00000E+00
    0.00000E+00         0.00000E+00         0.33313E+05
 
    0.15064E+06         0.69069E+05         0.00000E+00
    0.69069E+05         0.14704E+05         0.00000E+00
    0.00000E+00         0.00000E+00         0.33068E+05
 
    0.14787E+06         0.72174E+05         0.00000E+00
    0.72174E+05         0.16176E+05         0.00000E+00
    0.00000E+00         0.00000E+00         0.32808E+05
 
    0.14496E+06         0.75214E+05         0.00000E+00
    0.75214E+05         0.17706E+05         0.00000E+00
    0.00000E+00         0.00000E+00         0.32534E+05
 
    0.14194E+06         0.78185E+05         0.00000E+00
    0.78185E+05         0.19293E+05         0.00000E+00
    0.00000E+00         0.00000E+00         0.32246E+05
 
    0.13879E+06         0.81086E+05         0.00000E+00
    0.81086E+05         0.20934E+05         0.00000E+00
    0.00000E+00         0.00000E+00         0.31944E+05
 
    0.13551E+06         0.83914E+05         0.00000E+00
    0.83914E+05         0.22628E+05         0.00000E+00
    0.00000E+00         0.00000E+00         0.31628E+05
 
    0.13212E+06         0.86668E+05         0.00000E+00
    0.86668E+05         0.24373E+05         0.00000E+00
    0.00000E+00         0.00000E+00         0.31299E+05
 
    0.12861E+06         0.89345E+05         0.00000E+00
    0.89345E+05         0.26167E+05         0.00000E+00
    0.00000E+00         0.00000E+00         0.30956E+05
 
    0.12499E+06         0.91943E+05         0.00000E+00
    0.91943E+05         0.28008E+05         0.00000E+00
    0.00000E+00         0.00000E+00         0.30600E+05
 
    0.12126E+06         0.94461E+05         0.00000E+00
    0.94461E+05         0.29894E+05         0.00000E+00
    0.00000E+00         0.00000E+00         0.30231E+05
 
    0.11742E+06         0.96897E+05         0.00000E+00
    0.96897E+05         0.31823E+05         0.00000E+00
    0.00000E+00         0.00000E+00         0.29849E+05
 
    0.11348E+06         0.99249E+05         0.00000E+00
    0.99249E+05         0.33794E+05         0.00000E+00
    0.00000E+00         0.00000E+00         0.29455E+05
 
    0.10944E+06         0.10152E+06         0.00000E+00
    0.10152E+06         0.35803E+05         0.00000E+00
    0.00000E+00         0.00000E+00         0.29048E+05
 
    0.10529E+06         0.10370E+06         0.00000E+00
    0.10370E+06         0.37851E+05         0.00000E+00
    0.00000E+00         0.00000E+00         0.28629E+05
 
    0.10106E+06         0.10579E+06         0.00000E+00
    0.10579E+06         0.39934E+05         0.00000E+00
    0.00000E+00         0.00000E+00         0.28198E+05
 
    0.96723E+05         0.10779E+06         0.00000E+00
    0.10779E+06         0.42051E+05         0.00000E+00
    0.00000E+00         0.00000E+00         0.27755E+05
 
    0.92300E+05         0.10970E+06         0.00000E+00
    0.10970E+06         0.44200E+05         0.00000E+00
    0.00000E+00         0.00000E+00         0.27300E+05
 
    0.87789E+05         0.11152E+06         0.00000E+00
    0.11152E+06         0.46380E+05         0.00000E+00
    0.00000E+00         0.00000E+00         0.26834E+05
 
    0.83192E+05         0.11325E+06         0.00000E+00
    0.11325E+06         0.48588E+05         0.00000E+00
    0.00000E+00         0.00000E+00         0.26356E+05
 
    0.78512E+05         0.11488E+06         0.00000E+00
    0.11488E+06         0.50824E+05         0.00000E+00
    0.00000E+00         0.00000E+00         0.25867E+05
 
    0.73752E+05         0.11642E+06         0.00000E+00
    0.11642E+06         0.53085E+05         0.00000E+00
    0.00000E+00         0.00000E+00         0.25367E+05
 
    0.68914E+05         0.11787E+06         0.00000E+00
    0.11787E+06         0.55370E+05         0.00000E+00
    0.00000E+00         0.00000E+00         0.24857E+05
 
    0.64000E+05         0.11921E+06         0.00000E+00
    0.11921E+06         0.57678E+05         0.00000E+00
    0.00000E+00         0.00000E+00         0.24335E+05
 
    0.59012E+05         0.12046E+06         0.00000E+00
    0.12046E+06         0.60006E+05         0.00000E+00
    0.00000E+00         0.00000E+00         0.23804E+05
 
    0.53953E+05         0.12161E+06         0.00000E+00
    0.12161E+06         0.62354E+05         0.00000E+00
    0.00000E+00         0.00000E+00         0.23261E+05
 
    0.48826E+05         0.12266E+06         0.00000E+00
    0.12266E+06         0.64720E+05         0.00000E+00
    0.00000E+00         0.00000E+00         0.22709E+05
 
    0.43632E+05         0.12361E+06         0.00000E+00
    0.12361E+06         0.67102E+05         0.00000E+00
    0.00000E+00         0.00000E+00         0.22147E+05
 
    0.38373E+05         0.12446E+06         0.00000E+00
    0.12446E+06         0.69499E+05         0.00000E+00
    0.00000E+00         0.00000E+00         0.21574E+05
 
    0.33052E+05         0.12520E+06         0.00000E+00
    0.12520E+06         0.71911E+05         0.00000E+00
    0.00000E+00         0.00000E+00         0.20993E+05
 
    0.27671E+05         0.12584E+06         0.00000E+00
    0.12584E+06         0.74334E+05         0.00000E+00
    0.00000E+00         0.00000E+00         0.20401E+05
 
    0.22231E+05         0.12638E+06         0.00000E+00
    0.12638E+06         0.76769E+05         0.00000E+00
    0.00000E+00         0.00000E+00         0.19800E+05
 
    0.19517E+06         0.20619E+04         0.00000E+00
    0.20619E+04        -0.29365E+02         0.00000E+00
    0.00000E+00         0.00000E+00         0.39028E+05
 
    0.19530E+06         0.62115E+04         0.00000E+00
    0.62115E+04         0.64497E+02         0.00000E+00
    0.00000E+00         0.00000E+00         0.39073E+05
 
    0.19524E+06         0.10365E+05         0.00000E+00
    0.10365E+05         0.25212E+03         0.00000E+00
    0.00000E+00         0.00000E+00         0.39099E+05
 
    0.19500E+06         0.14516E+05         0.00000E+00
    0.14516E+05         0.53315E+03         0.00000E+00
    0.00000E+00         0.00000E+00         0.39107E+05
 
    0.19457E+06         0.18661E+05         0.00000E+00
    0.18661E+05         0.90703E+03         0.00000E+00
    0.00000E+00         0.00000E+00         0.39096E+05
 
    0.19396E+06         0.22793E+05         0.00000E+00
    0.22793E+05         0.13730E+04         0.00000E+00
    0.00000E+00         0.00000E+00         0.39066E+05
 
    0.19316E+06         0.26908E+05         0.00000E+00
    0.26908E+05         0.19302E+04         0.00000E+00
    0.00000E+00         0.00000E+00         0.39018E+05
 
    0.19218E+06         0.31000E+05         0.00000E+00
    0.31000E+05         0.25775E+04         0.00000E+00
    0.00000E+00         0.00000E+00         0.38952E+05
 
    0.19103E+06         0.35065E+05         0.00000E+00
    0.35065E+05         0.33137E+04         0.00000E+00
    0.00000E+00         0.00000E+00         0.38868E+05
 
    0.18969E+06         0.39098E+05         0.00000E+00
    0.39098E+05         0.41375E+04         0.00000E+00
    0.00000E+00         0.00000E+00         0.38765E+05
 
    0.18818E+06         0.43094E+05         0.00000E+00
    0.43094E+05         0.50473E+04         0.00000E+00
    0.00000E+00         0.00000E+00         0.38645E+05
 
    0.18649E+06         0.47050E+05         0.00000E+00
    0.47050E+05         0.60416E+04         0.00000E+00
    0.00000E+00         0.00000E+00         0.38507E+05
 
    0.18464E+06         0.50960E+05         0.00000E+00
    0.50960E+05         0.71185E+04         0.00000E+00
    0.00000E+00         0.00000E+00         0.38351E+05
 
    0.18261E+06         0.54820E+05         0.00000E+00
    0.54820E+05         0.82763E+04         0.00000E+00
    0.00000E+00         0.00000E+00         0.38177E+05
 
    0.18042E+06         0.58628E+05         0.00000E+00
    0.58628E+05         0.95131E+04         0.00000E+00
    0.00000E+00         0.00000E+00         0.37987E+05
 
    0.17807E+06         0.62378E+05         0.00000E+00
    0.62378E+05         0.10827E+05         0.00000E+00
    0.00000E+00         0.00000E+00         0.37779E+05
 
    0.17556E+06         0.66068E+05         0.00000E+00
    0.66068E+05         0.12215E+05         0.00000E+00
    0.00000E+00         0.00000E+00         0.37554E+05
 
    0.17289E+06         0.69694E+05         0.00000E+00
    0.69694E+05         0.13677E+05         0.00000E+00
    0.00000E+00         0.00000E+00         0.37313E+05
 
    0.17007E+06         0.73253E+05         0.00000E+00
    0.73253E+05         0.15209E+05         0.00000E+00
    0.00000E+00         0.00000E+00         0.37055E+05
 
    0.16710E+06         0.76742E+05         0.00000E+00
    0.76742E+05         0.16809E+05         0.00000E+00
    0.00000E+00         0.00000E+00         0.36781E+05
 
    0.16398E+06         0.80157E+05         0.00000E+00
    0.80157E+05         0.18475E+05         0.00000E+00
    0.00000E+00         0.00000E+00         0.36491E+05
 
    0.16072E+06         0.83497E+05         0.00000E+00
    0.83497E+05         0.20205E+05         0.00000E+00
    0.00000E+00         0.00000E+00         0.36185E+05
 
    0.15732E+06         0.86758E+05         0.00000E+00
    0.86758E+05         0.21997E+05         0.00000E+00
    0.00000E+00         0.00000E+00         0.35863E+05
 
    0.15379E+06         0.89938E+05         0.00000E+00
    0.89938E+05         0.23848E+05         0.00000E+00
    0.00000E+00         0.00000E+00         0.35527E+05
 
    0.15012E+06         0.93035E+05         0.00000E+00
    0.93035E+05         0.25755E+05         0.00000E+00
    0.00000E+00         0.00000E+00         0.35175E+05
 
    0.14632E+06         0.96047E+05         0.00000E+00
    0.96047E+05         0.27717E+05         0.00000E+00
    0.00000E+00         0.00000E+00         0.34808E+05
 
    0.14240E+06         0.98972E+05         0.00000E+00
    0.98972E+05         0.29732E+05         0.00000E+00
    0.00000E+00         0.00000E+00         0.34426E+05
 
    0.13836E+06         0.10181E+06         0.00000E+00
    0.10181E+06         0.31796E+05         0.00000E+00
    0.00000E+00         0.00000E+00         0.34030E+05
 
    0.13419E+06         0.10455E+06         0.00000E+00
    0.10455E+06         0.33908E+05         0.00000E+00
    0.00000E+00         0.00000E+00         0.33620E+05
 
    0.12992E+06         0.10720E+06         0.00000E+00
    0.10720E+06         0.36065E+05         0.00000E+00
    0.00000E+00         0.00000E+00         0.33196E+05
 
    0.12553E+06         0.10976E+06         0.00000E+00
    0.10976E+06         0.38266E+05         0.00000E+00
    0.00000E+00         0.00000E+00         0.32759E+05
 
    0.12103E+06         0.11223E+06         0.00000E+00
    0.11223E+06         0.40508E+05         0.00000E+00
    0.00000E+00         0.00000E+00         0.32307E+05
 
    0.11643E+06         0.11459E+06         0.00000E+00
    0.11459E+06         0.42789E+05         0.00000E+00
    0.00000E+00         0.00000E+00         0.31843E+05
 
    0.11172E+06         0.11686E+06         0.00000E+00
    0.11686E+06         0.45107E+05         0.00000E+00
    0.00000E+00         0.00000E+00         0.31365E+05
 
    0.10691E+06         0.11903E+06         0.00000E+00
    0.11903E+06         0.47459E+05         0.00000E+00
    0.00000E+00         0.00000E+00         0.30875E+05
 
    0.10201E+06         0.12110E+06         0.00000E+00
    0.12110E+06         0.49845E+05         0.00000E+00
    0.00000E+00         0.00000E+00         0.30372E+05
 
    0.97019E+05         0.12307E+06         0.00000E+00
    0.12307E+06         0.52262E+05         0.00000E+00
    0.00000E+00         0.00000E+00         0.29856E+05
 
    0.91935E+05         0.12494E+06         0.00000E+00
    0.12494E+06         0.54708E+05         0.00000E+00
    0.00000E+00         0.00000E+00         0.29329E+05
 
    0.86762E+05         0.12671E+06         0.00000E+00
    0.12671E+06         0.57182E+05         0.00000E+00
    0.00000E+00         0.00000E+00         0.28789E+05
 
    0.81505E+05         0.12837E+06         0.00000E+00
    0.12837E+06         0.59682E+05         0.00000E+00
    0.00000E+00         0.00000E+00         0.28237E+05
 
    0.76165E+05         0.12993E+06         0.00000E+00
    0.12993E+06         0.62205E+05         0.00000E+00
    0.00000E+00         0.00000E+00         0.27674E+05
 
    0.70745E+05         0.13139E+06         0.00000E+00
    0.13139E+06         0.64752E+05         0.00000E+00
    0.00000E+00         0.00000E+00         0.27099E+05
 
    0.65248E+05         0.13274E+06         0.00000E+00
    0.13274E+06         0.67319E+05         0.00000E+00
    0.00000E+00         0.00000E+00         0.26513E+05
 
    0.59675E+05         0.13398E+06         0.00000E+00
    0.13398E+06         0.69906E+05         0.00000E+00
    0.00000E+00         0.00000E+00         0.25916E+05
 
    0.54030E+05         0.13512E+06         0.00000E+00
    0.13512E+06         0.72511E+05         0.00000E+00
    0.00000E+00         0.00000E+00         0.25308E+05
 
    0.48314E+05         0.13615E+06         0.00000E+00
    0.13615E+06         0.75133E+05         0.00000E+00
    0.00000E+00         0.00000E+00         0.24689E+05
 
    0.42528E+05         0.13707E+06         0.00000E+00
    0.13707E+06         0.77770E+05         0.00000E+00
    0.00000E+00         0.00000E+00         0.24060E+05
 
    0.36677E+05         0.13788E+06         0.00000E+00
    0.13788E+06         0.80421E+05         0.00000E+00
    0.00000E+00         0.00000E+00         0.23420E+05
 
    0.30760E+05         0.13858E+06         0.00000E+00
    0.13858E+06         0.83085E+05         0.00000E+00
    0.00000E+00         0.00000E+00         0.22769E+05
 
    0.24781E+05         0.13918E+06         0.00000E+00
    0.13918E+06         0.85761E+05         0.00000E+00
    0.00000E+00         0.00000E+00         0.22108E+05
 
    0.21714E+06         0.23156E+04         0.00000E+00
    0.23156E+04        -0.34091E+02         0.00000E+00
    0.00000E+00         0.00000E+00         0.43420E+05
 
    0.21730E+06         0.69712E+04         0.00000E+00
    0.69712E+04         0.75612E+02         0.00000E+00
    0.00000E+00         0.00000E+00         0.43474E+05
 
    0.21724E+06         0.11629E+05         0.00000E+00
    0.11629E+05         0.29431E+03         0.00000E+00
    0.00000E+00         0.00000E+00         0.43507E+05
 
    0.21697E+06         0.16281E+05         0.00000E+00
    0.16281E+05         0.62128E+03         0.00000E+00
    0.00000E+00         0.00000E+00         0.43517E+05
 
    0.21648E+06         0.20922E+05         0.00000E+00
    0.20922E+05         0.10556E+04         0.00000E+00
    0.00000E+00         0.00000E+00         0.43507E+05
 
    0.21578E+06         0.25546E+05         0.00000E+00
    0.25546E+05         0.15961E+04         0.00000E+00
    0.00000E+00         0.00000E+00         0.43474E+05
 
    0.21486E+06         0.30147E+05         0.00000E+00
    0.30147E+05         0.22415E+04         0.00000E+00
    0.00000E+00         0.00000E+00         0.43421E+05
 
    0.21374E+06         0.34718E+05         0.00000E+00
    0.34718E+05         0.29902E+04         0.00000E+00
    0.00000E+00         0.00000E+00         0.43347E+05
 
    0.21242E+06         0.39254E+05         0.00000E+00
    0.39254E+05         0.38404E+04         0.00000E+00
    0.00000E+00         0.00000E+00         0.43252E+05
 
    0.21089E+06         0.43749E+05         0.00000E+00
    0.43749E+05         0.47903E+04         0.00000E+00
    0.00000E+00         0.00000E+00         0.43136E+05
 
    0.20916E+06         0.48199E+05         0.00000E+00
    0.48199E+05         0.58379E+04         0.00000E+00
    0.00000E+00         0.00000E+00         0.43000E+05
 
    0.20723E+06         0.52599E+05         0.00000E+00
    0.52599E+05         0.69810E+04         0.00000E+00
    0.00000E+00         0.00000E+00         0.42843E+05
 
    0.20512E+06         0.56942E+05         0.00000E+00
    0.56942E+05         0.82174E+04         0.00000E+00
    0.00000E+00         0.00000E+00         0.42667E+05
 
    0.20281E+06         0.61226E+05         0.00000E+00
    0.61226E+05         0.95445E+04         0.00000E+00
    0.00000E+00         0.00000E+00         0.42471E+05
 
    0.20032E+06         0.65446E+05         0.00000E+00
    0.65446E+05         0.10960E+05         0.00000E+00
    0.00000E+00         0.00000E+00         0.42255E+05
 
    0.19764E+06         0.69596E+05         0.00000E+00
    0.69596E+05         0.12461E+05         0.00000E+00
    0.00000E+00         0.00000E+00         0.42020E+05
 
    0.19479E+06         0.73675E+05         0.00000E+00
    0.73675E+05         0.14045E+05         0.00000E+00
    0.00000E+00         0.00000E+00         0.41767E+05
 
    0.19176E+06         0.77677E+05         0.00000E+00
    0.77677E+05         0.15710E+05         0.00000E+00
    0.00000E+00         0.00000E+00         0.41495E+05
 
    0.18857E+06         0.81600E+05         0.00000E+00
    0.81600E+05         0.17452E+05         0.00000E+00
    0.00000E+00         0.00000E+00         0.41204E+05
 
    0.18521E+06         0.85440E+05         0.00000E+00
    0.85440E+05         0.19270E+05         0.00000E+00
    0.00000E+00         0.00000E+00         0.40895E+05
 
    0.18169E+06         0.89194E+05         0.00000E+00
    0.89194E+05         0.21159E+05         0.00000E+00
    0.00000E+00         0.00000E+00         0.40569E+05
 
    0.17801E+06         0.92860E+05         0.00000E+00
    0.92860E+05         0.23117E+05         0.00000E+00
    0.00000E+00         0.00000E+00         0.40226E+05
 
    0.17418E+06         0.96434E+05         0.00000E+00
    0.96434E+05         0.25142E+05         0.00000E+00
    0.00000E+00         0.00000E+00         0.39865E+05
 
    0.17021E+06         0.99915E+05         0.00000E+00
    0.99915E+05         0.27230E+05         0.00000E+00
    0.00000E+00         0.00000E+00         0.39487E+05
 
    0.16609E+06         0.10330E+06         0.00000E+00
    0.10330E+06         0.29379E+05         0.00000E+00
    0.00000E+00         0.00000E+00         0.39093E+05
 
    0.16183E+06         0.10659E+06         0.00000E+00
    0.10659E+06         0.31586E+05         0.00000E+00
    0.00000E+00         0.00000E+00         0.38683E+05
 
    0.15744E+06         0.10977E+06         0.00000E+00
    0.10977E+06         0.33848E+05         0.00000E+00
    0.00000E+00         0.00000E+00         0.38257E+05
 
    0.15291E+06         0.11286E+06         0.00000E+00
    0.11286E+06         0.36162E+05         0.00000E+00
    0.00000E+00         0.00000E+00         0.37815E+05
 
    0.14826E+06         0.11584E+06         0.00000E+00
    0.11584E+06         0.38527E+05         0.00000E+00
    0.00000E+00         0.00000E+00         0.37358E+05
 
    0.14349E+06         0.11872E+06         0.00000E+00
    0.11872E+06         0.40938E+05         0.00000E+00
    0.00000E+00         0.00000E+00         0.36886E+05
 
    0.13860E+06         0.12149E+06         0.00000E+00
    0.12149E+06         0.43394E+05         0.00000E+00
    0.00000E+00         0.00000E+00         0.36399E+05
 
    0.13359E+06         0.12416E+06         0.00000E+00
    0.12416E+06         0.45893E+05         0.00000E+00
    0.00000E+00         0.00000E+00         0.35898E+05
 
    0.12848E+06         0.12672E+06         0.00000E+00
    0.12672E+06         0.48431E+05         0.00000E+00
    0.00000E+00         0.00000E+00         0.35382E+05
 
    0.12326E+06         0.12917E+06         0.00000E+00
    0.12917E+06         0.51006E+05         0.00000E+00
    0.00000E+00         0.00000E+00         0.34853E+05
 
    0.11793E+06         0.13151E+06         0.00000E+00
    0.13151E+06         0.53617E+05         0.00000E+00
    0.00000E+00         0.00000E+00         0.34310E+05
 
    0.11250E+06         0.13374E+06         0.00000E+00
    0.13374E+06         0.56261E+05         0.00000E+00
    0.00000E+00         0.00000E+00         0.33753E+05
 
    0.10698E+06         0.13586E+06         0.00000E+00
    0.13586E+06         0.58936E+05         0.00000E+00
    0.00000E+00         0.00000E+00         0.33183E+05
 
    0.10136E+06         0.13788E+06         0.00000E+00
    0.13788E+06         0.61639E+05         0.00000E+00
    0.00000E+00         0.00000E+00         0.32601E+05
 
    0.95656E+05         0.13977E+06         0.00000E+00
    0.13977E+06         0.64370E+05         0.00000E+00
    0.00000E+00         0.00000E+00         0.32005E+05
 
    0.89860E+05         0.14156E+06         0.00000E+00
    0.14156E+06         0.67126E+05         0.00000E+00
    0.00000E+00         0.00000E+00         0.31397E+05
 
    0.83979E+05         0.14324E+06         0.00000E+00
    0.14324E+06         0.69906E+05         0.00000E+00
    0.00000E+00         0.00000E+00         0.30777E+05
 
    0.78016E+05         0.14480E+06         0.00000E+00
    0.14480E+06         0.72708E+05         0.00000E+00
    0.00000E+00         0.00000E+00         0.30145E+05
 
    0.71972E+05         0.14625E+06         0.00000E+00
    0.14625E+06         0.75530E+05         0.00000E+00
    0.00000E+00         0.00000E+00         0.29500E+05
 
    0.65850E+05         0.14759E+06         0.00000E+00
    0.14759E+06         0.78371E+05         0.00000E+00
    0.00000E+00         0.00000E+00         0.28844E+05
 
    0.59652E+05         0.14881E+06         0.00000E+00
    0.14881E+06         0.81230E+05         0.00000E+00
    0.00000E+00         0.00000E+00         0.28176E+05
 
    0.53381E+05         0.14992E+06         0.00000E+00
    0.14992E+06         0.84105E+05         0.00000E+00
    0.00000E+00         0.00000E+00         0.27497E+05
 
    0.47038E+05         0.15092E+06         0.00000E+00
    0.15092E+06         0.86996E+05         0.00000E+00
    0.00000E+00         0.00000E+00         0.26807E+05
 
    0.40624E+05         0.15180E+06         0.00000E+00
    0.15180E+06         0.89900E+05         0.00000E+00
    0.00000E+00         0.00000E+00         0.26105E+05
 
    0.34143E+05         0.15256E+06         0.00000E+00
    0.15256E+06         0.92818E+05         0.00000E+00
    0.00000E+00         0.00000E+00         0.25392E+05
 
    0.27595E+05         0.15321E+06         0.00000E+00
    0.15321E+06         0.95748E+05         0.00000E+00
    0.00000E+00         0.00000E+00         0.24668E+05
 
    0.24184E+06         0.26134E+04         0.00000E+00
    0.26134E+04        -0.39743E+02         0.00000E+00
    0.00000E+00         0.00000E+00         0.48361E+05
 
    0.24202E+06         0.78594E+04         0.00000E+00
    0.78594E+04         0.89174E+02         0.00000E+00
    0.00000E+00         0.00000E+00         0.48422E+05
 
    0.24194E+06         0.13103E+05         0.00000E+00
    0.13103E+05         0.34533E+03         0.00000E+00
    0.00000E+00         0.00000E+00         0.48458E+05
 
    0.24162E+06         0.18337E+05         0.00000E+00
    0.18337E+05         0.72752E+03         0.00000E+00
    0.00000E+00         0.00000E+00         0.48469E+05
 
    0.24104E+06         0.23552E+05         0.00000E+00
    0.23552E+05         0.12342E+04         0.00000E+00
    0.00000E+00         0.00000E+00         0.48455E+05
 
    0.24022E+06         0.28743E+05         0.00000E+00
    0.28743E+05         0.18638E+04         0.00000E+00
    0.00000E+00         0.00000E+00         0.48416E+05
 
    0.23915E+06         0.33902E+05         0.00000E+00
    0.33902E+05         0.26141E+04         0.00000E+00
    0.00000E+00         0.00000E+00         0.48353E+05
 
    0.23785E+06         0.39021E+05         0.00000E+00
    0.39021E+05         0.34831E+04         0.00000E+00
    0.00000E+00         0.00000E+00         0.48266E+05
 
    0.23631E+06         0.44095E+05         0.00000E+00
    0.44095E+05         0.44684E+04         0.00000E+00
    0.00000E+00         0.00000E+00         0.48155E+05
 
    0.23453E+06         0.49117E+05         0.00000E+00
    0.49117E+05         0.55673E+04         0.00000E+00
    0.00000E+00         0.00000E+00         0.48020E+05
 
    0.23253E+06         0.54081E+05         0.00000E+00
    0.54081E+05         0.67772E+04         0.00000E+00
    0.00000E+00         0.00000E+00         0.47862E+05
 
    0.23031E+06         0.58982E+05         0.00000E+00
    0.58982E+05         0.80951E+04         0.00000E+00
    0.00000E+00         0.00000E+00         0.47681E+05
 
    0.22787E+06         0.63814E+05         0.00000E+00
    0.63814E+05         0.95180E+04         0.00000E+00
    0.00000E+00         0.00000E+00         0.47478E+05
 
    0.22522E+06         0.68571E+05         0.00000E+00
    0.68571E+05         0.11043E+05         0.00000E+00
    0.00000E+00         0.00000E+00         0.47252E+05
 
    0.22236E+06         0.73250E+05         0.00000E+00
    0.73250E+05         0.12666E+05         0.00000E+00
    0.00000E+00         0.00000E+00         0.47004E+05
 
    0.21929E+06         0.77846E+05         0.00000E+00
    0.77846E+05         0.14385E+05         0.00000E+00
    0.00000E+00         0.00000E+00         0.46735E+05
 
    0.21603E+06         0.82354E+05         0.00000E+00
    0.82354E+05         0.16196E+05         0.00000E+00
    0.00000E+00         0.00000E+00         0.46445E+05
 
    0.21258E+06         0.86771E+05         0.00000E+00
    0.86771E+05         0.18095E+05         0.00000E+00
    0.00000E+00         0.00000E+00         0.46135E+05
 
    0.20894E+06         0.91092E+05         0.00000E+00
    0.91092E+05         0.20080E+05         0.00000E+00
    0.00000E+00         0.00000E+00         0.45804E+05
 
    0.20512E+06         0.95315E+05         0.00000E+00
    0.95315E+05         0.22146E+05         0.00000E+00
    0.00000E+00         0.00000E+00         0.45453E+05
 
    0.20112E+06         0.99437E+05         0.00000E+00
    0.99437E+05         0.24290E+05         0.00000E+00
    0.00000E+00         0.00000E+00         0.45083E+05
 
    0.19696E+06         0.10345E+06         0.00000E+00
    0.10345E+06         0.26508E+05         0.00000E+00
    0.00000E+00         0.00000E+00         0.44694E+05
 
    0.19263E+06         0.10736E+06         0.00000E+00
    0.10736E+06         0.28798E+05         0.00000E+00
    0.00000E+00         0.00000E+00         0.44286E+05
 
    0.18814E+06         0.11116E+06         0.00000E+00
    0.11116E+06         0.31155E+05         0.00000E+00
    0.00000E+00         0.00000E+00         0.43860E+05
 
    0.18350E+06         0.11485E+06         0.00000E+00
    0.11485E+06         0.33576E+05         0.00000E+00
    0.00000E+00         0.00000E+00         0.43416E+05
 
    0.17871E+06         0.11843E+06         0.00000E+00
    0.11843E+06         0.36059E+05         0.00000E+00
    0.00000E+00         0.00000E+00         0.42954E+05
 
    0.17378E+06         0.12189E+06         0.00000E+00
    0.12189E+06         0.38598E+05         0.00000E+00
    0.00000E+00         0.00000E+00         0.42476E+05
 
    0.16871E+06         0.12524E+06         0.00000E+00
    0.12524E+06         0.41192E+05         0.00000E+00
    0.00000E+00         0.00000E+00         0.41981E+05
 
    0.16351E+06         0.12847E+06         0.00000E+00
    0.12847E+06         0.43838E+05         0.00000E+00
    0.00000E+00         0.00000E+00         0.41469E+05
 
    0.15818E+06         0.13158E+06         0.00000E+00
    0.13158E+06         0.46531E+05         0.00000E+00
    0.00000E+00         0.00000E+00         0.40942E+05
 
    0.15273E+06         0.13457E+06         0.00000E+00
    0.13457E+06         0.49270E+05         0.00000E+00
    0.00000E+00         0.00000E+00         0.40399E+05
 
    0.14715E+06         0.13744E+06         0.00000E+00
    0.13744E+06         0.52050E+05         0.00000E+00
    0.00000E+00         0.00000E+00         0.39841E+05
 
    0.14147E+06         0.14019E+06         0.00000E+00
    0.14019E+06         0.54871E+05         0.00000E+00
    0.00000E+00         0.00000E+00         0.39268E+05
 
    0.13567E+06         0.14282E+06         0.00000E+00
    0.14282E+06         0.57728E+05         0.00000E+00
    0.00000E+00         0.00000E+00         0.38680E+05
 
    0.12977E+06         0.14534E+06         0.00000E+00
    0.14534E+06         0.60619E+05         0.00000E+00
    0.00000E+00         0.00000E+00         0.38078E+05
 
    0.12377E+06         0.14772E+06         0.00000E+00
    0.14772E+06         0.63543E+05         0.00000E+00
    0.00000E+00         0.00000E+00         0.37462E+05
 
    0.11767E+06         0.14999E+06         0.00000E+00
    0.14999E+06         0.66496E+05         0.00000E+00
    0.00000E+00         0.00000E+00         0.36832E+05
 
    0.11147E+06         0.15214E+06         0.00000E+00
    0.15214E+06         0.69477E+05         0.00000E+00
    0.00000E+00         0.00000E+00         0.36189E+05
 
    0.10518E+06         0.15417E+06         0.00000E+00
    0.15417E+06         0.72483E+05         0.00000E+00
    0.00000E+00         0.00000E+00         0.35533E+05
 
    0.98804E+05         0.15607E+06         0.00000E+00
    0.15607E+06         0.75513E+05         0.00000E+00
    0.00000E+00         0.00000E+00         0.34864E+05
 
    0.92342E+05         0.15786E+06         0.00000E+00
    0.15786E+06         0.78566E+05         0.00000E+00
    0.00000E+00         0.00000E+00         0.34182E+05
 
    0.85796E+05         0.15953E+06         0.00000E+00
    0.15953E+06         0.81638E+05         0.00000E+00
    0.00000E+00         0.00000E+00         0.33487E+05
 
    0.79170E+05         0.16107E+06         0.00000E+00
    0.16107E+06         0.84730E+05         0.00000E+00
    0.00000E+00         0.00000E+00         0.32780E+05
 
    0.72465E+05         0.16250E+06         0.00000E+00
    0.16250E+06         0.87839E+05         0.00000E+00
    0.00000E+00         0.00000E+00         0.32061E+05
 
    0.65684E+05         0.16380E+06         0.00000E+00
    0.16380E+06         0.90964E+05         0.00000E+00
    0.00000E+00         0.00000E+00         0.31330E+05
 
    0.58828E+05         0.16499E+06         0.00000E+00
    0.16499E+06         0.94105E+05         0.00000E+00
    0.00000E+00         0.00000E+00         0.30587E+05
 
    0.51899E+05         0.16606E+06         0.00000E+00
    0.16606E+06         0.97259E+05         0.00000E+00
    0.00000E+00         0.00000E+00         0.29832E+05
 
    0.44899E+05         0.16701E+06         0.00000E+00
    0.16701E+06         0.10043E+06         0.00000E+00
    0.00000E+00         0.00000E+00         0.29065E+05
 
    0.37828E+05         0.16783E+06         0.00000E+00
    0.16783E+06         0.10361E+06         0.00000E+00
    0.00000E+00         0.00000E+00         0.28287E+05
 
    0.30688E+05         0.16854E+06         0.00000E+00
    0.16854E+06         0.10680E+06         0.00000E+00
    0.00000E+00         0.00000E+00         0.27498E+05
 
    0.26976E+06         0.29649E+04         0.00000E+00
    0.29649E+04        -0.46492E+02         0.00000E+00
    0.00000E+00         0.00000E+00         0.53943E+05
 
    0.26993E+06         0.89026E+04         0.00000E+00
    0.89026E+04         0.10571E+03         0.00000E+00
    0.00000E+00         0.00000E+00         0.54007E+05
 
    0.26981E+06         0.14831E+05         0.00000E+00
    0.14831E+05         0.40701E+03         0.00000E+00
    0.00000E+00         0.00000E+00         0.54043E+05
 
    0.26939E+06         0.20741E+05         0.00000E+00
    0.20741E+05         0.85546E+03         0.00000E+00
    0.00000E+00         0.00000E+00         0.54048E+05
 
    0.26868E+06         0.26623E+05         0.00000E+00
    0.26623E+05         0.14488E+04         0.00000E+00
    0.00000E+00         0.00000E+00         0.54025E+05
 
    0.26768E+06         0.32469E+05         0.00000E+00
    0.32469E+05         0.21845E+04         0.00000E+00
    0.00000E+00         0.00000E+00         0.53974E+05
 
    0.26641E+06         0.38270E+05         0.00000E+00
    0.38270E+05         0.30597E+04         0.00000E+00
    0.00000E+00         0.00000E+00         0.53894E+05
 
    0.26486E+06         0.44019E+05         0.00000E+00
    0.44019E+05         0.40714E+04         0.00000E+00
    0.00000E+00         0.00000E+00         0.53786E+05
 
    0.26304E+06         0.49707E+05         0.00000E+00
    0.49707E+05         0.52162E+04         0.00000E+00
    0.00000E+00         0.00000E+00         0.53651E+05
 
    0.26095E+06         0.55328E+05         0.00000E+00
    0.55328E+05         0.64908E+04         0.00000E+00
    0.00000E+00         0.00000E+00         0.53488E+05
 
    0.25861E+06         0.60876E+05         0.00000E+00
    0.60876E+05         0.78913E+04         0.00000E+00
    0.00000E+00         0.00000E+00         0.53300E+05
 
    0.25601E+06         0.66342E+05         0.00000E+00
    0.66342E+05         0.94141E+04         0.00000E+00
    0.00000E+00         0.00000E+00         0.53085E+05
 
    0.25317E+06         0.71722E+05         0.00000E+00
    0.71722E+05         0.11055E+05         0.00000E+00
    0.00000E+00         0.00000E+00         0.52845E+05
 
    0.25009E+06         0.77010E+05         0.00000E+00
    0.77010E+05         0.12810E+05         0.00000E+00
    0.00000E+00         0.00000E+00         0.52580E+05
 
    0.24678E+06         0.82201E+05         0.00000E+00
    0.82201E+05         0.14675E+05         0.00000E+00
    0.00000E+00         0.00000E+00         0.52291E+05
 
    0.24324E+06         0.87289E+05         0.00000E+00
    0.87289E+05         0.16646E+05         0.00000E+00
    0.00000E+00         0.00000E+00         0.51978E+05
 
    0.23949E+06         0.92271E+05         0.00000E+00
    0.92271E+05         0.18719E+05         0.00000E+00
    0.00000E+00         0.00000E+00         0.51641E+05
 
    0.23552E+06         0.97142E+05         0.00000E+00
    0.97142E+05         0.20888E+05         0.00000E+00
    0.00000E+00         0.00000E+00         0.51282E+05
 
    0.23135E+06         0.10190E+06         0.00000E+00
    0.10190E+06         0.23150E+05         0.00000E+00
    0.00000E+00         0.00000E+00         0.50900E+05
 
    0.22698E+06         0.10654E+06         0.00000E+00
    0.10654E+06         0.25501E+05         0.00000E+00
    0.00000E+00         0.00000E+00         0.50497E+05
 
    0.22243E+06         0.11105E+06         0.00000E+00
    0.11105E+06         0.27935E+05         0.00000E+00
    0.00000E+00         0.00000E+00         0.50072E+05
 
    0.21769E+06         0.11545E+06         0.00000E+00
    0.11545E+06         0.30449E+05         0.00000E+00
    0.00000E+00         0.00000E+00         0.49627E+05
 
    0.21277E+06         0.11971E+06         0.00000E+00
    0.11971E+06         0.33039E+05         0.00000E+00
    0.00000E+00         0.00000E+00         0.49162E+05
 
    0.20769E+06         0.12385E+06         0.00000E+00
    0.12385E+06         0.35700E+05         0.00000E+00
    0.00000E+00         0.00000E+00         0.48677E+05
 
    0.20244E+06         0.12786E+06         0.00000E+00
    0.12786E+06         0.38428E+05         0.00000E+00
    0.00000E+00         0.00000E+00         0.48173E+05
 
    0.19704E+06         0.13174E+06         0.00000E+00
    0.13174E+06         0.41218E+05         0.00000E+00
    0.00000E+00         0.00000E+00         0.47651E+05
 
    0.19148E+06         0.13548E+06         0.00000E+00
    0.13548E+06         0.44068E+05         0.00000E+00
    0.00000E+00         0.00000E+00         0.47110E+05
 
    0.18579E+06         0.13910E+06         0.00000E+00
    0.13910E+06         0.46973E+05         0.00000E+00
    0.00000E+00         0.00000E+00         0.46552E+05
 
    0.17996E+06         0.14257E+06         0.00000E+00
    0.14257E+06         0.49930E+05         0.00000E+00
    0.00000E+00         0.00000E+00         0.45977E+05
 
    0.17399E+06         0.14592E+06         0.00000E+00
    0.14592E+06         0.52934E+05         0.00000E+00
    0.00000E+00         0.00000E+00         0.45386E+05
 
    0.16791E+06         0.14913E+06         0.00000E+00
    0.14913E+06         0.55983E+05         0.00000E+00
    0.00000E+00         0.00000E+00         0.44778E+05
 
    0.16170E+06         0.15220E+06         0.00000E+00
    0.15220E+06         0.59073E+05         0.00000E+00
    0.00000E+00         0.00000E+00         0.44155E+05
 
    0.15538E+06         0.15514E+06         0.00000E+00
    0.15514E+06         0.62201E+05         0.00000E+00
    0.00000E+00         0.00000E+00         0.43516E+05
 
    0.14895E+06         0.15794E+06         0.00000E+00
    0.15794E+06         0.65364E+05         0.00000E+00
    0.00000E+00         0.00000E+00         0.42862E+05
 
    0.14241E+06         0.16061E+06         0.00000E+00
    0.16061E+06         0.68559E+05         0.00000E+00
    0.00000E+00         0.00000E+00         0.42194E+05
 
    0.13577E+06         0.16315E+06         0.00000E+00
    0.16315E+06         0.71784E+05         0.00000E+00
    0.00000E+00         0.00000E+00         0.41511E+05
 
    0.12904E+06         0.16556E+06         0.00000E+00
    0.16556E+06         0.75035E+05         0.00000E+00
    0.00000E+00         0.00000E+00         0.40815E+05
 
    0.12221E+06         0.16783E+06         0.00000E+00
    0.16783E+06         0.78312E+05         0.00000E+00
    0.00000E+00         0.00000E+00         0.40105E+05
 
    0.11530E+06         0.16998E+06         0.00000E+00
    0.16998E+06         0.81611E+05         0.00000E+00
    0.00000E+00         0.00000E+00         0.39382E+05
 
    0.10830E+06         0.17199E+06         0.00000E+00
    0.17199E+06         0.84931E+05         0.00000E+00
    0.00000E+00         0.00000E+00         0.38646E+05
 
    0.10121E+06         0.17388E+06         0.00000E+00
    0.17388E+06         0.88269E+05         0.00000E+00
    0.00000E+00         0.00000E+00         0.37897E+05
 
    0.94049E+05         0.17564E+06         0.00000E+00
    0.17564E+06         0.91626E+05         0.00000E+00
    0.00000E+00         0.00000E+00         0.37135E+05
 
    0.86807E+05         0.17727E+06         0.00000E+00
    0.17727E+06         0.94998E+05         0.00000E+00
    0.00000E+00         0.00000E+00         0.36361E+05
 
    0.79490E+05         0.17877E+06         0.00000E+00
    0.17877E+06         0.98385E+05         0.00000E+00
    0.00000E+00         0.00000E+00         0.35575E+05
 
    0.72098E+05         0.18015E+06         0.00000E+00
    0.18015E+06         0.10179E+06         0.00000E+00
    0.00000E+00         0.00000E+00         0.34777E+05
 
    0.64633E+05         0.18141E+06         0.00000E+00
    0.18141E+06         0.10520E+06         0.00000E+00
    0.00000E+00         0.00000E+00         0.33967E+05
 
    0.57097E+05         0.18254E+06         0.00000E+00
    0.18254E+06         0.10863E+06         0.00000E+00
    0.00000E+00         0.00000E+00         0.33145E+05
 
    0.49491E+05         0.18355E+06         0.00000E+00
    0.18355E+06         0.11207E+06         0.00000E+00
    0.00000E+00         0.00000E+00         0.32312E+05
 
    0.41814E+05         0.18444E+06         0.00000E+00
    0.18444E+06         0.11552E+06         0.00000E+00
    0.00000E+00         0.00000E+00         0.31466E+05
 
    0.34069E+05         0.18521E+06         0.00000E+00
    0.18521E+06         0.11898E+06         0.00000E+00
    0.00000E+00         0.00000E+00         0.30610E+05
 
    0.30145E+06         0.33817E+04         0.00000E+00
    0.33817E+04        -0.54521E+02         0.00000E+00
    0.00000E+00         0.00000E+00         0.60279E+05
 
    0.30157E+06         0.10133E+05         0.00000E+00
    0.10133E+05         0.12583E+03         0.00000E+00
    0.00000E+00         0.00000E+00         0.60340E+05
 
    0.30135E+06         0.16863E+05         0.00000E+00
    0.16863E+05         0.48134E+03         0.00000E+00
    0.00000E+00         0.00000E+00         0.60366E+05
 
    0.30078E+06         0.23562E+05         0.00000E+00
    0.23562E+05         0.10090E+04         0.00000E+00
    0.00000E+00         0.00000E+00         0.60358E+05
 
    0.29988E+06         0.30218E+05         0.00000E+00
    0.30218E+05         0.17056E+04         0.00000E+00
    0.00000E+00         0.00000E+00         0.60317E+05
 
    0.29864E+06         0.36823E+05         0.00000E+00
    0.36823E+05         0.25674E+04         0.00000E+00
    0.00000E+00         0.00000E+00         0.60242E+05
 
    0.29708E+06         0.43365E+05         0.00000E+00
    0.43365E+05         0.35905E+04         0.00000E+00
    0.00000E+00         0.00000E+00         0.60134E+05
 
    0.29520E+06         0.49836E+05         0.00000E+00
    0.49836E+05         0.47707E+04         0.00000E+00
    0.00000E+00         0.00000E+00         0.59994E+05
 
    0.29301E+06         0.56228E+05         0.00000E+00
    0.56228E+05         0.61035E+04         0.00000E+00
    0.00000E+00         0.00000E+00         0.59823E+05
 
    0.29052E+06         0.62531E+05         0.00000E+00
    0.62531E+05         0.75841E+04         0.00000E+00
    0.00000E+00         0.00000E+00         0.59622E+05
 
    0.28774E+06         0.68739E+05         0.00000E+00
    0.68739E+05         0.92079E+04         0.00000E+00
    0.00000E+00         0.00000E+00         0.59390E+05
 
    0.28467E+06         0.74844E+05         0.00000E+00
    0.74844E+05         0.10970E+05         0.00000E+00
    0.00000E+00         0.00000E+00         0.59128E+05
 
    0.28133E+06         0.80839E+05         0.00000E+00
    0.80839E+05         0.12864E+05         0.00000E+00
    0.00000E+00         0.00000E+00         0.58839E+05
 
    0.27772E+06         0.86719E+05         0.00000E+00
    0.86719E+05         0.14887E+05         0.00000E+00
    0.00000E+00         0.00000E+00         0.58521E+05
 
    0.27385E+06         0.92478E+05         0.00000E+00
    0.92478E+05         0.17031E+05         0.00000E+00
    0.00000E+00         0.00000E+00         0.58176E+05
 
    0.26973E+06         0.98110E+05         0.00000E+00
    0.98110E+05         0.19293E+05         0.00000E+00
    0.00000E+00         0.00000E+00         0.57804E+05
 
    0.26537E+06         0.10361E+06         0.00000E+00
    0.10361E+06         0.21665E+05         0.00000E+00
    0.00000E+00         0.00000E+00         0.57407E+05
 
    0.26078E+06         0.10898E+06         0.00000E+00
    0.10898E+06         0.24144E+05         0.00000E+00
    0.00000E+00         0.00000E+00         0.56985E+05
 
    0.25597E+06         0.11420E+06         0.00000E+00
    0.11420E+06         0.26723E+05         0.00000E+00
    0.00000E+00         0.00000E+00         0.56539E+05
 
    0.25095E+06         0.11929E+06         0.00000E+00
    0.11929E+06         0.29398E+05         0.00000E+00
    0.00000E+00         0.00000E+00         0.56069E+05
 
    0.24572E+06         0.12423E+06         0.00000E+00
    0.12423E+06         0.32162E+05         0.00000E+00
    0.00000E+00         0.00000E+00         0.55576E+05
 
    0.24030E+06         0.12902E+06         0.00000E+00
    0.12902E+06         0.35010E+05         0.00000E+00
    0.00000E+00         0.00000E+00         0.55061E+05
 
    0.23469E+06         0.13366E+06         0.00000E+00
    0.13366E+06         0.37938E+05         0.00000E+00
    0.00000E+00         0.00000E+00         0.54525E+05
 
    0.22890E+06         0.13815E+06         0.00000E+00
    0.13815E+06         0.40939E+05         0.00000E+00
    0.00000E+00         0.00000E+00         0.53968E+05
 
    0.22295E+06         0.14249E+06         0.00000E+00
    0.14249E+06         0.44010E+05         0.00000E+00
    0.00000E+00         0.00000E+00         0.53392E+05
 
    0.21683E+06         0.14668E+06         0.00000E+00
    0.14668E+06         0.47144E+05         0.00000E+00
    0.00000E+00         0.00000E+00         0.52795E+05
 
    0.21056E+06         0.15071E+06         0.00000E+00
    0.15071E+06         0.50338E+05         0.00000E+00
    0.00000E+00         0.00000E+00         0.52181E+05
 
    0.20415E+06         0.15459E+06         0.00000E+00
    0.15459E+06         0.53587E+05         0.00000E+00
    0.00000E+00         0.00000E+00         0.51548E+05
 
    0.19760E+06         0.15831E+06         0.00000E+00
    0.15831E+06         0.56886E+05         0.00000E+00
    0.00000E+00         0.00000E+00         0.50897E+05
 
    0.19092E+06         0.16188E+06         0.00000E+00
    0.16188E+06         0.60232E+05         0.00000E+00
    0.00000E+00         0.00000E+00         0.50230E+05
 
    0.18412E+06         0.16530E+06         0.00000E+00
    0.16530E+06         0.63619E+05         0.00000E+00
    0.00000E+00         0.00000E+00         0.49547E+05
 
    0.17719E+06         0.16856E+06         0.00000E+00
    0.16856E+06         0.67045E+05         0.00000E+00
    0.00000E+00         0.00000E+00         0.48848E+05
 
    0.17016E+06         0.17168E+06         0.00000E+00
    0.17168E+06         0.70506E+05         0.00000E+00
    0.00000E+00         0.00000E+00         0.48133E+05
 
    0.16302E+06         0.17464E+06         0.00000E+00
    0.17464E+06         0.73998E+05         0.00000E+00
    0.00000E+00         0.00000E+00         0.47404E+05
 
    0.15579E+06         0.17746E+06         0.00000E+00
    0.17746E+06         0.77518E+05         0.00000E+00
    0.00000E+00         0.00000E+00         0.46661E+05
 
    0.14845E+06         0.18013E+06         0.00000E+00
    0.18013E+06         0.81063E+05         0.00000E+00
    0.00000E+00         0.00000E+00         0.45903E+05
 
    0.14103E+06         0.18265E+06         0.00000E+00
    0.18265E+06         0.84631E+05         0.00000E+00
    0.00000E+00         0.00000E+00         0.45132E+05
 
    0.13352E+06         0.18504E+06         0.00000E+00
    0.18504E+06         0.88219E+05         0.00000E+00
    0.00000E+00         0.00000E+00         0.44348E+05
 
    0.12593E+06         0.18728E+06         0.00000E+00
    0.18728E+06         0.91826E+05         0.00000E+00
    0.00000E+00         0.00000E+00         0.43552E+05
 
    0.11827E+06         0.18938E+06         0.00000E+00
    0.18938E+06         0.95448E+05         0.00000E+00
    0.00000E+00         0.00000E+00         0.42743E+05
 
    0.11052E+06         0.19135E+06         0.00000E+00
    0.19135E+06         0.99084E+05         0.00000E+00
    0.00000E+00         0.00000E+00         0.41921E+05
 
    0.10271E+06         0.19318E+06         0.00000E+00
    0.19318E+06         0.10273E+06         0.00000E+00
    0.00000E+00         0.00000E+00         0.41088E+05
 
    0.94818E+05         0.19488E+06         0.00000E+00
    0.19488E+06         0.10639E+06         0.00000E+00
    0.00000E+00         0.00000E+00         0.40243E+05
 
    0.86863E+05         0.19645E+06         0.00000E+00
    0.19645E+06         0.11007E+06         0.00000E+00
    0.00000E+00         0.00000E+00         0.39386E+05
 
    0.78840E+05         0.19789E+06         0.00000E+00
    0.19789E+06         0.11375E+06         0.00000E+00
    0.00000E+00         0.00000E+00         0.38518E+05
 
    0.70750E+05         0.19920E+06         0.00000E+00
    0.19920E+06         0.11744E+06         0.00000E+00
    0.00000E+00         0.00000E+00         0.37638E+05
 
    0.62595E+05         0.20039E+06         0.00000E+00
    0.20039E+06         0.12114E+06         0.00000E+00
    0.00000E+00         0.00000E+00         0.36747E+05
 
    0.54374E+05         0.20145E+06         0.00000E+00
    0.20145E+06         0.12485E+06         0.00000E+00
    0.00000E+00         0.00000E+00         0.35845E+05
 
    0.46088E+05         0.20239E+06         0.00000E+00
    0.20239E+06         0.12857E+06         0.00000E+00
    0.00000E+00         0.00000E+00         0.34932E+05
 
    0.37735E+05         0.20322E+06         0.00000E+00
    0.20322E+06         0.13230E+06         0.00000E+00
    0.00000E+00         0.00000E+00         0.34008E+05
 
    0.33759E+06         0.38773E+04         0.00000E+00
    0.38773E+04        -0.64016E+02         0.00000E+00
    0.00000E+00         0.00000E+00         0.67505E+05
 
    0.33760E+06         0.11586E+05         0.00000E+00
    0.11586E+05         0.15017E+03         0.00000E+00
    0.00000E+00         0.00000E+00         0.67551E+05
 
    0.33721E+06         0.19258E+05         0.00000E+00
    0.19258E+05         0.57043E+03         0.00000E+00
    0.00000E+00         0.00000E+00         0.67555E+05
 
    0.33641E+06         0.26879E+05         0.00000E+00
    0.26879E+05         0.11924E+04         0.00000E+00
    0.00000E+00         0.00000E+00         0.67520E+05
 
    0.33521E+06         0.34436E+05         0.00000E+00
    0.34436E+05         0.20113E+04         0.00000E+00
    0.00000E+00         0.00000E+00         0.67445E+05
 
    0.33363E+06         0.41920E+05         0.00000E+00
    0.41920E+05         0.30221E+04         0.00000E+00
    0.00000E+00         0.00000E+00         0.67331E+05
 
    0.33168E+06         0.49317E+05         0.00000E+00
    0.49317E+05         0.42193E+04         0.00000E+00
    0.00000E+00         0.00000E+00         0.67180E+05
 
    0.32936E+06         0.56618E+05         0.00000E+00
    0.56618E+05         0.55971E+04         0.00000E+00
    0.00000E+00         0.00000E+00         0.66992E+05
 
    0.32669E+06         0.63812E+05         0.00000E+00
    0.63812E+05         0.71497E+04         0.00000E+00
    0.00000E+00         0.00000E+00         0.66768E+05
 
    0.32367E+06         0.70891E+05         0.00000E+00
    0.70891E+05         0.88708E+04         0.00000E+00
    0.00000E+00         0.00000E+00         0.66509E+05
 
    0.32033E+06         0.77847E+05         0.00000E+00
    0.77847E+05         0.10754E+05         0.00000E+00
    0.00000E+00         0.00000E+00         0.66216E+05
 
    0.31666E+06         0.84670E+05         0.00000E+00
    0.84670E+05         0.12793E+05         0.00000E+00
    0.00000E+00         0.00000E+00         0.65890E+05
 
    0.31268E+06         0.91354E+05         0.00000E+00
    0.91354E+05         0.14980E+05         0.00000E+00
    0.00000E+00         0.00000E+00         0.65532E+05
 
    0.30840E+06         0.97893E+05         0.00000E+00
    0.97893E+05         0.17310E+05         0.00000E+00
    0.00000E+00         0.00000E+00         0.65142E+05
 
    0.30384E+06         0.10428E+06         0.00000E+00
    0.10428E+06         0.19776E+05         0.00000E+00
    0.00000E+00         0.00000E+00         0.64723E+05
 
    0.29900E+06         0.11051E+06         0.00000E+00
    0.11051E+06         0.22370E+05         0.00000E+00
    0.00000E+00         0.00000E+00         0.64275E+05
 
    0.29390E+06         0.11658E+06         0.00000E+00
    0.11658E+06         0.25085E+05         0.00000E+00
    0.00000E+00         0.00000E+00         0.63798E+05
 
    0.28856E+06         0.12248E+06         0.00000E+00
    0.12248E+06         0.27916E+05         0.00000E+00
    0.00000E+00         0.00000E+00         0.63294E+05
 
    0.28297E+06         0.12822E+06         0.00000E+00
    0.12822E+06         0.30854E+05         0.00000E+00
    0.00000E+00         0.00000E+00         0.62764E+05
 
    0.27715E+06         0.13378E+06         0.00000E+00
    0.13378E+06         0.33894E+05         0.00000E+00
    0.00000E+00         0.00000E+00         0.62209E+05
 
    0.27112E+06         0.13916E+06         0.00000E+00
    0.13916E+06         0.37029E+05         0.00000E+00
    0.00000E+00         0.00000E+00         0.61630E+05
 
    0.26489E+06         0.14437E+06         0.00000E+00
    0.14437E+06         0.40252E+05         0.00000E+00
    0.00000E+00         0.00000E+00         0.61028E+05
 
    0.25846E+06         0.14941E+06         0.00000E+00
    0.14941E+06         0.43557E+05         0.00000E+00
    0.00000E+00         0.00000E+00         0.60403E+05
 
    0.25184E+06         0.15426E+06         0.00000E+00
    0.15426E+06         0.46938E+05         0.00000E+00
    0.00000E+00         0.00000E+00         0.59757E+05
 
    0.24506E+06         0.15893E+06         0.00000E+00
    0.15893E+06         0.50389E+05         0.00000E+00
    0.00000E+00         0.00000E+00         0.59090E+05
 
    0.23811E+06         0.16342E+06         0.00000E+00
    0.16342E+06         0.53903E+05         0.00000E+00
    0.00000E+00         0.00000E+00         0.58403E+05
 
    0.23102E+06         0.16774E+06         0.00000E+00
    0.16774E+06         0.57475E+05         0.00000E+00
    0.00000E+00         0.00000E+00         0.57698E+05
 
    0.22377E+06         0.17187E+06         0.00000E+00
    0.17187E+06         0.61101E+05         0.00000E+00
    0.00000E+00         0.00000E+00         0.56975E+05
 
    0.21640E+06         0.17583E+06         0.00000E+00
    0.17583E+06         0.64773E+05         0.00000E+00
    0.00000E+00         0.00000E+00         0.56234E+05
 
    0.20890E+06         0.17961E+06         0.00000E+00
    0.17961E+06         0.68489E+05         0.00000E+00
    0.00000E+00         0.00000E+00         0.55477E+05
 
    0.20128E+06         0.18322E+06         0.00000E+00
    0.18322E+06         0.72242E+05         0.00000E+00
    0.00000E+00         0.00000E+00         0.54705E+05
 
    0.19355E+06         0.18666E+06         0.00000E+00
    0.18666E+06         0.76029E+05         0.00000E+00
    0.00000E+00         0.00000E+00         0.53917E+05
 
    0.18573E+06         0.18993E+06         0.00000E+00
    0.18993E+06         0.79846E+05         0.00000E+00
    0.00000E+00         0.00000E+00         0.53114E+05
 
    0.17780E+06         0.19303E+06         0.00000E+00
    0.19303E+06         0.83688E+05         0.00000E+00
    0.00000E+00         0.00000E+00         0.52298E+05
 
    0.16979E+06         0.19596E+06         0.00000E+00
    0.19596E+06         0.87552E+05         0.00000E+00
    0.00000E+00         0.00000E+00         0.51469E+05
 
    0.16170E+06         0.19874E+06         0.00000E+00
    0.19874E+06         0.91435E+05         0.00000E+00
    0.00000E+00         0.00000E+00         0.50627E+05
 
    0.15353E+06         0.20135E+06         0.00000E+00
    0.20135E+06         0.95334E+05         0.00000E+00
    0.00000E+00         0.00000E+00         0.49772E+05
 
    0.14528E+06         0.20382E+06         0.00000E+00
    0.20382E+06         0.99246E+05         0.00000E+00
    0.00000E+00         0.00000E+00         0.48906E+05
 
    0.13697E+06         0.20613E+06         0.00000E+00
    0.20613E+06         0.10317E+06         0.00000E+00
    0.00000E+00         0.00000E+00         0.48028E+05
 
    0.12859E+06         0.20829E+06         0.00000E+00
    0.20829E+06         0.10710E+06         0.00000E+00
    0.00000E+00         0.00000E+00         0.47139E+05
 
    0.12015E+06         0.21031E+06         0.00000E+00
    0.21031E+06         0.11104E+06         0.00000E+00
    0.00000E+00         0.00000E+00         0.46239E+05
 
    0.11165E+06         0.21219E+06         0.00000E+00
    0.21219E+06         0.11499E+06         0.00000E+00
    0.00000E+00         0.00000E+00         0.45329E+05
 
    0.10310E+06         0.21393E+06         0.00000E+00
    0.21393E+06         0.11894E+06         0.00000E+00
    0.00000E+00         0.00000E+00         0.44408E+05
 
    0.94488E+05         0.21554E+06         0.00000E+00
    0.21554E+06         0.12290E+06         0.00000E+00
    0.00000E+00         0.00000E+00         0.43477E+05
 
    0.85823E+05         0.21702E+06         0.00000E+00
    0.21702E+06         0.12686E+06         0.00000E+00
    0.00000E+00         0.00000E+00         0.42536E+05
 
    0.77103E+05         0.21837E+06         0.00000E+00
    0.21837E+06         0.13082E+06         0.00000E+00
    0.00000E+00         0.00000E+00         0.41586E+05
 
    0.68329E+05         0.21959E+06         0.00000E+00
    0.21959E+06         0.13479E+06         0.00000E+00
    0.00000E+00         0.00000E+00         0.40625E+05
 
    0.59500E+05         0.22069E+06         0.00000E+00
    0.22069E+06         0.13877E+06         0.00000E+00
    0.00000E+00         0.00000E+00         0.39654E+05
 
    0.50615E+05         0.22168E+06         0.00000E+00
    0.22168E+06         0.14275E+06         0.00000E+00
    0.00000E+00         0.00000E+00         0.38674E+05
 
    0.41671E+05         0.22255E+06         0.00000E+00
    0.22255E+06         0.14674E+06         0.00000E+00
    0.00000E+00         0.00000E+00         0.37683E+05
 
    0.37899E+06         0.44678E+04         0.00000E+00
    0.44678E+04        -0.75146E+02         0.00000E+00
    0.00000E+00         0.00000E+00         0.75782E+05
 
    0.37879E+06         0.13307E+05         0.00000E+00
    0.13307E+05         0.17940E+03         0.00000E+00
    0.00000E+00         0.00000E+00         0.75794E+05
 
    0.37811E+06         0.22083E+05         0.00000E+00
    0.22083E+05         0.67637E+03         0.00000E+00
    0.00000E+00         0.00000E+00         0.75757E+05
 
    0.37696E+06         0.30781E+05         0.00000E+00
    0.30781E+05         0.14095E+04         0.00000E+00
    0.00000E+00         0.00000E+00         0.75674E+05
 
    0.37535E+06         0.39388E+05         0.00000E+00
    0.39388E+05         0.23722E+04         0.00000E+00
    0.00000E+00         0.00000E+00         0.75544E+05
 
    0.37329E+06         0.47888E+05         0.00000E+00
    0.47888E+05         0.35573E+04         0.00000E+00
    0.00000E+00         0.00000E+00         0.75370E+05
 
    0.37080E+06         0.56271E+05         0.00000E+00
    0.56271E+05         0.49576E+04         0.00000E+00
    0.00000E+00         0.00000E+00         0.75152E+05
 
    0.36790E+06         0.64523E+05         0.00000E+00
    0.64523E+05         0.65654E+04         0.00000E+00
    0.00000E+00         0.00000E+00         0.74892E+05
 
    0.36458E+06         0.72634E+05         0.00000E+00
    0.72634E+05         0.83727E+04         0.00000E+00
    0.00000E+00         0.00000E+00         0.74591E+05
 
    0.36088E+06         0.80593E+05         0.00000E+00
    0.80593E+05         0.10371E+05         0.00000E+00
    0.00000E+00         0.00000E+00         0.74251E+05
 
    0.35680E+06         0.88392E+05         0.00000E+00
    0.88392E+05         0.12553E+05         0.00000E+00
    0.00000E+00         0.00000E+00         0.73872E+05
 
    0.35237E+06         0.96022E+05         0.00000E+00
    0.96022E+05         0.14910E+05         0.00000E+00
    0.00000E+00         0.00000E+00         0.73455E+05
 
    0.34758E+06         0.10347E+06         0.00000E+00
    0.10347E+06         0.17433E+05         0.00000E+00
    0.00000E+00         0.00000E+00         0.73004E+05
 
    0.34247E+06         0.11074E+06         0.00000E+00
    0.11074E+06         0.20114E+05         0.00000E+00
    0.00000E+00         0.00000E+00         0.72517E+05
 
    0.33705E+06         0.11782E+06         0.00000E+00
    0.11782E+06         0.22943E+05         0.00000E+00
    0.00000E+00         0.00000E+00         0.71998E+05
 
    0.33132E+06         0.12471E+06         0.00000E+00
    0.12471E+06         0.25914E+05         0.00000E+00
    0.00000E+00         0.00000E+00         0.71447E+05
 
    0.32531E+06         0.13139E+06         0.00000E+00
    0.13139E+06         0.29016E+05         0.00000E+00
    0.00000E+00         0.00000E+00         0.70865E+05
 
    0.31903E+06         0.13787E+06         0.00000E+00
    0.13787E+06         0.32242E+05         0.00000E+00
    0.00000E+00         0.00000E+00         0.70255E+05
 
    0.31250E+06         0.14415E+06         0.00000E+00
    0.14415E+06         0.35584E+05         0.00000E+00
    0.00000E+00         0.00000E+00         0.69617E+05
 
    0.30573E+06         0.15021E+06         0.00000E+00
    0.15021E+06         0.39032E+05         0.00000E+00
    0.00000E+00         0.00000E+00         0.68952E+05
 
    0.29873E+06         0.15606E+06         0.00000E+00
    0.15606E+06         0.42580E+05         0.00000E+00
    0.00000E+00         0.00000E+00         0.68262E+05
 
    0.29152E+06         0.16171E+06         0.00000E+00
    0.16171E+06         0.46218E+05         0.00000E+00
    0.00000E+00         0.00000E+00         0.67548E+05
 
    0.28412E+06         0.16713E+06         0.00000E+00
    0.16713E+06         0.49940E+05         0.00000E+00
    0.00000E+00         0.00000E+00         0.66811E+05
 
    0.27653E+06         0.17235E+06         0.00000E+00
    0.17235E+06         0.53738E+05         0.00000E+00
    0.00000E+00         0.00000E+00         0.66053E+05
 
    0.26877E+06         0.17736E+06         0.00000E+00
    0.17736E+06         0.57605E+05         0.00000E+00
    0.00000E+00         0.00000E+00         0.65275E+05
 
    0.26085E+06         0.18215E+06         0.00000E+00
    0.18215E+06         0.61534E+05         0.00000E+00
    0.00000E+00         0.00000E+00         0.64477E+05
 
    0.25278E+06         0.18673E+06         0.00000E+00
    0.18673E+06         0.65517E+05         0.00000E+00
    0.00000E+00         0.00000E+00         0.63660E+05
 
    0.24458E+06         0.19111E+06         0.00000E+00
    0.19111E+06         0.69550E+05         0.00000E+00
    0.00000E+00         0.00000E+00         0.62827E+05
 
    0.23626E+06         0.19528E+06         0.00000E+00
    0.19528E+06         0.73625E+05         0.00000E+00
    0.00000E+00         0.00000E+00         0.61977E+05
 
    0.22782E+06         0.19925E+06         0.00000E+00
    0.19925E+06         0.77737E+05         0.00000E+00
    0.00000E+00         0.00000E+00         0.61112E+05
 
    0.21929E+06         0.20302E+06         0.00000E+00
    0.20302E+06         0.81880E+05         0.00000E+00
    0.00000E+00         0.00000E+00         0.60233E+05
 
    0.21065E+06         0.20660E+06         0.00000E+00
    0.20660E+06         0.86050E+05         0.00000E+00
    0.00000E+00         0.00000E+00         0.59340E+05
 
    0.20193E+06         0.20999E+06         0.00000E+00
    0.20999E+06         0.90241E+05         0.00000E+00
    0.00000E+00         0.00000E+00         0.58435E+05
 
    0.19314E+06         0.21319E+06         0.00000E+00
    0.21319E+06         0.94450E+05         0.00000E+00
    0.00000E+00         0.00000E+00         0.57517E+05
 
    0.18427E+06         0.21621E+06         0.00000E+00
    0.21621E+06         0.98673E+05         0.00000E+00
    0.00000E+00         0.00000E+00         0.56589E+05
 
    0.17534E+06         0.21905E+06         0.00000E+00
    0.21905E+06         0.10291E+06         0.00000E+00
    0.00000E+00         0.00000E+00         0.55649E+05
 
    0.16636E+06         0.22172E+06         0.00000E+00
    0.22172E+06         0.10714E+06         0.00000E+00
    0.00000E+00         0.00000E+00         0.54700E+05
 
    0.15732E+06         0.22422E+06         0.00000E+00
    0.22422E+06         0.11139E+06         0.00000E+00
    0.00000E+00         0.00000E+00         0.53741E+05
 
    0.14824E+06         0.22656E+06         0.00000E+00
    0.22656E+06         0.11563E+06         0.00000E+00
    0.00000E+00         0.00000E+00         0.52774E+05
 
    0.13911E+06         0.22874E+06         0.00000E+00
    0.22874E+06         0.11988E+06         0.00000E+00
    0.00000E+00         0.00000E+00         0.51797E+05
 
    0.12994E+06         0.23078E+06         0.00000E+00
    0.23078E+06         0.12412E+06         0.00000E+00
    0.00000E+00         0.00000E+00         0.50813E+05
 
    0.12074E+06         0.23266E+06         0.00000E+00
    0.23266E+06         0.12836E+06         0.00000E+00
    0.00000E+00         0.00000E+00         0.49820E+05
 
    0.11150E+06         0.23441E+06         0.00000E+00
    0.23441E+06         0.13260E+06         0.00000E+00
    0.00000E+00         0.00000E+00         0.48820E+05
 
    0.10223E+06         0.23602E+06         0.00000E+00
    0.23602E+06         0.13683E+06         0.00000E+00
    0.00000E+00         0.00000E+00         0.47812E+05
 
    0.92919E+05         0.23750E+06         0.00000E+00
    0.23750E+06         0.14106E+06         0.00000E+00
    0.00000E+00         0.00000E+00         0.46796E+05
 
    0.83578E+05         0.23886E+06         0.00000E+00
    0.23886E+06         0.14529E+06         0.00000E+00
    0.00000E+00         0.00000E+00         0.45773E+05
 
    0.74202E+05         0.24010E+06         0.00000E+00
    0.24010E+06         0.14951E+06         0.00000E+00
    0.00000E+00         0.00000E+00         0.44743E+05
 
    0.64788E+05         0.24122E+06         0.00000E+00
    0.24122E+06         0.15374E+06         0.00000E+00
    0.00000E+00         0.00000E+00         0.43705E+05
 
    0.55334E+05         0.24223E+06         0.00000E+00
    0.24223E+06         0.15797E+06         0.00000E+00
    0.00000E+00         0.00000E+00         0.42660E+05
 
    0.45838E+05         0.24313E+06         0.00000E+00
    0.24313E+06         0.16220E+06         0.00000E+00
    0.00000E+00         0.00000E+00         0.41607E+05
 
    0.42659E+06         0.51712E+04         0.00000E+00
    0.51712E+04        -0.88037E+02         0.00000E+00
    0.00000E+00         0.00000E+00         0.85301E+05
 
    0.42604E+06         0.15341E+05         0.00000E+00
    0.15341E+05         0.21416E+03         0.00000E+00
    0.00000E+00         0.00000E+00         0.85252E+05
 
    0.42493E+06         0.25413E+05         0.00000E+00
    0.25413E+05         0.80099E+03         0.00000E+00
    0.00000E+00         0.00000E+00         0.85145E+05
 
    0.42326E+06         0.35369E+05         0.00000E+00
    0.35369E+05         0.16638E+04         0.00000E+00
    0.00000E+00         0.00000E+00         0.84984E+05
 
    0.42105E+06         0.45193E+05         0.00000E+00
    0.45193E+05         0.27933E+04         0.00000E+00
    0.00000E+00         0.00000E+00         0.84770E+05
 
    0.41834E+06         0.54870E+05         0.00000E+00
    0.54870E+05         0.41802E+04         0.00000E+00
    0.00000E+00         0.00000E+00         0.84503E+05
 
    0.41512E+06         0.64385E+05         0.00000E+00
    0.64385E+05         0.58145E+04         0.00000E+00
    0.00000E+00         0.00000E+00         0.84187E+05
 
    0.41142E+06         0.73724E+05         0.00000E+00
    0.73724E+05         0.76862E+04         0.00000E+00
    0.00000E+00         0.00000E+00         0.83822E+05
 
    0.40727E+06         0.82877E+05         0.00000E+00
    0.82877E+05         0.97850E+04         0.00000E+00
    0.00000E+00         0.00000E+00         0.83410E+05
 
    0.40267E+06         0.91832E+05         0.00000E+00
    0.91832E+05         0.12100E+05         0.00000E+00
    0.00000E+00         0.00000E+00         0.82954E+05
 
    0.39765E+06         0.10058E+06         0.00000E+00
    0.10058E+06         0.14622E+05         0.00000E+00
    0.00000E+00         0.00000E+00         0.82455E+05
 
    0.39224E+06         0.10911E+06         0.00000E+00
    0.10911E+06         0.17338E+05         0.00000E+00
    0.00000E+00         0.00000E+00         0.81915E+05
 
    0.38644E+06         0.11741E+06         0.00000E+00
    0.11741E+06         0.20239E+05         0.00000E+00
    0.00000E+00         0.00000E+00         0.81335E+05
 
    0.38027E+06         0.12549E+06         0.00000E+00
    0.12549E+06         0.23314E+05         0.00000E+00
    0.00000E+00         0.00000E+00         0.80717E+05
 
    0.37377E+06         0.13332E+06         0.00000E+00
    0.13332E+06         0.26552E+05         0.00000E+00
    0.00000E+00         0.00000E+00         0.80064E+05
 
    0.36694E+06         0.14092E+06         0.00000E+00
    0.14092E+06         0.29943E+05         0.00000E+00
    0.00000E+00         0.00000E+00         0.79377E+05
 
    0.35981E+06         0.14826E+06         0.00000E+00
    0.14826E+06         0.33476E+05         0.00000E+00
    0.00000E+00         0.00000E+00         0.78657E+05
 
    0.35239E+06         0.15536E+06         0.00000E+00
    0.15536E+06         0.37141E+05         0.00000E+00
    0.00000E+00         0.00000E+00         0.77907E+05
 
    0.34471E+06         0.16221E+06         0.00000E+00
    0.16221E+06         0.40927E+05         0.00000E+00
    0.00000E+00         0.00000E+00         0.77127E+05
 
    0.33678E+06         0.16880E+06         0.00000E+00
    0.16880E+06         0.44824E+05         0.00000E+00
    0.00000E+00         0.00000E+00         0.76321E+05
 
    0.32862E+06         0.17513E+06         0.00000E+00
    0.17513E+06         0.48824E+05         0.00000E+00
    0.00000E+00         0.00000E+00         0.75489E+05
 
    0.32025E+06         0.18121E+06         0.00000E+00
    0.18121E+06         0.52916E+05         0.00000E+00
    0.00000E+00         0.00000E+00         0.74632E+05
 
    0.31168E+06         0.18704E+06         0.00000E+00
    0.18704E+06         0.57092E+05         0.00000E+00
    0.00000E+00         0.00000E+00         0.73754E+05
 
    0.30293E+06         0.19261E+06         0.00000E+00
    0.19261E+06         0.61341E+05         0.00000E+00
    0.00000E+00         0.00000E+00         0.72854E+05
 
    0.29402E+06         0.19794E+06         0.00000E+00
    0.19794E+06         0.65657E+05         0.00000E+00
    0.00000E+00         0.00000E+00         0.71935E+05
 
    0.28496E+06         0.20301E+06         0.00000E+00
    0.20301E+06         0.70030E+05         0.00000E+00
    0.00000E+00         0.00000E+00         0.70999E+05
 
    0.27577E+06         0.20784E+06         0.00000E+00
    0.20784E+06         0.74453E+05         0.00000E+00
    0.00000E+00         0.00000E+00         0.70045E+05
 
    0.26646E+06         0.21243E+06         0.00000E+00
    0.21243E+06         0.78918E+05         0.00000E+00
    0.00000E+00         0.00000E+00         0.69076E+05
 
    0.25705E+06         0.21678E+06         0.00000E+00
    0.21678E+06         0.83419E+05         0.00000E+00
    0.00000E+00         0.00000E+00         0.68093E+05
 
    0.24754E+06         0.22091E+06         0.00000E+00
    0.22091E+06         0.87948E+05         0.00000E+00
    0.00000E+00         0.00000E+00         0.67098E+05
 
    0.23795E+06         0.22480E+06         0.00000E+00
    0.22480E+06         0.92499E+05         0.00000E+00
    0.00000E+00         0.00000E+00         0.66090E+05
 
    0.22829E+06         0.22847E+06         0.00000E+00
    0.22847E+06         0.97067E+05         0.00000E+00
    0.00000E+00         0.00000E+00         0.65072E+05
 
    0.21858E+06         0.23193E+06         0.00000E+00
    0.23193E+06         0.10165E+06         0.00000E+00
    0.00000E+00         0.00000E+00         0.64044E+05
 
    0.20881E+06         0.23519E+06         0.00000E+00
    0.23519E+06         0.10623E+06         0.00000E+00
    0.00000E+00         0.00000E+00         0.63008E+05
 
    0.19900E+06         0.23824E+06         0.00000E+00
    0.23824E+06         0.11082E+06         0.00000E+00
    0.00000E+00         0.00000E+00         0.61964E+05
 
    0.18916E+06         0.24109E+06         0.00000E+00
    0.24109E+06         0.11541E+06         0.00000E+00
    0.00000E+00         0.00000E+00         0.60913E+05
 
    0.17929E+06         0.24376E+06         0.00000E+00
    0.24376E+06         0.11999E+06         0.00000E+00
    0.00000E+00         0.00000E+00         0.59855E+05
 
    0.16940E+06         0.24625E+06         0.00000E+00
    0.24625E+06         0.12456E+06         0.00000E+00
    0.00000E+00         0.00000E+00         0.58792E+05
 
    0.15950E+06         0.24856E+06         0.00000E+00
    0.24856E+06         0.12912E+06         0.00000E+00
    0.00000E+00         0.00000E+00         0.57724E+05
 
    0.14959E+06         0.25071E+06         0.00000E+00
    0.25071E+06         0.13367E+06         0.00000E+00
    0.00000E+00         0.00000E+00         0.56651E+05
 
    0.13967E+06         0.25271E+06         0.00000E+00
    0.25271E+06         0.13821E+06         0.00000E+00
    0.00000E+00         0.00000E+00         0.55575E+05
 
    0.12974E+06         0.25455E+06         0.00000E+00
    0.25455E+06         0.14273E+06         0.00000E+00
    0.00000E+00         0.00000E+00         0.54494E+05
 
    0.11981E+06         0.25626E+06         0.00000E+00
    0.25626E+06         0.14723E+06         0.00000E+00
    0.00000E+00         0.00000E+00         0.53410E+05
 
    0.10988E+06         0.25783E+06         0.00000E+00
    0.25783E+06         0.15173E+06         0.00000E+00
    0.00000E+00         0.00000E+00         0.52322E+05
 
    0.99950E+05         0.25927E+06         0.00000E+00
    0.25927E+06         0.15621E+06         0.00000E+00
    0.00000E+00         0.00000E+00         0.51231E+05
 
    0.90012E+05         0.26059E+06         0.00000E+00
    0.26059E+06         0.16067E+06         0.00000E+00
    0.00000E+00         0.00000E+00         0.50137E+05
 
    0.80069E+05         0.26181E+06         0.00000E+00
    0.26181E+06         0.16513E+06         0.00000E+00
    0.00000E+00         0.00000E+00         0.49039E+05
 
    0.70116E+05         0.26291E+06         0.00000E+00
    0.26291E+06         0.16957E+06         0.00000E+00
    0.00000E+00         0.00000E+00         0.47938E+05
 
    0.60150E+05         0.26392E+06         0.00000E+00
    0.26392E+06         0.17401E+06         0.00000E+00
    0.00000E+00         0.00000E+00         0.46833E+05
 
    0.50166E+05         0.26484E+06         0.00000E+00
    0.26484E+06         0.17845E+06         0.00000E+00
    0.00000E+00         0.00000E+00         0.45724E+05
 
    0.48153E+06         0.60077E+04         0.00000E+00
    0.60077E+04        -0.10273E+03         0.00000E+00
    0.00000E+00         0.00000E+00         0.96286E+05
 
    0.48042E+06         0.17743E+05         0.00000E+00
    0.17743E+05         0.25493E+03         0.00000E+00
    0.00000E+00         0.00000E+00         0.96136E+05
 
    0.47865E+06         0.29329E+05         0.00000E+00
    0.29329E+05         0.94552E+03         0.00000E+00
    0.00000E+00         0.00000E+00         0.95919E+05
 
    0.47623E+06         0.40748E+05         0.00000E+00
    0.40748E+05         0.19572E+04         0.00000E+00
    0.00000E+00         0.00000E+00         0.95638E+05
 
    0.47320E+06         0.51981E+05         0.00000E+00
    0.51981E+05         0.32776E+04         0.00000E+00
    0.00000E+00         0.00000E+00         0.95295E+05
 
    0.46957E+06         0.63011E+05         0.00000E+00
    0.63011E+05         0.48941E+04         0.00000E+00
    0.00000E+00         0.00000E+00         0.94892E+05
 
    0.46537E+06         0.73821E+05         0.00000E+00
    0.73821E+05         0.67938E+04         0.00000E+00
    0.00000E+00         0.00000E+00         0.94433E+05
 
    0.46063E+06         0.84399E+05         0.00000E+00
    0.84399E+05         0.89636E+04         0.00000E+00
    0.00000E+00         0.00000E+00         0.93918E+05
 
    0.45537E+06         0.94731E+05         0.00000E+00
    0.94731E+05         0.11390E+05         0.00000E+00
    0.00000E+00         0.00000E+00         0.93351E+05
 
    0.44961E+06         0.10481E+06         0.00000E+00
    0.10481E+06         0.14060E+05         0.00000E+00
    0.00000E+00         0.00000E+00         0.92734E+05
 
    0.44339E+06         0.11461E+06         0.00000E+00
    0.11461E+06         0.16960E+05         0.00000E+00
    0.00000E+00         0.00000E+00         0.92070E+05
 
    0.43672E+06         0.12414E+06         0.00000E+00
    0.12414E+06         0.20077E+05         0.00000E+00
    0.00000E+00         0.00000E+00         0.91359E+05
 
    0.42963E+06         0.13339E+06         0.00000E+00
    0.13339E+06         0.23397E+05         0.00000E+00
    0.00000E+00         0.00000E+00         0.90606E+05
 
    0.42215E+06         0.14234E+06         0.00000E+00
    0.14234E+06         0.26907E+05         0.00000E+00
    0.00000E+00         0.00000E+00         0.89812E+05
 
    0.41431E+06         0.15100E+06         0.00000E+00
    0.15100E+06         0.30594E+05         0.00000E+00
    0.00000E+00         0.00000E+00         0.88980E+05
 
    0.40611E+06         0.15935E+06         0.00000E+00
    0.15935E+06         0.34445E+05         0.00000E+00
    0.00000E+00         0.00000E+00         0.88112E+05
 
    0.39760E+06         0.16741E+06         0.00000E+00
    0.16741E+06         0.38446E+05         0.00000E+00
    0.00000E+00         0.00000E+00         0.87210E+05
 
    0.38879E+06         0.17515E+06         0.00000E+00
    0.17515E+06         0.42587E+05         0.00000E+00
    0.00000E+00         0.00000E+00         0.86276E+05
 
    0.37971E+06         0.18259E+06         0.00000E+00
    0.18259E+06         0.46854E+05         0.00000E+00
    0.00000E+00         0.00000E+00         0.85313E+05
 
    0.37038E+06         0.18972E+06         0.00000E+00
    0.18972E+06         0.51236E+05         0.00000E+00
    0.00000E+00         0.00000E+00         0.84323E+05
 
    0.36082E+06         0.19654E+06         0.00000E+00
    0.19654E+06         0.55721E+05         0.00000E+00
    0.00000E+00         0.00000E+00         0.83308E+05
 
    0.35105E+06         0.20306E+06         0.00000E+00
    0.20306E+06         0.60297E+05         0.00000E+00
    0.00000E+00         0.00000E+00         0.82270E+05
 
    0.34110E+06         0.20928E+06         0.00000E+00
    0.20928E+06         0.64955E+05         0.00000E+00
    0.00000E+00         0.00000E+00         0.81211E+05
 
    0.33098E+06         0.21519E+06         0.00000E+00
    0.21519E+06         0.69683E+05         0.00000E+00
    0.00000E+00         0.00000E+00         0.80133E+05
 
    0.32072E+06         0.22081E+06         0.00000E+00
    0.22081E+06         0.74471E+05         0.00000E+00
    0.00000E+00         0.00000E+00         0.79037E+05
 
    0.31032E+06         0.22614E+06         0.00000E+00
    0.22614E+06         0.79311E+05         0.00000E+00
    0.00000E+00         0.00000E+00         0.77927E+05
 
    0.29982E+06         0.23118E+06         0.00000E+00
    0.23118E+06         0.84192E+05         0.00000E+00
    0.00000E+00         0.00000E+00         0.76802E+05
 
    0.28922E+06         0.23594E+06         0.00000E+00
    0.23594E+06         0.89106E+05         0.00000E+00
    0.00000E+00         0.00000E+00         0.75666E+05
 
    0.27855E+06         0.24043E+06         0.00000E+00
    0.24043E+06         0.94046E+05         0.00000E+00
    0.00000E+00         0.00000E+00         0.74520E+05
 
    0.26782E+06         0.24465E+06         0.00000E+00
    0.24465E+06         0.99003E+05         0.00000E+00
    0.00000E+00         0.00000E+00         0.73364E+05
 
    0.25704E+06         0.24861E+06         0.00000E+00
    0.24861E+06         0.10397E+06         0.00000E+00
    0.00000E+00         0.00000E+00         0.72201E+05
 
    0.24622E+06         0.25233E+06         0.00000E+00
    0.25233E+06         0.10894E+06         0.00000E+00
    0.00000E+00         0.00000E+00         0.71032E+05
 
    0.23538E+06         0.25580E+06         0.00000E+00
    0.25580E+06         0.11391E+06         0.00000E+00
    0.00000E+00         0.00000E+00         0.69859E+05
 
    0.22453E+06         0.25904E+06         0.00000E+00
    0.25904E+06         0.11887E+06         0.00000E+00
    0.00000E+00         0.00000E+00         0.68682E+05
 
    0.21369E+06         0.26205E+06         0.00000E+00
    0.26205E+06         0.12382E+06         0.00000E+00
    0.00000E+00         0.00000E+00         0.67502E+05
 
    0.20285E+06         0.26486E+06         0.00000E+00
    0.26486E+06         0.12876E+06         0.00000E+00
    0.00000E+00         0.00000E+00         0.66320E+05
 
    0.19203E+06         0.26746E+06         0.00000E+00
    0.26746E+06         0.13367E+06         0.00000E+00
    0.00000E+00         0.00000E+00         0.65139E+05
 
    0.18123E+06         0.26986E+06         0.00000E+00
    0.26986E+06         0.13856E+06         0.00000E+00
    0.00000E+00         0.00000E+00         0.63957E+05
 
    0.17046E+06         0.27208E+06         0.00000E+00
    0.27208E+06         0.14342E+06         0.00000E+00
    0.00000E+00         0.00000E+00         0.62776E+05
 
    0.15973E+06         0.27413E+06         0.00000E+00
    0.27413E+06         0.14826E+06         0.00000E+00
    0.00000E+00         0.00000E+00         0.61596E+05
 
    0.14903E+06         0.27602E+06         0.00000E+00
    0.27602E+06         0.15306E+06         0.00000E+00
    0.00000E+00         0.00000E+00         0.60419E+05
 
    0.13838E+06         0.27776E+06         0.00000E+00
    0.27776E+06         0.15784E+06         0.00000E+00
    0.00000E+00         0.00000E+00         0.59244E+05
 
    0.12777E+06         0.27936E+06         0.00000E+00
    0.27936E+06         0.16259E+06         0.00000E+00
    0.00000E+00         0.00000E+00         0.58071E+05
 
    0.11720E+06         0.28082E+06         0.00000E+00
    0.28082E+06         0.16731E+06         0.00000E+00
    0.00000E+00         0.00000E+00         0.56901E+05
 
    0.10667E+06         0.28217E+06         0.00000E+00
    0.28217E+06         0.17200E+06         0.00000E+00
    0.00000E+00         0.00000E+00         0.55734E+05
 
    0.96186E+05         0.28341E+06         0.00000E+00
    0.28341E+06         0.17667E+06         0.00000E+00
    0.00000E+00         0.00000E+00         0.54571E+05
 
    0.85735E+05         0.28455E+06         0.00000E+00
    0.28455E+06         0.18131E+06         0.00000E+00
    0.00000E+00         0.00000E+00         0.53409E+05
 
    0.75315E+05         0.28560E+06         0.00000E+00
    0.28560E+06         0.18594E+06         0.00000E+00
    0.00000E+00         0.00000E+00         0.52251E+05
 
    0.64921E+05         0.28657E+06         0.00000E+00
    0.28657E+06         0.19055E+06         0.00000E+00
    0.00000E+00         0.00000E+00         0.51094E+05
 
    0.54546E+05         0.28747E+06         0.00000E+00
    0.28747E+06         0.19515E+06         0.00000E+00
    0.00000E+00         0.00000E+00         0.49939E+05
 
    0.54509E+06         0.69985E+04         0.00000E+00
    0.69985E+04        -0.11914E+03         0.00000E+00
    0.00000E+00         0.00000E+00         0.10899E+06
 
    0.54313E+06         0.20563E+05         0.00000E+00
    0.20563E+05         0.30195E+03         0.00000E+00
    0.00000E+00         0.00000E+00         0.10869E+06
 
    0.54040E+06         0.33913E+05         0.00000E+00
    0.33913E+05         0.11101E+04         0.00000E+00
    0.00000E+00         0.00000E+00         0.10830E+06
 
    0.53693E+06         0.47024E+05         0.00000E+00
    0.47024E+05         0.22894E+04         0.00000E+00
    0.00000E+00         0.00000E+00         0.10784E+06
 
    0.53275E+06         0.59877E+05         0.00000E+00
    0.59877E+05         0.38235E+04         0.00000E+00
    0.00000E+00         0.00000E+00         0.10731E+06
 
    0.52788E+06         0.72454E+05         0.00000E+00
    0.72454E+05         0.56960E+04         0.00000E+00
    0.00000E+00         0.00000E+00         0.10672E+06
 
    0.52238E+06         0.84739E+05         0.00000E+00
    0.84739E+05         0.78901E+04         0.00000E+00
    0.00000E+00         0.00000E+00         0.10605E+06
 
    0.51626E+06         0.96715E+05         0.00000E+00
    0.96715E+05         0.10389E+05         0.00000E+00
    0.00000E+00         0.00000E+00         0.10533E+06
 
    0.50956E+06         0.10837E+06         0.00000E+00
    0.10837E+06         0.13176E+05         0.00000E+00
    0.00000E+00         0.00000E+00         0.10455E+06
 
    0.50230E+06         0.11969E+06         0.00000E+00
    0.11969E+06         0.16234E+05         0.00000E+00
    0.00000E+00         0.00000E+00         0.10371E+06
 
    0.49454E+06         0.13067E+06         0.00000E+00
    0.13067E+06         0.19547E+05         0.00000E+00
    0.00000E+00         0.00000E+00         0.10282E+06
 
    0.48629E+06         0.14130E+06         0.00000E+00
    0.14130E+06         0.23097E+05         0.00000E+00
    0.00000E+00         0.00000E+00         0.10188E+06
 
    0.47758E+06         0.15158E+06         0.00000E+00
    0.15158E+06         0.26869E+05         0.00000E+00
    0.00000E+00         0.00000E+00         0.10089E+06
 
    0.46846E+06         0.16148E+06         0.00000E+00
    0.16148E+06         0.30847E+05         0.00000E+00
    0.00000E+00         0.00000E+00         0.99861E+05
 
    0.45894E+06         0.17102E+06         0.00000E+00
    0.17102E+06         0.35014E+05         0.00000E+00
    0.00000E+00         0.00000E+00         0.98791E+05
 
    0.44907E+06         0.18019E+06         0.00000E+00
    0.18019E+06         0.39354E+05         0.00000E+00
    0.00000E+00         0.00000E+00         0.97685E+05
 
    0.43886E+06         0.18898E+06         0.00000E+00
    0.18898E+06         0.43854E+05         0.00000E+00
    0.00000E+00         0.00000E+00         0.96543E+05
 
    0.42836E+06         0.19740E+06         0.00000E+00
    0.19740E+06         0.48497E+05         0.00000E+00
    0.00000E+00         0.00000E+00         0.95371E+05
 
    0.41758E+06         0.20545E+06         0.00000E+00
    0.20545E+06         0.53269E+05         0.00000E+00
    0.00000E+00         0.00000E+00         0.94170E+05
 
    0.40656E+06         0.21313E+06         0.00000E+00
    0.21313E+06         0.58157E+05         0.00000E+00
    0.00000E+00         0.00000E+00         0.92943E+05
 
    0.39532E+06         0.22043E+06         0.00000E+00
    0.22043E+06         0.63147E+05         0.00000E+00
    0.00000E+00         0.00000E+00         0.91693E+05
 
    0.38388E+06         0.22737E+06         0.00000E+00
    0.22737E+06         0.68225E+05         0.00000E+00
    0.00000E+00         0.00000E+00         0.90422E+05
 
    0.37229E+06         0.23396E+06         0.00000E+00
    0.23396E+06         0.73379E+05         0.00000E+00
    0.00000E+00         0.00000E+00         0.89133E+05
 
    0.36055E+06         0.24018E+06         0.00000E+00
    0.24018E+06         0.78597E+05         0.00000E+00
    0.00000E+00         0.00000E+00         0.87829E+05
 
    0.34869E+06         0.24606E+06         0.00000E+00
    0.24606E+06         0.83868E+05         0.00000E+00
    0.00000E+00         0.00000E+00         0.86511E+05
 
    0.33673E+06         0.25160E+06         0.00000E+00
    0.25160E+06         0.89180E+05         0.00000E+00
    0.00000E+00         0.00000E+00         0.85183E+05
 
    0.32470E+06         0.25680E+06         0.00000E+00
    0.25680E+06         0.94524E+05         0.00000E+00
    0.00000E+00         0.00000E+00         0.83845E+05
 
    0.31262E+06         0.26168E+06         0.00000E+00
    0.26168E+06         0.99889E+05         0.00000E+00
    0.00000E+00         0.00000E+00         0.82501E+05
 
    0.30050E+06         0.26624E+06         0.00000E+00
    0.26624E+06         0.10527E+06         0.00000E+00
    0.00000E+00         0.00000E+00         0.81153E+05
 
    0.28836E+06         0.27050E+06         0.00000E+00
    0.27050E+06         0.11065E+06         0.00000E+00
    0.00000E+00         0.00000E+00         0.79802E+05
 
    0.27622E+06         0.27446E+06         0.00000E+00
    0.27446E+06         0.11602E+06         0.00000E+00
    0.00000E+00         0.00000E+00         0.78449E+05
 
    0.26410E+06         0.27814E+06         0.00000E+00
    0.27814E+06         0.12139E+06         0.00000E+00
    0.00000E+00         0.00000E+00         0.77098E+05
 
    0.25201E+06         0.28155E+06         0.00000E+00
    0.28155E+06         0.12673E+06         0.00000E+00
    0.00000E+00         0.00000E+00         0.75748E+05
 
    0.23996E+06         0.28470E+06         0.00000E+00
    0.28470E+06         0.13206E+06         0.00000E+00
    0.00000E+00         0.00000E+00         0.74403E+05
 
    0.22796E+06         0.28760E+06         0.00000E+00
    0.28760E+06         0.13735E+06         0.00000E+00
    0.00000E+00         0.00000E+00         0.73062E+05
 
    0.21604E+06         0.29027E+06         0.00000E+00
    0.29027E+06         0.14261E+06         0.00000E+00
    0.00000E+00         0.00000E+00         0.71728E+05
 
    0.20418E+06         0.29272E+06         0.00000E+00
    0.29272E+06         0.14782E+06         0.00000E+00
    0.00000E+00         0.00000E+00         0.70402E+05
 
    0.19241E+06         0.29495E+06         0.00000E+00
    0.29495E+06         0.15300E+06         0.00000E+00
    0.00000E+00         0.00000E+00         0.69083E+05
 
    0.18074E+06         0.29700E+06         0.00000E+00
    0.29700E+06         0.15814E+06         0.00000E+00
    0.00000E+00         0.00000E+00         0.67774E+05
 
    0.16915E+06         0.29887E+06         0.00000E+00
    0.29887E+06         0.16322E+06         0.00000E+00
    0.00000E+00         0.00000E+00         0.66475E+05
 
    0.15767E+06         0.30057E+06         0.00000E+00
    0.30057E+06         0.16826E+06         0.00000E+00
    0.00000E+00         0.00000E+00         0.65187E+05
 
    0.14629E+06         0.30212E+06         0.00000E+00
    0.30212E+06         0.17326E+06         0.00000E+00
    0.00000E+00         0.00000E+00         0.63910E+05
 
    0.13502E+06         0.30353E+06         0.00000E+00
    0.30353E+06         0.17820E+06         0.00000E+00
    0.00000E+00         0.00000E+00         0.62644E+05
 
    0.12385E+06         0.30482E+06         0.00000E+00
    0.30482E+06         0.18311E+06         0.00000E+00
    0.00000E+00         0.00000E+00         0.61391E+05
 
    0.11278E+06         0.30600E+06         0.00000E+00
    0.30600E+06         0.18796E+06         0.00000E+00
    0.00000E+00         0.00000E+00         0.60148E+05
 
    0.10181E+06         0.30708E+06         0.00000E+00
    0.30708E+06         0.19278E+06         0.00000E+00
    0.00000E+00         0.00000E+00         0.58918E+05
 
    0.90937E+05         0.30808E+06         0.00000E+00
    0.30808E+06         0.19756E+06         0.00000E+00
    0.00000E+00         0.00000E+00         0.57699E+05
 
    0.80152E+05         0.30902E+06         0.00000E+00
    0.30902E+06         0.20231E+06         0.00000E+00
    0.00000E+00         0.00000E+00         0.56492E+05
 
    0.69448E+05         0.30990E+06         0.00000E+00
    0.30990E+06         0.20703E+06         0.00000E+00
    0.00000E+00         0.00000E+00         0.55295E+05
 
    0.58817E+05         0.31074E+06         0.00000E+00
    0.31074E+06         0.21173E+06         0.00000E+00
    0.00000E+00         0.00000E+00         0.54109E+05
 
    0.61872E+06         0.81646E+04         0.00000E+00
    0.81646E+04        -0.13693E+03         0.00000E+00
    0.00000E+00         0.00000E+00         0.12372E+06
 
    0.61552E+06         0.23855E+05         0.00000E+00
    0.23855E+05         0.35500E+03         0.00000E+00
    0.00000E+00         0.00000E+00         0.12318E+06
 
    0.61144E+06         0.39239E+05         0.00000E+00
    0.39239E+05         0.12930E+04         0.00000E+00
    0.00000E+00         0.00000E+00         0.12255E+06
 
    0.60650E+06         0.54292E+05         0.00000E+00
    0.54292E+05         0.26562E+04         0.00000E+00
    0.00000E+00         0.00000E+00         0.12183E+06
 
    0.60076E+06         0.68994E+05         0.00000E+00
    0.68994E+05         0.44232E+04         0.00000E+00
    0.00000E+00         0.00000E+00         0.12104E+06
 
    0.59424E+06         0.83326E+05         0.00000E+00
    0.83326E+05         0.65729E+04         0.00000E+00
    0.00000E+00         0.00000E+00         0.12016E+06
 
    0.58701E+06         0.97270E+05         0.00000E+00
    0.97270E+05         0.90840E+04         0.00000E+00
    0.00000E+00         0.00000E+00         0.11922E+06
 
    0.57909E+06         0.11081E+06         0.00000E+00
    0.11081E+06         0.11935E+05         0.00000E+00
    0.00000E+00         0.00000E+00         0.11820E+06
 
    0.57052E+06         0.12394E+06         0.00000E+00
    0.12394E+06         0.15106E+05         0.00000E+00
    0.00000E+00         0.00000E+00         0.11713E+06
 
    0.56136E+06         0.13664E+06         0.00000E+00
    0.13664E+06         0.18575E+05         0.00000E+00
    0.00000E+00         0.00000E+00         0.11599E+06
 
    0.55164E+06         0.14891E+06         0.00000E+00
    0.14891E+06         0.22322E+05         0.00000E+00
    0.00000E+00         0.00000E+00         0.11479E+06
 
    0.54139E+06         0.16073E+06         0.00000E+00
    0.16073E+06         0.26327E+05         0.00000E+00
    0.00000E+00         0.00000E+00         0.11354E+06
 
    0.53067E+06         0.17211E+06         0.00000E+00
    0.17211E+06         0.30570E+05         0.00000E+00
    0.00000E+00         0.00000E+00         0.11225E+06
 
    0.51950E+06         0.18304E+06         0.00000E+00
    0.18304E+06         0.35031E+05         0.00000E+00
    0.00000E+00         0.00000E+00         0.11091E+06
 
    0.50793E+06         0.19351E+06         0.00000E+00
    0.19351E+06         0.39692E+05         0.00000E+00
    0.00000E+00         0.00000E+00         0.10952E+06
 
    0.49599E+06         0.20352E+06         0.00000E+00
    0.20352E+06         0.44534E+05         0.00000E+00
    0.00000E+00         0.00000E+00         0.10810E+06
 
    0.48372E+06         0.21309E+06         0.00000E+00
    0.21309E+06         0.49540E+05         0.00000E+00
    0.00000E+00         0.00000E+00         0.10665E+06
 
    0.47116E+06         0.22219E+06         0.00000E+00
    0.22219E+06         0.54692E+05         0.00000E+00
    0.00000E+00         0.00000E+00         0.10517E+06
 
    0.45833E+06         0.23085E+06         0.00000E+00
    0.23085E+06         0.59973E+05         0.00000E+00
    0.00000E+00         0.00000E+00         0.10366E+06
 
    0.44528E+06         0.23906E+06         0.00000E+00
    0.23906E+06         0.65367E+05         0.00000E+00
    0.00000E+00         0.00000E+00         0.10213E+06
 
    0.43204E+06         0.24684E+06         0.00000E+00
    0.24684E+06         0.70858E+05         0.00000E+00
    0.00000E+00         0.00000E+00         0.10058E+06
 
    0.41862E+06         0.25417E+06         0.00000E+00
    0.25417E+06         0.76432E+05         0.00000E+00
    0.00000E+00         0.00000E+00         0.99011E+05
 
    0.40508E+06         0.26109E+06         0.00000E+00
    0.26109E+06         0.82075E+05         0.00000E+00
    0.00000E+00         0.00000E+00         0.97431E+05
 
    0.39143E+06         0.26758E+06         0.00000E+00
    0.26758E+06         0.87772E+05         0.00000E+00
    0.00000E+00         0.00000E+00         0.95841E+05
 
    0.37771E+06         0.27367E+06         0.00000E+00
    0.27367E+06         0.93511E+05         0.00000E+00
    0.00000E+00         0.00000E+00         0.94244E+05
 
    0.36393E+06         0.27936E+06         0.00000E+00
    0.27936E+06         0.99279E+05         0.00000E+00
    0.00000E+00         0.00000E+00         0.92642E+05
 
    0.35013E+06         0.28466E+06         0.00000E+00
    0.28466E+06         0.10506E+06         0.00000E+00
    0.00000E+00         0.00000E+00         0.91039E+05
 
    0.33633E+06         0.28958E+06         0.00000E+00
    0.28958E+06         0.11086E+06         0.00000E+00
    0.00000E+00         0.00000E+00         0.89437E+05
 
    0.32255E+06         0.29415E+06         0.00000E+00
    0.29415E+06         0.11665E+06         0.00000E+00
    0.00000E+00         0.00000E+00         0.87838E+05
 
    0.30881E+06         0.29837E+06         0.00000E+00
    0.29837E+06         0.12242E+06         0.00000E+00
    0.00000E+00         0.00000E+00         0.86246E+05
 
    0.29513E+06         0.30225E+06         0.00000E+00
    0.30225E+06         0.12818E+06         0.00000E+00
    0.00000E+00         0.00000E+00         0.84662E+05
 
    0.28153E+06         0.30581E+06         0.00000E+00
    0.30581E+06         0.13390E+06         0.00000E+00
    0.00000E+00         0.00000E+00         0.83088E+05
 
    0.26804E+06         0.30906E+06         0.00000E+00
    0.30906E+06         0.13959E+06         0.00000E+00
    0.00000E+00         0.00000E+00         0.81526E+05
 
    0.25465E+06         0.31203E+06         0.00000E+00
    0.31203E+06         0.14524E+06         0.00000E+00
    0.00000E+00         0.00000E+00         0.79978E+05
 
    0.24139E+06         0.31472E+06         0.00000E+00
    0.31472E+06         0.15083E+06         0.00000E+00
    0.00000E+00         0.00000E+00         0.78445E+05
 
    0.22828E+06         0.31716E+06         0.00000E+00
    0.31716E+06         0.15637E+06         0.00000E+00
    0.00000E+00         0.00000E+00         0.76930E+05
 
    0.21531E+06         0.31936E+06         0.00000E+00
    0.31936E+06         0.16186E+06         0.00000E+00
    0.00000E+00         0.00000E+00         0.75434E+05
 
    0.20251E+06         0.32133E+06         0.00000E+00
    0.32133E+06         0.16727E+06         0.00000E+00
    0.00000E+00         0.00000E+00         0.73957E+05
 
    0.18988E+06         0.32311E+06         0.00000E+00
    0.32311E+06         0.17263E+06         0.00000E+00
    0.00000E+00         0.00000E+00         0.72501E+05
 
    0.17742E+06         0.32469E+06         0.00000E+00
    0.32469E+06         0.17792E+06         0.00000E+00
    0.00000E+00         0.00000E+00         0.71067E+05
 
    0.16514E+06         0.32610E+06         0.00000E+00
    0.32610E+06         0.18314E+06         0.00000E+00
    0.00000E+00         0.00000E+00         0.69656E+05
 
    0.15305E+06         0.32737E+06         0.00000E+00
    0.32737E+06         0.18829E+06         0.00000E+00
    0.00000E+00         0.00000E+00         0.68268E+05
 
    0.14114E+06         0.32850E+06         0.00000E+00
    0.32850E+06         0.19337E+06         0.00000E+00
    0.00000E+00         0.00000E+00         0.66904E+05
 
    0.12942E+06         0.32952E+06         0.00000E+00
    0.32952E+06         0.19839E+06         0.00000E+00
    0.00000E+00         0.00000E+00         0.65563E+05
 
    0.11788E+06         0.33045E+06         0.00000E+00
    0.33045E+06         0.20335E+06         0.00000E+00
    0.00000E+00         0.00000E+00         0.64247E+05
 
    0.10652E+06         0.33129E+06         0.00000E+00
    0.33129E+06         0.20825E+06         0.00000E+00
    0.00000E+00         0.00000E+00         0.62954E+05
 
    0.95338E+05         0.33208E+06         0.00000E+00
    0.33208E+06         0.21309E+06         0.00000E+00
    0.00000E+00         0.00000E+00         0.61686E+05
 
    0.84320E+05         0.33283E+06         0.00000E+00
    0.33283E+06         0.21788E+06         0.00000E+00
    0.00000E+00         0.00000E+00         0.60440E+05
 
    0.73460E+05         0.33356E+06         0.00000E+00
    0.33356E+06         0.22263E+06         0.00000E+00
    0.00000E+00         0.00000E+00         0.59218E+05
 
    0.62746E+05         0.33428E+06         0.00000E+00
    0.33428E+06         0.22734E+06         0.00000E+00
    0.00000E+00         0.00000E+00         0.58018E+05
 
    0.70402E+06         0.95249E+04         0.00000E+00
    0.95249E+04        -0.15549E+03         0.00000E+00
    0.00000E+00         0.00000E+00         0.14077E+06
 
    0.69907E+06         0.27660E+05         0.00000E+00
    0.27660E+05         0.41313E+03         0.00000E+00
    0.00000E+00         0.00000E+00         0.13990E+06
 
    0.69310E+06         0.45368E+05         0.00000E+00
    0.45368E+05         0.14898E+04         0.00000E+00
    0.00000E+00         0.00000E+00         0.13892E+06
 
    0.68617E+06         0.62626E+05         0.00000E+00
    0.62626E+05         0.30474E+04         0.00000E+00
    0.00000E+00         0.00000E+00         0.13784E+06
 
    0.67833E+06         0.79412E+05         0.00000E+00
    0.79412E+05         0.50587E+04         0.00000E+00
    0.00000E+00         0.00000E+00         0.13668E+06
 
    0.66964E+06         0.95709E+05         0.00000E+00
    0.95709E+05         0.74969E+04         0.00000E+00
    0.00000E+00         0.00000E+00         0.13543E+06
 
    0.66014E+06         0.11150E+06         0.00000E+00
    0.11150E+06         0.10335E+05         0.00000E+00
    0.00000E+00         0.00000E+00         0.13410E+06
 
    0.64990E+06         0.12677E+06         0.00000E+00
    0.12677E+06         0.13548E+05         0.00000E+00
    0.00000E+00         0.00000E+00         0.13269E+06
 
    0.63895E+06         0.14151E+06         0.00000E+00
    0.14151E+06         0.17109E+05         0.00000E+00
    0.00000E+00         0.00000E+00         0.13121E+06
 
    0.62736E+06         0.15571E+06         0.00000E+00
    0.15571E+06         0.20993E+05         0.00000E+00
    0.00000E+00         0.00000E+00         0.12967E+06
 
    0.61518E+06         0.16937E+06         0.00000E+00
    0.16937E+06         0.25175E+05         0.00000E+00
    0.00000E+00         0.00000E+00         0.12807E+06
 
    0.60245E+06         0.18247E+06         0.00000E+00
    0.18247E+06         0.29631E+05         0.00000E+00
    0.00000E+00         0.00000E+00         0.12642E+06
 
    0.58922E+06         0.19502E+06         0.00000E+00
    0.19502E+06         0.34338E+05         0.00000E+00
    0.00000E+00         0.00000E+00         0.12471E+06
 
    0.57553E+06         0.20702E+06         0.00000E+00
    0.20702E+06         0.39273E+05         0.00000E+00
    0.00000E+00         0.00000E+00         0.12296E+06
 
    0.56145E+06         0.21846E+06         0.00000E+00
    0.21846E+06         0.44413E+05         0.00000E+00
    0.00000E+00         0.00000E+00         0.12117E+06
 
    0.54700E+06         0.22934E+06         0.00000E+00
    0.22934E+06         0.49739E+05         0.00000E+00
    0.00000E+00         0.00000E+00         0.11935E+06
 
    0.53223E+06         0.23968E+06         0.00000E+00
    0.23968E+06         0.55228E+05         0.00000E+00
    0.00000E+00         0.00000E+00         0.11749E+06
 
    0.51719E+06         0.24947E+06         0.00000E+00
    0.24947E+06         0.60862E+05         0.00000E+00
    0.00000E+00         0.00000E+00         0.11561E+06
 
    0.50192E+06         0.25872E+06         0.00000E+00
    0.25872E+06         0.66621E+05         0.00000E+00
    0.00000E+00         0.00000E+00         0.11371E+06
 
    0.48645E+06         0.26745E+06         0.00000E+00
    0.26745E+06         0.72486E+05         0.00000E+00
    0.00000E+00         0.00000E+00         0.11179E+06
 
    0.47083E+06         0.27565E+06         0.00000E+00
    0.27565E+06         0.78442E+05         0.00000E+00
    0.00000E+00         0.00000E+00         0.10985E+06
 
    0.45508E+06         0.28334E+06         0.00000E+00
    0.28334E+06         0.84471E+05         0.00000E+00
    0.00000E+00         0.00000E+00         0.10791E+06
 
    0.43925E+06         0.29054E+06         0.00000E+00
    0.29054E+06         0.90557E+05         0.00000E+00
    0.00000E+00         0.00000E+00         0.10596E+06
 
    0.42337E+06         0.29724E+06         0.00000E+00
    0.29724E+06         0.96685E+05         0.00000E+00
    0.00000E+00         0.00000E+00         0.10401E+06
 
    0.40747E+06         0.30347E+06         0.00000E+00
    0.30347E+06         0.10284E+06         0.00000E+00
    0.00000E+00         0.00000E+00         0.10206E+06
 
    0.39159E+06         0.30924E+06         0.00000E+00
    0.30924E+06         0.10901E+06         0.00000E+00
    0.00000E+00         0.00000E+00         0.10012E+06
 
    0.37574E+06         0.31457E+06         0.00000E+00
    0.31457E+06         0.11519E+06         0.00000E+00
    0.00000E+00         0.00000E+00         0.98186E+05
 
    0.35997E+06         0.31946E+06         0.00000E+00
    0.31946E+06         0.12135E+06         0.00000E+00
    0.00000E+00         0.00000E+00         0.96263E+05
 
    0.34429E+06         0.32395E+06         0.00000E+00
    0.32395E+06         0.12749E+06         0.00000E+00
    0.00000E+00         0.00000E+00         0.94356E+05
 
    0.32873E+06         0.32803E+06         0.00000E+00
    0.32803E+06         0.13360E+06         0.00000E+00
    0.00000E+00         0.00000E+00         0.92466E+05
 
    0.31331E+06         0.33174E+06         0.00000E+00
    0.33174E+06         0.13968E+06         0.00000E+00
    0.00000E+00         0.00000E+00         0.90597E+05
 
    0.29806E+06         0.33509E+06         0.00000E+00
    0.33509E+06         0.14570E+06         0.00000E+00
    0.00000E+00         0.00000E+00         0.88751E+05
 
    0.28299E+06         0.33809E+06         0.00000E+00
    0.33809E+06         0.15166E+06         0.00000E+00
    0.00000E+00         0.00000E+00         0.86931E+05
 
    0.26813E+06         0.34078E+06         0.00000E+00
    0.34078E+06         0.15757E+06         0.00000E+00
    0.00000E+00         0.00000E+00         0.85138E+05
 
    0.25348E+06         0.34316E+06         0.00000E+00
    0.34316E+06         0.16340E+06         0.00000E+00
    0.00000E+00         0.00000E+00         0.83376E+05
 
    0.23907E+06         0.34526E+06         0.00000E+00
    0.34526E+06         0.16915E+06         0.00000E+00
    0.00000E+00         0.00000E+00         0.81645E+05
 
    0.22491E+06         0.34710E+06         0.00000E+00
    0.34710E+06         0.17483E+06         0.00000E+00
    0.00000E+00         0.00000E+00         0.79947E+05
 
    0.21100E+06         0.34871E+06         0.00000E+00
    0.34871E+06         0.18042E+06         0.00000E+00
    0.00000E+00         0.00000E+00         0.78285E+05
 
    0.19737E+06         0.35009E+06         0.00000E+00
    0.35009E+06         0.18592E+06         0.00000E+00
    0.00000E+00         0.00000E+00         0.76658E+05
 
    0.18401E+06         0.35129E+06         0.00000E+00
    0.35129E+06         0.19134E+06         0.00000E+00
    0.00000E+00         0.00000E+00         0.75070E+05
 
    0.17094E+06         0.35231E+06         0.00000E+00
    0.35231E+06         0.19666E+06         0.00000E+00
    0.00000E+00         0.00000E+00         0.73520E+05
 
    0.15815E+06         0.35318E+06         0.00000E+00
    0.35318E+06         0.20190E+06         0.00000E+00
    0.00000E+00         0.00000E+00         0.72009E+05
 
    0.14565E+06         0.35393E+06         0.00000E+00
    0.35393E+06         0.20704E+06         0.00000E+00
    0.00000E+00         0.00000E+00         0.70538E+05
 
    0.13344E+06         0.35457E+06         0.00000E+00
    0.35457E+06         0.21210E+06         0.00000E+00
    0.00000E+00         0.00000E+00         0.69107E+05
 
    0.12152E+06         0.35514E+06         0.00000E+00
    0.35514E+06         0.21707E+06         0.00000E+00
    0.00000E+00         0.00000E+00         0.67717E+05
 
    0.10988E+06         0.35565E+06         0.00000E+00
    0.35565E+06         0.22196E+06         0.00000E+00
    0.00000E+00         0.00000E+00         0.66368E+05
 
    0.98519E+05         0.35613E+06         0.00000E+00
    0.35613E+06         0.22677E+06         0.00000E+00
    0.00000E+00         0.00000E+00         0.65058E+05
 
    0.87429E+05         0.35660E+06         0.00000E+00
    0.35660E+06         0.23152E+06         0.00000E+00
    0.00000E+00         0.00000E+00         0.63789E+05
 
    0.76598E+05         0.35708E+06         0.00000E+00
    0.35708E+06         0.23620E+06         0.00000E+00
    0.00000E+00         0.00000E+00         0.62559E+05
 
    0.66014E+05         0.35760E+06         0.00000E+00
    0.35760E+06         0.24082E+06         0.00000E+00
    0.00000E+00         0.00000E+00         0.61368E+05
 
    0.80271E+06         0.11093E+05         0.00000E+00
    0.11093E+05        -0.17373E+03         0.00000E+00
    0.00000E+00         0.00000E+00         0.16051E+06
 
    0.79532E+06         0.32000E+05         0.00000E+00
    0.32000E+05         0.47435E+03         0.00000E+00
    0.00000E+00         0.00000E+00         0.15916E+06
 
    0.78679E+06         0.52327E+05         0.00000E+00
    0.52327E+05         0.16920E+04         0.00000E+00
    0.00000E+00         0.00000E+00         0.15770E+06
 
    0.77718E+06         0.72051E+05         0.00000E+00
    0.72051E+05         0.34446E+04         0.00000E+00
    0.00000E+00         0.00000E+00         0.15613E+06
 
    0.76658E+06         0.91152E+05         0.00000E+00
    0.91152E+05         0.56980E+04         0.00000E+00
    0.00000E+00         0.00000E+00         0.15446E+06
 
    0.75504E+06         0.10961E+06         0.00000E+00
    0.10961E+06         0.84189E+04         0.00000E+00
    0.00000E+00         0.00000E+00         0.15269E+06
 
    0.74262E+06         0.12742E+06         0.00000E+00
    0.12742E+06         0.11575E+05         0.00000E+00
    0.00000E+00         0.00000E+00         0.15084E+06
 
    0.72941E+06         0.14457E+06         0.00000E+00
    0.14457E+06         0.15133E+05         0.00000E+00
    0.00000E+00         0.00000E+00         0.14891E+06
 
    0.71545E+06         0.16105E+06         0.00000E+00
    0.16105E+06         0.19063E+05         0.00000E+00
    0.00000E+00         0.00000E+00         0.14690E+06
 
    0.70082E+06         0.17685E+06         0.00000E+00
    0.17685E+06         0.23334E+05         0.00000E+00
    0.00000E+00         0.00000E+00         0.14483E+06
 
    0.68557E+06         0.19197E+06         0.00000E+00
    0.19197E+06         0.27918E+05         0.00000E+00
    0.00000E+00         0.00000E+00         0.14270E+06
 
    0.66977E+06         0.20641E+06         0.00000E+00
    0.20641E+06         0.32786E+05         0.00000E+00
    0.00000E+00         0.00000E+00         0.14051E+06
 
    0.65346E+06         0.22017E+06         0.00000E+00
    0.22017E+06         0.37911E+05         0.00000E+00
    0.00000E+00         0.00000E+00         0.13827E+06
 
    0.63671E+06         0.23326E+06         0.00000E+00
    0.23326E+06         0.43267E+05         0.00000E+00
    0.00000E+00         0.00000E+00         0.13600E+06
 
    0.61958E+06         0.24567E+06         0.00000E+00
    0.24567E+06         0.48829E+05         0.00000E+00
    0.00000E+00         0.00000E+00         0.13368E+06
 
    0.60211E+06         0.25743E+06         0.00000E+00
    0.25743E+06         0.54572E+05         0.00000E+00
    0.00000E+00         0.00000E+00         0.13134E+06
 
    0.58435E+06         0.26852E+06         0.00000E+00
    0.26852E+06         0.60474E+05         0.00000E+00
    0.00000E+00         0.00000E+00         0.12897E+06
 
    0.56636E+06         0.27897E+06         0.00000E+00
    0.27897E+06         0.66513E+05         0.00000E+00
    0.00000E+00         0.00000E+00         0.12658E+06
 
    0.54819E+06         0.28879E+06         0.00000E+00
    0.28879E+06         0.72668E+05         0.00000E+00
    0.00000E+00         0.00000E+00         0.12417E+06
 
    0.52987E+06         0.29798E+06         0.00000E+00
    0.29798E+06         0.78919E+05         0.00000E+00
    0.00000E+00         0.00000E+00         0.12176E+06
 
    0.51145E+06         0.30656E+06         0.00000E+00
    0.30656E+06         0.85248E+05         0.00000E+00
    0.00000E+00         0.00000E+00         0.11934E+06
 
    0.49298E+06         0.31455E+06         0.00000E+00
    0.31455E+06         0.91637E+05         0.00000E+00
    0.00000E+00         0.00000E+00         0.11692E+06
 
    0.47449E+06         0.32195E+06         0.00000E+00
    0.32195E+06         0.98068E+05         0.00000E+00
    0.00000E+00         0.00000E+00         0.11451E+06
 
    0.45603E+06         0.32880E+06         0.00000E+00
    0.32880E+06         0.10453E+06         0.00000E+00
    0.00000E+00         0.00000E+00         0.11211E+06
 
    0.43763E+06         0.33510E+06         0.00000E+00
    0.33510E+06         0.11100E+06         0.00000E+00
    0.00000E+00         0.00000E+00         0.10972E+06
 
    0.41932E+06         0.34087E+06         0.00000E+00
    0.34087E+06         0.11747E+06         0.00000E+00
    0.00000E+00         0.00000E+00         0.10736E+06
 
    0.40113E+06         0.34614E+06         0.00000E+00
    0.34614E+06         0.12392E+06         0.00000E+00
    0.00000E+00         0.00000E+00         0.10501E+06
 
    0.38311E+06         0.35091E+06         0.00000E+00
    0.35091E+06         0.13035E+06         0.00000E+00
    0.00000E+00         0.00000E+00         0.10269E+06
 
    0.36528E+06         0.35522E+06         0.00000E+00
    0.35522E+06         0.13674E+06         0.00000E+00
    0.00000E+00         0.00000E+00         0.10040E+06
 
    0.34766E+06         0.35908E+06         0.00000E+00
    0.35908E+06         0.14308E+06         0.00000E+00
    0.00000E+00         0.00000E+00         0.98149E+05
 
    0.33029E+06         0.36252E+06         0.00000E+00
    0.36252E+06         0.14936E+06         0.00000E+00
    0.00000E+00         0.00000E+00         0.95930E+05
 
    0.31319E+06         0.36556E+06         0.00000E+00
    0.36556E+06         0.15557E+06         0.00000E+00
    0.00000E+00         0.00000E+00         0.93752E+05
 
    0.29638E+06         0.36821E+06         0.00000E+00
    0.36821E+06         0.16171E+06         0.00000E+00
    0.00000E+00         0.00000E+00         0.91617E+05
 
    0.27988E+06         0.37051E+06         0.00000E+00
    0.37051E+06         0.16776E+06         0.00000E+00
    0.00000E+00         0.00000E+00         0.89528E+05
 
    0.26371E+06         0.37248E+06         0.00000E+00
    0.37248E+06         0.17373E+06         0.00000E+00
    0.00000E+00         0.00000E+00         0.87487E+05
 
    0.24789E+06         0.37414E+06         0.00000E+00
    0.37414E+06         0.17960E+06         0.00000E+00
    0.00000E+00         0.00000E+00         0.85497E+05
 
    0.23243E+06         0.37552E+06         0.00000E+00
    0.37552E+06         0.18537E+06         0.00000E+00
    0.00000E+00         0.00000E+00         0.83559E+05
 
    0.21735E+06         0.37664E+06         0.00000E+00
    0.37664E+06         0.19103E+06         0.00000E+00
    0.00000E+00         0.00000E+00         0.81676E+05
 
    0.20266E+06         0.37754E+06         0.00000E+00
    0.37754E+06         0.19658E+06         0.00000E+00
    0.00000E+00         0.00000E+00         0.79849E+05
 
    0.18838E+06         0.37823E+06         0.00000E+00
    0.37823E+06         0.20203E+06         0.00000E+00
    0.00000E+00         0.00000E+00         0.78081E+05
 
    0.17450E+06         0.37874E+06         0.00000E+00
    0.37874E+06         0.20736E+06         0.00000E+00
    0.00000E+00         0.00000E+00         0.76371E+05
 
    0.16103E+06         0.37911E+06         0.00000E+00
    0.37911E+06         0.21258E+06         0.00000E+00
    0.00000E+00         0.00000E+00         0.74722E+05
 
    0.14798E+06         0.37936E+06         0.00000E+00
    0.37936E+06         0.21768E+06         0.00000E+00
    0.00000E+00         0.00000E+00         0.73133E+05
 
    0.13536E+06         0.37951E+06         0.00000E+00
    0.37951E+06         0.22268E+06         0.00000E+00
    0.00000E+00         0.00000E+00         0.71607E+05
 
    0.12315E+06         0.37961E+06         0.00000E+00
    0.37961E+06         0.22756E+06         0.00000E+00
    0.00000E+00         0.00000E+00         0.70142E+05
 
    0.11135E+06         0.37967E+06         0.00000E+00
    0.37967E+06         0.23235E+06         0.00000E+00
    0.00000E+00         0.00000E+00         0.68740E+05
 
    0.99972E+05         0.37972E+06         0.00000E+00
    0.37972E+06         0.23703E+06         0.00000E+00
    0.00000E+00         0.00000E+00         0.67400E+05
 
    0.88992E+05         0.37980E+06         0.00000E+00
    0.37980E+06         0.24161E+06         0.00000E+00
    0.00000E+00         0.00000E+00         0.66121E+05
 
    0.78404E+05         0.37994E+06         0.00000E+00
    0.37994E+06         0.24611E+06         0.00000E+00
    0.00000E+00         0.00000E+00         0.64903E+05
 
    0.68194E+05         0.38017E+06         0.00000E+00
    0.38017E+06         0.25054E+06         0.00000E+00
    0.00000E+00         0.00000E+00         0.63746E+05
 
    0.91651E+06         0.12872E+05         0.00000E+00
    0.12872E+05        -0.18997E+03         0.00000E+00
    0.00000E+00         0.00000E+00         0.18326E+06
 
    0.90580E+06         0.36871E+05         0.00000E+00
    0.36871E+05         0.53520E+03         0.00000E+00
    0.00000E+00         0.00000E+00         0.18127E+06
 
    0.89384E+06         0.60092E+05         0.00000E+00
    0.60092E+05         0.18856E+04         0.00000E+00
    0.00000E+00         0.00000E+00         0.17914E+06
 
    0.88071E+06         0.82519E+05         0.00000E+00
    0.82519E+05         0.38179E+04         0.00000E+00
    0.00000E+00         0.00000E+00         0.17691E+06
 
    0.86650E+06         0.10414E+06         0.00000E+00
    0.10414E+06         0.62900E+04         0.00000E+00
    0.00000E+00         0.00000E+00         0.17456E+06
 
    0.85129E+06         0.12493E+06         0.00000E+00
    0.12493E+06         0.92612E+04         0.00000E+00
    0.00000E+00         0.00000E+00         0.17211E+06
 
    0.83516E+06         0.14490E+06         0.00000E+00
    0.14490E+06         0.12692E+05         0.00000E+00
    0.00000E+00         0.00000E+00         0.16957E+06
 
    0.81820E+06         0.16403E+06         0.00000E+00
    0.16403E+06         0.16544E+05         0.00000E+00
    0.00000E+00         0.00000E+00         0.16695E+06
 
    0.80048E+06         0.18232E+06         0.00000E+00
    0.18232E+06         0.20781E+05         0.00000E+00
    0.00000E+00         0.00000E+00         0.16425E+06
 
    0.78208E+06         0.19978E+06         0.00000E+00
    0.19978E+06         0.25367E+05         0.00000E+00
    0.00000E+00         0.00000E+00         0.16149E+06
 
    0.76306E+06         0.21640E+06         0.00000E+00
    0.21640E+06         0.30268E+05         0.00000E+00
    0.00000E+00         0.00000E+00         0.15867E+06
 
    0.74350E+06         0.23220E+06         0.00000E+00
    0.23220E+06         0.35454E+05         0.00000E+00
    0.00000E+00         0.00000E+00         0.15579E+06
 
    0.72347E+06         0.24717E+06         0.00000E+00
    0.24717E+06         0.40892E+05         0.00000E+00
    0.00000E+00         0.00000E+00         0.15287E+06
 
    0.70303E+06         0.26134E+06         0.00000E+00
    0.26134E+06         0.46554E+05         0.00000E+00
    0.00000E+00         0.00000E+00         0.14992E+06
 
    0.68225E+06         0.27470E+06         0.00000E+00
    0.27470E+06         0.52411E+05         0.00000E+00
    0.00000E+00         0.00000E+00         0.14693E+06
 
    0.66119E+06         0.28728E+06         0.00000E+00
    0.28728E+06         0.58439E+05         0.00000E+00
    0.00000E+00         0.00000E+00         0.14393E+06
 
    0.63990E+06         0.29908E+06         0.00000E+00
    0.29908E+06         0.64612E+05         0.00000E+00
    0.00000E+00         0.00000E+00         0.14090E+06
 
    0.61844E+06         0.31013E+06         0.00000E+00
    0.31013E+06         0.70907E+05         0.00000E+00
    0.00000E+00         0.00000E+00         0.13787E+06
 
    0.59687E+06         0.32044E+06         0.00000E+00
    0.32044E+06         0.77302E+05         0.00000E+00
    0.00000E+00         0.00000E+00         0.13483E+06
 
    0.57524E+06         0.33003E+06         0.00000E+00
    0.33003E+06         0.83776E+05         0.00000E+00
    0.00000E+00         0.00000E+00         0.13180E+06
 
    0.55359E+06         0.33891E+06         0.00000E+00
    0.33891E+06         0.90311E+05         0.00000E+00
    0.00000E+00         0.00000E+00         0.12878E+06
 
    0.53197E+06         0.34712E+06         0.00000E+00
    0.34712E+06         0.96888E+05         0.00000E+00
    0.00000E+00         0.00000E+00         0.12577E+06
 
    0.51043E+06         0.35466E+06         0.00000E+00
    0.35466E+06         0.10349E+06         0.00000E+00
    0.00000E+00         0.00000E+00         0.12279E+06
 
    0.48902E+06         0.36156E+06         0.00000E+00
    0.36156E+06         0.11010E+06         0.00000E+00
    0.00000E+00         0.00000E+00         0.11982E+06
 
    0.46776E+06         0.36785E+06         0.00000E+00
    0.36785E+06         0.11671E+06         0.00000E+00
    0.00000E+00         0.00000E+00         0.11689E+06
 
    0.44670E+06         0.37354E+06         0.00000E+00
    0.37354E+06         0.12330E+06         0.00000E+00
    0.00000E+00         0.00000E+00         0.11400E+06
 
    0.42588E+06         0.37866E+06         0.00000E+00
    0.37866E+06         0.12986E+06         0.00000E+00
    0.00000E+00         0.00000E+00         0.11115E+06
 
    0.40533E+06         0.38323E+06         0.00000E+00
    0.38323E+06         0.13637E+06         0.00000E+00
    0.00000E+00         0.00000E+00         0.10834E+06
 
    0.38508E+06         0.38728E+06         0.00000E+00
    0.38728E+06         0.14283E+06         0.00000E+00
    0.00000E+00         0.00000E+00         0.10558E+06
 
    0.36517E+06         0.39084E+06         0.00000E+00
    0.39084E+06         0.14923E+06         0.00000E+00
    0.00000E+00         0.00000E+00         0.10288E+06
 
    0.34562E+06         0.39392E+06         0.00000E+00
    0.39392E+06         0.15555E+06         0.00000E+00
    0.00000E+00         0.00000E+00         0.10023E+06
 
    0.32646E+06         0.39656E+06         0.00000E+00
    0.39656E+06         0.16179E+06         0.00000E+00
    0.00000E+00         0.00000E+00         0.97651E+05
 
    0.30772E+06         0.39878E+06         0.00000E+00
    0.39878E+06         0.16794E+06         0.00000E+00
    0.00000E+00         0.00000E+00         0.95133E+05
 
    0.28942E+06         0.40061E+06         0.00000E+00
    0.40061E+06         0.17400E+06         0.00000E+00
    0.00000E+00         0.00000E+00         0.92683E+05
 
    0.27158E+06         0.40207E+06         0.00000E+00
    0.40207E+06         0.17995E+06         0.00000E+00
    0.00000E+00         0.00000E+00         0.90305E+05
 
    0.25423E+06         0.40320E+06         0.00000E+00
    0.40320E+06         0.18578E+06         0.00000E+00
    0.00000E+00         0.00000E+00         0.88002E+05
 
    0.23737E+06         0.40403E+06         0.00000E+00
    0.40403E+06         0.19150E+06         0.00000E+00
    0.00000E+00         0.00000E+00         0.85775E+05
 
    0.22103E+06         0.40458E+06         0.00000E+00
    0.40458E+06         0.19711E+06         0.00000E+00
    0.00000E+00         0.00000E+00         0.83628E+05
 
    0.20523E+06         0.40488E+06         0.00000E+00
    0.40488E+06         0.20258E+06         0.00000E+00
    0.00000E+00         0.00000E+00         0.81563E+05
 
    0.18997E+06         0.40496E+06         0.00000E+00
    0.40496E+06         0.20793E+06         0.00000E+00
    0.00000E+00         0.00000E+00         0.79581E+05
 
    0.17527E+06         0.40487E+06         0.00000E+00
    0.40487E+06         0.21315E+06         0.00000E+00
    0.00000E+00         0.00000E+00         0.77684E+05
 
    0.16114E+06         0.40462E+06         0.00000E+00
    0.40462E+06         0.21823E+06         0.00000E+00
    0.00000E+00         0.00000E+00         0.75875E+05
 
    0.14758E+06         0.40425E+06         0.00000E+00
    0.40425E+06         0.22319E+06         0.00000E+00
    0.00000E+00         0.00000E+00         0.74153E+05
 
    0.13459E+06         0.40381E+06         0.00000E+00
    0.40381E+06         0.22800E+06         0.00000E+00
    0.00000E+00         0.00000E+00         0.72520E+05
 
    0.12219E+06         0.40331E+06         0.00000E+00
    0.40331E+06         0.23269E+06         0.00000E+00
    0.00000E+00         0.00000E+00         0.70976E+05
 
    0.11036E+06         0.40279E+06         0.00000E+00
    0.40279E+06         0.23725E+06         0.00000E+00
    0.00000E+00         0.00000E+00         0.69523E+05
 
    0.99110E+05         0.40230E+06         0.00000E+00
    0.40230E+06         0.24168E+06         0.00000E+00
    0.00000E+00         0.00000E+00         0.68159E+05
 
    0.88427E+05         0.40187E+06         0.00000E+00
    0.40187E+06         0.24600E+06         0.00000E+00
    0.00000E+00         0.00000E+00         0.66885E+05
 
    0.78305E+05         0.40153E+06         0.00000E+00
    0.40153E+06         0.25020E+06         0.00000E+00
    0.00000E+00         0.00000E+00         0.65700E+05
 
    0.68730E+05         0.40133E+06         0.00000E+00
    0.40133E+06         0.25429E+06         0.00000E+00
    0.00000E+00         0.00000E+00         0.64604E+05
 
    0.10470E+07         0.14850E+05         0.00000E+00
    0.14850E+05        -0.20175E+03         0.00000E+00
    0.00000E+00         0.00000E+00         0.20937E+06
 
    0.10319E+07         0.42214E+05         0.00000E+00
    0.42214E+05         0.59026E+03         0.00000E+00
    0.00000E+00         0.00000E+00         0.20650E+06
 
    0.10154E+07         0.68557E+05         0.00000E+00
    0.68557E+05         0.20494E+04         0.00000E+00
    0.00000E+00         0.00000E+00         0.20349E+06
 
    0.99771E+06         0.93869E+05         0.00000E+00
    0.93869E+05         0.41226E+04         0.00000E+00
    0.00000E+00         0.00000E+00         0.20037E+06
 
    0.97887E+06         0.11814E+06         0.00000E+00
    0.11814E+06         0.67588E+04         0.00000E+00
    0.00000E+00         0.00000E+00         0.19713E+06
 
    0.95901E+06         0.14137E+06         0.00000E+00
    0.14137E+06         0.99092E+04         0.00000E+00
    0.00000E+00         0.00000E+00         0.19378E+06
 
    0.93822E+06         0.16357E+06         0.00000E+00
    0.16357E+06         0.13527E+05         0.00000E+00
    0.00000E+00         0.00000E+00         0.19035E+06
 
    0.91659E+06         0.18472E+06         0.00000E+00
    0.18472E+06         0.17567E+05         0.00000E+00
    0.00000E+00         0.00000E+00         0.18683E+06
 
    0.89423E+06         0.20484E+06         0.00000E+00
    0.20484E+06         0.21988E+05         0.00000E+00
    0.00000E+00         0.00000E+00         0.18324E+06
 
    0.87121E+06         0.22395E+06         0.00000E+00
    0.22395E+06         0.26749E+05         0.00000E+00
    0.00000E+00         0.00000E+00         0.17959E+06
 
    0.84762E+06         0.24204E+06         0.00000E+00
    0.24204E+06         0.31811E+05         0.00000E+00
    0.00000E+00         0.00000E+00         0.17589E+06
 
    0.82355E+06         0.25914E+06         0.00000E+00
    0.25914E+06         0.37141E+05         0.00000E+00
    0.00000E+00         0.00000E+00         0.17214E+06
 
    0.79906E+06         0.27527E+06         0.00000E+00
    0.27527E+06         0.42703E+05         0.00000E+00
    0.00000E+00         0.00000E+00         0.16835E+06
 
    0.77425E+06         0.29044E+06         0.00000E+00
    0.29044E+06         0.48467E+05         0.00000E+00
    0.00000E+00         0.00000E+00         0.16454E+06
 
    0.74917E+06         0.30466E+06         0.00000E+00
    0.30466E+06         0.54404E+05         0.00000E+00
    0.00000E+00         0.00000E+00         0.16072E+06
 
    0.72390E+06         0.31798E+06         0.00000E+00
    0.31798E+06         0.60485E+05         0.00000E+00
    0.00000E+00         0.00000E+00         0.15688E+06
 
    0.69850E+06         0.33039E+06         0.00000E+00
    0.33039E+06         0.66687E+05         0.00000E+00
    0.00000E+00         0.00000E+00         0.15304E+06
 
    0.67303E+06         0.34194E+06         0.00000E+00
    0.34194E+06         0.72985E+05         0.00000E+00
    0.00000E+00         0.00000E+00         0.14920E+06
 
    0.64756E+06         0.35265E+06         0.00000E+00
    0.35265E+06         0.79359E+05         0.00000E+00
    0.00000E+00         0.00000E+00         0.14538E+06
 
    0.62213E+06         0.36253E+06         0.00000E+00
    0.36253E+06         0.85788E+05         0.00000E+00
    0.00000E+00         0.00000E+00         0.14158E+06
 
    0.59680E+06         0.37162E+06         0.00000E+00
    0.37162E+06         0.92254E+05         0.00000E+00
    0.00000E+00         0.00000E+00         0.13781E+06
 
    0.57163E+06         0.37995E+06         0.00000E+00
    0.37995E+06         0.98740E+05         0.00000E+00
    0.00000E+00         0.00000E+00         0.13407E+06
 
    0.54665E+06         0.38753E+06         0.00000E+00
    0.38753E+06         0.10523E+06         0.00000E+00
    0.00000E+00         0.00000E+00         0.13038E+06
 
    0.52192E+06         0.39440E+06         0.00000E+00
    0.39440E+06         0.11172E+06         0.00000E+00
    0.00000E+00         0.00000E+00         0.12673E+06
 
    0.49747E+06         0.40059E+06         0.00000E+00
    0.40059E+06         0.11818E+06         0.00000E+00
    0.00000E+00         0.00000E+00         0.12313E+06
 
    0.47335E+06         0.40612E+06         0.00000E+00
    0.40612E+06         0.12461E+06         0.00000E+00
    0.00000E+00         0.00000E+00         0.11959E+06
 
    0.44960E+06         0.41102E+06         0.00000E+00
    0.41102E+06         0.13099E+06         0.00000E+00
    0.00000E+00         0.00000E+00         0.11612E+06
 
    0.42625E+06         0.41533E+06         0.00000E+00
    0.41533E+06         0.13732E+06         0.00000E+00
    0.00000E+00         0.00000E+00         0.11271E+06
 
    0.40333E+06         0.41906E+06         0.00000E+00
    0.41906E+06         0.14359E+06         0.00000E+00
    0.00000E+00         0.00000E+00         0.10938E+06
 
    0.38089E+06         0.42225E+06         0.00000E+00
    0.42225E+06         0.14978E+06         0.00000E+00
    0.00000E+00         0.00000E+00         0.10613E+06
 
    0.35895E+06         0.42492E+06         0.00000E+00
    0.42492E+06         0.15590E+06         0.00000E+00
    0.00000E+00         0.00000E+00         0.10297E+06
 
    0.33754E+06         0.42711E+06         0.00000E+00
    0.42711E+06         0.16192E+06         0.00000E+00
    0.00000E+00         0.00000E+00         0.99892E+05
 
    0.31668E+06         0.42885E+06         0.00000E+00
    0.42885E+06         0.16786E+06         0.00000E+00
    0.00000E+00         0.00000E+00         0.96908E+05
 
    0.29641E+06         0.43015E+06         0.00000E+00
    0.43015E+06         0.17369E+06         0.00000E+00
    0.00000E+00         0.00000E+00         0.94020E+05
 
    0.27676E+06         0.43107E+06         0.00000E+00
    0.43107E+06         0.17941E+06         0.00000E+00
    0.00000E+00         0.00000E+00         0.91233E+05
 
    0.25773E+06         0.43162E+06         0.00000E+00
    0.43162E+06         0.18502E+06         0.00000E+00
    0.00000E+00         0.00000E+00         0.88550E+05
 
    0.23936E+06         0.43183E+06         0.00000E+00
    0.43183E+06         0.19051E+06         0.00000E+00
    0.00000E+00         0.00000E+00         0.85974E+05
 
    0.22166E+06         0.43175E+06         0.00000E+00
    0.43175E+06         0.19587E+06         0.00000E+00
    0.00000E+00         0.00000E+00         0.83508E+05
 
    0.20466E+06         0.43140E+06         0.00000E+00
    0.43140E+06         0.20111E+06         0.00000E+00
    0.00000E+00         0.00000E+00         0.81154E+05
 
    0.18837E+06         0.43082E+06         0.00000E+00
    0.43082E+06         0.20621E+06         0.00000E+00
    0.00000E+00         0.00000E+00         0.78916E+05
 
    0.17281E+06         0.43003E+06         0.00000E+00
    0.43003E+06         0.21117E+06         0.00000E+00
    0.00000E+00         0.00000E+00         0.76796E+05
 
    0.15798E+06         0.42909E+06         0.00000E+00
    0.42909E+06         0.21599E+06         0.00000E+00
    0.00000E+00         0.00000E+00         0.74794E+05
 
    0.14391E+06         0.42802E+06         0.00000E+00
    0.42802E+06         0.22066E+06         0.00000E+00
    0.00000E+00         0.00000E+00         0.72914E+05
 
    0.13060E+06         0.42687E+06         0.00000E+00
    0.42687E+06         0.22519E+06         0.00000E+00
    0.00000E+00         0.00000E+00         0.71157E+05
 
    0.11805E+06         0.42567E+06         0.00000E+00
    0.42567E+06         0.22956E+06         0.00000E+00
    0.00000E+00         0.00000E+00         0.69523E+05
 
    0.10628E+06         0.42446E+06         0.00000E+00
    0.42446E+06         0.23379E+06         0.00000E+00
    0.00000E+00         0.00000E+00         0.68013E+05
 
    0.95283E+05         0.42330E+06         0.00000E+00
    0.42330E+06         0.23786E+06         0.00000E+00
    0.00000E+00         0.00000E+00         0.66629E+05
 
    0.85059E+05         0.42221E+06         0.00000E+00
    0.42221E+06         0.24179E+06         0.00000E+00
    0.00000E+00         0.00000E+00         0.65370E+05
 
    0.75604E+05         0.42125E+06         0.00000E+00
    0.42125E+06         0.24557E+06         0.00000E+00
    0.00000E+00         0.00000E+00         0.64235E+05
 
    0.66910E+05         0.42047E+06         0.00000E+00
    0.42047E+06         0.24922E+06         0.00000E+00
    0.00000E+00         0.00000E+00         0.63226E+05
 
    0.11956E+07         0.16991E+05         0.00000E+00
    0.16991E+05        -0.20568E+03         0.00000E+00
    0.00000E+00         0.00000E+00         0.23907E+06
 
    0.11746E+07         0.47903E+05         0.00000E+00
    0.47903E+05         0.63178E+03         0.00000E+00
    0.00000E+00         0.00000E+00         0.23505E+06
 
    0.11523E+07         0.77497E+05         0.00000E+00
    0.77497E+05         0.21537E+04         0.00000E+00
    0.00000E+00         0.00000E+00         0.23089E+06
 
    0.11287E+07         0.10577E+06         0.00000E+00
    0.10577E+06         0.42962E+04         0.00000E+00
    0.00000E+00         0.00000E+00         0.22661E+06
 
    0.11041E+07         0.13274E+06         0.00000E+00
    0.13274E+06         0.69986E+04         0.00000E+00
    0.00000E+00         0.00000E+00         0.22221E+06
 
    0.10784E+07         0.15841E+06         0.00000E+00
    0.15841E+06         0.10204E+05         0.00000E+00
    0.00000E+00         0.00000E+00         0.21772E+06
 
    0.10518E+07         0.18279E+06         0.00000E+00
    0.18279E+06         0.13856E+05         0.00000E+00
    0.00000E+00         0.00000E+00         0.21313E+06
 
    0.10245E+07         0.20590E+06         0.00000E+00
    0.20590E+06         0.17907E+05         0.00000E+00
    0.00000E+00         0.00000E+00         0.20847E+06
 
    0.99645E+06         0.22776E+06         0.00000E+00
    0.22776E+06         0.22306E+05         0.00000E+00
    0.00000E+00         0.00000E+00         0.20375E+06
 
    0.96787E+06         0.24839E+06         0.00000E+00
    0.24839E+06         0.27010E+05         0.00000E+00
    0.00000E+00         0.00000E+00         0.19898E+06
 
    0.93882E+06         0.26782E+06         0.00000E+00
    0.26782E+06         0.31977E+05         0.00000E+00
    0.00000E+00         0.00000E+00         0.19416E+06
 
    0.90940E+06         0.28609E+06         0.00000E+00
    0.28609E+06         0.37170E+05         0.00000E+00
    0.00000E+00         0.00000E+00         0.18931E+06
 
    0.87968E+06         0.30320E+06         0.00000E+00
    0.30320E+06         0.42552E+05         0.00000E+00
    0.00000E+00         0.00000E+00         0.18445E+06
 
    0.84976E+06         0.31921E+06         0.00000E+00
    0.31921E+06         0.48092E+05         0.00000E+00
    0.00000E+00         0.00000E+00         0.17957E+06
 
    0.81971E+06         0.33414E+06         0.00000E+00
    0.33414E+06         0.53761E+05         0.00000E+00
    0.00000E+00         0.00000E+00         0.17469E+06
 
    0.78961E+06         0.34802E+06         0.00000E+00
    0.34802E+06         0.59533E+05         0.00000E+00
    0.00000E+00         0.00000E+00         0.16983E+06
 
    0.75952E+06         0.36089E+06         0.00000E+00
    0.36089E+06         0.65382E+05         0.00000E+00
    0.00000E+00         0.00000E+00         0.16498E+06
 
    0.72951E+06         0.37279E+06         0.00000E+00
    0.37279E+06         0.71289E+05         0.00000E+00
    0.00000E+00         0.00000E+00         0.16016E+06
 
    0.69964E+06         0.38374E+06         0.00000E+00
    0.38374E+06         0.77234E+05         0.00000E+00
    0.00000E+00         0.00000E+00         0.15538E+06
 
    0.66997E+06         0.39378E+06         0.00000E+00
    0.39378E+06         0.83201E+05         0.00000E+00
    0.00000E+00         0.00000E+00         0.15063E+06
 
    0.64056E+06         0.40295E+06         0.00000E+00
    0.40295E+06         0.89175E+05         0.00000E+00
    0.00000E+00         0.00000E+00         0.14595E+06
 
    0.61144E+06         0.41128E+06         0.00000E+00
    0.41128E+06         0.95143E+05         0.00000E+00
    0.00000E+00         0.00000E+00         0.14132E+06
 
    0.58268E+06         0.41881E+06         0.00000E+00
    0.41881E+06         0.10109E+06         0.00000E+00
    0.00000E+00         0.00000E+00         0.13676E+06
 
    0.55432E+06         0.42556E+06         0.00000E+00
    0.42556E+06         0.10702E+06         0.00000E+00
    0.00000E+00         0.00000E+00         0.13227E+06
 
    0.52640E+06         0.43159E+06         0.00000E+00
    0.43159E+06         0.11291E+06         0.00000E+00
    0.00000E+00         0.00000E+00         0.12786E+06
 
    0.49895E+06         0.43690E+06         0.00000E+00
    0.43690E+06         0.11875E+06         0.00000E+00
    0.00000E+00         0.00000E+00         0.12354E+06
 
    0.47202E+06         0.44155E+06         0.00000E+00
    0.44155E+06         0.12455E+06         0.00000E+00
    0.00000E+00         0.00000E+00         0.11931E+06
 
    0.44564E+06         0.44555E+06         0.00000E+00
    0.44555E+06         0.13029E+06         0.00000E+00
    0.00000E+00         0.00000E+00         0.11519E+06
 
    0.41986E+06         0.44895E+06         0.00000E+00
    0.44895E+06         0.13598E+06         0.00000E+00
    0.00000E+00         0.00000E+00         0.11117E+06
 
    0.39469E+06         0.45177E+06         0.00000E+00
    0.45177E+06         0.14159E+06         0.00000E+00
    0.00000E+00         0.00000E+00         0.10726E+06
 
    0.37017E+06         0.45405E+06         0.00000E+00
    0.45405E+06         0.14714E+06         0.00000E+00
    0.00000E+00         0.00000E+00         0.10346E+06
 
    0.34633E+06         0.45580E+06         0.00000E+00
    0.45580E+06         0.15261E+06         0.00000E+00
    0.00000E+00         0.00000E+00         0.99787E+05
 
    0.32320E+06         0.45708E+06         0.00000E+00
    0.45708E+06         0.15800E+06         0.00000E+00
    0.00000E+00         0.00000E+00         0.96240E+05
 
    0.30080E+06         0.45789E+06         0.00000E+00
    0.45789E+06         0.16331E+06         0.00000E+00
    0.00000E+00         0.00000E+00         0.92822E+05
 
    0.27917E+06         0.45829E+06         0.00000E+00
    0.45829E+06         0.16852E+06         0.00000E+00
    0.00000E+00         0.00000E+00         0.89540E+05
 
    0.25834E+06         0.45828E+06         0.00000E+00
    0.45828E+06         0.17364E+06         0.00000E+00
    0.00000E+00         0.00000E+00         0.86396E+05
 
    0.23831E+06         0.45792E+06         0.00000E+00
    0.45792E+06         0.17866E+06         0.00000E+00
    0.00000E+00         0.00000E+00         0.83395E+05
 
    0.21913E+06         0.45723E+06         0.00000E+00
    0.45723E+06         0.18357E+06         0.00000E+00
    0.00000E+00         0.00000E+00         0.80541E+05
 
    0.20081E+06         0.45624E+06         0.00000E+00
    0.45624E+06         0.18837E+06         0.00000E+00
    0.00000E+00         0.00000E+00         0.77836E+05
 
    0.18338E+06         0.45499E+06         0.00000E+00
    0.45499E+06         0.19304E+06         0.00000E+00
    0.00000E+00         0.00000E+00         0.75284E+05
 
    0.16685E+06         0.45351E+06         0.00000E+00
    0.45351E+06         0.19759E+06         0.00000E+00
    0.00000E+00         0.00000E+00         0.72889E+05
 
    0.15126E+06         0.45185E+06         0.00000E+00
    0.45185E+06         0.20200E+06         0.00000E+00
    0.00000E+00         0.00000E+00         0.70652E+05
 
    0.13661E+06         0.45004E+06         0.00000E+00
    0.45004E+06         0.20627E+06         0.00000E+00
    0.00000E+00         0.00000E+00         0.68576E+05
 
    0.12293E+06         0.44813E+06         0.00000E+00
    0.44813E+06         0.21038E+06         0.00000E+00
    0.00000E+00         0.00000E+00         0.66663E+05
 
    0.11023E+06         0.44615E+06         0.00000E+00
    0.44615E+06         0.21434E+06         0.00000E+00
    0.00000E+00         0.00000E+00         0.64916E+05
 
    0.98529E+05         0.44416E+06         0.00000E+00
    0.44416E+06         0.21814E+06         0.00000E+00
    0.00000E+00         0.00000E+00         0.63334E+05
 
    0.87832E+05         0.44219E+06         0.00000E+00
    0.44219E+06         0.22177E+06         0.00000E+00
    0.00000E+00         0.00000E+00         0.61921E+05
 
    0.78150E+05         0.44031E+06         0.00000E+00
    0.44031E+06         0.22523E+06         0.00000E+00
    0.00000E+00         0.00000E+00         0.60677E+05
 
    0.69488E+05         0.43857E+06         0.00000E+00
    0.43857E+06         0.22852E+06         0.00000E+00
    0.00000E+00         0.00000E+00         0.59601E+05
 
    0.61849E+05         0.43701E+06         0.00000E+00
    0.43701E+06         0.23163E+06         0.00000E+00
    0.00000E+00         0.00000E+00         0.58695E+05
 
    0.13628E+07         0.19226E+05         0.00000E+00
    0.19226E+05        -0.19733E+03         0.00000E+00
    0.00000E+00         0.00000E+00         0.27253E+06
 
    0.13344E+07         0.53717E+05         0.00000E+00
    0.53717E+05         0.64946E+03         0.00000E+00
    0.00000E+00         0.00000E+00         0.26701E+06
 
    0.13047E+07         0.86532E+05         0.00000E+00
    0.86532E+05         0.21592E+04         0.00000E+00
    0.00000E+00         0.00000E+00         0.26137E+06
 
    0.12737E+07         0.11769E+06         0.00000E+00
    0.11769E+06         0.42564E+04         0.00000E+00
    0.00000E+00         0.00000E+00         0.25560E+06
 
    0.12418E+07         0.14722E+06         0.00000E+00
    0.14722E+06         0.68702E+04         0.00000E+00
    0.00000E+00         0.00000E+00         0.24973E+06
 
    0.12089E+07         0.17515E+06         0.00000E+00
    0.17515E+06         0.99345E+04         0.00000E+00
    0.00000E+00         0.00000E+00         0.24377E+06
 
    0.11753E+07         0.20152E+06         0.00000E+00
    0.20152E+06         0.13387E+05         0.00000E+00
    0.00000E+00         0.00000E+00         0.23773E+06
 
    0.11410E+07         0.22635E+06         0.00000E+00
    0.22635E+06         0.17172E+05         0.00000E+00
    0.00000E+00         0.00000E+00         0.23164E+06
 
    0.11062E+07         0.24969E+06         0.00000E+00
    0.24969E+06         0.21235E+05         0.00000E+00
    0.00000E+00         0.00000E+00         0.22549E+06
 
    0.10711E+07         0.27159E+06         0.00000E+00
    0.27159E+06         0.25530E+05         0.00000E+00
    0.00000E+00         0.00000E+00         0.21932E+06
 
    0.10356E+07         0.29207E+06         0.00000E+00
    0.29207E+06         0.30012E+05         0.00000E+00
    0.00000E+00         0.00000E+00         0.21312E+06
 
    0.99996E+06         0.31121E+06         0.00000E+00
    0.31121E+06         0.34642E+05         0.00000E+00
    0.00000E+00         0.00000E+00         0.20692E+06
 
    0.96422E+06         0.32903E+06         0.00000E+00
    0.32903E+06         0.39386E+05         0.00000E+00
    0.00000E+00         0.00000E+00         0.20072E+06
 
    0.92847E+06         0.34559E+06         0.00000E+00
    0.34559E+06         0.44212E+05         0.00000E+00
    0.00000E+00         0.00000E+00         0.19454E+06
 
    0.89280E+06         0.36094E+06         0.00000E+00
    0.36094E+06         0.49095E+05         0.00000E+00
    0.00000E+00         0.00000E+00         0.18838E+06
 
    0.85727E+06         0.37512E+06         0.00000E+00
    0.37512E+06         0.54011E+05         0.00000E+00
    0.00000E+00         0.00000E+00         0.18226E+06
 
    0.82197E+06         0.38819E+06         0.00000E+00
    0.38819E+06         0.58940E+05         0.00000E+00
    0.00000E+00         0.00000E+00         0.17618E+06
 
    0.78695E+06         0.40020E+06         0.00000E+00
    0.40020E+06         0.63868E+05         0.00000E+00
    0.00000E+00         0.00000E+00         0.17016E+06
 
    0.75228E+06         0.41118E+06         0.00000E+00
    0.41118E+06         0.68781E+05         0.00000E+00
    0.00000E+00         0.00000E+00         0.16421E+06
 
    0.71801E+06         0.42120E+06         0.00000E+00
    0.42120E+06         0.73670E+05         0.00000E+00
    0.00000E+00         0.00000E+00         0.15834E+06
 
    0.68420E+06         0.43029E+06         0.00000E+00
    0.43029E+06         0.78526E+05         0.00000E+00
    0.00000E+00         0.00000E+00         0.15254E+06
 
    0.65088E+06         0.43850E+06         0.00000E+00
    0.43850E+06         0.83345E+05         0.00000E+00
    0.00000E+00         0.00000E+00         0.14684E+06
 
    0.61810E+06         0.44587E+06         0.00000E+00
    0.44587E+06         0.88124E+05         0.00000E+00
    0.00000E+00         0.00000E+00         0.14124E+06
 
    0.58590E+06         0.45245E+06         0.00000E+00
    0.45245E+06         0.92861E+05         0.00000E+00
    0.00000E+00         0.00000E+00         0.13575E+06
 
    0.55432E+06         0.45826E+06         0.00000E+00
    0.45826E+06         0.97555E+05         0.00000E+00
    0.00000E+00         0.00000E+00         0.13038E+06
 
    0.52339E+06         0.46336E+06         0.00000E+00
    0.46336E+06         0.10221E+06         0.00000E+00
    0.00000E+00         0.00000E+00         0.12512E+06
 
    0.49315E+06         0.46777E+06         0.00000E+00
    0.46777E+06         0.10682E+06         0.00000E+00
    0.00000E+00         0.00000E+00         0.11999E+06
 
    0.46362E+06         0.47152E+06         0.00000E+00
    0.47152E+06         0.11140E+06         0.00000E+00
    0.00000E+00         0.00000E+00         0.11500E+06
 
    0.43484E+06         0.47466E+06         0.00000E+00
    0.47466E+06         0.11594E+06         0.00000E+00
    0.00000E+00         0.00000E+00         0.11016E+06
 
    0.40683E+06         0.47722E+06         0.00000E+00
    0.47722E+06         0.12044E+06         0.00000E+00
    0.00000E+00         0.00000E+00         0.10545E+06
 
    0.37962E+06         0.47921E+06         0.00000E+00
    0.47921E+06         0.12491E+06         0.00000E+00
    0.00000E+00         0.00000E+00         0.10091E+06
 
    0.35323E+06         0.48067E+06         0.00000E+00
    0.48067E+06         0.12935E+06         0.00000E+00
    0.00000E+00         0.00000E+00         0.96517E+05
 
    0.32770E+06         0.48163E+06         0.00000E+00
    0.48163E+06         0.13376E+06         0.00000E+00
    0.00000E+00         0.00000E+00         0.92293E+05
 
    0.30306E+06         0.48212E+06         0.00000E+00
    0.48212E+06         0.13813E+06         0.00000E+00
    0.00000E+00         0.00000E+00         0.88237E+05
 
    0.27932E+06         0.48216E+06         0.00000E+00
    0.48216E+06         0.14246E+06         0.00000E+00
    0.00000E+00         0.00000E+00         0.84357E+05
 
    0.25652E+06         0.48178E+06         0.00000E+00
    0.48178E+06         0.14675E+06         0.00000E+00
    0.00000E+00         0.00000E+00         0.80655E+05
 
    0.23469E+06         0.48100E+06         0.00000E+00
    0.48100E+06         0.15100E+06         0.00000E+00
    0.00000E+00         0.00000E+00         0.77138E+05
 
    0.21386E+06         0.47986E+06         0.00000E+00
    0.47986E+06         0.15519E+06         0.00000E+00
    0.00000E+00         0.00000E+00         0.73809E+05
 
    0.19405E+06         0.47839E+06         0.00000E+00
    0.47839E+06         0.15931E+06         0.00000E+00
    0.00000E+00         0.00000E+00         0.70672E+05
 
    0.17529E+06         0.47661E+06         0.00000E+00
    0.47661E+06         0.16337E+06         0.00000E+00
    0.00000E+00         0.00000E+00         0.67732E+05
 
    0.15762E+06         0.47455E+06         0.00000E+00
    0.47455E+06         0.16733E+06         0.00000E+00
    0.00000E+00         0.00000E+00         0.64992E+05
 
    0.14108E+06         0.47226E+06         0.00000E+00
    0.47226E+06         0.17120E+06         0.00000E+00
    0.00000E+00         0.00000E+00         0.62456E+05
 
    0.12568E+06         0.46978E+06         0.00000E+00
    0.46978E+06         0.17496E+06         0.00000E+00
    0.00000E+00         0.00000E+00         0.60127E+05
 
    0.11146E+06         0.46713E+06         0.00000E+00
    0.46713E+06         0.17859E+06         0.00000E+00
    0.00000E+00         0.00000E+00         0.58010E+05
 
    0.98445E+05         0.46437E+06         0.00000E+00
    0.46437E+06         0.18208E+06         0.00000E+00
    0.00000E+00         0.00000E+00         0.56105E+05
 
    0.86672E+05         0.46154E+06         0.00000E+00
    0.46154E+06         0.18541E+06         0.00000E+00
    0.00000E+00         0.00000E+00         0.54417E+05
 
    0.76165E+05         0.45870E+06         0.00000E+00
    0.45870E+06         0.18858E+06         0.00000E+00
    0.00000E+00         0.00000E+00         0.52948E+05
 
    0.66949E+05         0.45590E+06         0.00000E+00
    0.45590E+06         0.19155E+06         0.00000E+00
    0.00000E+00         0.00000E+00         0.51699E+05
 
    0.59045E+05         0.45320E+06         0.00000E+00
    0.45320E+06         0.19432E+06         0.00000E+00
    0.00000E+00         0.00000E+00         0.50673E+05
 
    0.52475E+05         0.45067E+06         0.00000E+00
    0.45067E+06         0.19688E+06         0.00000E+00
    0.00000E+00         0.00000E+00         0.49871E+05
 
    0.15486E+07         0.21445E+05         0.00000E+00
    0.21445E+05        -0.17119E+03         0.00000E+00
    0.00000E+00         0.00000E+00         0.30969E+06
 
    0.15107E+07         0.59310E+05         0.00000E+00
    0.59310E+05         0.63072E+03         0.00000E+00
    0.00000E+00         0.00000E+00         0.30227E+06
 
    0.14716E+07         0.95080E+05         0.00000E+00
    0.95080E+05         0.20176E+04         0.00000E+00
    0.00000E+00         0.00000E+00         0.29473E+06
 
    0.14316E+07         0.12880E+06         0.00000E+00
    0.12880E+06         0.39018E+04         0.00000E+00
    0.00000E+00         0.00000E+00         0.28709E+06
 
    0.13906E+07         0.16052E+06         0.00000E+00
    0.16052E+06         0.62018E+04         0.00000E+00
    0.00000E+00         0.00000E+00         0.27937E+06
 
    0.13491E+07         0.19031E+06         0.00000E+00
    0.19031E+06         0.88425E+04         0.00000E+00
    0.00000E+00         0.00000E+00         0.27158E+06
 
    0.13070E+07         0.21821E+06         0.00000E+00
    0.21821E+06         0.11755E+05         0.00000E+00
    0.00000E+00         0.00000E+00         0.26374E+06
 
    0.12645E+07         0.24430E+06         0.00000E+00
    0.24430E+06         0.14876E+05         0.00000E+00
    0.00000E+00         0.00000E+00         0.25587E+06
 
    0.12217E+07         0.26863E+06         0.00000E+00
    0.26863E+06         0.18150E+05         0.00000E+00
    0.00000E+00         0.00000E+00         0.24798E+06
 
    0.11789E+07         0.29129E+06         0.00000E+00
    0.29129E+06         0.21527E+05         0.00000E+00
    0.00000E+00         0.00000E+00         0.24008E+06
 
    0.11361E+07         0.31233E+06         0.00000E+00
    0.31233E+06         0.24962E+05         0.00000E+00
    0.00000E+00         0.00000E+00         0.23220E+06
 
    0.10933E+07         0.33184E+06         0.00000E+00
    0.33184E+06         0.28418E+05         0.00000E+00
    0.00000E+00         0.00000E+00         0.22435E+06
 
    0.10508E+07         0.34988E+06         0.00000E+00
    0.34988E+06         0.31862E+05         0.00000E+00
    0.00000E+00         0.00000E+00         0.21653E+06
 
    0.10085E+07         0.36652E+06         0.00000E+00
    0.36652E+06         0.35270E+05         0.00000E+00
    0.00000E+00         0.00000E+00         0.20876E+06
 
    0.96668E+06         0.38184E+06         0.00000E+00
    0.38184E+06         0.38620E+05         0.00000E+00
    0.00000E+00         0.00000E+00         0.20106E+06
 
    0.92526E+06         0.39592E+06         0.00000E+00
    0.39592E+06         0.41896E+05         0.00000E+00
    0.00000E+00         0.00000E+00         0.19343E+06
 
    0.88436E+06         0.40881E+06         0.00000E+00
    0.40881E+06         0.45089E+05         0.00000E+00
    0.00000E+00         0.00000E+00         0.18589E+06
 
    0.84403E+06         0.42059E+06         0.00000E+00
    0.42059E+06         0.48193E+05         0.00000E+00
    0.00000E+00         0.00000E+00         0.17844E+06
 
    0.80432E+06         0.43132E+06         0.00000E+00
    0.43132E+06         0.51206E+05         0.00000E+00
    0.00000E+00         0.00000E+00         0.17111E+06
 
    0.76528E+06         0.44106E+06         0.00000E+00
    0.44106E+06         0.54130E+05         0.00000E+00
    0.00000E+00         0.00000E+00         0.16388E+06
 
    0.72695E+06         0.44987E+06         0.00000E+00
    0.44987E+06         0.56971E+05         0.00000E+00
    0.00000E+00         0.00000E+00         0.15678E+06
 
    0.68935E+06         0.45782E+06         0.00000E+00
    0.45782E+06         0.59738E+05         0.00000E+00
    0.00000E+00         0.00000E+00         0.14982E+06
 
    0.65253E+06         0.46494E+06         0.00000E+00
    0.46494E+06         0.62440E+05         0.00000E+00
    0.00000E+00         0.00000E+00         0.14299E+06
 
    0.61651E+06         0.47130E+06         0.00000E+00
    0.47130E+06         0.65092E+05         0.00000E+00
    0.00000E+00         0.00000E+00         0.13632E+06
 
    0.58130E+06         0.47693E+06         0.00000E+00
    0.47693E+06         0.67707E+05         0.00000E+00
    0.00000E+00         0.00000E+00         0.12980E+06
 
    0.54694E+06         0.48188E+06         0.00000E+00
    0.48188E+06         0.70299E+05         0.00000E+00
    0.00000E+00         0.00000E+00         0.12345E+06
 
    0.51344E+06         0.48617E+06         0.00000E+00
    0.48617E+06         0.72885E+05         0.00000E+00
    0.00000E+00         0.00000E+00         0.11727E+06
 
    0.48082E+06         0.48986E+06         0.00000E+00
    0.48986E+06         0.75478E+05         0.00000E+00
    0.00000E+00         0.00000E+00         0.11126E+06
 
    0.44909E+06         0.49296E+06         0.00000E+00
    0.49296E+06         0.78095E+05         0.00000E+00
    0.00000E+00         0.00000E+00         0.10544E+06
 
    0.41828E+06         0.49551E+06         0.00000E+00
    0.49551E+06         0.80747E+05         0.00000E+00
    0.00000E+00         0.00000E+00         0.99805E+05
 
    0.38840E+06         0.49752E+06         0.00000E+00
    0.49752E+06         0.83446E+05         0.00000E+00
    0.00000E+00         0.00000E+00         0.94368E+05
 
    0.35946E+06         0.49903E+06         0.00000E+00
    0.49903E+06         0.86203E+05         0.00000E+00
    0.00000E+00         0.00000E+00         0.89133E+05
 
    0.33150E+06         0.50004E+06         0.00000E+00
    0.50004E+06         0.89024E+05         0.00000E+00
    0.00000E+00         0.00000E+00         0.84106E+05
 
    0.30454E+06         0.50058E+06         0.00000E+00
    0.50058E+06         0.91915E+05         0.00000E+00
    0.00000E+00         0.00000E+00         0.79290E+05
 
    0.27859E+06         0.50066E+06         0.00000E+00
    0.50066E+06         0.94876E+05         0.00000E+00
    0.00000E+00         0.00000E+00         0.74693E+05
 
    0.25369E+06         0.50030E+06         0.00000E+00
    0.50030E+06         0.97907E+05         0.00000E+00
    0.00000E+00         0.00000E+00         0.70320E+05
 
    0.22987E+06         0.49951E+06         0.00000E+00
    0.49951E+06         0.10100E+06         0.00000E+00
    0.00000E+00         0.00000E+00         0.66175E+05
 
    0.20717E+06         0.49832E+06         0.00000E+00
    0.49832E+06         0.10416E+06         0.00000E+00
    0.00000E+00         0.00000E+00         0.62264E+05
 
    0.18561E+06         0.49673E+06         0.00000E+00
    0.49673E+06         0.10736E+06         0.00000E+00
    0.00000E+00         0.00000E+00         0.58593E+05
 
    0.16524E+06         0.49477E+06         0.00000E+00
    0.49477E+06         0.11059E+06         0.00000E+00
    0.00000E+00         0.00000E+00         0.55165E+05
 
    0.14611E+06         0.49246E+06         0.00000E+00
    0.49246E+06         0.11383E+06         0.00000E+00
    0.00000E+00         0.00000E+00         0.51987E+05
 
    0.12825E+06         0.48983E+06         0.00000E+00
    0.48983E+06         0.11706E+06         0.00000E+00
    0.00000E+00         0.00000E+00         0.49063E+05
 
    0.11173E+06         0.48690E+06         0.00000E+00
    0.48690E+06         0.12026E+06         0.00000E+00
    0.00000E+00         0.00000E+00         0.46398E+05
 
    0.96575E+05         0.48371E+06         0.00000E+00
    0.48371E+06         0.12340E+06         0.00000E+00
    0.00000E+00         0.00000E+00         0.43996E+05
 
    0.82855E+05         0.48029E+06         0.00000E+00
    0.48029E+06         0.12646E+06         0.00000E+00
    0.00000E+00         0.00000E+00         0.41862E+05
 
    0.70616E+05         0.47670E+06         0.00000E+00
    0.47670E+06         0.12939E+06         0.00000E+00
    0.00000E+00         0.00000E+00         0.40001E+05
 
    0.59913E+05         0.47298E+06         0.00000E+00
    0.47298E+06         0.13217E+06         0.00000E+00
    0.00000E+00         0.00000E+00         0.38417E+05
 
    0.50798E+05         0.46918E+06         0.00000E+00
    0.46918E+06         0.13477E+06         0.00000E+00
    0.00000E+00         0.00000E+00         0.37113E+05
 
    0.43321E+05         0.46538E+06         0.00000E+00
    0.46538E+06         0.13715E+06         0.00000E+00
    0.00000E+00         0.00000E+00         0.36093E+05
 
    0.37534E+05         0.46163E+06         0.00000E+00
    0.46163E+06         0.13927E+06         0.00000E+00
    0.00000E+00         0.00000E+00         0.35362E+05
 
    0.17512E+07         0.23490E+05         0.00000E+00
    0.23490E+05        -0.12093E+03         0.00000E+00
    0.00000E+00         0.00000E+00         0.35022E+06
 
    0.17015E+07         0.64197E+05         0.00000E+00
    0.64197E+05         0.56221E+03         0.00000E+00
    0.00000E+00         0.00000E+00         0.34042E+06
 
    0.16509E+07         0.10232E+06         0.00000E+00
    0.10232E+06         0.16758E+04         0.00000E+00
    0.00000E+00         0.00000E+00         0.33053E+06
 
    0.15997E+07         0.13794E+06         0.00000E+00
    0.13794E+06         0.31188E+04         0.00000E+00
    0.00000E+00         0.00000E+00         0.32056E+06
 
    0.15479E+07         0.17115E+06         0.00000E+00
    0.17115E+06         0.47981E+04         0.00000E+00
    0.00000E+00         0.00000E+00         0.31055E+06
 
    0.14959E+07         0.20203E+06         0.00000E+00
    0.20203E+06         0.66290E+04         0.00000E+00
    0.00000E+00         0.00000E+00         0.30051E+06
 
    0.14438E+07         0.23069E+06         0.00000E+00
    0.23069E+06         0.85348E+04         0.00000E+00
    0.00000E+00         0.00000E+00         0.29046E+06
 
    0.13916E+07         0.25723E+06         0.00000E+00
    0.25723E+06         0.10448E+05         0.00000E+00
    0.00000E+00         0.00000E+00         0.28042E+06
 
    0.13397E+07         0.28174E+06         0.00000E+00
    0.28174E+06         0.12308E+05         0.00000E+00
    0.00000E+00         0.00000E+00         0.27040E+06
 
    0.12881E+07         0.30433E+06         0.00000E+00
    0.30433E+06         0.14065E+05         0.00000E+00
    0.00000E+00         0.00000E+00         0.26043E+06
 
    0.12369E+07         0.32512E+06         0.00000E+00
    0.32512E+06         0.15676E+05         0.00000E+00
    0.00000E+00         0.00000E+00         0.25052E+06
 
    0.11863E+07         0.34421E+06         0.00000E+00
    0.34421E+06         0.17108E+05         0.00000E+00
    0.00000E+00         0.00000E+00         0.24068E+06
 
    0.11363E+07         0.36170E+06         0.00000E+00
    0.36170E+06         0.18335E+05         0.00000E+00
    0.00000E+00         0.00000E+00         0.23094E+06
 
    0.10871E+07         0.37770E+06         0.00000E+00
    0.37770E+06         0.19340E+05         0.00000E+00
    0.00000E+00         0.00000E+00         0.22129E+06
 
    0.10387E+07         0.39232E+06         0.00000E+00
    0.39232E+06         0.20113E+05         0.00000E+00
    0.00000E+00         0.00000E+00         0.21176E+06
 
    0.99113E+06         0.40565E+06         0.00000E+00
    0.40565E+06         0.20653E+05         0.00000E+00
    0.00000E+00         0.00000E+00         0.20236E+06
 
    0.94450E+06         0.41780E+06         0.00000E+00
    0.41780E+06         0.20965E+05         0.00000E+00
    0.00000E+00         0.00000E+00         0.19309E+06
 
    0.89883E+06         0.42886E+06         0.00000E+00
    0.42886E+06         0.21059E+05         0.00000E+00
    0.00000E+00         0.00000E+00         0.18398E+06
 
    0.85415E+06         0.43892E+06         0.00000E+00
    0.43892E+06         0.20953E+05         0.00000E+00
    0.00000E+00         0.00000E+00         0.17502E+06
 
    0.81050E+06         0.44805E+06         0.00000E+00
    0.44805E+06         0.20669E+05         0.00000E+00
    0.00000E+00         0.00000E+00         0.16623E+06
 
    0.76787E+06         0.45634E+06         0.00000E+00
    0.45634E+06         0.20236E+05         0.00000E+00
    0.00000E+00         0.00000E+00         0.15762E+06
 
    0.72629E+06         0.46386E+06         0.00000E+00
    0.46386E+06         0.19682E+05         0.00000E+00
    0.00000E+00         0.00000E+00         0.14920E+06
 
    0.68576E+06         0.47067E+06         0.00000E+00
    0.47067E+06         0.19042E+05         0.00000E+00
    0.00000E+00         0.00000E+00         0.14096E+06
 
    0.64628E+06         0.47683E+06         0.00000E+00
    0.47683E+06         0.18353E+05         0.00000E+00
    0.00000E+00         0.00000E+00         0.13293E+06
 
    0.60785E+06         0.48239E+06         0.00000E+00
    0.48239E+06         0.17650E+05         0.00000E+00
    0.00000E+00         0.00000E+00         0.12510E+06
 
    0.57045E+06         0.48739E+06         0.00000E+00
    0.48739E+06         0.16973E+05         0.00000E+00
    0.00000E+00         0.00000E+00         0.11748E+06
 
    0.53408E+06         0.49187E+06         0.00000E+00
    0.49187E+06         0.16359E+05         0.00000E+00
    0.00000E+00         0.00000E+00         0.11009E+06
 
    0.49874E+06         0.49586E+06         0.00000E+00
    0.49586E+06         0.15844E+05         0.00000E+00
    0.00000E+00         0.00000E+00         0.10292E+06
 
    0.46442E+06         0.49938E+06         0.00000E+00
    0.49938E+06         0.15463E+05         0.00000E+00
    0.00000E+00         0.00000E+00         0.95976E+05
 
    0.43111E+06         0.50244E+06         0.00000E+00
    0.50244E+06         0.15249E+05         0.00000E+00
    0.00000E+00         0.00000E+00         0.89271E+05
 
    0.39881E+06         0.50506E+06         0.00000E+00
    0.50506E+06         0.15230E+05         0.00000E+00
    0.00000E+00         0.00000E+00         0.82807E+05
 
    0.36752E+06         0.50725E+06         0.00000E+00
    0.50725E+06         0.15431E+05         0.00000E+00
    0.00000E+00         0.00000E+00         0.76590E+05
 
    0.33725E+06         0.50900E+06         0.00000E+00
    0.50900E+06         0.15873E+05         0.00000E+00
    0.00000E+00         0.00000E+00         0.70626E+05
 
    0.30802E+06         0.51031E+06         0.00000E+00
    0.51031E+06         0.16571E+05         0.00000E+00
    0.00000E+00         0.00000E+00         0.64918E+05
 
    0.27983E+06         0.51119E+06         0.00000E+00
    0.51119E+06         0.17535E+05         0.00000E+00
    0.00000E+00         0.00000E+00         0.59474E+05
 
    0.25272E+06         0.51161E+06         0.00000E+00
    0.51161E+06         0.18770E+05         0.00000E+00
    0.00000E+00         0.00000E+00         0.54298E+05
 
    0.22671E+06         0.51158E+06         0.00000E+00
    0.51158E+06         0.20273E+05         0.00000E+00
    0.00000E+00         0.00000E+00         0.49397E+05
 
    0.20185E+06         0.51109E+06         0.00000E+00
    0.51109E+06         0.22035E+05         0.00000E+00
    0.00000E+00         0.00000E+00         0.44776E+05
 
    0.17817E+06         0.51013E+06         0.00000E+00
    0.51013E+06         0.24042E+05         0.00000E+00
    0.00000E+00         0.00000E+00         0.40442E+05
 
    0.15573E+06         0.50869E+06         0.00000E+00
    0.50869E+06         0.26272E+05         0.00000E+00
    0.00000E+00         0.00000E+00         0.36400E+05
 
    0.13458E+06         0.50678E+06         0.00000E+00
    0.50678E+06         0.28698E+05         0.00000E+00
    0.00000E+00         0.00000E+00         0.32657E+05
 
    0.11481E+06         0.50440E+06         0.00000E+00
    0.50440E+06         0.31286E+05         0.00000E+00
    0.00000E+00         0.00000E+00         0.29219E+05
 
    0.96472E+05         0.50156E+06         0.00000E+00
    0.50156E+06         0.33995E+05         0.00000E+00
    0.00000E+00         0.00000E+00         0.26093E+05
 
    0.79652E+05         0.49827E+06         0.00000E+00
    0.49827E+06         0.36780E+05         0.00000E+00
    0.00000E+00         0.00000E+00         0.23286E+05
 
    0.64435E+05         0.49455E+06         0.00000E+00
    0.49455E+06         0.39592E+05         0.00000E+00
    0.00000E+00         0.00000E+00         0.20805E+05
 
    0.50909E+05         0.49044E+06         0.00000E+00
    0.49044E+06         0.42374E+05         0.00000E+00
    0.00000E+00         0.00000E+00         0.18657E+05
 
    0.39168E+05         0.48598E+06         0.00000E+00
    0.48598E+06         0.45070E+05         0.00000E+00
    0.00000E+00         0.00000E+00         0.16848E+05
 
    0.29307E+05         0.48122E+06         0.00000E+00
    0.48122E+06         0.47617E+05         0.00000E+00
    0.00000E+00         0.00000E+00         0.15385E+05
 
    0.21424E+05         0.47621E+06         0.00000E+00
    0.47621E+06         0.49953E+05         0.00000E+00
    0.00000E+00         0.00000E+00         0.14275E+05
 
    0.15615E+05         0.47103E+06         0.00000E+00
    0.47103E+06         0.52013E+05         0.00000E+00
    0.00000E+00         0.00000E+00         0.13526E+05
 
    0.19672E+07         0.25156E+05         0.00000E+00
    0.25156E+05        -0.39898E+02         0.00000E+00
    0.00000E+00         0.00000E+00         0.39344E+06
 
    0.19030E+07         0.67740E+05         0.00000E+00
    0.67740E+05         0.43291E+03         0.00000E+00
    0.00000E+00         0.00000E+00         0.38068E+06
 
    0.18384E+07         0.10718E+06         0.00000E+00
    0.10718E+06         0.10843E+04         0.00000E+00
    0.00000E+00         0.00000E+00         0.36789E+06
 
    0.17736E+07         0.14359E+06         0.00000E+00
    0.14359E+06         0.17963E+04         0.00000E+00
    0.00000E+00         0.00000E+00         0.35508E+06
 
    0.17089E+07         0.17711E+06         0.00000E+00
    0.17711E+06         0.24614E+04         0.00000E+00
    0.00000E+00         0.00000E+00         0.34227E+06
 
    0.16445E+07         0.20788E+06         0.00000E+00
    0.20788E+06         0.29823E+04         0.00000E+00
    0.00000E+00         0.00000E+00         0.32949E+06
 
    0.15806E+07         0.23604E+06         0.00000E+00
    0.23604E+06         0.32729E+04         0.00000E+00
    0.00000E+00         0.00000E+00         0.31677E+06
 
    0.15173E+07         0.26175E+06         0.00000E+00
    0.26175E+06         0.32584E+04         0.00000E+00
    0.00000E+00         0.00000E+00         0.30412E+06
 
    0.14549E+07         0.28516E+06         0.00000E+00
    0.28516E+06         0.28759E+04         0.00000E+00
    0.00000E+00         0.00000E+00         0.29156E+06
 
    0.13935E+07         0.30642E+06         0.00000E+00
    0.30642E+06         0.20746E+04         0.00000E+00
    0.00000E+00         0.00000E+00         0.27912E+06
 
    0.13332E+07         0.32570E+06         0.00000E+00
    0.32570E+06         0.81601E+03         0.00000E+00
    0.00000E+00         0.00000E+00         0.26680E+06
 
    0.12741E+07         0.34315E+06         0.00000E+00
    0.34315E+06        -0.92632E+03         0.00000E+00
    0.00000E+00         0.00000E+00         0.25463E+06
 
    0.12162E+07         0.35892E+06         0.00000E+00
    0.35892E+06        -0.31667E+04         0.00000E+00
    0.00000E+00         0.00000E+00         0.24262E+06
 
    0.11598E+07         0.37318E+06         0.00000E+00
    0.37318E+06        -0.59075E+04         0.00000E+00
    0.00000E+00         0.00000E+00         0.23078E+06
 
    0.11048E+07         0.38607E+06         0.00000E+00
    0.38607E+06        -0.91401E+04         0.00000E+00
    0.00000E+00         0.00000E+00         0.21913E+06
 
    0.10512E+07         0.39774E+06         0.00000E+00
    0.39774E+06        -0.12845E+05         0.00000E+00
    0.00000E+00         0.00000E+00         0.20768E+06
 
    0.99917E+06         0.40832E+06         0.00000E+00
    0.40832E+06        -0.16991E+05         0.00000E+00
    0.00000E+00         0.00000E+00         0.19644E+06
 
    0.94861E+06         0.41794E+06         0.00000E+00
    0.41794E+06        -0.21541E+05         0.00000E+00
    0.00000E+00         0.00000E+00         0.18541E+06
 
    0.89956E+06         0.42673E+06         0.00000E+00
    0.42673E+06        -0.26447E+05         0.00000E+00
    0.00000E+00         0.00000E+00         0.17462E+06
 
    0.85198E+06         0.43480E+06         0.00000E+00
    0.43480E+06        -0.31654E+05         0.00000E+00
    0.00000E+00         0.00000E+00         0.16407E+06
 
    0.80586E+06         0.44225E+06         0.00000E+00
    0.44225E+06        -0.37101E+05         0.00000E+00
    0.00000E+00         0.00000E+00         0.15375E+06
 
    0.76117E+06         0.44917E+06         0.00000E+00
    0.44917E+06        -0.42722E+05         0.00000E+00
    0.00000E+00         0.00000E+00         0.14369E+06
 
    0.71785E+06         0.45564E+06         0.00000E+00
    0.45564E+06        -0.48447E+05         0.00000E+00
    0.00000E+00         0.00000E+00         0.13388E+06
 
    0.67587E+06         0.46172E+06         0.00000E+00
    0.46172E+06        -0.54204E+05         0.00000E+00
    0.00000E+00         0.00000E+00         0.12433E+06
 
    0.63517E+06         0.46748E+06         0.00000E+00
    0.46748E+06        -0.59919E+05         0.00000E+00
    0.00000E+00         0.00000E+00         0.11505E+06
 
    0.59570E+06         0.47294E+06         0.00000E+00
    0.47294E+06        -0.65518E+05         0.00000E+00
    0.00000E+00         0.00000E+00         0.10604E+06
 
    0.55741E+06         0.47814E+06         0.00000E+00
    0.47814E+06        -0.70929E+05         0.00000E+00
    0.00000E+00         0.00000E+00         0.97296E+05
 
    0.52024E+06         0.48311E+06         0.00000E+00
    0.48311E+06        -0.76080E+05         0.00000E+00
    0.00000E+00         0.00000E+00         0.88831E+05
 
    0.48414E+06         0.48784E+06         0.00000E+00
    0.48784E+06        -0.80907E+05         0.00000E+00
    0.00000E+00         0.00000E+00         0.80647E+05
 
    0.44907E+06         0.49234E+06         0.00000E+00
    0.49234E+06        -0.85346E+05         0.00000E+00
    0.00000E+00         0.00000E+00         0.72745E+05
 
    0.41499E+06         0.49658E+06         0.00000E+00
    0.49658E+06        -0.89341E+05         0.00000E+00
    0.00000E+00         0.00000E+00         0.65131E+05
 
    0.38188E+06         0.50056E+06         0.00000E+00
    0.50056E+06        -0.92844E+05         0.00000E+00
    0.00000E+00         0.00000E+00         0.57807E+05
 
    0.34970E+06         0.50423E+06         0.00000E+00
    0.50423E+06        -0.95814E+05         0.00000E+00
    0.00000E+00         0.00000E+00         0.50778E+05
 
    0.31846E+06         0.50756E+06         0.00000E+00
    0.50756E+06        -0.98216E+05         0.00000E+00
    0.00000E+00         0.00000E+00         0.44048E+05
 
    0.28814E+06         0.51052E+06         0.00000E+00
    0.51052E+06        -0.10003E+06         0.00000E+00
    0.00000E+00         0.00000E+00         0.37622E+05
 
    0.25876E+06         0.51304E+06         0.00000E+00
    0.51304E+06        -0.10124E+06         0.00000E+00
    0.00000E+00         0.00000E+00         0.31505E+05
 
    0.23035E+06         0.51509E+06         0.00000E+00
    0.51509E+06        -0.10184E+06         0.00000E+00
    0.00000E+00         0.00000E+00         0.25703E+05
 
    0.20295E+06         0.51661E+06         0.00000E+00
    0.51661E+06        -0.10184E+06         0.00000E+00
    0.00000E+00         0.00000E+00         0.20222E+05
 
    0.17661E+06         0.51756E+06         0.00000E+00
    0.51756E+06        -0.10127E+06         0.00000E+00
    0.00000E+00         0.00000E+00         0.15068E+05
 
    0.15139E+06         0.51789E+06         0.00000E+00
    0.51789E+06        -0.10014E+06         0.00000E+00
    0.00000E+00         0.00000E+00         0.10250E+05
 
    0.12738E+06         0.51755E+06         0.00000E+00
    0.51755E+06        -0.98511E+05         0.00000E+00
    0.00000E+00         0.00000E+00         0.57743E+04
 
    0.10467E+06         0.51651E+06         0.00000E+00
    0.51651E+06        -0.96422E+05         0.00000E+00
    0.00000E+00         0.00000E+00         0.16504E+04
 
    0.83375E+05         0.51473E+06         0.00000E+00
    0.51473E+06        -0.93940E+05         0.00000E+00
    0.00000E+00         0.00000E+00        -0.21129E+04
 
    0.63607E+05         0.51220E+06         0.00000E+00
    0.51220E+06        -0.91137E+05         0.00000E+00
    0.00000E+00         0.00000E+00        -0.55061E+04
 
    0.45501E+05         0.50891E+06         0.00000E+00
    0.50891E+06        -0.88096E+05         0.00000E+00
    0.00000E+00         0.00000E+00        -0.85190E+04
 
    0.29202E+05         0.50485E+06         0.00000E+00
    0.50485E+06        -0.84908E+05         0.00000E+00
    0.00000E+00         0.00000E+00        -0.11141E+05
 
    0.14862E+05         0.50004E+06         0.00000E+00
    0.50004E+06        -0.81671E+05         0.00000E+00
    0.00000E+00         0.00000E+00        -0.13362E+05
 
    0.26422E+04         0.49452E+06         0.00000E+00
    0.49452E+06        -0.78489E+05         0.00000E+00
    0.00000E+00         0.00000E+00        -0.15169E+05
 
   -0.72901E+04         0.48832E+06         0.00000E+00
    0.48832E+06        -0.75473E+05         0.00000E+00
    0.00000E+00         0.00000E+00        -0.16553E+05
 
   -0.14763E+05         0.48152E+06         0.00000E+00
    0.48152E+06        -0.72736E+05         0.00000E+00
    0.00000E+00         0.00000E+00        -0.17500E+05
 
    0.21907E+07         0.26206E+05         0.00000E+00
    0.26206E+05         0.77002E+02         0.00000E+00
    0.00000E+00         0.00000E+00         0.43816E+06
 
    0.21088E+07         0.69180E+05         0.00000E+00
    0.69180E+05         0.24029E+03         0.00000E+00
    0.00000E+00         0.00000E+00         0.42180E+06
 
    0.20271E+07         0.10834E+06         0.00000E+00
    0.10834E+06         0.21218E+03         0.00000E+00
    0.00000E+00         0.00000E+00         0.40547E+06
 
    0.19461E+07         0.14385E+06         0.00000E+00
    0.14385E+06        -0.14933E+03         0.00000E+00
    0.00000E+00         0.00000E+00         0.38919E+06
 
    0.18660E+07         0.17591E+06         0.00000E+00
    0.17591E+06        -0.97634E+03         0.00000E+00
    0.00000E+00         0.00000E+00         0.37301E+06
 
    0.17871E+07         0.20473E+06         0.00000E+00
    0.20473E+06        -0.23859E+04         0.00000E+00
    0.00000E+00         0.00000E+00         0.35694E+06
 
    0.17096E+07         0.23050E+06         0.00000E+00
    0.23050E+06        -0.44802E+04         0.00000E+00
    0.00000E+00         0.00000E+00         0.34102E+06
 
    0.16336E+07         0.25346E+06         0.00000E+00
    0.25346E+06        -0.73454E+04         0.00000E+00
    0.00000E+00         0.00000E+00         0.32526E+06
 
    0.15595E+07         0.27383E+06         0.00000E+00
    0.27383E+06        -0.11050E+05         0.00000E+00
    0.00000E+00         0.00000E+00         0.30969E+06
 
    0.14873E+07         0.29183E+06         0.00000E+00
    0.29183E+06        -0.15646E+05         0.00000E+00
    0.00000E+00         0.00000E+00         0.29433E+06
 
    0.14172E+07         0.30771E+06         0.00000E+00
    0.30771E+06        -0.21166E+05         0.00000E+00
    0.00000E+00         0.00000E+00         0.27920E+06
 
    0.13492E+07         0.32169E+06         0.00000E+00
    0.32169E+06        -0.27624E+05         0.00000E+00
    0.00000E+00         0.00000E+00         0.26431E+06
 
    0.12835E+07         0.33400E+06         0.00000E+00
    0.33400E+06        -0.35017E+05         0.00000E+00
    0.00000E+00         0.00000E+00         0.24969E+06
 
    0.12201E+07         0.34487E+06         0.00000E+00
    0.34487E+06        -0.43323E+05         0.00000E+00
    0.00000E+00         0.00000E+00         0.23535E+06
 
    0.11590E+07         0.35452E+06         0.00000E+00
    0.35452E+06        -0.52503E+05         0.00000E+00
    0.00000E+00         0.00000E+00         0.22129E+06
 
    0.11002E+07         0.36315E+06         0.00000E+00
    0.36315E+06        -0.62504E+05         0.00000E+00
    0.00000E+00         0.00000E+00         0.20754E+06
 
    0.10437E+07         0.37096E+06         0.00000E+00
    0.37096E+06        -0.73256E+05         0.00000E+00
    0.00000E+00         0.00000E+00         0.19409E+06
 
    0.98950E+06         0.37814E+06         0.00000E+00
    0.37814E+06        -0.84675E+05         0.00000E+00
    0.00000E+00         0.00000E+00         0.18096E+06
 
    0.93746E+06         0.38485E+06         0.00000E+00
    0.38485E+06        -0.96668E+05         0.00000E+00
    0.00000E+00         0.00000E+00         0.16816E+06
 
    0.88753E+06         0.39124E+06         0.00000E+00
    0.39124E+06        -0.10913E+06         0.00000E+00
    0.00000E+00         0.00000E+00         0.15568E+06
 
    0.83960E+06         0.39745E+06         0.00000E+00
    0.39745E+06        -0.12194E+06         0.00000E+00
    0.00000E+00         0.00000E+00         0.14353E+06
 
    0.79356E+06         0.40359E+06         0.00000E+00
    0.40359E+06        -0.13499E+06         0.00000E+00
    0.00000E+00         0.00000E+00         0.13171E+06
 
    0.74931E+06         0.40976E+06         0.00000E+00
    0.40976E+06        -0.14815E+06         0.00000E+00
    0.00000E+00         0.00000E+00         0.12023E+06
 
    0.70670E+06         0.41604E+06         0.00000E+00
    0.41604E+06        -0.16130E+06         0.00000E+00
    0.00000E+00         0.00000E+00         0.10908E+06
 
    0.66561E+06         0.42248E+06         0.00000E+00
    0.42248E+06        -0.17429E+06         0.00000E+00
    0.00000E+00         0.00000E+00         0.98264E+05
 
    0.62591E+06         0.42912E+06         0.00000E+00
    0.42912E+06        -0.18702E+06         0.00000E+00
    0.00000E+00         0.00000E+00         0.87779E+05
 
    0.58747E+06         0.43597E+06         0.00000E+00
    0.43597E+06        -0.19934E+06         0.00000E+00
    0.00000E+00         0.00000E+00         0.77626E+05
 
    0.55016E+06         0.44304E+06         0.00000E+00
    0.44304E+06        -0.21114E+06         0.00000E+00
    0.00000E+00         0.00000E+00         0.67802E+05
 
    0.51385E+06         0.45031E+06         0.00000E+00
    0.45031E+06        -0.22232E+06         0.00000E+00
    0.00000E+00         0.00000E+00         0.58307E+05
 
    0.47844E+06         0.45772E+06         0.00000E+00
    0.45772E+06        -0.23275E+06         0.00000E+00
    0.00000E+00         0.00000E+00         0.49139E+05
 
    0.44384E+06         0.46524E+06         0.00000E+00
    0.46524E+06        -0.24235E+06         0.00000E+00
    0.00000E+00         0.00000E+00         0.40298E+05
 
    0.40994E+06         0.47279E+06         0.00000E+00
    0.47279E+06        -0.25102E+06         0.00000E+00
    0.00000E+00         0.00000E+00         0.31784E+05
 
    0.37669E+06         0.48029E+06         0.00000E+00
    0.48029E+06        -0.25870E+06         0.00000E+00
    0.00000E+00         0.00000E+00         0.23597E+05
 
    0.34403E+06         0.48765E+06         0.00000E+00
    0.48765E+06        -0.26533E+06         0.00000E+00
    0.00000E+00         0.00000E+00         0.15739E+05
 
    0.31192E+06         0.49476E+06         0.00000E+00
    0.49476E+06        -0.27086E+06         0.00000E+00
    0.00000E+00         0.00000E+00         0.82120E+04
 
    0.28036E+06         0.50151E+06         0.00000E+00
    0.50151E+06        -0.27526E+06         0.00000E+00
    0.00000E+00         0.00000E+00         0.10197E+04
 
    0.24936E+06         0.50778E+06         0.00000E+00
    0.50778E+06        -0.27852E+06         0.00000E+00
    0.00000E+00         0.00000E+00        -0.58332E+04
 
    0.21894E+06         0.51346E+06         0.00000E+00
    0.51346E+06        -0.28065E+06         0.00000E+00
    0.00000E+00         0.00000E+00        -0.12341E+05
 
    0.18918E+06         0.51842E+06         0.00000E+00
    0.51842E+06        -0.28166E+06         0.00000E+00
    0.00000E+00         0.00000E+00        -0.18497E+05
 
    0.16014E+06         0.52255E+06         0.00000E+00
    0.52255E+06        -0.28160E+06         0.00000E+00
    0.00000E+00         0.00000E+00        -0.24292E+05
 
    0.13194E+06         0.52573E+06         0.00000E+00
    0.52573E+06        -0.28053E+06         0.00000E+00
    0.00000E+00         0.00000E+00        -0.29718E+05
 
    0.10471E+06         0.52785E+06         0.00000E+00
    0.52785E+06        -0.27852E+06         0.00000E+00
    0.00000E+00         0.00000E+00        -0.34763E+05
 
    0.78606E+05         0.52881E+06         0.00000E+00
    0.52881E+06        -0.27568E+06         0.00000E+00
    0.00000E+00         0.00000E+00        -0.39414E+05
 
    0.53806E+05         0.52854E+06         0.00000E+00
    0.52854E+06        -0.27210E+06         0.00000E+00
    0.00000E+00         0.00000E+00        -0.43659E+05
 
    0.30511E+05         0.52695E+06         0.00000E+00
    0.52695E+06        -0.26793E+06         0.00000E+00
    0.00000E+00         0.00000E+00        -0.47483E+05
 
    0.89427E+04         0.52400E+06         0.00000E+00
    0.52400E+06        -0.26330E+06         0.00000E+00
    0.00000E+00         0.00000E+00        -0.50871E+05
 
   -0.10657E+05         0.51965E+06         0.00000E+00
    0.51965E+06        -0.25837E+06         0.00000E+00
    0.00000E+00         0.00000E+00        -0.53805E+05
 
   -0.28030E+05         0.51389E+06         0.00000E+00
    0.51389E+06        -0.25331E+06         0.00000E+00
    0.00000E+00         0.00000E+00        -0.56268E+05
 
   -0.42905E+05         0.50674E+06         0.00000E+00
    0.50674E+06        -0.24830E+06         0.00000E+00
    0.00000E+00         0.00000E+00        -0.58242E+05
 
   -0.54996E+05         0.49823E+06         0.00000E+00
    0.49823E+06        -0.24354E+06         0.00000E+00
    0.00000E+00         0.00000E+00        -0.59706E+05
 
    0.24132E+07         0.26422E+05         0.00000E+00
    0.26422E+05         0.22763E+03         0.00000E+00
    0.00000E+00         0.00000E+00         0.48268E+06
 
    0.23096E+07         0.67703E+05         0.00000E+00
    0.67703E+05        -0.67824E+01         0.00000E+00
    0.00000E+00         0.00000E+00         0.46191E+06
 
    0.22073E+07         0.10432E+06         0.00000E+00
    0.10432E+06        -0.93408E+03         0.00000E+00
    0.00000E+00         0.00000E+00         0.44127E+06
 
    0.21068E+07         0.13650E+06         0.00000E+00
    0.13650E+06        -0.27516E+04         0.00000E+00
    0.00000E+00         0.00000E+00         0.42080E+06
 
    0.20083E+07         0.16453E+06         0.00000E+00
    0.16453E+06        -0.56313E+04         0.00000E+00
    0.00000E+00         0.00000E+00         0.40054E+06
 
    0.19123E+07         0.18868E+06         0.00000E+00
    0.18868E+06        -0.97300E+04         0.00000E+00
    0.00000E+00         0.00000E+00         0.38051E+06
 
    0.18190E+07         0.20927E+06         0.00000E+00
    0.20927E+06        -0.15181E+05         0.00000E+00
    0.00000E+00         0.00000E+00         0.36076E+06
 
    0.17286E+07         0.22662E+06         0.00000E+00
    0.22662E+06        -0.22094E+05         0.00000E+00
    0.00000E+00         0.00000E+00         0.34131E+06
 
    0.16415E+07         0.24106E+06         0.00000E+00
    0.24106E+06        -0.30547E+05         0.00000E+00
    0.00000E+00         0.00000E+00         0.32219E+06
 
    0.15577E+07         0.25295E+06         0.00000E+00
    0.25295E+06        -0.40594E+05         0.00000E+00
    0.00000E+00         0.00000E+00         0.30342E+06
 
    0.14774E+07         0.26262E+06         0.00000E+00
    0.26262E+06        -0.52256E+05         0.00000E+00
    0.00000E+00         0.00000E+00         0.28503E+06
 
    0.14007E+07         0.27042E+06         0.00000E+00
    0.27042E+06        -0.65528E+05         0.00000E+00
    0.00000E+00         0.00000E+00         0.26704E+06
 
    0.13277E+07         0.27670E+06         0.00000E+00
    0.27670E+06        -0.80374E+05         0.00000E+00
    0.00000E+00         0.00000E+00         0.24947E+06
 
    0.12583E+07         0.28179E+06         0.00000E+00
    0.28179E+06        -0.96731E+05         0.00000E+00
    0.00000E+00         0.00000E+00         0.23232E+06
 
    0.11926E+07         0.28601E+06         0.00000E+00
    0.28601E+06        -0.11451E+06         0.00000E+00
    0.00000E+00         0.00000E+00         0.21561E+06
 
    0.11304E+07         0.28966E+06         0.00000E+00
    0.28966E+06        -0.13360E+06         0.00000E+00
    0.00000E+00         0.00000E+00         0.19935E+06
 
    0.10716E+07         0.29302E+06         0.00000E+00
    0.29302E+06        -0.15386E+06         0.00000E+00
    0.00000E+00         0.00000E+00         0.18355E+06
 
    0.10161E+07         0.29635E+06         0.00000E+00
    0.29635E+06        -0.17515E+06         0.00000E+00
    0.00000E+00         0.00000E+00         0.16819E+06
 
    0.96376E+06         0.29989E+06         0.00000E+00
    0.29989E+06        -0.19730E+06         0.00000E+00
    0.00000E+00         0.00000E+00         0.15329E+06
 
    0.91435E+06         0.30383E+06         0.00000E+00
    0.30383E+06        -0.22011E+06         0.00000E+00
    0.00000E+00         0.00000E+00         0.13885E+06
 
    0.86764E+06         0.30835E+06         0.00000E+00
    0.30835E+06        -0.24341E+06         0.00000E+00
    0.00000E+00         0.00000E+00         0.12485E+06
 
    0.82343E+06         0.31360E+06         0.00000E+00
    0.31360E+06        -0.26698E+06         0.00000E+00
    0.00000E+00         0.00000E+00         0.11129E+06
 
    0.78145E+06         0.31970E+06         0.00000E+00
    0.31970E+06        -0.29063E+06         0.00000E+00
    0.00000E+00         0.00000E+00         0.98163E+05
 
    0.74145E+06         0.32672E+06         0.00000E+00
    0.32672E+06        -0.31415E+06         0.00000E+00
    0.00000E+00         0.00000E+00         0.85460E+05
 
    0.70319E+06         0.33471E+06         0.00000E+00
    0.33471E+06        -0.33734E+06         0.00000E+00
    0.00000E+00         0.00000E+00         0.73170E+05
 
    0.66640E+06         0.34371E+06         0.00000E+00
    0.34371E+06        -0.35999E+06         0.00000E+00
    0.00000E+00         0.00000E+00         0.61283E+05
 
    0.63084E+06         0.35371E+06         0.00000E+00
    0.35371E+06        -0.38190E+06         0.00000E+00
    0.00000E+00         0.00000E+00         0.49787E+05
 
    0.59625E+06         0.36465E+06         0.00000E+00
    0.36465E+06        -0.40289E+06         0.00000E+00
    0.00000E+00         0.00000E+00         0.38671E+05
 
    0.56240E+06         0.37649E+06         0.00000E+00
    0.37649E+06        -0.42278E+06         0.00000E+00
    0.00000E+00         0.00000E+00         0.27925E+05
 
    0.52909E+06         0.38913E+06         0.00000E+00
    0.38913E+06        -0.44140E+06         0.00000E+00
    0.00000E+00         0.00000E+00         0.17538E+05
 
    0.49610E+06         0.40244E+06         0.00000E+00
    0.40244E+06        -0.45859E+06         0.00000E+00
    0.00000E+00         0.00000E+00         0.75022E+04
 
    0.46327E+06         0.41630E+06         0.00000E+00
    0.41630E+06        -0.47423E+06         0.00000E+00
    0.00000E+00         0.00000E+00        -0.21910E+04
 
    0.43045E+06         0.43054E+06         0.00000E+00
    0.43054E+06        -0.48818E+06         0.00000E+00
    0.00000E+00         0.00000E+00        -0.11548E+05
 
    0.39750E+06         0.44498E+06         0.00000E+00
    0.44498E+06        -0.50036E+06         0.00000E+00
    0.00000E+00         0.00000E+00        -0.20572E+05
 
    0.36434E+06         0.45942E+06         0.00000E+00
    0.45942E+06        -0.51068E+06         0.00000E+00
    0.00000E+00         0.00000E+00        -0.29268E+05
 
    0.33092E+06         0.47365E+06         0.00000E+00
    0.47365E+06        -0.51909E+06         0.00000E+00
    0.00000E+00         0.00000E+00        -0.37635E+05
 
    0.29720E+06         0.48746E+06         0.00000E+00
    0.48746E+06        -0.52556E+06         0.00000E+00
    0.00000E+00         0.00000E+00        -0.45672E+05
 
    0.26321E+06         0.50060E+06         0.00000E+00
    0.50060E+06        -0.53008E+06         0.00000E+00
    0.00000E+00         0.00000E+00        -0.53375E+05
 
    0.22900E+06         0.51286E+06         0.00000E+00
    0.51286E+06        -0.53268E+06         0.00000E+00
    0.00000E+00         0.00000E+00        -0.60738E+05
 
    0.19466E+06         0.52399E+06         0.00000E+00
    0.52399E+06        -0.53341E+06         0.00000E+00
    0.00000E+00         0.00000E+00        -0.67751E+05
 
    0.16032E+06         0.53377E+06         0.00000E+00
    0.53377E+06        -0.53235E+06         0.00000E+00
    0.00000E+00         0.00000E+00        -0.74404E+05
 
    0.12618E+06         0.54197E+06         0.00000E+00
    0.54197E+06        -0.52960E+06         0.00000E+00
    0.00000E+00         0.00000E+00        -0.80683E+05
 
    0.92439E+05         0.54839E+06         0.00000E+00
    0.54839E+06        -0.52530E+06         0.00000E+00
    0.00000E+00         0.00000E+00        -0.86572E+05
 
    0.59361E+05         0.55283E+06         0.00000E+00
    0.55283E+06        -0.51962E+06         0.00000E+00
    0.00000E+00         0.00000E+00        -0.92052E+05
 
    0.27243E+05         0.55511E+06         0.00000E+00
    0.55511E+06        -0.51275E+06         0.00000E+00
    0.00000E+00         0.00000E+00        -0.97102E+05
 
   -0.35813E+04         0.55509E+06         0.00000E+00
    0.55509E+06        -0.50492E+06         0.00000E+00
    0.00000E+00         0.00000E+00        -0.10170E+06
 
   -0.32743E+05         0.55265E+06         0.00000E+00
    0.55265E+06        -0.49635E+06         0.00000E+00
    0.00000E+00         0.00000E+00        -0.10582E+06
 
   -0.59841E+05         0.54769E+06         0.00000E+00
    0.54769E+06        -0.48733E+06         0.00000E+00
    0.00000E+00         0.00000E+00        -0.10943E+06
 
   -0.84447E+05         0.54017E+06         0.00000E+00
    0.54017E+06        -0.47813E+06         0.00000E+00
    0.00000E+00         0.00000E+00        -0.11251E+06
 
   -0.10611E+06         0.53007E+06         0.00000E+00
    0.53007E+06        -0.46905E+06         0.00000E+00
    0.00000E+00         0.00000E+00        -0.11503E+06
 
    0.26231E+07         0.25696E+05         0.00000E+00
    0.25696E+05         0.35708E+03         0.00000E+00
    0.00000E+00         0.00000E+00         0.52469E+06
 
    0.24927E+07         0.62556E+05         0.00000E+00
    0.62556E+05        -0.30588E+03         0.00000E+00
    0.00000E+00         0.00000E+00         0.49847E+06
 
    0.23649E+07         0.93531E+05         0.00000E+00
    0.93531E+05        -0.23451E+04         0.00000E+00
    0.00000E+00         0.00000E+00         0.47251E+06
 
    0.22404E+07         0.11896E+06         0.00000E+00
    0.11896E+06        -0.60348E+04         0.00000E+00
    0.00000E+00         0.00000E+00         0.44687E+06
 
    0.21196E+07         0.13922E+06         0.00000E+00
    0.13922E+06        -0.11656E+05         0.00000E+00
    0.00000E+00         0.00000E+00         0.42160E+06
 
    0.20032E+07         0.15474E+06         0.00000E+00
    0.15474E+06        -0.19442E+05         0.00000E+00
    0.00000E+00         0.00000E+00         0.39674E+06
 
    0.18914E+07         0.16599E+06         0.00000E+00
    0.16599E+06        -0.29582E+05         0.00000E+00
    0.00000E+00         0.00000E+00         0.37235E+06
 
    0.17846E+07         0.17347E+06         0.00000E+00
    0.17347E+06        -0.42221E+05         0.00000E+00
    0.00000E+00         0.00000E+00         0.34848E+06
 
    0.16832E+07         0.17769E+06         0.00000E+00
    0.17769E+06        -0.57455E+05         0.00000E+00
    0.00000E+00         0.00000E+00         0.32514E+06
 
    0.15873E+07         0.17921E+06         0.00000E+00
    0.17921E+06        -0.75331E+05         0.00000E+00
    0.00000E+00         0.00000E+00         0.30240E+06
 
    0.14971E+07         0.17855E+06         0.00000E+00
    0.17855E+06        -0.95843E+05         0.00000E+00
    0.00000E+00         0.00000E+00         0.28026E+06
 
    0.14127E+07         0.17624E+06         0.00000E+00
    0.17624E+06        -0.11894E+06         0.00000E+00
    0.00000E+00         0.00000E+00         0.25875E+06
 
    0.13340E+07         0.17282E+06         0.00000E+00
    0.17282E+06        -0.14451E+06         0.00000E+00
    0.00000E+00         0.00000E+00         0.23790E+06
 
    0.12610E+07         0.16877E+06         0.00000E+00
    0.16877E+06        -0.17242E+06         0.00000E+00
    0.00000E+00         0.00000E+00         0.21771E+06
 
    0.11935E+07         0.16457E+06         0.00000E+00
    0.16457E+06        -0.20249E+06         0.00000E+00
    0.00000E+00         0.00000E+00         0.19820E+06
 
    0.11313E+07         0.16064E+06         0.00000E+00
    0.16064E+06        -0.23449E+06         0.00000E+00
    0.00000E+00         0.00000E+00         0.17935E+06
 
    0.10741E+07         0.15739E+06         0.00000E+00
    0.15739E+06        -0.26819E+06         0.00000E+00
    0.00000E+00         0.00000E+00         0.16118E+06
 
    0.10216E+07         0.15518E+06         0.00000E+00
    0.15518E+06        -0.30332E+06         0.00000E+00
    0.00000E+00         0.00000E+00         0.14366E+06
 
    0.97358E+06         0.15430E+06         0.00000E+00
    0.15430E+06        -0.33960E+06         0.00000E+00
    0.00000E+00         0.00000E+00         0.12680E+06
 
    0.92952E+06         0.15502E+06         0.00000E+00
    0.15502E+06        -0.37673E+06         0.00000E+00
    0.00000E+00         0.00000E+00         0.11056E+06
 
    0.88906E+06         0.15757E+06         0.00000E+00
    0.15757E+06        -0.41440E+06         0.00000E+00
    0.00000E+00         0.00000E+00         0.94933E+05
 
    0.85178E+06         0.16210E+06         0.00000E+00
    0.16210E+06        -0.45231E+06         0.00000E+00
    0.00000E+00         0.00000E+00         0.79893E+05
 
    0.81723E+06         0.16874E+06         0.00000E+00
    0.16874E+06        -0.49015E+06         0.00000E+00
    0.00000E+00         0.00000E+00         0.65416E+05
 
    0.78498E+06         0.17756E+06         0.00000E+00
    0.17756E+06        -0.52761E+06         0.00000E+00
    0.00000E+00         0.00000E+00         0.51474E+05
 
    0.75459E+06         0.18861E+06         0.00000E+00
    0.18861E+06        -0.56440E+06         0.00000E+00
    0.00000E+00         0.00000E+00         0.38038E+05
 
    0.72561E+06         0.20187E+06         0.00000E+00
    0.20187E+06        -0.60022E+06         0.00000E+00
    0.00000E+00         0.00000E+00         0.25079E+05
 
    0.69763E+06         0.21728E+06         0.00000E+00
    0.21728E+06        -0.63479E+06         0.00000E+00
    0.00000E+00         0.00000E+00         0.12569E+05
 
    0.67023E+06         0.23477E+06         0.00000E+00
    0.23477E+06        -0.66783E+06         0.00000E+00
    0.00000E+00         0.00000E+00         0.47827E+03
 
    0.64300E+06         0.25418E+06         0.00000E+00
    0.25418E+06        -0.69911E+06         0.00000E+00
    0.00000E+00         0.00000E+00        -0.11220E+05
 
    0.61560E+06         0.27537E+06         0.00000E+00
    0.27537E+06        -0.72836E+06         0.00000E+00
    0.00000E+00         0.00000E+00        -0.22553E+05
 
    0.58766E+06         0.29813E+06         0.00000E+00
    0.29813E+06        -0.75538E+06         0.00000E+00
    0.00000E+00         0.00000E+00        -0.33545E+05
 
    0.55887E+06         0.32222E+06         0.00000E+00
    0.32222E+06        -0.77995E+06         0.00000E+00
    0.00000E+00         0.00000E+00        -0.44217E+05
 
    0.52897E+06         0.34737E+06         0.00000E+00
    0.34737E+06        -0.80191E+06         0.00000E+00
    0.00000E+00         0.00000E+00        -0.54588E+05
 
    0.49770E+06         0.37328E+06         0.00000E+00
    0.37328E+06        -0.82108E+06         0.00000E+00
    0.00000E+00         0.00000E+00        -0.64675E+05
 
    0.46489E+06         0.39964E+06         0.00000E+00
    0.39964E+06        -0.83734E+06         0.00000E+00
    0.00000E+00         0.00000E+00        -0.74491E+05
 
    0.43038E+06         0.42609E+06         0.00000E+00
    0.42609E+06        -0.85060E+06         0.00000E+00
    0.00000E+00         0.00000E+00        -0.84044E+05
 
    0.39409E+06         0.45227E+06         0.00000E+00
    0.45227E+06        -0.86078E+06         0.00000E+00
    0.00000E+00         0.00000E+00        -0.93339E+05
 
    0.35598E+06         0.47778E+06         0.00000E+00
    0.47778E+06        -0.86786E+06         0.00000E+00
    0.00000E+00         0.00000E+00        -0.10238E+06
 
    0.31607E+06         0.50222E+06         0.00000E+00
    0.50222E+06        -0.87184E+06         0.00000E+00
    0.00000E+00         0.00000E+00        -0.11115E+06
 
    0.27446E+06         0.52519E+06         0.00000E+00
    0.52519E+06        -0.87276E+06         0.00000E+00
    0.00000E+00         0.00000E+00        -0.11966E+06
 
    0.23130E+06         0.54629E+06         0.00000E+00
    0.54629E+06        -0.87073E+06         0.00000E+00
    0.00000E+00         0.00000E+00        -0.12789E+06
 
    0.18681E+06         0.56509E+06         0.00000E+00
    0.56509E+06        -0.86587E+06         0.00000E+00
    0.00000E+00         0.00000E+00        -0.13581E+06
 
    0.14128E+06         0.58122E+06         0.00000E+00
    0.58122E+06        -0.85837E+06         0.00000E+00
    0.00000E+00         0.00000E+00        -0.14342E+06
 
    0.95066E+05         0.59430E+06         0.00000E+00
    0.59430E+06        -0.84847E+06         0.00000E+00
    0.00000E+00         0.00000E+00        -0.15068E+06
 
    0.48601E+05         0.60397E+06         0.00000E+00
    0.60397E+06        -0.83643E+06         0.00000E+00
    0.00000E+00         0.00000E+00        -0.15756E+06
 
    0.23734E+04         0.60992E+06         0.00000E+00
    0.60992E+06        -0.82257E+06         0.00000E+00
    0.00000E+00         0.00000E+00        -0.16404E+06
 
   -0.43064E+05         0.61188E+06         0.00000E+00
    0.61188E+06        -0.80727E+06         0.00000E+00
    0.00000E+00         0.00000E+00        -0.17007E+06
 
   -0.87099E+05         0.60960E+06         0.00000E+00
    0.60960E+06        -0.79093E+06         0.00000E+00
    0.00000E+00         0.00000E+00        -0.17561E+06
 
   -0.12908E+06         0.60294E+06         0.00000E+00
    0.60294E+06        -0.77399E+06         0.00000E+00
    0.00000E+00         0.00000E+00        -0.18061E+06
 
   -0.16828E+06         0.59175E+06         0.00000E+00
    0.59175E+06        -0.75691E+06         0.00000E+00
    0.00000E+00         0.00000E+00        -0.18504E+06
 
    0.28061E+07         0.24190E+05         0.00000E+00
    0.24190E+05         0.12781E+03         0.00000E+00
    0.00000E+00         0.00000E+00         0.56125E+06
 
    0.26408E+07         0.53113E+05         0.00000E+00
    0.53113E+05        -0.94010E+03         0.00000E+00
    0.00000E+00         0.00000E+00         0.52797E+06
 
    0.24799E+07         0.74156E+05         0.00000E+00
    0.74156E+05        -0.42658E+04         0.00000E+00
    0.00000E+00         0.00000E+00         0.49514E+06
 
    0.23246E+07         0.87783E+05         0.00000E+00
    0.87783E+05        -0.10454E+05         0.00000E+00
    0.00000E+00         0.00000E+00         0.46283E+06
 
    0.21757E+07         0.94644E+05         0.00000E+00
    0.94644E+05        -0.19920E+05         0.00000E+00
    0.00000E+00         0.00000E+00         0.43115E+06
 
    0.20340E+07         0.95452E+05         0.00000E+00
    0.95452E+05        -0.33033E+05         0.00000E+00
    0.00000E+00         0.00000E+00         0.40019E+06
 
    0.19001E+07         0.90990E+05         0.00000E+00
    0.90990E+05        -0.50084E+05         0.00000E+00
    0.00000E+00         0.00000E+00         0.37001E+06
 
    0.17747E+07         0.82099E+05         0.00000E+00
    0.82099E+05        -0.71266E+05         0.00000E+00
    0.00000E+00         0.00000E+00         0.34068E+06
 
    0.16580E+07         0.69653E+05         0.00000E+00
    0.69653E+05        -0.96664E+05         0.00000E+00
    0.00000E+00         0.00000E+00         0.31227E+06
 
    0.15504E+07         0.54538E+05         0.00000E+00
    0.54538E+05        -0.12627E+06         0.00000E+00
    0.00000E+00         0.00000E+00         0.28483E+06
 
    0.14519E+07         0.37624E+05         0.00000E+00
    0.37624E+05        -0.15997E+06         0.00000E+00
    0.00000E+00         0.00000E+00         0.25839E+06
 
    0.13625E+07         0.19752E+05         0.00000E+00
    0.19752E+05        -0.19759E+06         0.00000E+00
    0.00000E+00         0.00000E+00         0.23298E+06
 
    0.12819E+07         0.17163E+04         0.00000E+00
    0.17163E+04        -0.23886E+06         0.00000E+00
    0.00000E+00         0.00000E+00         0.20861E+06
 
    0.12100E+07        -0.15747E+05         0.00000E+00
   -0.15747E+05        -0.28347E+06         0.00000E+00
    0.00000E+00         0.00000E+00         0.18530E+06
 
    0.11462E+07        -0.31967E+05         0.00000E+00
   -0.31967E+05        -0.33105E+06         0.00000E+00
    0.00000E+00         0.00000E+00         0.16304E+06
 
    0.10902E+07        -0.46350E+05         0.00000E+00
   -0.46350E+05        -0.38120E+06         0.00000E+00
    0.00000E+00         0.00000E+00         0.14181E+06
 
    0.10414E+07        -0.58377E+05         0.00000E+00
   -0.58377E+05        -0.43348E+06         0.00000E+00
    0.00000E+00         0.00000E+00         0.12158E+06
 
    0.99911E+06        -0.67607E+05         0.00000E+00
   -0.67607E+05        -0.48745E+06         0.00000E+00
    0.00000E+00         0.00000E+00         0.10233E+06
 
    0.96275E+06        -0.73677E+05         0.00000E+00
   -0.73677E+05        -0.54266E+06         0.00000E+00
    0.00000E+00         0.00000E+00         0.84019E+05
 
    0.93164E+06        -0.76301E+05         0.00000E+00
   -0.76301E+05        -0.59866E+06         0.00000E+00
    0.00000E+00         0.00000E+00         0.66596E+05
 
    0.90507E+06        -0.75261E+05         0.00000E+00
   -0.75261E+05        -0.65501E+06         0.00000E+00
    0.00000E+00         0.00000E+00         0.50013E+05
 
    0.88235E+06        -0.70406E+05         0.00000E+00
   -0.70406E+05        -0.71127E+06         0.00000E+00
    0.00000E+00         0.00000E+00         0.34215E+05
 
    0.86278E+06        -0.61649E+05         0.00000E+00
   -0.61649E+05        -0.76704E+06         0.00000E+00
    0.00000E+00         0.00000E+00         0.19147E+05
 
    0.84566E+06        -0.48958E+05         0.00000E+00
   -0.48958E+05        -0.82192E+06         0.00000E+00
    0.00000E+00         0.00000E+00         0.47492E+04
 
    0.83032E+06        -0.32358E+05         0.00000E+00
   -0.32358E+05        -0.87551E+06         0.00000E+00
    0.00000E+00         0.00000E+00        -0.90380E+04
 
    0.81609E+06        -0.11920E+05         0.00000E+00
   -0.11920E+05        -0.92746E+06         0.00000E+00
    0.00000E+00         0.00000E+00        -0.22275E+05
 
    0.80232E+06         0.12235E+05         0.00000E+00
    0.12235E+05        -0.97741E+06         0.00000E+00
    0.00000E+00         0.00000E+00        -0.35020E+05
 
    0.78839E+06         0.39943E+05         0.00000E+00
    0.39943E+05        -0.10250E+07         0.00000E+00
    0.00000E+00         0.00000E+00        -0.47331E+05
 
    0.77370E+06         0.70996E+05         0.00000E+00
    0.70996E+05        -0.10700E+07         0.00000E+00
    0.00000E+00         0.00000E+00        -0.59266E+05
 
    0.75768E+06         0.10514E+06         0.00000E+00
    0.10514E+06        -0.11121E+07         0.00000E+00
    0.00000E+00         0.00000E+00        -0.70876E+05
 
    0.73980E+06         0.14209E+06         0.00000E+00
    0.14209E+06        -0.11509E+07         0.00000E+00
    0.00000E+00         0.00000E+00        -0.82212E+05
 
    0.71955E+06         0.18150E+06         0.00000E+00
    0.18150E+06        -0.11862E+07         0.00000E+00
    0.00000E+00         0.00000E+00        -0.93320E+05
 
    0.69648E+06         0.22300E+06         0.00000E+00
    0.22300E+06        -0.12177E+07         0.00000E+00
    0.00000E+00         0.00000E+00        -0.10424E+06
 
    0.67015E+06         0.26615E+06         0.00000E+00
    0.26615E+06        -0.12452E+07         0.00000E+00
    0.00000E+00         0.00000E+00        -0.11501E+06
 
    0.64022E+06         0.31050E+06         0.00000E+00
    0.31050E+06        -0.12686E+07         0.00000E+00
    0.00000E+00         0.00000E+00        -0.12567E+06
 
    0.60638E+06         0.35552E+06         0.00000E+00
    0.35552E+06        -0.12875E+07         0.00000E+00
    0.00000E+00         0.00000E+00        -0.13623E+06
 
    0.56838E+06         0.40067E+06         0.00000E+00
    0.40067E+06        -0.13019E+07         0.00000E+00
    0.00000E+00         0.00000E+00        -0.14671E+06
 
    0.52607E+06         0.44536E+06         0.00000E+00
    0.44536E+06        -0.13117E+07         0.00000E+00
    0.00000E+00         0.00000E+00        -0.15713E+06
 
    0.47938E+06         0.48895E+06         0.00000E+00
    0.48895E+06        -0.13168E+07         0.00000E+00
    0.00000E+00         0.00000E+00        -0.16748E+06
 
    0.42832E+06         0.53079E+06         0.00000E+00
    0.53079E+06        -0.13172E+07         0.00000E+00
    0.00000E+00         0.00000E+00        -0.17777E+06
 
    0.37301E+06         0.57020E+06         0.00000E+00
    0.57020E+06        -0.13129E+07         0.00000E+00
    0.00000E+00         0.00000E+00        -0.18798E+06
 
    0.31367E+06         0.60649E+06         0.00000E+00
    0.60649E+06        -0.13041E+07         0.00000E+00
    0.00000E+00         0.00000E+00        -0.19809E+06
 
    0.25066E+06         0.63896E+06         0.00000E+00
    0.63896E+06        -0.12910E+07         0.00000E+00
    0.00000E+00         0.00000E+00        -0.20807E+06
 
    0.18442E+06         0.66692E+06         0.00000E+00
    0.66692E+06        -0.12738E+07         0.00000E+00
    0.00000E+00         0.00000E+00        -0.21789E+06
 
    0.11555E+06         0.68973E+06         0.00000E+00
    0.68973E+06        -0.12530E+07         0.00000E+00
    0.00000E+00         0.00000E+00        -0.22749E+06
 
    0.44740E+05         0.70676E+06         0.00000E+00
    0.70676E+06        -0.12290E+07         0.00000E+00
    0.00000E+00         0.00000E+00        -0.23685E+06
 
   -0.27202E+05         0.71745E+06         0.00000E+00
    0.71745E+06        -0.12022E+07         0.00000E+00
    0.00000E+00         0.00000E+00        -0.24588E+06
 
   -0.99358E+05         0.72130E+06         0.00000E+00
    0.72130E+06        -0.11734E+07         0.00000E+00
    0.00000E+00         0.00000E+00        -0.25455E+06
 
   -0.17068E+06         0.71786E+06         0.00000E+00
    0.71786E+06        -0.11431E+07         0.00000E+00
    0.00000E+00         0.00000E+00        -0.26275E+06
 
   -0.24008E+06         0.70688E+06         0.00000E+00
    0.70688E+06        -0.11122E+07         0.00000E+00
    0.00000E+00         0.00000E+00        -0.27045E+06
 
    0.29424E+07         0.22529E+05         0.00000E+00
    0.22529E+05        -0.26099E+04         0.00000E+00
    0.00000E+00         0.00000E+00         0.58795E+06
 
    0.27275E+07         0.38486E+05         0.00000E+00
    0.38486E+05        -0.38592E+04         0.00000E+00
    0.00000E+00         0.00000E+00         0.54473E+06
 
    0.25203E+07         0.42665E+05         0.00000E+00
    0.42665E+05        -0.92237E+04         0.00000E+00
    0.00000E+00         0.00000E+00         0.50221E+06
 
    0.23227E+07         0.36243E+05         0.00000E+00
    0.36243E+05        -0.19366E+05         0.00000E+00
    0.00000E+00         0.00000E+00         0.46066E+06
 
    0.21363E+07         0.20351E+05         0.00000E+00
    0.20351E+05        -0.35202E+05         0.00000E+00
    0.00000E+00         0.00000E+00         0.42022E+06
 
    0.19625E+07        -0.36111E+04         0.00000E+00
   -0.36111E+04        -0.57355E+05         0.00000E+00
    0.00000E+00         0.00000E+00         0.38102E+06
 
    0.18023E+07        -0.34093E+05         0.00000E+00
   -0.34093E+05        -0.86160E+05         0.00000E+00
    0.00000E+00         0.00000E+00         0.34322E+06
 
    0.16565E+07        -0.69498E+05         0.00000E+00
   -0.69498E+05        -0.12172E+06         0.00000E+00
    0.00000E+00         0.00000E+00         0.30695E+06
 
    0.15254E+07        -0.10825E+06         0.00000E+00
   -0.10825E+06        -0.16396E+06         0.00000E+00
    0.00000E+00         0.00000E+00         0.27229E+06
 
    0.14091E+07        -0.14883E+06         0.00000E+00
   -0.14883E+06        -0.21258E+06         0.00000E+00
    0.00000E+00         0.00000E+00         0.23931E+06
 
    0.13075E+07        -0.18981E+06         0.00000E+00
   -0.18981E+06        -0.26719E+06         0.00000E+00
    0.00000E+00         0.00000E+00         0.20805E+06
 
    0.12199E+07        -0.22988E+06         0.00000E+00
   -0.22988E+06        -0.32723E+06         0.00000E+00
    0.00000E+00         0.00000E+00         0.17854E+06
 
    0.11459E+07        -0.26788E+06         0.00000E+00
   -0.26788E+06        -0.39206E+06         0.00000E+00
    0.00000E+00         0.00000E+00         0.15076E+06
 
    0.10845E+07        -0.30282E+06         0.00000E+00
   -0.30282E+06        -0.46099E+06         0.00000E+00
    0.00000E+00         0.00000E+00         0.12470E+06
 
    0.10348E+07        -0.33383E+06         0.00000E+00
   -0.33383E+06        -0.53328E+06         0.00000E+00
    0.00000E+00         0.00000E+00         0.10031E+06
 
    0.99581E+06        -0.36023E+06         0.00000E+00
   -0.36023E+06        -0.60821E+06         0.00000E+00
    0.00000E+00         0.00000E+00         0.77520E+05
 
    0.96638E+06        -0.38148E+06         0.00000E+00
   -0.38148E+06        -0.68506E+06         0.00000E+00
    0.00000E+00         0.00000E+00         0.56264E+05
 
    0.94541E+06        -0.39719E+06         0.00000E+00
   -0.39719E+06        -0.76315E+06         0.00000E+00
    0.00000E+00         0.00000E+00         0.36452E+05
 
    0.93179E+06        -0.40707E+06         0.00000E+00
   -0.40707E+06        -0.84184E+06         0.00000E+00
    0.00000E+00         0.00000E+00         0.17990E+05
 
    0.92441E+06        -0.41094E+06         0.00000E+00
   -0.41094E+06        -0.92053E+06         0.00000E+00
    0.00000E+00         0.00000E+00         0.77495E+03
 
    0.92220E+06        -0.40871E+06         0.00000E+00
   -0.40871E+06        -0.99868E+06         0.00000E+00
    0.00000E+00         0.00000E+00        -0.15298E+05
 
    0.92412E+06        -0.40038E+06         0.00000E+00
   -0.40038E+06        -0.10758E+07         0.00000E+00
    0.00000E+00         0.00000E+00        -0.30336E+05
 
    0.92919E+06        -0.38600E+06         0.00000E+00
   -0.38600E+06        -0.11514E+07         0.00000E+00
    0.00000E+00         0.00000E+00        -0.44449E+05
 
    0.93644E+06        -0.36565E+06         0.00000E+00
   -0.36565E+06        -0.12252E+07         0.00000E+00
    0.00000E+00         0.00000E+00        -0.57746E+05
 
    0.94496E+06        -0.33949E+06         0.00000E+00
   -0.33949E+06        -0.12966E+07         0.00000E+00
    0.00000E+00         0.00000E+00        -0.70335E+05
 
    0.95389E+06        -0.30769E+06         0.00000E+00
   -0.30769E+06        -0.13655E+07         0.00000E+00
    0.00000E+00         0.00000E+00        -0.82321E+05
 
    0.96236E+06        -0.27046E+06         0.00000E+00
   -0.27046E+06        -0.14314E+07         0.00000E+00
    0.00000E+00         0.00000E+00        -0.93807E+05
 
    0.96958E+06        -0.22803E+06         0.00000E+00
   -0.22803E+06        -0.14941E+07         0.00000E+00
    0.00000E+00         0.00000E+00        -0.10489E+06
 
    0.97475E+06        -0.18068E+06         0.00000E+00
   -0.18068E+06        -0.15532E+07         0.00000E+00
    0.00000E+00         0.00000E+00        -0.11568E+06
 
    0.97711E+06        -0.12870E+06         0.00000E+00
   -0.12870E+06        -0.16084E+07         0.00000E+00
    0.00000E+00         0.00000E+00        -0.12626E+06
 
    0.97591E+06        -0.72424E+05         0.00000E+00
   -0.72424E+05        -0.16595E+07         0.00000E+00
    0.00000E+00         0.00000E+00        -0.13672E+06
 
    0.97042E+06        -0.12237E+05         0.00000E+00
   -0.12237E+05        -0.17061E+07         0.00000E+00
    0.00000E+00         0.00000E+00        -0.14714E+06
 
    0.95994E+06         0.51438E+05         0.00000E+00
    0.51438E+05        -0.17480E+07         0.00000E+00
    0.00000E+00         0.00000E+00        -0.15761E+06
 
    0.94379E+06         0.11812E+06         0.00000E+00
    0.11812E+06        -0.17847E+07         0.00000E+00
    0.00000E+00         0.00000E+00        -0.16818E+06
 
    0.92133E+06         0.18725E+06         0.00000E+00
    0.18725E+06        -0.18160E+07         0.00000E+00
    0.00000E+00         0.00000E+00        -0.17894E+06
 
    0.89195E+06         0.25822E+06         0.00000E+00
    0.25822E+06        -0.18416E+07         0.00000E+00
    0.00000E+00         0.00000E+00        -0.18994E+06
 
    0.85510E+06         0.33032E+06         0.00000E+00
    0.33032E+06        -0.18611E+07         0.00000E+00
    0.00000E+00         0.00000E+00        -0.20121E+06
 
    0.81034E+06         0.40275E+06         0.00000E+00
    0.40275E+06        -0.18743E+07         0.00000E+00
    0.00000E+00         0.00000E+00        -0.21279E+06
 
    0.75728E+06         0.47463E+06         0.00000E+00
    0.47463E+06        -0.18809E+07         0.00000E+00
    0.00000E+00         0.00000E+00        -0.22472E+06
 
    0.69568E+06         0.54499E+06         0.00000E+00
    0.54499E+06        -0.18806E+07         0.00000E+00
    0.00000E+00         0.00000E+00        -0.23699E+06
 
    0.62544E+06         0.61278E+06         0.00000E+00
    0.61278E+06        -0.18734E+07         0.00000E+00
    0.00000E+00         0.00000E+00        -0.24960E+06
 
    0.54660E+06         0.67687E+06         0.00000E+00
    0.67687E+06        -0.18593E+07         0.00000E+00
    0.00000E+00         0.00000E+00        -0.26253E+06
 
    0.45943E+06         0.73608E+06         0.00000E+00
    0.73608E+06        -0.18382E+07         0.00000E+00
    0.00000E+00         0.00000E+00        -0.27575E+06
 
    0.36436E+06         0.78917E+06         0.00000E+00
    0.78917E+06        -0.18104E+07         0.00000E+00
    0.00000E+00         0.00000E+00        -0.28922E+06
 
    0.26207E+06         0.83492E+06         0.00000E+00
    0.83492E+06        -0.17764E+07         0.00000E+00
    0.00000E+00         0.00000E+00        -0.30286E+06
 
    0.15350E+06         0.87210E+06         0.00000E+00
    0.87210E+06        -0.17365E+07         0.00000E+00
    0.00000E+00         0.00000E+00        -0.31660E+06
 
    0.39797E+05         0.89953E+06         0.00000E+00
    0.89953E+06        -0.16915E+07         0.00000E+00
    0.00000E+00         0.00000E+00        -0.33034E+06
 
   -0.77630E+05         0.91616E+06         0.00000E+00
    0.91616E+06        -0.16423E+07         0.00000E+00
    0.00000E+00         0.00000E+00        -0.34399E+06
 
   -0.19728E+06         0.92115E+06         0.00000E+00
    0.92115E+06        -0.15901E+07         0.00000E+00
    0.00000E+00         0.00000E+00        -0.35748E+06
 
   -0.31723E+06         0.91350E+06         0.00000E+00
    0.91350E+06        -0.15357E+07         0.00000E+00
    0.00000E+00         0.00000E+00        -0.37058E+06
 
    0.29916E+07         0.21508E+05         0.00000E+00
    0.21508E+05        -0.19481E+05         0.00000E+00
    0.00000E+00         0.00000E+00         0.59443E+06
 
    0.26979E+07         0.14250E+05         0.00000E+00
    0.14250E+05        -0.21951E+05         0.00000E+00
    0.00000E+00         0.00000E+00         0.53520E+06
 
    0.24196E+07        -0.11835E+05         0.00000E+00
   -0.11835E+05        -0.31367E+05         0.00000E+00
    0.00000E+00         0.00000E+00         0.47765E+06
 
    0.21602E+07        -0.54775E+05         0.00000E+00
   -0.54775E+05        -0.50739E+05         0.00000E+00
    0.00000E+00         0.00000E+00         0.42189E+06
 
    0.19228E+07        -0.11117E+06         0.00000E+00
   -0.11117E+06        -0.80944E+05         0.00000E+00
    0.00000E+00         0.00000E+00         0.36837E+06
 
    0.17095E+07        -0.17764E+06         0.00000E+00
   -0.17764E+06        -0.12232E+06         0.00000E+00
    0.00000E+00         0.00000E+00         0.31743E+06
 
    0.15214E+07        -0.25095E+06         0.00000E+00
   -0.25095E+06        -0.17483E+06         0.00000E+00
    0.00000E+00         0.00000E+00         0.26931E+06
 
    0.13587E+07        -0.32803E+06         0.00000E+00
   -0.32803E+06        -0.23805E+06         0.00000E+00
    0.00000E+00         0.00000E+00         0.22414E+06
 
    0.12213E+07        -0.40602E+06         0.00000E+00
   -0.40602E+06        -0.31113E+06         0.00000E+00
    0.00000E+00         0.00000E+00         0.18203E+06
 
    0.11081E+07        -0.48236E+06         0.00000E+00
   -0.48236E+06        -0.39295E+06         0.00000E+00
    0.00000E+00         0.00000E+00         0.14302E+06
 
    0.10178E+07        -0.55487E+06         0.00000E+00
   -0.55487E+06        -0.48217E+06         0.00000E+00
    0.00000E+00         0.00000E+00         0.10712E+06
 
    0.94867E+06        -0.62177E+06         0.00000E+00
   -0.62177E+06        -0.57736E+06         0.00000E+00
    0.00000E+00         0.00000E+00         0.74261E+05
 
    0.89879E+06        -0.68168E+06         0.00000E+00
   -0.68168E+06        -0.67710E+06         0.00000E+00
    0.00000E+00         0.00000E+00         0.44339E+05
 
    0.86607E+06        -0.73359E+06         0.00000E+00
   -0.73359E+06        -0.78000E+06         0.00000E+00
    0.00000E+00         0.00000E+00         0.17214E+05
 
    0.84842E+06        -0.77685E+06         0.00000E+00
   -0.77685E+06        -0.88482E+06         0.00000E+00
    0.00000E+00         0.00000E+00        -0.72792E+04
 
    0.84379E+06        -0.81106E+06         0.00000E+00
   -0.81106E+06        -0.99042E+06         0.00000E+00
    0.00000E+00         0.00000E+00        -0.29327E+05
 
    0.85023E+06        -0.83606E+06         0.00000E+00
   -0.83606E+06        -0.10959E+07         0.00000E+00
    0.00000E+00         0.00000E+00        -0.49124E+05
 
    0.86590E+06        -0.85186E+06         0.00000E+00
   -0.85186E+06        -0.12003E+07         0.00000E+00
    0.00000E+00         0.00000E+00        -0.66874E+05
 
    0.88912E+06        -0.85861E+06         0.00000E+00
   -0.85861E+06        -0.13030E+07         0.00000E+00
    0.00000E+00         0.00000E+00        -0.82776E+05
 
    0.91834E+06        -0.85654E+06         0.00000E+00
   -0.85654E+06        -0.14035E+07         0.00000E+00
    0.00000E+00         0.00000E+00        -0.97030E+05
 
    0.95215E+06        -0.84594E+06         0.00000E+00
   -0.84594E+06        -0.15013E+07         0.00000E+00
    0.00000E+00         0.00000E+00        -0.10983E+06
 
    0.98928E+06        -0.82715E+06         0.00000E+00
   -0.82715E+06        -0.15961E+07         0.00000E+00
    0.00000E+00         0.00000E+00        -0.12136E+06
 
    0.10286E+07        -0.80050E+06         0.00000E+00
   -0.80050E+06        -0.16876E+07         0.00000E+00
    0.00000E+00         0.00000E+00        -0.13181E+06
 
    0.10690E+07        -0.76632E+06         0.00000E+00
   -0.76632E+06        -0.17757E+07         0.00000E+00
    0.00000E+00         0.00000E+00        -0.14134E+06
 
    0.11095E+07        -0.72494E+06         0.00000E+00
   -0.72494E+06        -0.18601E+07         0.00000E+00
    0.00000E+00         0.00000E+00        -0.15012E+06
 
    0.11491E+07        -0.67667E+06         0.00000E+00
   -0.67667E+06        -0.19407E+07         0.00000E+00
    0.00000E+00         0.00000E+00        -0.15832E+06
 
    0.11872E+07        -0.62177E+06         0.00000E+00
   -0.62177E+06        -0.20175E+07         0.00000E+00
    0.00000E+00         0.00000E+00        -0.16607E+06
 
    0.12226E+07        -0.56051E+06         0.00000E+00
   -0.56051E+06        -0.20904E+07         0.00000E+00
    0.00000E+00         0.00000E+00        -0.17355E+06
 
    0.12548E+07        -0.49313E+06         0.00000E+00
   -0.49313E+06        -0.21591E+07         0.00000E+00
    0.00000E+00         0.00000E+00        -0.18087E+06
 
    0.12826E+07        -0.41985E+06         0.00000E+00
   -0.41985E+06        -0.22236E+07         0.00000E+00
    0.00000E+00         0.00000E+00        -0.18820E+06
 
    0.13055E+07        -0.34092E+06         0.00000E+00
   -0.34092E+06        -0.22837E+07         0.00000E+00
    0.00000E+00         0.00000E+00        -0.19566E+06
 
    0.13223E+07        -0.25656E+06         0.00000E+00
   -0.25656E+06        -0.23392E+07         0.00000E+00
    0.00000E+00         0.00000E+00        -0.20338E+06
 
    0.13322E+07        -0.16705E+06         0.00000E+00
   -0.16705E+06        -0.23897E+07         0.00000E+00
    0.00000E+00         0.00000E+00        -0.21150E+06
 
    0.13341E+07        -0.72713E+05         0.00000E+00
   -0.72713E+05        -0.24349E+07         0.00000E+00
    0.00000E+00         0.00000E+00        -0.22014E+06
 
    0.13272E+07         0.26066E+05         0.00000E+00
    0.26066E+05        -0.24743E+07         0.00000E+00
    0.00000E+00         0.00000E+00        -0.22943E+06
 
    0.13101E+07         0.12879E+06         0.00000E+00
    0.12879E+06        -0.25075E+07         0.00000E+00
    0.00000E+00         0.00000E+00        -0.23947E+06
 
    0.12820E+07         0.23485E+06         0.00000E+00
    0.23485E+06        -0.25339E+07         0.00000E+00
    0.00000E+00         0.00000E+00        -0.25038E+06
 
    0.12415E+07         0.34346E+06         0.00000E+00
    0.34346E+06        -0.25527E+07         0.00000E+00
    0.00000E+00         0.00000E+00        -0.26225E+06
 
    0.11877E+07         0.45364E+06         0.00000E+00
    0.45364E+06        -0.25635E+07         0.00000E+00
    0.00000E+00         0.00000E+00        -0.27515E+06
 
    0.11195E+07         0.56421E+06         0.00000E+00
    0.56421E+06        -0.25653E+07         0.00000E+00
    0.00000E+00         0.00000E+00        -0.28916E+06
 
    0.10361E+07         0.67375E+06         0.00000E+00
    0.67375E+06        -0.25576E+07         0.00000E+00
    0.00000E+00         0.00000E+00        -0.30430E+06
 
    0.93677E+06         0.78055E+06         0.00000E+00
    0.78055E+06        -0.25397E+07         0.00000E+00
    0.00000E+00         0.00000E+00        -0.32059E+06
 
    0.82116E+06         0.88273E+06         0.00000E+00
    0.88273E+06        -0.25111E+07         0.00000E+00
    0.00000E+00         0.00000E+00        -0.33800E+06
 
    0.68920E+06         0.97813E+06         0.00000E+00
    0.97813E+06        -0.24716E+07         0.00000E+00
    0.00000E+00         0.00000E+00        -0.35649E+06
 
    0.54125E+06         0.10645E+07         0.00000E+00
    0.10645E+07        -0.24212E+07         0.00000E+00
    0.00000E+00         0.00000E+00        -0.37598E+06
 
    0.37809E+06         0.11394E+07         0.00000E+00
    0.11394E+07        -0.23600E+07         0.00000E+00
    0.00000E+00         0.00000E+00        -0.39639E+06
 
    0.20101E+06         0.12004E+07         0.00000E+00
    0.12004E+07        -0.22888E+07         0.00000E+00
    0.00000E+00         0.00000E+00        -0.41756E+06
 
    0.11954E+05         0.12448E+07         0.00000E+00
    0.12448E+07        -0.22084E+07         0.00000E+00
    0.00000E+00         0.00000E+00        -0.43929E+06
 
   -0.18627E+06         0.12702E+07         0.00000E+00
    0.12702E+07        -0.21201E+07         0.00000E+00
    0.00000E+00         0.00000E+00        -0.46127E+06
 
   -0.39116E+06         0.12753E+07         0.00000E+00
    0.12753E+07        -0.20272E+07         0.00000E+00
    0.00000E+00         0.00000E+00        -0.48367E+06
 
    0.28190E+07         0.18443E+05         0.00000E+00
    0.18443E+05        -0.11227E+06         0.00000E+00
    0.00000E+00         0.00000E+00         0.54135E+06
 
    0.23883E+07        -0.39972E+05         0.00000E+00
   -0.39972E+05        -0.11812E+06         0.00000E+00
    0.00000E+00         0.00000E+00         0.45403E+06
 
    0.19963E+07        -0.13208E+06         0.00000E+00
   -0.13208E+06        -0.14589E+06         0.00000E+00
    0.00000E+00         0.00000E+00         0.37009E+06
 
    0.16507E+07        -0.24682E+06         0.00000E+00
   -0.24682E+06        -0.19307E+06         0.00000E+00
    0.00000E+00         0.00000E+00         0.29152E+06
 
    0.13532E+07        -0.37685E+06         0.00000E+00
   -0.37685E+06        -0.26019E+06         0.00000E+00
    0.00000E+00         0.00000E+00         0.21861E+06
 
    0.11046E+07        -0.51518E+06         0.00000E+00
   -0.51518E+06        -0.34681E+06         0.00000E+00
    0.00000E+00         0.00000E+00         0.15157E+06
 
    0.90399E+06        -0.65514E+06         0.00000E+00
   -0.65514E+06        -0.45098E+06         0.00000E+00
    0.00000E+00         0.00000E+00         0.90604E+05
 
    0.74886E+06        -0.79092E+06         0.00000E+00
   -0.79092E+06        -0.56975E+06         0.00000E+00
    0.00000E+00         0.00000E+00         0.35822E+05
 
    0.63552E+06        -0.91791E+06         0.00000E+00
   -0.91791E+06        -0.69972E+06         0.00000E+00
    0.00000E+00         0.00000E+00        -0.12840E+05
 
    0.55943E+06        -0.10328E+07         0.00000E+00
   -0.10328E+07        -0.83743E+06         0.00000E+00
    0.00000E+00         0.00000E+00        -0.55599E+05
 
    0.51573E+06        -0.11333E+07         0.00000E+00
   -0.11333E+07        -0.97968E+06         0.00000E+00
    0.00000E+00         0.00000E+00        -0.92791E+05
 
    0.49953E+06        -0.12184E+07         0.00000E+00
   -0.12184E+07        -0.11237E+07         0.00000E+00
    0.00000E+00         0.00000E+00        -0.12483E+06
 
    0.50623E+06        -0.12876E+07         0.00000E+00
   -0.12876E+07        -0.12671E+07         0.00000E+00
    0.00000E+00         0.00000E+00        -0.15218E+06
 
    0.53164E+06        -0.13411E+07         0.00000E+00
   -0.13411E+07        -0.14082E+07         0.00000E+00
    0.00000E+00         0.00000E+00        -0.17531E+06
 
    0.57201E+06        -0.13796E+07         0.00000E+00
   -0.13796E+07        -0.15453E+07         0.00000E+00
    0.00000E+00         0.00000E+00        -0.19467E+06
 
    0.62413E+06        -0.14038E+07         0.00000E+00
   -0.14038E+07        -0.16777E+07         0.00000E+00
    0.00000E+00         0.00000E+00        -0.21071E+06
 
    0.68522E+06        -0.14148E+07         0.00000E+00
   -0.14148E+07        -0.18044E+07         0.00000E+00
    0.00000E+00         0.00000E+00        -0.22384E+06
 
    0.75296E+06        -0.14135E+07         0.00000E+00
   -0.14135E+07        -0.19252E+07         0.00000E+00
    0.00000E+00         0.00000E+00        -0.23445E+06
 
    0.82540E+06        -0.14010E+07         0.00000E+00
   -0.14010E+07        -0.20398E+07         0.00000E+00
    0.00000E+00         0.00000E+00        -0.24288E+06
 
    0.90094E+06        -0.13782E+07         0.00000E+00
   -0.13782E+07        -0.21483E+07         0.00000E+00
    0.00000E+00         0.00000E+00        -0.24947E+06
 
    0.97825E+06        -0.13462E+07         0.00000E+00
   -0.13462E+07        -0.22507E+07         0.00000E+00
    0.00000E+00         0.00000E+00        -0.25449E+06
 
    0.10562E+07        -0.13056E+07         0.00000E+00
   -0.13056E+07        -0.23473E+07         0.00000E+00
    0.00000E+00         0.00000E+00        -0.25822E+06
 
    0.11339E+07        -0.12571E+07         0.00000E+00
   -0.12571E+07        -0.24384E+07         0.00000E+00
    0.00000E+00         0.00000E+00        -0.26089E+06
 
    0.12106E+07        -0.12014E+07         0.00000E+00
   -0.12014E+07        -0.25243E+07         0.00000E+00
    0.00000E+00         0.00000E+00        -0.26274E+06
 
    0.12856E+07        -0.11389E+07         0.00000E+00
   -0.11389E+07        -0.26054E+07         0.00000E+00
    0.00000E+00         0.00000E+00        -0.26396E+06
 
    0.13583E+07        -0.10700E+07         0.00000E+00
   -0.10700E+07        -0.26821E+07         0.00000E+00
    0.00000E+00         0.00000E+00        -0.26475E+06
 
    0.14282E+07        -0.99481E+06         0.00000E+00
   -0.99481E+06        -0.27546E+07         0.00000E+00
    0.00000E+00         0.00000E+00        -0.26529E+06
 
    0.14945E+07        -0.91362E+06         0.00000E+00
   -0.91362E+06        -0.28233E+07         0.00000E+00
    0.00000E+00         0.00000E+00        -0.26576E+06
 
    0.15569E+07        -0.82643E+06         0.00000E+00
   -0.82643E+06        -0.28885E+07         0.00000E+00
    0.00000E+00         0.00000E+00        -0.26632E+06
 
    0.16146E+07        -0.73322E+06         0.00000E+00
   -0.73322E+06        -0.29504E+07         0.00000E+00
    0.00000E+00         0.00000E+00        -0.26715E+06
 
    0.16669E+07        -0.63387E+06         0.00000E+00
   -0.63387E+06        -0.30090E+07         0.00000E+00
    0.00000E+00         0.00000E+00        -0.26841E+06
 
    0.17130E+07        -0.52823E+06         0.00000E+00
   -0.52823E+06        -0.30644E+07         0.00000E+00
    0.00000E+00         0.00000E+00        -0.27028E+06
 
    0.17518E+07        -0.41609E+06         0.00000E+00
   -0.41609E+06        -0.31165E+07         0.00000E+00
    0.00000E+00         0.00000E+00        -0.27294E+06
 
    0.17822E+07        -0.29724E+06         0.00000E+00
   -0.29724E+06        -0.31650E+07         0.00000E+00
    0.00000E+00         0.00000E+00        -0.27657E+06
 
    0.18028E+07        -0.17145E+06         0.00000E+00
   -0.17145E+06        -0.32097E+07         0.00000E+00
    0.00000E+00         0.00000E+00        -0.28137E+06
 
    0.18121E+07        -0.38589E+05         0.00000E+00
   -0.38589E+05        -0.32499E+07         0.00000E+00
    0.00000E+00         0.00000E+00        -0.28755E+06
 
    0.18083E+07         0.10141E+06         0.00000E+00
    0.10141E+06        -0.32848E+07         0.00000E+00
    0.00000E+00         0.00000E+00        -0.29532E+06
 
    0.17891E+07         0.24843E+06         0.00000E+00
    0.24843E+06        -0.33136E+07         0.00000E+00
    0.00000E+00         0.00000E+00        -0.30490E+06
 
    0.17523E+07         0.40212E+06         0.00000E+00
    0.40212E+06        -0.33348E+07         0.00000E+00
    0.00000E+00         0.00000E+00        -0.31651E+06
 
    0.16952E+07         0.56176E+06         0.00000E+00
    0.56176E+06        -0.33472E+07         0.00000E+00
    0.00000E+00         0.00000E+00        -0.33039E+06
 
    0.16152E+07         0.72620E+06         0.00000E+00
    0.72620E+06        -0.33488E+07         0.00000E+00
    0.00000E+00         0.00000E+00        -0.34672E+06
 
    0.15094E+07         0.89371E+06         0.00000E+00
    0.89371E+06        -0.33378E+07         0.00000E+00
    0.00000E+00         0.00000E+00        -0.36568E+06
 
    0.13751E+07         0.10618E+07         0.00000E+00
    0.10618E+07        -0.33120E+07         0.00000E+00
    0.00000E+00         0.00000E+00        -0.38738E+06
 
    0.12102E+07         0.12274E+07         0.00000E+00
    0.12274E+07        -0.32695E+07         0.00000E+00
    0.00000E+00         0.00000E+00        -0.41187E+06
 
    0.10128E+07         0.13863E+07         0.00000E+00
    0.13863E+07        -0.32083E+07         0.00000E+00
    0.00000E+00         0.00000E+00        -0.43910E+06
 
    0.78234E+06         0.15339E+07         0.00000E+00
    0.15339E+07        -0.31271E+07         0.00000E+00
    0.00000E+00         0.00000E+00        -0.46895E+06
 
    0.51897E+06         0.16652E+07         0.00000E+00
    0.16652E+07        -0.30254E+07         0.00000E+00
    0.00000E+00         0.00000E+00        -0.50129E+06
 
    0.22371E+06         0.17748E+07         0.00000E+00
    0.17748E+07        -0.29040E+07         0.00000E+00
    0.00000E+00         0.00000E+00        -0.53605E+06
 
   -0.10161E+06         0.18572E+07         0.00000E+00
    0.18572E+07        -0.27638E+07         0.00000E+00
    0.00000E+00         0.00000E+00        -0.57308E+06
 
   -0.45030E+06         0.19032E+07         0.00000E+00
    0.19032E+07        -0.26028E+07         0.00000E+00
    0.00000E+00         0.00000E+00        -0.61062E+06
 
    0.18907E+07        -0.15199E+05         0.00000E+00
   -0.15199E+05        -0.55971E+06         0.00000E+00
    0.00000E+00         0.00000E+00         0.26621E+06
 
    0.12387E+07        -0.21708E+06         0.00000E+00
   -0.21708E+06        -0.60432E+06         0.00000E+00
    0.00000E+00         0.00000E+00         0.12688E+06
 
    0.70311E+06        -0.45110E+06         0.00000E+00
   -0.45110E+06        -0.68226E+06         0.00000E+00
    0.00000E+00         0.00000E+00         0.41701E+04
 
    0.27676E+06        -0.70626E+06         0.00000E+00
   -0.70626E+06        -0.80407E+06         0.00000E+00
    0.00000E+00         0.00000E+00        -0.10546E+06
 
   -0.42812E+05        -0.96329E+06         0.00000E+00
   -0.96329E+06        -0.96388E+06         0.00000E+00
    0.00000E+00         0.00000E+00        -0.20134E+06
 
   -0.26408E+06        -0.12058E+07         0.00000E+00
   -0.12058E+07        -0.11509E+07         0.00000E+00
    0.00000E+00         0.00000E+00        -0.28299E+06
 
   -0.40019E+06        -0.14227E+07         0.00000E+00
   -0.14227E+07        -0.13541E+07         0.00000E+00
    0.00000E+00         0.00000E+00        -0.35085E+06
 
   -0.46599E+06        -0.16083E+07         0.00000E+00
   -0.16083E+07        -0.15639E+07         0.00000E+00
    0.00000E+00         0.00000E+00        -0.40598E+06
 
   -0.47597E+06        -0.17602E+07         0.00000E+00
   -0.17602E+07        -0.17729E+07         0.00000E+00
    0.00000E+00         0.00000E+00        -0.44978E+06
 
   -0.44306E+06        -0.18791E+07         0.00000E+00
   -0.18791E+07        -0.19757E+07         0.00000E+00
    0.00000E+00         0.00000E+00        -0.48374E+06
 
   -0.37821E+06        -0.19669E+07         0.00000E+00
   -0.19669E+07        -0.21683E+07         0.00000E+00
    0.00000E+00         0.00000E+00        -0.50930E+06
 
   -0.29039E+06        -0.20266E+07         0.00000E+00
   -0.20266E+07        -0.23485E+07         0.00000E+00
    0.00000E+00         0.00000E+00        -0.52778E+06
 
   -0.18669E+06        -0.20614E+07         0.00000E+00
   -0.20614E+07        -0.25150E+07         0.00000E+00
    0.00000E+00         0.00000E+00        -0.54033E+06
 
   -0.72646E+05        -0.20745E+07         0.00000E+00
   -0.20745E+07        -0.26672E+07         0.00000E+00
    0.00000E+00         0.00000E+00        -0.54796E+06
 
    0.47529E+05        -0.20691E+07         0.00000E+00
   -0.20691E+07        -0.28052E+07         0.00000E+00
    0.00000E+00         0.00000E+00        -0.55154E+06
 
    0.17069E+06        -0.20481E+07         0.00000E+00
   -0.20481E+07        -0.29297E+07         0.00000E+00
    0.00000E+00         0.00000E+00        -0.55180E+06
 
    0.29455E+06        -0.20139E+07         0.00000E+00
   -0.20139E+07        -0.30413E+07         0.00000E+00
    0.00000E+00         0.00000E+00        -0.54936E+06
 
    0.41746E+06        -0.19688E+07         0.00000E+00
   -0.19688E+07        -0.31411E+07         0.00000E+00
    0.00000E+00         0.00000E+00        -0.54473E+06
 
    0.53831E+06        -0.19147E+07         0.00000E+00
   -0.19147E+07        -0.32302E+07         0.00000E+00
    0.00000E+00         0.00000E+00        -0.53837E+06
 
    0.65636E+06        -0.18530E+07         0.00000E+00
   -0.18530E+07        -0.33095E+07         0.00000E+00
    0.00000E+00         0.00000E+00        -0.53063E+06
 
    0.77118E+06        -0.17850E+07         0.00000E+00
   -0.17850E+07        -0.33804E+07         0.00000E+00
    0.00000E+00         0.00000E+00        -0.52184E+06
 
    0.88252E+06        -0.17118E+07         0.00000E+00
   -0.17118E+07        -0.34438E+07         0.00000E+00
    0.00000E+00         0.00000E+00        -0.51226E+06
 
    0.99033E+06        -0.16341E+07         0.00000E+00
   -0.16341E+07        -0.35009E+07         0.00000E+00
    0.00000E+00         0.00000E+00        -0.50211E+06
 
    0.10946E+07        -0.15525E+07         0.00000E+00
   -0.15525E+07        -0.35526E+07         0.00000E+00
    0.00000E+00         0.00000E+00        -0.49159E+06
 
    0.11954E+07        -0.14673E+07         0.00000E+00
   -0.14673E+07        -0.35998E+07         0.00000E+00
    0.00000E+00         0.00000E+00        -0.48088E+06
 
    0.12930E+07        -0.13787E+07         0.00000E+00
   -0.13787E+07        -0.36436E+07         0.00000E+00
    0.00000E+00         0.00000E+00        -0.47013E+06
 
    0.13872E+07        -0.12868E+07         0.00000E+00
   -0.12868E+07        -0.36847E+07         0.00000E+00
    0.00000E+00         0.00000E+00        -0.45949E+06
 
    0.14783E+07        -0.11913E+07         0.00000E+00
   -0.11913E+07        -0.37238E+07         0.00000E+00
    0.00000E+00         0.00000E+00        -0.44909E+06
 
    0.15663E+07        -0.10920E+07         0.00000E+00
   -0.10920E+07        -0.37616E+07         0.00000E+00
    0.00000E+00         0.00000E+00        -0.43906E+06
 
    0.16510E+07        -0.98851E+06         0.00000E+00
   -0.98851E+06        -0.37987E+07         0.00000E+00
    0.00000E+00         0.00000E+00        -0.42954E+06
 
    0.17322E+07        -0.88015E+06         0.00000E+00
   -0.88015E+06        -0.38356E+07         0.00000E+00
    0.00000E+00         0.00000E+00        -0.42068E+06
 
    0.18096E+07        -0.76622E+06         0.00000E+00
   -0.76622E+06        -0.38728E+07         0.00000E+00
    0.00000E+00         0.00000E+00        -0.41263E+06
 
    0.18827E+07        -0.64585E+06         0.00000E+00
   -0.64585E+06        -0.39105E+07         0.00000E+00
    0.00000E+00         0.00000E+00        -0.40556E+06
 
    0.19505E+07        -0.51801E+06         0.00000E+00
   -0.51801E+06        -0.39489E+07         0.00000E+00
    0.00000E+00         0.00000E+00        -0.39968E+06
 
    0.20120E+07        -0.38155E+06         0.00000E+00
   -0.38155E+06        -0.39880E+07         0.00000E+00
    0.00000E+00         0.00000E+00        -0.39521E+06
 
    0.20656E+07        -0.23515E+06         0.00000E+00
   -0.23515E+06        -0.40276E+07         0.00000E+00
    0.00000E+00         0.00000E+00        -0.39241E+06
 
    0.21093E+07        -0.77423E+05         0.00000E+00
   -0.77423E+05        -0.40673E+07         0.00000E+00
    0.00000E+00         0.00000E+00        -0.39161E+06
 
    0.21404E+07         0.93113E+05         0.00000E+00
    0.93113E+05        -0.41062E+07         0.00000E+00
    0.00000E+00         0.00000E+00        -0.39316E+06
 
    0.21557E+07         0.27794E+06         0.00000E+00
    0.27794E+06        -0.41432E+07         0.00000E+00
    0.00000E+00         0.00000E+00        -0.39750E+06
 
    0.21508E+07         0.47844E+06         0.00000E+00
    0.47844E+06        -0.41765E+07         0.00000E+00
    0.00000E+00         0.00000E+00        -0.40514E+06
 
    0.21207E+07         0.69572E+06         0.00000E+00
    0.69572E+06        -0.42038E+07         0.00000E+00
    0.00000E+00         0.00000E+00        -0.41663E+06
 
    0.20589E+07         0.93038E+06         0.00000E+00
    0.93038E+06        -0.42220E+07         0.00000E+00
    0.00000E+00         0.00000E+00        -0.43262E+06
 
    0.19580E+07         0.11821E+07         0.00000E+00
    0.11821E+07        -0.42269E+07         0.00000E+00
    0.00000E+00         0.00000E+00        -0.45378E+06
 
    0.18095E+07         0.14493E+07         0.00000E+00
    0.14493E+07        -0.42134E+07         0.00000E+00
    0.00000E+00         0.00000E+00        -0.48079E+06
 
    0.16042E+07         0.17283E+07         0.00000E+00
    0.17283E+07        -0.41752E+07         0.00000E+00
    0.00000E+00         0.00000E+00        -0.51421E+06
 
    0.13335E+07         0.20125E+07         0.00000E+00
    0.20125E+07        -0.41051E+07         0.00000E+00
    0.00000E+00         0.00000E+00        -0.55433E+06
 
    0.99015E+06         0.22922E+07         0.00000E+00
    0.22922E+07        -0.39952E+07         0.00000E+00
    0.00000E+00         0.00000E+00        -0.60101E+06
 
    0.57084E+06         0.25542E+07         0.00000E+00
    0.25542E+07        -0.38389E+07         0.00000E+00
    0.00000E+00         0.00000E+00        -0.65362E+06
 
    0.75388E+05         0.27850E+07         0.00000E+00
    0.27850E+07        -0.36344E+07         0.00000E+00
    0.00000E+00         0.00000E+00        -0.71180E+06
 
   -0.50388E+06         0.29798E+07         0.00000E+00
    0.29798E+07        -0.33932E+07         0.00000E+00
    0.00000E+00         0.00000E+00        -0.77941E+06
 
   -0.16308E+07        -0.21004E+06         0.00000E+00
   -0.21004E+06        -0.24464E+07         0.00000E+00
    0.00000E+00         0.00000E+00        -0.81545E+06
 
   -0.24589E+07        -0.74570E+06         0.00000E+00
   -0.74570E+06        -0.25493E+07         0.00000E+00
    0.00000E+00         0.00000E+00        -0.10016E+07
 
   -0.30143E+07        -0.12903E+07         0.00000E+00
   -0.12903E+07        -0.27904E+07         0.00000E+00
    0.00000E+00         0.00000E+00        -0.11609E+07
 
   -0.33143E+07        -0.17669E+07         0.00000E+00
   -0.17669E+07        -0.30918E+07         0.00000E+00
    0.00000E+00         0.00000E+00        -0.12812E+07
 
   -0.34183E+07        -0.21493E+07         0.00000E+00
   -0.21493E+07        -0.34080E+07         0.00000E+00
    0.00000E+00         0.00000E+00        -0.13653E+07
 
   -0.33858E+07        -0.24359E+07         0.00000E+00
   -0.24359E+07        -0.37127E+07         0.00000E+00
    0.00000E+00         0.00000E+00        -0.14197E+07
 
   -0.32640E+07        -0.26363E+07         0.00000E+00
   -0.26363E+07        -0.39916E+07         0.00000E+00
    0.00000E+00         0.00000E+00        -0.14511E+07
 
   -0.30878E+07        -0.27634E+07         0.00000E+00
   -0.27634E+07        -0.42379E+07         0.00000E+00
    0.00000E+00         0.00000E+00        -0.14652E+07
 
   -0.28818E+07        -0.28308E+07         0.00000E+00
   -0.28308E+07        -0.44496E+07         0.00000E+00
    0.00000E+00         0.00000E+00        -0.14663E+07
 
   -0.26622E+07        -0.28509E+07         0.00000E+00
   -0.28509E+07        -0.46270E+07         0.00000E+00
    0.00000E+00         0.00000E+00        -0.14579E+07
 
   -0.24401E+07        -0.28343E+07         0.00000E+00
   -0.28343E+07        -0.47724E+07         0.00000E+00
    0.00000E+00         0.00000E+00        -0.14425E+07
 
   -0.22223E+07        -0.27899E+07         0.00000E+00
   -0.27899E+07        -0.48888E+07         0.00000E+00
    0.00000E+00         0.00000E+00        -0.14222E+07
 
   -0.20129E+07        -0.27248E+07         0.00000E+00
   -0.27248E+07        -0.49792E+07         0.00000E+00
    0.00000E+00         0.00000E+00        -0.13984E+07
 
   -0.18141E+07        -0.26448E+07         0.00000E+00
   -0.26448E+07        -0.50472E+07         0.00000E+00
    0.00000E+00         0.00000E+00        -0.13723E+07
 
   -0.16269E+07        -0.25544E+07         0.00000E+00
   -0.25544E+07        -0.50958E+07         0.00000E+00
    0.00000E+00         0.00000E+00        -0.13445E+07
 
   -0.14514E+07        -0.24570E+07         0.00000E+00
   -0.24570E+07        -0.51281E+07         0.00000E+00
    0.00000E+00         0.00000E+00        -0.13159E+07
 
   -0.12873E+07        -0.23553E+07         0.00000E+00
   -0.23553E+07        -0.51466E+07         0.00000E+00
    0.00000E+00         0.00000E+00        -0.12868E+07
 
   -0.11339E+07        -0.22513E+07         0.00000E+00
   -0.22513E+07        -0.51539E+07         0.00000E+00
    0.00000E+00         0.00000E+00        -0.12576E+07
 
   -0.99023E+06        -0.21466E+07         0.00000E+00
   -0.21466E+07        -0.51520E+07         0.00000E+00
    0.00000E+00         0.00000E+00        -0.12285E+07
 
   -0.85533E+06        -0.20420E+07         0.00000E+00
   -0.20420E+07        -0.51429E+07         0.00000E+00
    0.00000E+00         0.00000E+00        -0.11997E+07
 
   -0.72814E+06        -0.19384E+07         0.00000E+00
   -0.19384E+07        -0.51283E+07         0.00000E+00
    0.00000E+00         0.00000E+00        -0.11713E+07
 
   -0.60762E+06        -0.18362E+07         0.00000E+00
   -0.18362E+07        -0.51095E+07         0.00000E+00
    0.00000E+00         0.00000E+00        -0.11434E+07
 
   -0.49274E+06        -0.17356E+07         0.00000E+00
   -0.17356E+07        -0.50880E+07         0.00000E+00
    0.00000E+00         0.00000E+00        -0.11162E+07
 
   -0.38253E+06        -0.16367E+07         0.00000E+00
   -0.16367E+07        -0.50648E+07         0.00000E+00
    0.00000E+00         0.00000E+00        -0.10895E+07
 
   -0.27603E+06        -0.15394E+07         0.00000E+00
   -0.15394E+07        -0.50411E+07         0.00000E+00
    0.00000E+00         0.00000E+00        -0.10634E+07
 
   -0.17236E+06        -0.14434E+07         0.00000E+00
   -0.14434E+07        -0.50176E+07         0.00000E+00
    0.00000E+00         0.00000E+00        -0.10380E+07
 
   -0.70674E+05        -0.13483E+07         0.00000E+00
   -0.13483E+07        -0.49953E+07         0.00000E+00
    0.00000E+00         0.00000E+00        -0.10132E+07
 
    0.29813E+05        -0.12536E+07         0.00000E+00
   -0.12536E+07        -0.49749E+07         0.00000E+00
    0.00000E+00         0.00000E+00        -0.98902E+06
 
    0.12983E+06        -0.11587E+07         0.00000E+00
   -0.11587E+07        -0.49572E+07         0.00000E+00
    0.00000E+00         0.00000E+00        -0.96547E+06
 
    0.23003E+06        -0.10628E+07         0.00000E+00
   -0.10628E+07        -0.49428E+07         0.00000E+00
    0.00000E+00         0.00000E+00        -0.94255E+06
 
    0.33101E+06        -0.96504E+06         0.00000E+00
   -0.96504E+06        -0.49324E+07         0.00000E+00
    0.00000E+00         0.00000E+00        -0.92027E+06
 
    0.43325E+06        -0.86428E+06         0.00000E+00
   -0.86428E+06        -0.49265E+07         0.00000E+00
    0.00000E+00         0.00000E+00        -0.89866E+06
 
    0.53713E+06        -0.75923E+06         0.00000E+00
   -0.75923E+06        -0.49259E+07         0.00000E+00
    0.00000E+00         0.00000E+00        -0.87775E+06
 
    0.64288E+06        -0.64834E+06         0.00000E+00
   -0.64834E+06        -0.49311E+07         0.00000E+00
    0.00000E+00         0.00000E+00        -0.85764E+06
 
    0.75050E+06        -0.52977E+06         0.00000E+00
   -0.52977E+06        -0.49426E+07         0.00000E+00
    0.00000E+00         0.00000E+00        -0.83841E+06
 
    0.85971E+06        -0.40134E+06         0.00000E+00
   -0.40134E+06        -0.49609E+07         0.00000E+00
    0.00000E+00         0.00000E+00        -0.82024E+06
 
    0.96983E+06        -0.26043E+06         0.00000E+00
   -0.26043E+06        -0.49864E+07         0.00000E+00
    0.00000E+00         0.00000E+00        -0.80332E+06
 
    0.10796E+07        -0.10393E+06         0.00000E+00
   -0.10393E+06        -0.50194E+07         0.00000E+00
    0.00000E+00         0.00000E+00        -0.78796E+06
 
    0.11871E+07         0.71851E+05         0.00000E+00
    0.71851E+05        -0.50600E+07         0.00000E+00
    0.00000E+00         0.00000E+00        -0.77457E+06
 
    0.12892E+07         0.27130E+06         0.00000E+00
    0.27130E+06        -0.51077E+07         0.00000E+00
    0.00000E+00         0.00000E+00        -0.76371E+06
 
    0.13813E+07         0.49955E+06         0.00000E+00
    0.49955E+06        -0.51618E+07         0.00000E+00
    0.00000E+00         0.00000E+00        -0.75612E+06
 
    0.14566E+07         0.76254E+06         0.00000E+00
    0.76254E+06        -0.52207E+07         0.00000E+00
    0.00000E+00         0.00000E+00        -0.75282E+06
 
    0.15056E+07         0.10670E+07         0.00000E+00
    0.10670E+07        -0.52814E+07         0.00000E+00
    0.00000E+00         0.00000E+00        -0.75516E+06
 
    0.15146E+07         0.14200E+07         0.00000E+00
    0.14200E+07        -0.53394E+07         0.00000E+00
    0.00000E+00         0.00000E+00        -0.76496E+06
 
    0.14647E+07         0.18287E+07         0.00000E+00
    0.18287E+07        -0.53874E+07         0.00000E+00
    0.00000E+00         0.00000E+00        -0.78455E+06
 
    0.13301E+07         0.22987E+07         0.00000E+00
    0.22987E+07        -0.54145E+07         0.00000E+00
    0.00000E+00         0.00000E+00        -0.81688E+06
 
    0.10776E+07         0.28315E+07         0.00000E+00
    0.28315E+07        -0.54039E+07         0.00000E+00
    0.00000E+00         0.00000E+00        -0.86526E+06
 
    0.66821E+06         0.34189E+07         0.00000E+00
    0.34189E+07        -0.53303E+07         0.00000E+00
    0.00000E+00         0.00000E+00        -0.93242E+06
 
    0.67739E+05         0.40334E+07         0.00000E+00
    0.40334E+07        -0.51554E+07         0.00000E+00
    0.00000E+00         0.00000E+00        -0.10175E+07
 
   -0.71706E+06         0.46095E+07         0.00000E+00
    0.46095E+07        -0.48193E+07         0.00000E+00
    0.00000E+00         0.00000E+00        -0.11073E+07
 
   -0.12111E+08        -0.86969E+06         0.00000E+00
   -0.86969E+06        -0.84554E+07         0.00000E+00
    0.00000E+00         0.00000E+00        -0.41132E+07
 
   -0.12285E+08        -0.21039E+07         0.00000E+00
   -0.21039E+07        -0.89476E+07         0.00000E+00
    0.00000E+00         0.00000E+00        -0.42464E+07
 
   -0.11937E+08        -0.28577E+07         0.00000E+00
   -0.28577E+07        -0.93167E+07         0.00000E+00
    0.00000E+00         0.00000E+00        -0.42508E+07
 
   -0.11390E+08        -0.32810E+07         0.00000E+00
   -0.32810E+07        -0.95718E+07         0.00000E+00
    0.00000E+00         0.00000E+00        -0.41923E+07
 
   -0.10791E+08        -0.34821E+07         0.00000E+00
   -0.34821E+07        -0.97282E+07         0.00000E+00
    0.00000E+00         0.00000E+00        -0.41039E+07
 
   -0.10210E+08        -0.35367E+07         0.00000E+00
   -0.35367E+07        -0.98030E+07         0.00000E+00
    0.00000E+00         0.00000E+00        -0.40026E+07
 
   -0.96744E+07        -0.34967E+07         0.00000E+00
   -0.34967E+07        -0.98125E+07         0.00000E+00
    0.00000E+00         0.00000E+00        -0.38974E+07
 
   -0.91940E+07        -0.33973E+07         0.00000E+00
   -0.33973E+07        -0.97711E+07         0.00000E+00
    0.00000E+00         0.00000E+00        -0.37930E+07
 
   -0.87693E+07        -0.32623E+07         0.00000E+00
   -0.32623E+07        -0.96911E+07         0.00000E+00
    0.00000E+00         0.00000E+00        -0.36921E+07
 
   -0.83968E+07        -0.31076E+07         0.00000E+00
   -0.31076E+07        -0.95824E+07         0.00000E+00
    0.00000E+00         0.00000E+00        -0.35958E+07
 
   -0.80709E+07        -0.29440E+07         0.00000E+00
   -0.29440E+07        -0.94531E+07         0.00000E+00
    0.00000E+00         0.00000E+00        -0.35048E+07
 
   -0.77861E+07        -0.27783E+07         0.00000E+00
   -0.27783E+07        -0.93096E+07         0.00000E+00
    0.00000E+00         0.00000E+00        -0.34191E+07
 
   -0.75367E+07        -0.26150E+07         0.00000E+00
   -0.26150E+07        -0.91570E+07         0.00000E+00
    0.00000E+00         0.00000E+00        -0.33387E+07
 
   -0.73176E+07        -0.24570E+07         0.00000E+00
   -0.24570E+07        -0.89991E+07         0.00000E+00
    0.00000E+00         0.00000E+00        -0.32633E+07
 
   -0.71242E+07        -0.23058E+07         0.00000E+00
   -0.23058E+07        -0.88391E+07         0.00000E+00
    0.00000E+00         0.00000E+00        -0.31927E+07
 
   -0.69525E+07        -0.21623E+07         0.00000E+00
   -0.21623E+07        -0.86792E+07         0.00000E+00
    0.00000E+00         0.00000E+00        -0.31263E+07
 
   -0.67991E+07        -0.20270E+07         0.00000E+00
   -0.20270E+07        -0.85212E+07         0.00000E+00
    0.00000E+00         0.00000E+00        -0.30641E+07
 
   -0.66607E+07        -0.18997E+07         0.00000E+00
   -0.18997E+07        -0.83664E+07         0.00000E+00
    0.00000E+00         0.00000E+00        -0.30054E+07
 
   -0.65349E+07        -0.17802E+07         0.00000E+00
   -0.17802E+07        -0.82159E+07         0.00000E+00
    0.00000E+00         0.00000E+00        -0.29502E+07
 
   -0.64192E+07        -0.16683E+07         0.00000E+00
   -0.16683E+07        -0.80703E+07         0.00000E+00
    0.00000E+00         0.00000E+00        -0.28979E+07
 
   -0.63116E+07        -0.15634E+07         0.00000E+00
   -0.15634E+07        -0.79302E+07         0.00000E+00
    0.00000E+00         0.00000E+00        -0.28484E+07
 
   -0.62103E+07        -0.14649E+07         0.00000E+00
   -0.14649E+07        -0.77960E+07         0.00000E+00
    0.00000E+00         0.00000E+00        -0.28013E+07
 
   -0.61136E+07        -0.13725E+07         0.00000E+00
   -0.13725E+07        -0.76680E+07         0.00000E+00
    0.00000E+00         0.00000E+00        -0.27563E+07
 
   -0.60201E+07        -0.12854E+07         0.00000E+00
   -0.12854E+07        -0.75463E+07         0.00000E+00
    0.00000E+00         0.00000E+00        -0.27133E+07
 
   -0.59284E+07        -0.12032E+07         0.00000E+00
   -0.12032E+07        -0.74311E+07         0.00000E+00
    0.00000E+00         0.00000E+00        -0.26719E+07
 
   -0.58372E+07        -0.11252E+07         0.00000E+00
   -0.11252E+07        -0.73227E+07         0.00000E+00
    0.00000E+00         0.00000E+00        -0.26320E+07
 
   -0.57453E+07        -0.10507E+07         0.00000E+00
   -0.10507E+07        -0.72210E+07         0.00000E+00
    0.00000E+00         0.00000E+00        -0.25933E+07
 
   -0.56515E+07        -0.97928E+06         0.00000E+00
   -0.97928E+06        -0.71262E+07         0.00000E+00
    0.00000E+00         0.00000E+00        -0.25555E+07
 
   -0.55545E+07        -0.91011E+06         0.00000E+00
   -0.91011E+06        -0.70385E+07         0.00000E+00
    0.00000E+00         0.00000E+00        -0.25186E+07
 
   -0.54531E+07        -0.84248E+06         0.00000E+00
   -0.84248E+06        -0.69581E+07         0.00000E+00
    0.00000E+00         0.00000E+00        -0.24822E+07
 
   -0.53462E+07        -0.77557E+06         0.00000E+00
   -0.77557E+06        -0.68852E+07         0.00000E+00
    0.00000E+00         0.00000E+00        -0.24463E+07
 
   -0.52322E+07        -0.70843E+06         0.00000E+00
   -0.70843E+06        -0.68201E+07         0.00000E+00
    0.00000E+00         0.00000E+00        -0.24105E+07
 
   -0.51099E+07        -0.63998E+06         0.00000E+00
   -0.63998E+06        -0.67634E+07         0.00000E+00
    0.00000E+00         0.00000E+00        -0.23747E+07
 
   -0.49776E+07        -0.56891E+06         0.00000E+00
   -0.56891E+06        -0.67155E+07         0.00000E+00
    0.00000E+00         0.00000E+00        -0.23386E+07
 
   -0.48336E+07        -0.49366E+06         0.00000E+00
   -0.49366E+06        -0.66770E+07         0.00000E+00
    0.00000E+00         0.00000E+00        -0.23021E+07
 
   -0.46762E+07        -0.41228E+06         0.00000E+00
   -0.41228E+06        -0.66489E+07         0.00000E+00
    0.00000E+00         0.00000E+00        -0.22650E+07
 
   -0.45033E+07        -0.32235E+06         0.00000E+00
   -0.32235E+06        -0.66320E+07         0.00000E+00
    0.00000E+00         0.00000E+00        -0.22271E+07
 
   -0.43126E+07        -0.22078E+06         0.00000E+00
   -0.22078E+06        -0.66276E+07         0.00000E+00
    0.00000E+00         0.00000E+00        -0.21881E+07
 
   -0.41020E+07        -0.10365E+06         0.00000E+00
   -0.10365E+06        -0.66372E+07         0.00000E+00
    0.00000E+00         0.00000E+00        -0.21478E+07
 
   -0.38690E+07         0.34172E+05         0.00000E+00
    0.34172E+05        -0.66624E+07         0.00000E+00
    0.00000E+00         0.00000E+00        -0.21063E+07
 
   -0.36113E+07         0.19939E+06         0.00000E+00
    0.19939E+06        -0.67051E+07         0.00000E+00
    0.00000E+00         0.00000E+00        -0.20633E+07
 
   -0.33270E+07         0.40087E+06         0.00000E+00
    0.40087E+06        -0.67675E+07         0.00000E+00
    0.00000E+00         0.00000E+00        -0.20189E+07
 
   -0.30153E+07         0.65045E+06         0.00000E+00
    0.65045E+06        -0.68521E+07         0.00000E+00
    0.00000E+00         0.00000E+00        -0.19735E+07
 
   -0.26775E+07         0.96409E+06         0.00000E+00
    0.96409E+06        -0.69610E+07         0.00000E+00
    0.00000E+00         0.00000E+00        -0.19277E+07
 
   -0.23189E+07         0.13634E+07         0.00000E+00
    0.13634E+07        -0.70962E+07         0.00000E+00
    0.00000E+00         0.00000E+00        -0.18830E+07
 
   -0.19529E+07         0.18781E+07         0.00000E+00
    0.18781E+07        -0.72587E+07         0.00000E+00
    0.00000E+00         0.00000E+00        -0.18423E+07
 
   -0.16086E+07         0.25488E+07         0.00000E+00
    0.25488E+07        -0.74470E+07         0.00000E+00
    0.00000E+00         0.00000E+00        -0.18111E+07
 
   -0.13460E+07         0.34311E+07         0.00000E+00
    0.34311E+07        -0.76554E+07         0.00000E+00
    0.00000E+00         0.00000E+00        -0.18003E+07
 
   -0.12870E+07         0.46004E+07         0.00000E+00
    0.46004E+07        -0.78704E+07         0.00000E+00
    0.00000E+00         0.00000E+00        -0.18315E+07
 
   -0.16836E+07         0.61545E+07         0.00000E+00
    0.61545E+07        -0.80653E+07         0.00000E+00
    0.00000E+00         0.00000E+00        -0.19498E+07
 
   -0.32521E+08        -0.21560E+07         0.00000E+00
   -0.21560E+07        -0.21882E+08         0.00000E+00
    0.00000E+00         0.00000E+00        -0.10880E+08
 
   -0.29199E+08        -0.24967E+07         0.00000E+00
   -0.24967E+07        -0.21240E+08         0.00000E+00
    0.00000E+00         0.00000E+00        -0.10088E+08
 
   -0.26843E+08        -0.25364E+07         0.00000E+00
   -0.25364E+07        -0.20521E+08         0.00000E+00
    0.00000E+00         0.00000E+00        -0.94728E+07
 
   -0.25122E+08        -0.24390E+07         0.00000E+00
   -0.24390E+07        -0.19780E+08         0.00000E+00
    0.00000E+00         0.00000E+00        -0.89803E+07
 
   -0.23835E+08        -0.22839E+07         0.00000E+00
   -0.22839E+07        -0.19048E+08         0.00000E+00
    0.00000E+00         0.00000E+00        -0.85766E+07
 
   -0.22854E+08        -0.21100E+07         0.00000E+00
   -0.21100E+07        -0.18344E+08         0.00000E+00
    0.00000E+00         0.00000E+00        -0.82395E+07
 
   -0.22093E+08        -0.19362E+07         0.00000E+00
   -0.19362E+07        -0.17677E+08         0.00000E+00
    0.00000E+00         0.00000E+00        -0.79541E+07
 
   -0.21496E+08        -0.17711E+07         0.00000E+00
   -0.17711E+07        -0.17051E+08         0.00000E+00
    0.00000E+00         0.00000E+00        -0.77093E+07
 
   -0.21020E+08        -0.16186E+07         0.00000E+00
   -0.16186E+07        -0.16467E+08         0.00000E+00
    0.00000E+00         0.00000E+00        -0.74973E+07
 
   -0.20636E+08        -0.14795E+07         0.00000E+00
   -0.14795E+07        -0.15924E+08         0.00000E+00
    0.00000E+00         0.00000E+00        -0.73120E+07
 
   -0.20324E+08        -0.13537E+07         0.00000E+00
   -0.13537E+07        -0.15420E+08         0.00000E+00
    0.00000E+00         0.00000E+00        -0.71487E+07
 
   -0.20067E+08        -0.12403E+07         0.00000E+00
   -0.12403E+07        -0.14953E+08         0.00000E+00
    0.00000E+00         0.00000E+00        -0.70039E+07
 
   -0.19852E+08        -0.11383E+07         0.00000E+00
   -0.11383E+07        -0.14521E+08         0.00000E+00
    0.00000E+00         0.00000E+00        -0.68746E+07
 
   -0.19672E+08        -0.10465E+07         0.00000E+00
   -0.10465E+07        -0.14120E+08         0.00000E+00
    0.00000E+00         0.00000E+00        -0.67584E+07
 
   -0.19518E+08        -0.96375E+06         0.00000E+00
   -0.96375E+06        -0.13748E+08         0.00000E+00
    0.00000E+00         0.00000E+00        -0.66533E+07
 
   -0.19386E+08        -0.88913E+06         0.00000E+00
   -0.88913E+06        -0.13404E+08         0.00000E+00
    0.00000E+00         0.00000E+00        -0.65579E+07
 
   -0.19270E+08        -0.82170E+06         0.00000E+00
   -0.82170E+06        -0.13083E+08         0.00000E+00
    0.00000E+00         0.00000E+00        -0.64707E+07
 
   -0.19167E+08        -0.76063E+06         0.00000E+00
   -0.76063E+06        -0.12786E+08         0.00000E+00
    0.00000E+00         0.00000E+00        -0.63906E+07
 
   -0.19074E+08        -0.70519E+06         0.00000E+00
   -0.70519E+06        -0.12509E+08         0.00000E+00
    0.00000E+00         0.00000E+00        -0.63167E+07
 
   -0.18989E+08        -0.65475E+06         0.00000E+00
   -0.65475E+06        -0.12252E+08         0.00000E+00
    0.00000E+00         0.00000E+00        -0.62481E+07
 
   -0.18909E+08        -0.60873E+06         0.00000E+00
   -0.60873E+06        -0.12012E+08         0.00000E+00
    0.00000E+00         0.00000E+00        -0.61841E+07
 
   -0.18833E+08        -0.56662E+06         0.00000E+00
   -0.56662E+06        -0.11788E+08         0.00000E+00
    0.00000E+00         0.00000E+00        -0.61241E+07
 
   -0.18759E+08        -0.52797E+06         0.00000E+00
   -0.52797E+06        -0.11579E+08         0.00000E+00
    0.00000E+00         0.00000E+00        -0.60675E+07
 
   -0.18686E+08        -0.49238E+06         0.00000E+00
   -0.49238E+06        -0.11383E+08         0.00000E+00
    0.00000E+00         0.00000E+00        -0.60138E+07
 
   -0.18612E+08        -0.45947E+06         0.00000E+00
   -0.45947E+06        -0.11201E+08         0.00000E+00
    0.00000E+00         0.00000E+00        -0.59626E+07
 
   -0.18536E+08        -0.42890E+06         0.00000E+00
   -0.42890E+06        -0.11031E+08         0.00000E+00
    0.00000E+00         0.00000E+00        -0.59133E+07
 
   -0.18457E+08        -0.40037E+06         0.00000E+00
   -0.40037E+06        -0.10872E+08         0.00000E+00
    0.00000E+00         0.00000E+00        -0.58657E+07
 
   -0.18374E+08        -0.37355E+06         0.00000E+00
   -0.37355E+06        -0.10723E+08         0.00000E+00
    0.00000E+00         0.00000E+00        -0.58193E+07
 
   -0.18285E+08        -0.34814E+06         0.00000E+00
   -0.34814E+06        -0.10584E+08         0.00000E+00
    0.00000E+00         0.00000E+00        -0.57738E+07
 
   -0.18188E+08        -0.32385E+06         0.00000E+00
   -0.32385E+06        -0.10456E+08         0.00000E+00
    0.00000E+00         0.00000E+00        -0.57288E+07
 
   -0.18083E+08        -0.30034E+06         0.00000E+00
   -0.30034E+06        -0.10336E+08         0.00000E+00
    0.00000E+00         0.00000E+00        -0.56839E+07
 
   -0.17968E+08        -0.27727E+06         0.00000E+00
   -0.27727E+06        -0.10226E+08         0.00000E+00
    0.00000E+00         0.00000E+00        -0.56387E+07
 
   -0.17840E+08        -0.25422E+06         0.00000E+00
   -0.25422E+06        -0.10124E+08         0.00000E+00
    0.00000E+00         0.00000E+00        -0.55928E+07
 
   -0.17696E+08        -0.23071E+06         0.00000E+00
   -0.23071E+06        -0.10033E+08         0.00000E+00
    0.00000E+00         0.00000E+00        -0.55457E+07
 
   -0.17535E+08        -0.20618E+06         0.00000E+00
   -0.20618E+06        -0.99501E+07         0.00000E+00
    0.00000E+00         0.00000E+00        -0.54970E+07
 
   -0.17352E+08        -0.17989E+06         0.00000E+00
   -0.17989E+06        -0.98779E+07         0.00000E+00
    0.00000E+00         0.00000E+00        -0.54460E+07
 
   -0.17144E+08        -0.15092E+06         0.00000E+00
   -0.15092E+06        -0.98168E+07         0.00000E+00
    0.00000E+00         0.00000E+00        -0.53921E+07
 
   -0.16904E+08        -0.11805E+06         0.00000E+00
   -0.11805E+06        -0.97680E+07         0.00000E+00
    0.00000E+00         0.00000E+00        -0.53345E+07
 
   -0.16628E+08        -0.79661E+05         0.00000E+00
   -0.79661E+05        -0.97333E+07         0.00000E+00
    0.00000E+00         0.00000E+00        -0.52722E+07
 
   -0.16306E+08        -0.33551E+05         0.00000E+00
   -0.33551E+05        -0.97153E+07         0.00000E+00
    0.00000E+00         0.00000E+00        -0.52042E+07
 
   -0.15928E+08         0.23323E+05         0.00000E+00
    0.23323E+05        -0.97172E+07         0.00000E+00
    0.00000E+00         0.00000E+00        -0.51290E+07
 
   -0.15481E+08         0.95240E+05         0.00000E+00
    0.95240E+05        -0.97437E+07         0.00000E+00
    0.00000E+00         0.00000E+00        -0.50449E+07
 
   -0.14946E+08         0.18833E+06         0.00000E+00
    0.18833E+06        -0.98011E+07         0.00000E+00
    0.00000E+00         0.00000E+00        -0.49495E+07
 
   -0.14302E+08         0.31157E+06         0.00000E+00
    0.31157E+06        -0.98980E+07         0.00000E+00
    0.00000E+00         0.00000E+00        -0.48399E+07
 
   -0.13514E+08         0.47840E+06         0.00000E+00
    0.47840E+06        -0.10046E+08         0.00000E+00
    0.00000E+00         0.00000E+00        -0.47121E+07
 
   -0.12539E+08         0.70948E+06         0.00000E+00
    0.70948E+06        -0.10263E+08         0.00000E+00
    0.00000E+00         0.00000E+00        -0.45603E+07
 
   -0.11311E+08         0.10376E+07         0.00000E+00
    0.10376E+07        -0.10571E+08         0.00000E+00
    0.00000E+00         0.00000E+00        -0.43764E+07
 
   -0.97363E+07         0.15168E+07         0.00000E+00
    0.15168E+07        -0.11004E+08         0.00000E+00
    0.00000E+00         0.00000E+00        -0.41480E+07
 
   -0.76663E+07         0.22398E+07         0.00000E+00
    0.22398E+07        -0.11610E+08         0.00000E+00
    0.00000E+00         0.00000E+00        -0.38553E+07
 
   -0.48623E+07         0.33741E+07         0.00000E+00
    0.33741E+07        -0.12461E+08         0.00000E+00
    0.00000E+00         0.00000E+00        -0.34647E+07
 
TENSORS stresstot double 
   -0.44207E+08        -0.10880E+07         0.00000E+00
   -0.10880E+07        -0.49671E+08         0.00000E+00
    0.00000E+00         0.00000E+00        -0.55270E+08
 
   -0.45216E+08        -0.14149E+07         0.00000E+00
   -0.14149E+07        -0.50054E+08         0.00000E+00
    0.00000E+00         0.00000E+00        -0.56606E+08
 
   -0.46267E+08        -0.15985E+07         0.00000E+00
   -0.15985E+07        -0.50512E+08         0.00000E+00
    0.00000E+00         0.00000E+00        -0.57598E+08
 
   -0.47279E+08        -0.16581E+07         0.00000E+00
   -0.16581E+07        -0.51020E+08         0.00000E+00
    0.00000E+00         0.00000E+00        -0.58260E+08
 
   -0.48230E+08        -0.15837E+07         0.00000E+00
   -0.15837E+07        -0.51517E+08         0.00000E+00
    0.00000E+00         0.00000E+00        -0.58585E+08
 
   -0.48964E+08        -0.14713E+07         0.00000E+00
   -0.14713E+07        -0.51997E+08         0.00000E+00
    0.00000E+00         0.00000E+00        -0.58828E+08
 
   -0.49524E+08        -0.13518E+07         0.00000E+00
   -0.13518E+07        -0.52455E+08         0.00000E+00
    0.00000E+00         0.00000E+00        -0.59031E+08
 
   -0.49959E+08        -0.12355E+07         0.00000E+00
   -0.12355E+07        -0.52885E+08         0.00000E+00
    0.00000E+00         0.00000E+00        -0.59204E+08
 
   -0.50302E+08        -0.11270E+07         0.00000E+00
   -0.11270E+07        -0.53287E+08         0.00000E+00
    0.00000E+00         0.00000E+00        -0.59353E+08
 
   -0.50576E+08        -0.10279E+07         0.00000E+00
   -0.10279E+07        -0.53661E+08         0.00000E+00
    0.00000E+00         0.00000E+00        -0.59483E+08
 
   -0.50798E+08        -0.93826E+06         0.00000E+00
   -0.93826E+06        -0.54007E+08         0.00000E+00
    0.00000E+00         0.00000E+00        -0.59596E+08
 
   -0.50980E+08        -0.85769E+06         0.00000E+00
   -0.85769E+06        -0.54328E+08         0.00000E+00
    0.00000E+00         0.00000E+00        -0.59697E+08
 
   -0.51130E+08        -0.78540E+06         0.00000E+00
   -0.78540E+06        -0.54625E+08         0.00000E+00
    0.00000E+00         0.00000E+00        -0.59786E+08
 
   -0.51256E+08        -0.72057E+06         0.00000E+00
   -0.72057E+06        -0.54899E+08         0.00000E+00
    0.00000E+00         0.00000E+00        -0.59866E+08
 
   -0.51363E+08        -0.66236E+06         0.00000E+00
   -0.66236E+06        -0.55154E+08         0.00000E+00
    0.00000E+00         0.00000E+00        -0.59939E+08
 
   -0.51455E+08        -0.61002E+06         0.00000E+00
   -0.61002E+06        -0.55390E+08         0.00000E+00
    0.00000E+00         0.00000E+00        -0.60004E+08
 
   -0.51535E+08        -0.56287E+06         0.00000E+00
   -0.56287E+06        -0.55608E+08         0.00000E+00
    0.00000E+00         0.00000E+00        -0.60064E+08
 
   -0.51606E+08        -0.52029E+06         0.00000E+00
   -0.52029E+06        -0.55811E+08         0.00000E+00
    0.00000E+00         0.00000E+00        -0.60119E+08
 
   -0.51669E+08        -0.48173E+06         0.00000E+00
   -0.48173E+06        -0.56000E+08         0.00000E+00
    0.00000E+00         0.00000E+00        -0.60169E+08
 
   -0.51728E+08        -0.44674E+06         0.00000E+00
   -0.44674E+06        -0.56176E+08         0.00000E+00
    0.00000E+00         0.00000E+00        -0.60216E+08
 
   -0.51782E+08        -0.41488E+06         0.00000E+00
   -0.41488E+06        -0.56339E+08         0.00000E+00
    0.00000E+00         0.00000E+00        -0.60259E+08
 
   -0.51834E+08        -0.38579E+06         0.00000E+00
   -0.38579E+06        -0.56491E+08         0.00000E+00
    0.00000E+00         0.00000E+00        -0.60300E+08
 
   -0.51884E+08        -0.35914E+06         0.00000E+00
   -0.35914E+06        -0.56633E+08         0.00000E+00
    0.00000E+00         0.00000E+00        -0.60339E+08
 
   -0.51933E+08        -0.33464E+06         0.00000E+00
   -0.33464E+06        -0.56766E+08         0.00000E+00
    0.00000E+00         0.00000E+00        -0.60375E+08
 
   -0.51983E+08        -0.31203E+06         0.00000E+00
   -0.31203E+06        -0.56890E+08         0.00000E+00
    0.00000E+00         0.00000E+00        -0.60410E+08
 
   -0.52034E+08        -0.29107E+06         0.00000E+00
   -0.29107E+06        -0.57005E+08         0.00000E+00
    0.00000E+00         0.00000E+00        -0.60443E+08
 
   -0.52087E+08        -0.27152E+06         0.00000E+00
   -0.27152E+06        -0.57113E+08         0.00000E+00
    0.00000E+00         0.00000E+00        -0.60475E+08
 
   -0.52143E+08        -0.25318E+06         0.00000E+00
   -0.25318E+06        -0.57214E+08         0.00000E+00
    0.00000E+00         0.00000E+00        -0.60507E+08
 
   -0.52202E+08        -0.23584E+06         0.00000E+00
   -0.23584E+06        -0.57308E+08         0.00000E+00
    0.00000E+00         0.00000E+00        -0.60537E+08
 
   -0.52267E+08        -0.21928E+06         0.00000E+00
   -0.21928E+06        -0.57395E+08         0.00000E+00
    0.00000E+00         0.00000E+00        -0.60568E+08
 
   -0.52337E+08        -0.20328E+06         0.00000E+00
   -0.20328E+06        -0.57476E+08         0.00000E+00
    0.00000E+00         0.00000E+00        -0.60598E+08
 
   -0.52414E+08        -0.18761E+06         0.00000E+00
   -0.18761E+06        -0.57550E+08         0.00000E+00
    0.00000E+00         0.00000E+00        -0.60628E+08
 
   -0.52500E+08        -0.17198E+06         0.00000E+00
   -0.17198E+06        -0.57619E+08         0.00000E+00
    0.00000E+00         0.00000E+00        -0.60659E+08
 
   -0.52595E+08        -0.15608E+06         0.00000E+00
   -0.15608E+06        -0.57681E+08         0.00000E+00
    0.00000E+00         0.00000E+00        -0.60691E+08
 
   -0.52703E+08        -0.13951E+06         0.00000E+00
   -0.13951E+06        -0.57737E+08         0.00000E+00
    0.00000E+00         0.00000E+00        -0.60723E+08
 
   -0.52825E+08        -0.12180E+06         0.00000E+00
   -0.12180E+06        -0.57786E+08         0.00000E+00
    0.00000E+00         0.00000E+00        -0.60757E+08
 
   -0.52964E+08        -0.10231E+06         0.00000E+00
   -0.10231E+06        -0.57827E+08         0.00000E+00
    0.00000E+00         0.00000E+00        -0.60793E+08
 
   -0.53123E+08        -0.80248E+05         0.00000E+00
   -0.80248E+05        -0.57860E+08         0.00000E+00
    0.00000E+00         0.00000E+00        -0.60832E+08
 
   -0.53307E+08        -0.54518E+05         0.00000E+00
   -0.54518E+05        -0.57884E+08         0.00000E+00
    0.00000E+00         0.00000E+00        -0.60874E+08
 
   -0.53522E+08        -0.23656E+05         0.00000E+00
   -0.23656E+05        -0.57897E+08         0.00000E+00
    0.00000E+00         0.00000E+00        -0.60919E+08
 
   -0.53774E+08         0.14369E+05         0.00000E+00
    0.14369E+05        -0.57896E+08         0.00000E+00
    0.00000E+00         0.00000E+00        -0.60969E+08
 
   -0.54072E+08         0.62408E+05         0.00000E+00
    0.62408E+05        -0.57878E+08         0.00000E+00
    0.00000E+00         0.00000E+00        -0.61025E+08
 
   -0.54428E+08         0.12455E+06         0.00000E+00
    0.12455E+06        -0.57841E+08         0.00000E+00
    0.00000E+00         0.00000E+00        -0.61089E+08
 
   -0.54857E+08         0.20678E+06         0.00000E+00
    0.20678E+06        -0.57776E+08         0.00000E+00
    0.00000E+00         0.00000E+00        -0.61162E+08
 
   -0.55382E+08         0.31806E+06         0.00000E+00
    0.31806E+06        -0.57678E+08         0.00000E+00
    0.00000E+00         0.00000E+00        -0.61247E+08
 
   -0.56032E+08         0.47216E+06         0.00000E+00
    0.47216E+06        -0.57534E+08         0.00000E+00
    0.00000E+00         0.00000E+00        -0.61348E+08
 
   -0.56850E+08         0.69094E+06         0.00000E+00
    0.69094E+06        -0.57329E+08         0.00000E+00
    0.00000E+00         0.00000E+00        -0.61471E+08
 
   -0.57899E+08         0.10104E+07         0.00000E+00
    0.10104E+07        -0.57041E+08         0.00000E+00
    0.00000E+00         0.00000E+00        -0.61623E+08
 
   -0.59279E+08         0.14924E+07         0.00000E+00
    0.14924E+07        -0.56637E+08         0.00000E+00
    0.00000E+00         0.00000E+00        -0.61818E+08
 
   -0.61147E+08         0.22486E+07         0.00000E+00
    0.22486E+07        -0.56069E+08         0.00000E+00
    0.00000E+00         0.00000E+00        -0.62079E+08
 
   -0.48190E+08        -0.43676E+06         0.00000E+00
   -0.43676E+06        -0.50279E+08         0.00000E+00
    0.00000E+00         0.00000E+00        -0.53143E+08
 
   -0.47883E+08        -0.11962E+07         0.00000E+00
   -0.11962E+07        -0.49970E+08         0.00000E+00
    0.00000E+00         0.00000E+00        -0.53020E+08
 
   -0.47929E+08        -0.17292E+07         0.00000E+00
   -0.17292E+07        -0.49710E+08         0.00000E+00
    0.00000E+00         0.00000E+00        -0.52977E+08
 
   -0.48161E+08        -0.20734E+07         0.00000E+00
   -0.20734E+07        -0.49488E+08         0.00000E+00
    0.00000E+00         0.00000E+00        -0.52979E+08
 
   -0.48495E+08        -0.22667E+07         0.00000E+00
   -0.22667E+07        -0.49350E+08         0.00000E+00
    0.00000E+00         0.00000E+00        -0.53018E+08
 
   -0.48859E+08        -0.23424E+07         0.00000E+00
   -0.23424E+07        -0.49273E+08         0.00000E+00
    0.00000E+00         0.00000E+00        -0.53075E+08
 
   -0.49212E+08        -0.23402E+07         0.00000E+00
   -0.23402E+07        -0.49245E+08         0.00000E+00
    0.00000E+00         0.00000E+00        -0.53141E+08
 
   -0.49537E+08        -0.22886E+07         0.00000E+00
   -0.22886E+07        -0.49256E+08         0.00000E+00
    0.00000E+00         0.00000E+00        -0.53208E+08
 
   -0.49828E+08        -0.22067E+07         0.00000E+00
   -0.22067E+07        -0.49296E+08         0.00000E+00
    0.00000E+00         0.00000E+00        -0.53274E+08
 
   -0.50086E+08        -0.21075E+07         0.00000E+00
   -0.21075E+07        -0.49358E+08         0.00000E+00
    0.00000E+00         0.00000E+00        -0.53338E+08
 
   -0.50312E+08        -0.19997E+07         0.00000E+00
   -0.19997E+07        -0.49437E+08         0.00000E+00
    0.00000E+00         0.00000E+00        -0.53399E+08
 
   -0.50509E+08        -0.18888E+07         0.00000E+00
   -0.18888E+07        -0.49527E+08         0.00000E+00
    0.00000E+00         0.00000E+00        -0.53456E+08
 
   -0.50683E+08        -0.17786E+07         0.00000E+00
   -0.17786E+07        -0.49624E+08         0.00000E+00
    0.00000E+00         0.00000E+00        -0.53510E+08
 
   -0.50835E+08        -0.16713E+07         0.00000E+00
   -0.16713E+07        -0.49727E+08         0.00000E+00
    0.00000E+00         0.00000E+00        -0.53561E+08
 
   -0.50969E+08        -0.15683E+07         0.00000E+00
   -0.15683E+07        -0.49832E+08         0.00000E+00
    0.00000E+00         0.00000E+00        -0.53609E+08
 
   -0.51088E+08        -0.14704E+07         0.00000E+00
   -0.14704E+07        -0.49937E+08         0.00000E+00
    0.00000E+00         0.00000E+00        -0.53654E+08
 
   -0.51194E+08        -0.13779E+07         0.00000E+00
   -0.13779E+07        -0.50042E+08         0.00000E+00
    0.00000E+00         0.00000E+00        -0.53696E+08
 
   -0.51289E+08        -0.12908E+07         0.00000E+00
   -0.12908E+07        -0.50144E+08         0.00000E+00
    0.00000E+00         0.00000E+00        -0.53736E+08
 
   -0.51376E+08        -0.12091E+07         0.00000E+00
   -0.12091E+07        -0.50245E+08         0.00000E+00
    0.00000E+00         0.00000E+00        -0.53773E+08
 
   -0.51455E+08        -0.11326E+07         0.00000E+00
   -0.11326E+07        -0.50342E+08         0.00000E+00
    0.00000E+00         0.00000E+00        -0.53809E+08
 
   -0.51529E+08        -0.10608E+07         0.00000E+00
   -0.10608E+07        -0.50436E+08         0.00000E+00
    0.00000E+00         0.00000E+00        -0.53842E+08
 
   -0.51598E+08        -0.99360E+06         0.00000E+00
   -0.99360E+06        -0.50526E+08         0.00000E+00
    0.00000E+00         0.00000E+00        -0.53874E+08
 
   -0.51664E+08        -0.93047E+06         0.00000E+00
   -0.93047E+06        -0.50612E+08         0.00000E+00
    0.00000E+00         0.00000E+00        -0.53904E+08
 
   -0.51728E+08        -0.87107E+06         0.00000E+00
   -0.87107E+06        -0.50694E+08         0.00000E+00
    0.00000E+00         0.00000E+00        -0.53933E+08
 
   -0.51790E+08        -0.81500E+06         0.00000E+00
   -0.81500E+06        -0.50771E+08         0.00000E+00
    0.00000E+00         0.00000E+00        -0.53961E+08
 
   -0.51852E+08        -0.76186E+06         0.00000E+00
   -0.76186E+06        -0.50844E+08         0.00000E+00
    0.00000E+00         0.00000E+00        -0.53988E+08
 
   -0.51914E+08        -0.71122E+06         0.00000E+00
   -0.71122E+06        -0.50912E+08         0.00000E+00
    0.00000E+00         0.00000E+00        -0.54014E+08
 
   -0.51977E+08        -0.66265E+06         0.00000E+00
   -0.66265E+06        -0.50976E+08         0.00000E+00
    0.00000E+00         0.00000E+00        -0.54040E+08
 
   -0.52042E+08        -0.61568E+06         0.00000E+00
   -0.61568E+06        -0.51035E+08         0.00000E+00
    0.00000E+00         0.00000E+00        -0.54064E+08
 
   -0.52110E+08        -0.56982E+06         0.00000E+00
   -0.56982E+06        -0.51089E+08         0.00000E+00
    0.00000E+00         0.00000E+00        -0.54089E+08
 
   -0.52182E+08        -0.52451E+06         0.00000E+00
   -0.52451E+06        -0.51138E+08         0.00000E+00
    0.00000E+00         0.00000E+00        -0.54113E+08
 
   -0.52258E+08        -0.47910E+06         0.00000E+00
   -0.47910E+06        -0.51182E+08         0.00000E+00
    0.00000E+00         0.00000E+00        -0.54137E+08
 
   -0.52340E+08        -0.43288E+06         0.00000E+00
   -0.43288E+06        -0.51221E+08         0.00000E+00
    0.00000E+00         0.00000E+00        -0.54161E+08
 
   -0.52429E+08        -0.38497E+06         0.00000E+00
   -0.38497E+06        -0.51253E+08         0.00000E+00
    0.00000E+00         0.00000E+00        -0.54185E+08
 
   -0.52525E+08        -0.33431E+06         0.00000E+00
   -0.33431E+06        -0.51279E+08         0.00000E+00
    0.00000E+00         0.00000E+00        -0.54210E+08
 
   -0.52630E+08        -0.27961E+06         0.00000E+00
   -0.27961E+06        -0.51298E+08         0.00000E+00
    0.00000E+00         0.00000E+00        -0.54235E+08
 
   -0.52745E+08        -0.21925E+06         0.00000E+00
   -0.21925E+06        -0.51310E+08         0.00000E+00
    0.00000E+00         0.00000E+00        -0.54260E+08
 
   -0.52872E+08        -0.15118E+06         0.00000E+00
   -0.15118E+06        -0.51313E+08         0.00000E+00
    0.00000E+00         0.00000E+00        -0.54286E+08
 
   -0.53013E+08        -0.72760E+05         0.00000E+00
   -0.72760E+05        -0.51307E+08         0.00000E+00
    0.00000E+00         0.00000E+00        -0.54313E+08
 
   -0.53168E+08         0.19420E+05         0.00000E+00
    0.19420E+05        -0.51291E+08         0.00000E+00
    0.00000E+00         0.00000E+00        -0.54341E+08
 
   -0.53340E+08         0.12983E+06         0.00000E+00
    0.12983E+06        -0.51263E+08         0.00000E+00
    0.00000E+00         0.00000E+00        -0.54370E+08
 
   -0.53529E+08         0.26438E+06         0.00000E+00
    0.26438E+06        -0.51221E+08         0.00000E+00
    0.00000E+00         0.00000E+00        -0.54399E+08
 
   -0.53737E+08         0.43098E+06         0.00000E+00
    0.43098E+06        -0.51165E+08         0.00000E+00
    0.00000E+00         0.00000E+00        -0.54429E+08
 
   -0.53962E+08         0.64024E+06         0.00000E+00
    0.64024E+06        -0.51093E+08         0.00000E+00
    0.00000E+00         0.00000E+00        -0.54460E+08
 
   -0.54201E+08         0.90662E+06         0.00000E+00
    0.90662E+06        -0.51003E+08         0.00000E+00
    0.00000E+00         0.00000E+00        -0.54490E+08
 
   -0.54445E+08         0.12498E+07         0.00000E+00
    0.12498E+07        -0.50895E+08         0.00000E+00
    0.00000E+00         0.00000E+00        -0.54517E+08
 
   -0.54674E+08         0.16970E+07         0.00000E+00
    0.16970E+07        -0.50769E+08         0.00000E+00
    0.00000E+00         0.00000E+00        -0.54538E+08
 
   -0.54849E+08         0.22853E+07         0.00000E+00
    0.22853E+07        -0.50631E+08         0.00000E+00
    0.00000E+00         0.00000E+00        -0.54545E+08
 
   -0.54888E+08         0.30648E+07         0.00000E+00
    0.30648E+07        -0.50488E+08         0.00000E+00
    0.00000E+00         0.00000E+00        -0.54524E+08
 
   -0.54623E+08         0.41008E+07         0.00000E+00
    0.41008E+07        -0.50358E+08         0.00000E+00
    0.00000E+00         0.00000E+00        -0.54445E+08
 
   -0.50756E+08        -0.14142E+06         0.00000E+00
   -0.14142E+06        -0.50012E+08         0.00000E+00
    0.00000E+00         0.00000E+00        -0.51164E+08
 
   -0.50208E+08        -0.45834E+06         0.00000E+00
   -0.45834E+06        -0.49971E+08         0.00000E+00
    0.00000E+00         0.00000E+00        -0.51046E+08
 
   -0.49816E+08        -0.78938E+06         0.00000E+00
   -0.78938E+06        -0.49844E+08         0.00000E+00
    0.00000E+00         0.00000E+00        -0.50942E+08
 
   -0.49579E+08        -0.10940E+07         0.00000E+00
   -0.10940E+07        -0.49675E+08         0.00000E+00
    0.00000E+00         0.00000E+00        -0.50861E+08
 
   -0.49468E+08        -0.13520E+07         0.00000E+00
   -0.13520E+07        -0.49478E+08         0.00000E+00
    0.00000E+00         0.00000E+00        -0.50799E+08
 
   -0.49454E+08        -0.15558E+07         0.00000E+00
   -0.15558E+07        -0.49278E+08         0.00000E+00
    0.00000E+00         0.00000E+00        -0.50756E+08
 
   -0.49509E+08        -0.17047E+07         0.00000E+00
   -0.17047E+07        -0.49089E+08         0.00000E+00
    0.00000E+00         0.00000E+00        -0.50730E+08
 
   -0.49610E+08        -0.18044E+07         0.00000E+00
   -0.18044E+07        -0.48919E+08         0.00000E+00
    0.00000E+00         0.00000E+00        -0.50716E+08
 
   -0.49736E+08        -0.18623E+07         0.00000E+00
   -0.18623E+07        -0.48771E+08         0.00000E+00
    0.00000E+00         0.00000E+00        -0.50711E+08
 
   -0.49877E+08        -0.18863E+07         0.00000E+00
   -0.18863E+07        -0.48645E+08         0.00000E+00
    0.00000E+00         0.00000E+00        -0.50714E+08
 
   -0.50023E+08        -0.18837E+07         0.00000E+00
   -0.18837E+07        -0.48540E+08         0.00000E+00
    0.00000E+00         0.00000E+00        -0.50723E+08
 
   -0.50167E+08        -0.18606E+07         0.00000E+00
   -0.18606E+07        -0.48456E+08         0.00000E+00
    0.00000E+00         0.00000E+00        -0.50735E+08
 
   -0.50308E+08        -0.18221E+07         0.00000E+00
   -0.18221E+07        -0.48389E+08         0.00000E+00
    0.00000E+00         0.00000E+00        -0.50749E+08
 
   -0.50442E+08        -0.17723E+07         0.00000E+00
   -0.17723E+07        -0.48338E+08         0.00000E+00
    0.00000E+00         0.00000E+00        -0.50766E+08
 
   -0.50569E+08        -0.17144E+07         0.00000E+00
   -0.17144E+07        -0.48301E+08         0.00000E+00
    0.00000E+00         0.00000E+00        -0.50784E+08
 
   -0.50688E+08        -0.16511E+07         0.00000E+00
   -0.16511E+07        -0.48275E+08         0.00000E+00
    0.00000E+00         0.00000E+00        -0.50803E+08
 
   -0.50800E+08        -0.15843E+07         0.00000E+00
   -0.15843E+07        -0.48259E+08         0.00000E+00
    0.00000E+00         0.00000E+00        -0.50822E+08
 
   -0.50905E+08        -0.15155E+07         0.00000E+00
   -0.15155E+07        -0.48251E+08         0.00000E+00
    0.00000E+00         0.00000E+00        -0.50841E+08
 
   -0.51003E+08        -0.14458E+07         0.00000E+00
   -0.14458E+07        -0.48249E+08         0.00000E+00
    0.00000E+00         0.00000E+00        -0.50860E+08
 
   -0.51095E+08        -0.13759E+07         0.00000E+00
   -0.13759E+07        -0.48253E+08         0.00000E+00
    0.00000E+00         0.00000E+00        -0.50880E+08
 
   -0.51181E+08        -0.13065E+07         0.00000E+00
   -0.13065E+07        -0.48261E+08         0.00000E+00
    0.00000E+00         0.00000E+00        -0.50898E+08
 
   -0.51263E+08        -0.12380E+07         0.00000E+00
   -0.12380E+07        -0.48272E+08         0.00000E+00
    0.00000E+00         0.00000E+00        -0.50917E+08
 
   -0.51342E+08        -0.11704E+07         0.00000E+00
   -0.11704E+07        -0.48285E+08         0.00000E+00
    0.00000E+00         0.00000E+00        -0.50935E+08
 
   -0.51416E+08        -0.11038E+07         0.00000E+00
   -0.11038E+07        -0.48299E+08         0.00000E+00
    0.00000E+00         0.00000E+00        -0.50953E+08
 
   -0.51489E+08        -0.10383E+07         0.00000E+00
   -0.10383E+07        -0.48314E+08         0.00000E+00
    0.00000E+00         0.00000E+00        -0.50971E+08
 
   -0.51559E+08        -0.97360E+06         0.00000E+00
   -0.97360E+06        -0.48329E+08         0.00000E+00
    0.00000E+00         0.00000E+00        -0.50988E+08
 
   -0.51628E+08        -0.90954E+06         0.00000E+00
   -0.90954E+06        -0.48344E+08         0.00000E+00
    0.00000E+00         0.00000E+00        -0.51004E+08
 
   -0.51696E+08        -0.84576E+06         0.00000E+00
   -0.84576E+06        -0.48357E+08         0.00000E+00
    0.00000E+00         0.00000E+00        -0.51020E+08
 
   -0.51763E+08        -0.78186E+06         0.00000E+00
   -0.78186E+06        -0.48368E+08         0.00000E+00
    0.00000E+00         0.00000E+00        -0.51036E+08
 
   -0.51831E+08        -0.71733E+06         0.00000E+00
   -0.71733E+06        -0.48378E+08         0.00000E+00
    0.00000E+00         0.00000E+00        -0.51052E+08
 
   -0.51899E+08        -0.65156E+06         0.00000E+00
   -0.65156E+06        -0.48384E+08         0.00000E+00
    0.00000E+00         0.00000E+00        -0.51067E+08
 
   -0.51967E+08        -0.58383E+06         0.00000E+00
   -0.58383E+06        -0.48388E+08         0.00000E+00
    0.00000E+00         0.00000E+00        -0.51081E+08
 
   -0.52037E+08        -0.51326E+06         0.00000E+00
   -0.51326E+06        -0.48388E+08         0.00000E+00
    0.00000E+00         0.00000E+00        -0.51095E+08
 
   -0.52108E+08        -0.43883E+06         0.00000E+00
   -0.43883E+06        -0.48385E+08         0.00000E+00
    0.00000E+00         0.00000E+00        -0.51109E+08
 
   -0.52180E+08        -0.35931E+06         0.00000E+00
   -0.35931E+06        -0.48377E+08         0.00000E+00
    0.00000E+00         0.00000E+00        -0.51121E+08
 
   -0.52253E+08        -0.27325E+06         0.00000E+00
   -0.27325E+06        -0.48365E+08         0.00000E+00
    0.00000E+00         0.00000E+00        -0.51134E+08
 
   -0.52327E+08        -0.17890E+06         0.00000E+00
   -0.17890E+06        -0.48348E+08         0.00000E+00
    0.00000E+00         0.00000E+00        -0.51145E+08
 
   -0.52401E+08        -0.74181E+05         0.00000E+00
   -0.74181E+05        -0.48326E+08         0.00000E+00
    0.00000E+00         0.00000E+00        -0.51155E+08
 
   -0.52472E+08         0.43360E+05         0.00000E+00
    0.43360E+05        -0.48299E+08         0.00000E+00
    0.00000E+00         0.00000E+00        -0.51164E+08
 
   -0.52541E+08         0.17665E+06         0.00000E+00
    0.17665E+06        -0.48267E+08         0.00000E+00
    0.00000E+00         0.00000E+00        -0.51171E+08
 
   -0.52602E+08         0.32910E+06         0.00000E+00
    0.32910E+06        -0.48231E+08         0.00000E+00
    0.00000E+00         0.00000E+00        -0.51177E+08
 
   -0.52652E+08         0.50469E+06         0.00000E+00
    0.50469E+06        -0.48192E+08         0.00000E+00
    0.00000E+00         0.00000E+00        -0.51179E+08
 
   -0.52685E+08         0.70785E+06         0.00000E+00
    0.70785E+06        -0.48151E+08         0.00000E+00
    0.00000E+00         0.00000E+00        -0.51177E+08
 
   -0.52691E+08         0.94339E+06         0.00000E+00
    0.94339E+06        -0.48113E+08         0.00000E+00
    0.00000E+00         0.00000E+00        -0.51171E+08
 
   -0.52658E+08         0.12160E+07         0.00000E+00
    0.12160E+07        -0.48081E+08         0.00000E+00
    0.00000E+00         0.00000E+00        -0.51158E+08
 
   -0.52568E+08         0.15295E+07         0.00000E+00
    0.15295E+07        -0.48063E+08         0.00000E+00
    0.00000E+00         0.00000E+00        -0.51136E+08
 
   -0.52400E+08         0.18847E+07         0.00000E+00
    0.18847E+07        -0.48070E+08         0.00000E+00
    0.00000E+00         0.00000E+00        -0.51104E+08
 
   -0.52127E+08         0.22763E+07         0.00000E+00
    0.22763E+07        -0.48119E+08         0.00000E+00
    0.00000E+00         0.00000E+00        -0.51059E+08
 
   -0.51726E+08         0.26860E+07         0.00000E+00
    0.26860E+07        -0.48236E+08         0.00000E+00
    0.00000E+00         0.00000E+00        -0.51002E+08
 
   -0.51203E+08         0.30700E+07         0.00000E+00
    0.30700E+07        -0.48460E+08         0.00000E+00
    0.00000E+00         0.00000E+00        -0.50943E+08
 
   -0.51744E+08        -0.17672E+04         0.00000E+00
   -0.17672E+04        -0.50031E+08         0.00000E+00
    0.00000E+00         0.00000E+00        -0.50592E+08
 
   -0.51302E+08        -0.13239E+06         0.00000E+00
   -0.13239E+06        -0.49996E+08         0.00000E+00
    0.00000E+00         0.00000E+00        -0.50497E+08
 
   -0.50940E+08        -0.28191E+06         0.00000E+00
   -0.28191E+06        -0.49942E+08         0.00000E+00
    0.00000E+00         0.00000E+00        -0.50414E+08
 
   -0.50650E+08        -0.44375E+06         0.00000E+00
   -0.44375E+06        -0.49864E+08         0.00000E+00
    0.00000E+00         0.00000E+00        -0.50340E+08
 
   -0.50428E+08        -0.60791E+06         0.00000E+00
   -0.60791E+06        -0.49764E+08         0.00000E+00
    0.00000E+00         0.00000E+00        -0.50276E+08
 
   -0.50268E+08        -0.76539E+06         0.00000E+00
   -0.76539E+06        -0.49647E+08         0.00000E+00
    0.00000E+00         0.00000E+00        -0.50220E+08
 
   -0.50165E+08        -0.90933E+06         0.00000E+00
   -0.90933E+06        -0.49518E+08         0.00000E+00
    0.00000E+00         0.00000E+00        -0.50174E+08
 
   -0.50108E+08        -0.10350E+07         0.00000E+00
   -0.10350E+07        -0.49382E+08         0.00000E+00
    0.00000E+00         0.00000E+00        -0.50135E+08
 
   -0.50091E+08        -0.11401E+07         0.00000E+00
   -0.11401E+07        -0.49245E+08         0.00000E+00
    0.00000E+00         0.00000E+00        -0.50105E+08
 
   -0.50104E+08        -0.12239E+07         0.00000E+00
   -0.12239E+07        -0.49111E+08         0.00000E+00
    0.00000E+00         0.00000E+00        -0.50080E+08
 
   -0.50140E+08        -0.12874E+07         0.00000E+00
   -0.12874E+07        -0.48982E+08         0.00000E+00
    0.00000E+00         0.00000E+00        -0.50062E+08
 
   -0.50194E+08        -0.13320E+07         0.00000E+00
   -0.13320E+07        -0.48860E+08         0.00000E+00
    0.00000E+00         0.00000E+00        -0.50048E+08
 
   -0.50259E+08        -0.13596E+07         0.00000E+00
   -0.13596E+07        -0.48747E+08         0.00000E+00
    0.00000E+00         0.00000E+00        -0.50039E+08
 
   -0.50333E+08        -0.13724E+07         0.00000E+00
   -0.13724E+07        -0.48643E+08         0.00000E+00
    0.00000E+00         0.00000E+00        -0.50033E+08
 
   -0.50411E+08        -0.13723E+07         0.00000E+00
   -0.13723E+07        -0.48549E+08         0.00000E+00
    0.00000E+00         0.00000E+00        -0.50029E+08
 
   -0.50493E+08        -0.13613E+07         0.00000E+00
   -0.13613E+07        -0.48463E+08         0.00000E+00
    0.00000E+00         0.00000E+00        -0.50029E+08
 
   -0.50575E+08        -0.13410E+07         0.00000E+00
   -0.13410E+07        -0.48386E+08         0.00000E+00
    0.00000E+00         0.00000E+00        -0.50030E+08
 
   -0.50657E+08        -0.13129E+07         0.00000E+00
   -0.13129E+07        -0.48317E+08         0.00000E+00
    0.00000E+00         0.00000E+00        -0.50032E+08
 
   -0.50738E+08        -0.12785E+07         0.00000E+00
   -0.12785E+07        -0.48256E+08         0.00000E+00
    0.00000E+00         0.00000E+00        -0.50036E+08
 
   -0.50817E+08        -0.12386E+07         0.00000E+00
   -0.12386E+07        -0.48201E+08         0.00000E+00
    0.00000E+00         0.00000E+00        -0.50041E+08
 
   -0.50895E+08        -0.11943E+07         0.00000E+00
   -0.11943E+07        -0.48151E+08         0.00000E+00
    0.00000E+00         0.00000E+00        -0.50046E+08
 
   -0.50970E+08        -0.11463E+07         0.00000E+00
   -0.11463E+07        -0.48107E+08         0.00000E+00
    0.00000E+00         0.00000E+00        -0.50053E+08
 
   -0.51042E+08        -0.10951E+07         0.00000E+00
   -0.10951E+07        -0.48067E+08         0.00000E+00
    0.00000E+00         0.00000E+00        -0.50059E+08
 
   -0.51113E+08        -0.10410E+07         0.00000E+00
   -0.10410E+07        -0.48031E+08         0.00000E+00
    0.00000E+00         0.00000E+00        -0.50066E+08
 
   -0.51181E+08        -0.98447E+06         0.00000E+00
   -0.98447E+06        -0.47999E+08         0.00000E+00
    0.00000E+00         0.00000E+00        -0.50073E+08
 
   -0.51247E+08        -0.92553E+06         0.00000E+00
   -0.92553E+06        -0.47968E+08         0.00000E+00
    0.00000E+00         0.00000E+00        -0.50080E+08
 
   -0.51310E+08        -0.86426E+06         0.00000E+00
   -0.86426E+06        -0.47940E+08         0.00000E+00
    0.00000E+00         0.00000E+00        -0.50087E+08
 
   -0.51372E+08        -0.80056E+06         0.00000E+00
   -0.80056E+06        -0.47913E+08         0.00000E+00
    0.00000E+00         0.00000E+00        -0.50094E+08
 
   -0.51431E+08        -0.73427E+06         0.00000E+00
   -0.73427E+06        -0.47887E+08         0.00000E+00
    0.00000E+00         0.00000E+00        -0.50101E+08
 
   -0.51488E+08        -0.66509E+06         0.00000E+00
   -0.66509E+06        -0.47861E+08         0.00000E+00
    0.00000E+00         0.00000E+00        -0.50107E+08
 
   -0.51543E+08        -0.59266E+06         0.00000E+00
   -0.59266E+06        -0.47836E+08         0.00000E+00
    0.00000E+00         0.00000E+00        -0.50113E+08
 
   -0.51595E+08        -0.51649E+06         0.00000E+00
   -0.51649E+06        -0.47810E+08         0.00000E+00
    0.00000E+00         0.00000E+00        -0.50118E+08
 
   -0.51645E+08        -0.43601E+06         0.00000E+00
   -0.43601E+06        -0.47785E+08         0.00000E+00
    0.00000E+00         0.00000E+00        -0.50123E+08
 
   -0.51690E+08        -0.35054E+06         0.00000E+00
   -0.35054E+06        -0.47759E+08         0.00000E+00
    0.00000E+00         0.00000E+00        -0.50127E+08
 
   -0.51732E+08        -0.25931E+06         0.00000E+00
   -0.25931E+06        -0.47732E+08         0.00000E+00
    0.00000E+00         0.00000E+00        -0.50130E+08
 
   -0.51768E+08        -0.16147E+06         0.00000E+00
   -0.16147E+06        -0.47705E+08         0.00000E+00
    0.00000E+00         0.00000E+00        -0.50132E+08
 
   -0.51797E+08        -0.56072E+05         0.00000E+00
   -0.56072E+05        -0.47679E+08         0.00000E+00
    0.00000E+00         0.00000E+00        -0.50133E+08
 
   -0.51818E+08         0.57855E+05         0.00000E+00
    0.57855E+05        -0.47652E+08         0.00000E+00
    0.00000E+00         0.00000E+00        -0.50132E+08
 
   -0.51829E+08         0.18130E+06         0.00000E+00
    0.18130E+06        -0.47628E+08         0.00000E+00
    0.00000E+00         0.00000E+00        -0.50129E+08
 
   -0.51826E+08         0.31518E+06         0.00000E+00
    0.31518E+06        -0.47605E+08         0.00000E+00
    0.00000E+00         0.00000E+00        -0.50124E+08
 
   -0.51806E+08         0.46022E+06         0.00000E+00
    0.46022E+06        -0.47587E+08         0.00000E+00
    0.00000E+00         0.00000E+00        -0.50116E+08
 
   -0.51765E+08         0.61684E+06         0.00000E+00
    0.61684E+06        -0.47574E+08         0.00000E+00
    0.00000E+00         0.00000E+00        -0.50105E+08
 
   -0.51698E+08         0.78482E+06         0.00000E+00
    0.78482E+06        -0.47571E+08         0.00000E+00
    0.00000E+00         0.00000E+00        -0.50091E+08
 
   -0.51599E+08         0.96308E+06         0.00000E+00
    0.96308E+06        -0.47580E+08         0.00000E+00
    0.00000E+00         0.00000E+00        -0.50073E+08
 
   -0.51463E+08         0.11491E+07         0.00000E+00
    0.11491E+07        -0.47605E+08         0.00000E+00
    0.00000E+00         0.00000E+00        -0.50051E+08
 
   -0.51282E+08         0.13387E+07         0.00000E+00
    0.13387E+07        -0.47652E+08         0.00000E+00
    0.00000E+00         0.00000E+00        -0.50024E+08
 
   -0.51053E+08         0.15252E+07         0.00000E+00
    0.15252E+07        -0.47725E+08         0.00000E+00
    0.00000E+00         0.00000E+00        -0.49993E+08
 
   -0.50774E+08         0.16998E+07         0.00000E+00
    0.16998E+07        -0.47829E+08         0.00000E+00
    0.00000E+00         0.00000E+00        -0.49958E+08
 
   -0.50444E+08         0.18537E+07         0.00000E+00
    0.18537E+07        -0.47966E+08         0.00000E+00
    0.00000E+00         0.00000E+00        -0.49919E+08
 
   -0.50058E+08         0.19834E+07         0.00000E+00
    0.19834E+07        -0.48126E+08         0.00000E+00
    0.00000E+00         0.00000E+00        -0.49874E+08
 
   -0.52014E+08         0.13836E+05         0.00000E+00
    0.13836E+05        -0.50004E+08         0.00000E+00
    0.00000E+00         0.00000E+00        -0.50453E+08
 
   -0.51726E+08        -0.19287E+05         0.00000E+00
   -0.19287E+05        -0.50003E+08         0.00000E+00
    0.00000E+00         0.00000E+00        -0.50395E+08
 
   -0.51462E+08        -0.76553E+05         0.00000E+00
   -0.76553E+05        -0.49986E+08         0.00000E+00
    0.00000E+00         0.00000E+00        -0.50339E+08
 
   -0.51228E+08        -0.14996E+06         0.00000E+00
   -0.14996E+06        -0.49957E+08         0.00000E+00
    0.00000E+00         0.00000E+00        -0.50286E+08
 
   -0.51025E+08        -0.23400E+06         0.00000E+00
   -0.23400E+06        -0.49913E+08         0.00000E+00
    0.00000E+00         0.00000E+00        -0.50237E+08
 
   -0.50855E+08        -0.32383E+06         0.00000E+00
   -0.32383E+06        -0.49857E+08         0.00000E+00
    0.00000E+00         0.00000E+00        -0.50191E+08
 
   -0.50717E+08        -0.41522E+06         0.00000E+00
   -0.41522E+06        -0.49790E+08         0.00000E+00
    0.00000E+00         0.00000E+00        -0.50150E+08
 
   -0.50608E+08        -0.50458E+06         0.00000E+00
   -0.50458E+06        -0.49713E+08         0.00000E+00
    0.00000E+00         0.00000E+00        -0.50113E+08
 
   -0.50527E+08        -0.58891E+06         0.00000E+00
   -0.58891E+06        -0.49629E+08         0.00000E+00
    0.00000E+00         0.00000E+00        -0.50080E+08
 
   -0.50471E+08        -0.66595E+06         0.00000E+00
   -0.66595E+06        -0.49539E+08         0.00000E+00
    0.00000E+00         0.00000E+00        -0.50051E+08
 
   -0.50437E+08        -0.73410E+06         0.00000E+00
   -0.73410E+06        -0.49446E+08         0.00000E+00
    0.00000E+00         0.00000E+00        -0.50025E+08
 
   -0.50421E+08        -0.79241E+06         0.00000E+00
   -0.79241E+06        -0.49351E+08         0.00000E+00
    0.00000E+00         0.00000E+00        -0.50003E+08
 
   -0.50422E+08        -0.84045E+06         0.00000E+00
   -0.84045E+06        -0.49255E+08         0.00000E+00
    0.00000E+00         0.00000E+00        -0.49984E+08
 
   -0.50436E+08        -0.87820E+06         0.00000E+00
   -0.87820E+06        -0.49161E+08         0.00000E+00
    0.00000E+00         0.00000E+00        -0.49968E+08
 
   -0.50460E+08        -0.90595E+06         0.00000E+00
   -0.90595E+06        -0.49070E+08         0.00000E+00
    0.00000E+00         0.00000E+00        -0.49955E+08
 
   -0.50493E+08        -0.92415E+06         0.00000E+00
   -0.92415E+06        -0.48981E+08         0.00000E+00
    0.00000E+00         0.00000E+00        -0.49944E+08
 
   -0.50532E+08        -0.93340E+06         0.00000E+00
   -0.93340E+06        -0.48895E+08         0.00000E+00
    0.00000E+00         0.00000E+00        -0.49934E+08
 
   -0.50575E+08        -0.93436E+06         0.00000E+00
   -0.93436E+06        -0.48814E+08         0.00000E+00
    0.00000E+00         0.00000E+00        -0.49927E+08
 
   -0.50623E+08        -0.92769E+06         0.00000E+00
   -0.92769E+06        -0.48736E+08         0.00000E+00
    0.00000E+00         0.00000E+00        -0.49921E+08
 
   -0.50673E+08        -0.91402E+06         0.00000E+00
   -0.91402E+06        -0.48663E+08         0.00000E+00
    0.00000E+00         0.00000E+00        -0.49916E+08
 
   -0.50724E+08        -0.89395E+06         0.00000E+00
   -0.89395E+06        -0.48594E+08         0.00000E+00
    0.00000E+00         0.00000E+00        -0.49912E+08
 
   -0.50776E+08        -0.86803E+06         0.00000E+00
   -0.86803E+06        -0.48528E+08         0.00000E+00
    0.00000E+00         0.00000E+00        -0.49910E+08
 
   -0.50827E+08        -0.83672E+06         0.00000E+00
   -0.83672E+06        -0.48466E+08         0.00000E+00
    0.00000E+00         0.00000E+00        -0.49908E+08
 
   -0.50879E+08        -0.80042E+06         0.00000E+00
   -0.80042E+06        -0.48408E+08         0.00000E+00
    0.00000E+00         0.00000E+00        -0.49906E+08
 
   -0.50929E+08        -0.75946E+06         0.00000E+00
   -0.75946E+06        -0.48353E+08         0.00000E+00
    0.00000E+00         0.00000E+00        -0.49905E+08
 
   -0.50978E+08        -0.71408E+06         0.00000E+00
   -0.71408E+06        -0.48300E+08         0.00000E+00
    0.00000E+00         0.00000E+00        -0.49904E+08
 
   -0.51025E+08        -0.66447E+06         0.00000E+00
   -0.66447E+06        -0.48251E+08         0.00000E+00
    0.00000E+00         0.00000E+00        -0.49904E+08
 
   -0.51069E+08        -0.61073E+06         0.00000E+00
   -0.61073E+06        -0.48204E+08         0.00000E+00
    0.00000E+00         0.00000E+00        -0.49904E+08
 
   -0.51111E+08        -0.55292E+06         0.00000E+00
   -0.55292E+06        -0.48160E+08         0.00000E+00
    0.00000E+00         0.00000E+00        -0.49903E+08
 
   -0.51150E+08        -0.49101E+06         0.00000E+00
   -0.49101E+06        -0.48118E+08         0.00000E+00
    0.00000E+00         0.00000E+00        -0.49902E+08
 
   -0.51185E+08        -0.42496E+06         0.00000E+00
   -0.42496E+06        -0.48078E+08         0.00000E+00
    0.00000E+00         0.00000E+00        -0.49902E+08
 
   -0.51216E+08        -0.35466E+06         0.00000E+00
   -0.35466E+06        -0.48041E+08         0.00000E+00
    0.00000E+00         0.00000E+00        -0.49900E+08
 
   -0.51243E+08        -0.27998E+06         0.00000E+00
   -0.27998E+06        -0.48005E+08         0.00000E+00
    0.00000E+00         0.00000E+00        -0.49898E+08
 
   -0.51263E+08        -0.20078E+06         0.00000E+00
   -0.20078E+06        -0.47972E+08         0.00000E+00
    0.00000E+00         0.00000E+00        -0.49896E+08
 
   -0.51278E+08        -0.11694E+06         0.00000E+00
   -0.11694E+06        -0.47942E+08         0.00000E+00
    0.00000E+00         0.00000E+00        -0.49893E+08
 
   -0.51284E+08        -0.28358E+05         0.00000E+00
   -0.28358E+05        -0.47915E+08         0.00000E+00
    0.00000E+00         0.00000E+00        -0.49889E+08
 
   -0.51282E+08         0.65001E+05         0.00000E+00
    0.65001E+05        -0.47891E+08         0.00000E+00
    0.00000E+00         0.00000E+00        -0.49883E+08
 
   -0.51269E+08         0.16305E+06         0.00000E+00
    0.16305E+06        -0.47871E+08         0.00000E+00
    0.00000E+00         0.00000E+00        -0.49877E+08
 
   -0.51245E+08         0.26555E+06         0.00000E+00
    0.26555E+06        -0.47857E+08         0.00000E+00
    0.00000E+00         0.00000E+00        -0.49869E+08
 
   -0.51207E+08         0.37203E+06         0.00000E+00
    0.37203E+06        -0.47848E+08         0.00000E+00
    0.00000E+00         0.00000E+00        -0.49860E+08
 
   -0.51154E+08         0.48170E+06         0.00000E+00
    0.48170E+06        -0.47847E+08         0.00000E+00
    0.00000E+00         0.00000E+00        -0.49849E+08
 
   -0.51084E+08         0.59342E+06         0.00000E+00
    0.59342E+06        -0.47854E+08         0.00000E+00
    0.00000E+00         0.00000E+00        -0.49837E+08
 
   -0.50995E+08         0.70554E+06         0.00000E+00
    0.70554E+06        -0.47871E+08         0.00000E+00
    0.00000E+00         0.00000E+00        -0.49822E+08
 
   -0.50885E+08         0.81592E+06         0.00000E+00
    0.81592E+06        -0.47899E+08         0.00000E+00
    0.00000E+00         0.00000E+00        -0.49806E+08
 
   -0.50754E+08         0.92189E+06         0.00000E+00
    0.92189E+06        -0.47940E+08         0.00000E+00
    0.00000E+00         0.00000E+00        -0.49788E+08
 
   -0.50601E+08         0.10203E+07         0.00000E+00
    0.10203E+07        -0.47994E+08         0.00000E+00
    0.00000E+00         0.00000E+00        -0.49768E+08
 
   -0.50425E+08         0.11077E+07         0.00000E+00
    0.11077E+07        -0.48061E+08         0.00000E+00
    0.00000E+00         0.00000E+00        -0.49746E+08
 
   -0.50229E+08         0.11808E+07         0.00000E+00
    0.11808E+07        -0.48142E+08         0.00000E+00
    0.00000E+00         0.00000E+00        -0.49723E+08
 
   -0.50012E+08         0.12356E+07         0.00000E+00
    0.12356E+07        -0.48235E+08         0.00000E+00
    0.00000E+00         0.00000E+00        -0.49698E+08
 
   -0.49780E+08         0.12662E+07         0.00000E+00
    0.12662E+07        -0.48343E+08         0.00000E+00
    0.00000E+00         0.00000E+00        -0.49673E+08
 
   -0.52046E+08         0.15827E+05         0.00000E+00
    0.15827E+05        -0.50003E+08         0.00000E+00
    0.00000E+00         0.00000E+00        -0.50419E+08
 
   -0.51850E+08         0.13165E+05         0.00000E+00
    0.13165E+05        -0.50001E+08         0.00000E+00
    0.00000E+00         0.00000E+00        -0.50379E+08
 
   -0.51663E+08        -0.17481E+04         0.00000E+00
   -0.17481E+04        -0.49995E+08         0.00000E+00
    0.00000E+00         0.00000E+00        -0.50341E+08
 
   -0.51488E+08        -0.28020E+05         0.00000E+00
   -0.28020E+05        -0.49983E+08         0.00000E+00
    0.00000E+00         0.00000E+00        -0.50304E+08
 
   -0.51328E+08        -0.63597E+05         0.00000E+00
   -0.63597E+05        -0.49964E+08         0.00000E+00
    0.00000E+00         0.00000E+00        -0.50268E+08
 
   -0.51184E+08        -0.10627E+06         0.00000E+00
   -0.10627E+06        -0.49937E+08         0.00000E+00
    0.00000E+00         0.00000E+00        -0.50233E+08
 
   -0.51056E+08        -0.15383E+06         0.00000E+00
   -0.15383E+06        -0.49903E+08         0.00000E+00
    0.00000E+00         0.00000E+00        -0.50201E+08
 
   -0.50944E+08        -0.20419E+06         0.00000E+00
   -0.20419E+06        -0.49863E+08         0.00000E+00
    0.00000E+00         0.00000E+00        -0.50171E+08
 
   -0.50850E+08        -0.25545E+06         0.00000E+00
   -0.25545E+06        -0.49815E+08         0.00000E+00
    0.00000E+00         0.00000E+00        -0.50142E+08
 
   -0.50772E+08        -0.30593E+06         0.00000E+00
   -0.30593E+06        -0.49762E+08         0.00000E+00
    0.00000E+00         0.00000E+00        -0.50116E+08
 
   -0.50709E+08        -0.35417E+06         0.00000E+00
   -0.35417E+06        -0.49703E+08         0.00000E+00
    0.00000E+00         0.00000E+00        -0.50092E+08
 
   -0.50660E+08        -0.39897E+06         0.00000E+00
   -0.39897E+06        -0.49641E+08         0.00000E+00
    0.00000E+00         0.00000E+00        -0.50069E+08
 
   -0.50624E+08        -0.43936E+06         0.00000E+00
   -0.43936E+06        -0.49575E+08         0.00000E+00
    0.00000E+00         0.00000E+00        -0.50049E+08
 
   -0.50599E+08        -0.47465E+06         0.00000E+00
   -0.47465E+06        -0.49507E+08         0.00000E+00
    0.00000E+00         0.00000E+00        -0.50031E+08
 
   -0.50585E+08        -0.50433E+06         0.00000E+00
   -0.50433E+06        -0.49438E+08         0.00000E+00
    0.00000E+00         0.00000E+00        -0.50014E+08
 
   -0.50580E+08        -0.52810E+06         0.00000E+00
   -0.52810E+06        -0.49367E+08         0.00000E+00
    0.00000E+00         0.00000E+00        -0.49999E+08
 
   -0.50583E+08        -0.54580E+06         0.00000E+00
   -0.54580E+06        -0.49297E+08         0.00000E+00
    0.00000E+00         0.00000E+00        -0.49985E+08
 
   -0.50592E+08        -0.55741E+06         0.00000E+00
   -0.55741E+06        -0.49228E+08         0.00000E+00
    0.00000E+00         0.00000E+00        -0.49973E+08
 
   -0.50606E+08        -0.56298E+06         0.00000E+00
   -0.56298E+06        -0.49159E+08         0.00000E+00
    0.00000E+00         0.00000E+00        -0.49962E+08
 
   -0.50624E+08        -0.56265E+06         0.00000E+00
   -0.56265E+06        -0.49092E+08         0.00000E+00
    0.00000E+00         0.00000E+00        -0.49952E+08
 
   -0.50646E+08        -0.55660E+06         0.00000E+00
   -0.55660E+06        -0.49026E+08         0.00000E+00
    0.00000E+00         0.00000E+00        -0.49944E+08
 
   -0.50670E+08        -0.54503E+06         0.00000E+00
   -0.54503E+06        -0.48962E+08         0.00000E+00
    0.00000E+00         0.00000E+00        -0.49936E+08
 
   -0.50696E+08        -0.52815E+06         0.00000E+00
   -0.52815E+06        -0.48901E+08         0.00000E+00
    0.00000E+00         0.00000E+00        -0.49929E+08
 
   -0.50722E+08        -0.50619E+06         0.00000E+00
   -0.50619E+06        -0.48841E+08         0.00000E+00
    0.00000E+00         0.00000E+00        -0.49922E+08
 
   -0.50749E+08        -0.47936E+06         0.00000E+00
   -0.47936E+06        -0.48785E+08         0.00000E+00
    0.00000E+00         0.00000E+00        -0.49916E+08
 
   -0.50775E+08        -0.44786E+06         0.00000E+00
   -0.44786E+06        -0.48730E+08         0.00000E+00
    0.00000E+00         0.00000E+00        -0.49910E+08
 
   -0.50800E+08        -0.41187E+06         0.00000E+00
   -0.41187E+06        -0.48678E+08         0.00000E+00
    0.00000E+00         0.00000E+00        -0.49905E+08
 
   -0.50824E+08        -0.37158E+06         0.00000E+00
   -0.37158E+06        -0.48629E+08         0.00000E+00
    0.00000E+00         0.00000E+00        -0.49900E+08
 
   -0.50846E+08        -0.32714E+06         0.00000E+00
   -0.32714E+06        -0.48583E+08         0.00000E+00
    0.00000E+00         0.00000E+00        -0.49895E+08
 
   -0.50864E+08        -0.27871E+06         0.00000E+00
   -0.27871E+06        -0.48539E+08         0.00000E+00
    0.00000E+00         0.00000E+00        -0.49890E+08
 
   -0.50880E+08        -0.22646E+06         0.00000E+00
   -0.22646E+06        -0.48499E+08         0.00000E+00
    0.00000E+00         0.00000E+00        -0.49885E+08
 
   -0.50891E+08        -0.17054E+06         0.00000E+00
   -0.17054E+06        -0.48461E+08         0.00000E+00
    0.00000E+00         0.00000E+00        -0.49880E+08
 
   -0.50898E+08        -0.11114E+06         0.00000E+00
   -0.11114E+06        -0.48427E+08         0.00000E+00
    0.00000E+00         0.00000E+00        -0.49874E+08
 
   -0.50899E+08        -0.48487E+05         0.00000E+00
   -0.48487E+05        -0.48396E+08         0.00000E+00
    0.00000E+00         0.00000E+00        -0.49868E+08
 
   -0.50895E+08         0.17163E+05         0.00000E+00
    0.17163E+05        -0.48370E+08         0.00000E+00
    0.00000E+00         0.00000E+00        -0.49862E+08
 
   -0.50884E+08         0.85476E+05         0.00000E+00
    0.85476E+05        -0.48347E+08         0.00000E+00
    0.00000E+00         0.00000E+00        -0.49855E+08
 
   -0.50865E+08         0.15603E+06         0.00000E+00
    0.15603E+06        -0.48329E+08         0.00000E+00
    0.00000E+00         0.00000E+00        -0.49848E+08
 
   -0.50839E+08         0.22831E+06         0.00000E+00
    0.22831E+06        -0.48316E+08         0.00000E+00
    0.00000E+00         0.00000E+00        -0.49840E+08
 
   -0.50803E+08         0.30166E+06         0.00000E+00
    0.30166E+06        -0.48308E+08         0.00000E+00
    0.00000E+00         0.00000E+00        -0.49832E+08
 
   -0.50758E+08         0.37529E+06         0.00000E+00
    0.37529E+06        -0.48307E+08         0.00000E+00
    0.00000E+00         0.00000E+00        -0.49822E+08
 
   -0.50702E+08         0.44822E+06         0.00000E+00
    0.44822E+06        -0.48312E+08         0.00000E+00
    0.00000E+00         0.00000E+00        -0.49812E+08
 
   -0.50637E+08         0.51935E+06         0.00000E+00
    0.51935E+06        -0.48323E+08         0.00000E+00
    0.00000E+00         0.00000E+00        -0.49801E+08
 
   -0.50560E+08         0.58740E+06         0.00000E+00
    0.58740E+06        -0.48342E+08         0.00000E+00
    0.00000E+00         0.00000E+00        -0.49790E+08
 
   -0.50472E+08         0.65093E+06         0.00000E+00
    0.65093E+06        -0.48368E+08         0.00000E+00
    0.00000E+00         0.00000E+00        -0.49777E+08
 
   -0.50374E+08         0.70843E+06         0.00000E+00
    0.70843E+06        -0.48402E+08         0.00000E+00
    0.00000E+00         0.00000E+00        -0.49764E+08
 
   -0.50265E+08         0.75830E+06         0.00000E+00
    0.75830E+06        -0.48442E+08         0.00000E+00
    0.00000E+00         0.00000E+00        -0.49751E+08
 
   -0.50148E+08         0.79887E+06         0.00000E+00
    0.79887E+06        -0.48489E+08         0.00000E+00
    0.00000E+00         0.00000E+00        -0.49737E+08
 
   -0.50022E+08         0.82842E+06         0.00000E+00
    0.82842E+06        -0.48543E+08         0.00000E+00
    0.00000E+00         0.00000E+00        -0.49722E+08
 
   -0.49890E+08         0.84523E+06         0.00000E+00
    0.84523E+06        -0.48602E+08         0.00000E+00
    0.00000E+00         0.00000E+00        -0.49708E+08
 
   -0.49754E+08         0.84854E+06         0.00000E+00
    0.84854E+06        -0.48663E+08         0.00000E+00
    0.00000E+00         0.00000E+00        -0.49693E+08
 
   -0.51990E+08         0.15811E+05         0.00000E+00
    0.15811E+05        -0.50001E+08         0.00000E+00
    0.00000E+00         0.00000E+00        -0.50400E+08
 
   -0.51847E+08         0.28133E+05         0.00000E+00
    0.28133E+05        -0.50000E+08         0.00000E+00
    0.00000E+00         0.00000E+00        -0.50371E+08
 
   -0.51708E+08         0.32418E+05         0.00000E+00
    0.32418E+05        -0.49997E+08         0.00000E+00
    0.00000E+00         0.00000E+00        -0.50343E+08
 
   -0.51576E+08         0.29555E+05         0.00000E+00
    0.29555E+05        -0.49991E+08         0.00000E+00
    0.00000E+00         0.00000E+00        -0.50315E+08
 
   -0.51450E+08         0.20296E+05         0.00000E+00
    0.20296E+05        -0.49981E+08         0.00000E+00
    0.00000E+00         0.00000E+00        -0.50288E+08
 
   -0.51333E+08         0.55378E+04         0.00000E+00
    0.55378E+04        -0.49966E+08         0.00000E+00
    0.00000E+00         0.00000E+00        -0.50262E+08
 
   -0.51225E+08        -0.13724E+05         0.00000E+00
   -0.13724E+05        -0.49948E+08         0.00000E+00
    0.00000E+00         0.00000E+00        -0.50236E+08
 
   -0.51126E+08        -0.36445E+05         0.00000E+00
   -0.36445E+05        -0.49925E+08         0.00000E+00
    0.00000E+00         0.00000E+00        -0.50212E+08
 
   -0.51037E+08        -0.61574E+05         0.00000E+00
   -0.61574E+05        -0.49897E+08         0.00000E+00
    0.00000E+00         0.00000E+00        -0.50189E+08
 
   -0.50958E+08        -0.88092E+05         0.00000E+00
   -0.88092E+05        -0.49866E+08         0.00000E+00
    0.00000E+00         0.00000E+00        -0.50166E+08
 
   -0.50888E+08        -0.11505E+06         0.00000E+00
   -0.11505E+06        -0.49830E+08         0.00000E+00
    0.00000E+00         0.00000E+00        -0.50145E+08
 
   -0.50828E+08        -0.14156E+06         0.00000E+00
   -0.14156E+06        -0.49791E+08         0.00000E+00
    0.00000E+00         0.00000E+00        -0.50125E+08
 
   -0.50777E+08        -0.16685E+06         0.00000E+00
   -0.16685E+06        -0.49748E+08         0.00000E+00
    0.00000E+00         0.00000E+00        -0.50107E+08
 
   -0.50735E+08        -0.19023E+06         0.00000E+00
   -0.19023E+06        -0.49703E+08         0.00000E+00
    0.00000E+00         0.00000E+00        -0.50089E+08
 
   -0.50700E+08        -0.21113E+06         0.00000E+00
   -0.21113E+06        -0.49655E+08         0.00000E+00
    0.00000E+00         0.00000E+00        -0.50073E+08
 
   -0.50672E+08        -0.22906E+06         0.00000E+00
   -0.22906E+06        -0.49606E+08         0.00000E+00
    0.00000E+00         0.00000E+00        -0.50057E+08
 
   -0.50651E+08        -0.24366E+06         0.00000E+00
   -0.24366E+06        -0.49555E+08         0.00000E+00
    0.00000E+00         0.00000E+00        -0.50043E+08
 
   -0.50636E+08        -0.25463E+06         0.00000E+00
   -0.25463E+06        -0.49503E+08         0.00000E+00
    0.00000E+00         0.00000E+00        -0.50029E+08
 
   -0.50626E+08        -0.26177E+06         0.00000E+00
   -0.26177E+06        -0.49451E+08         0.00000E+00
    0.00000E+00         0.00000E+00        -0.50017E+08
 
   -0.50620E+08        -0.26494E+06         0.00000E+00
   -0.26494E+06        -0.49398E+08         0.00000E+00
    0.00000E+00         0.00000E+00        -0.50005E+08
 
   -0.50617E+08        -0.26408E+06         0.00000E+00
   -0.26408E+06        -0.49346E+08         0.00000E+00
    0.00000E+00         0.00000E+00        -0.49994E+08
 
   -0.50618E+08        -0.25915E+06         0.00000E+00
   -0.25915E+06        -0.49295E+08         0.00000E+00
    0.00000E+00         0.00000E+00        -0.49984E+08
 
   -0.50620E+08        -0.25018E+06         0.00000E+00
   -0.25018E+06        -0.49244E+08         0.00000E+00
    0.00000E+00         0.00000E+00        -0.49975E+08
 
   -0.50625E+08        -0.23722E+06         0.00000E+00
   -0.23722E+06        -0.49195E+08         0.00000E+00
    0.00000E+00         0.00000E+00        -0.49966E+08
 
   -0.50630E+08        -0.22037E+06         0.00000E+00
   -0.22037E+06        -0.49147E+08         0.00000E+00
    0.00000E+00         0.00000E+00        -0.49957E+08
 
   -0.50635E+08        -0.19974E+06         0.00000E+00
   -0.19974E+06        -0.49101E+08         0.00000E+00
    0.00000E+00         0.00000E+00        -0.49949E+08
 
   -0.50641E+08        -0.17545E+06         0.00000E+00
   -0.17545E+06        -0.49056E+08         0.00000E+00
    0.00000E+00         0.00000E+00        -0.49941E+08
 
   -0.50645E+08        -0.14767E+06         0.00000E+00
   -0.14767E+06        -0.49014E+08         0.00000E+00
    0.00000E+00         0.00000E+00        -0.49934E+08
 
   -0.50649E+08        -0.11657E+06         0.00000E+00
   -0.11657E+06        -0.48975E+08         0.00000E+00
    0.00000E+00         0.00000E+00        -0.49926E+08
 
   -0.50650E+08        -0.82357E+05         0.00000E+00
   -0.82357E+05        -0.48937E+08         0.00000E+00
    0.00000E+00         0.00000E+00        -0.49919E+08
 
   -0.50649E+08        -0.45247E+05         0.00000E+00
   -0.45247E+05        -0.48903E+08         0.00000E+00
    0.00000E+00         0.00000E+00        -0.49912E+08
 
   -0.50645E+08        -0.54948E+04         0.00000E+00
   -0.54948E+04        -0.48872E+08         0.00000E+00
    0.00000E+00         0.00000E+00        -0.49905E+08
 
   -0.50638E+08         0.36614E+05         0.00000E+00
    0.36614E+05        -0.48843E+08         0.00000E+00
    0.00000E+00         0.00000E+00        -0.49898E+08
 
   -0.50628E+08         0.80755E+05         0.00000E+00
    0.80755E+05        -0.48819E+08         0.00000E+00
    0.00000E+00         0.00000E+00        -0.49891E+08
 
   -0.50613E+08         0.12656E+06         0.00000E+00
    0.12656E+06        -0.48797E+08         0.00000E+00
    0.00000E+00         0.00000E+00        -0.49884E+08
 
   -0.50593E+08         0.17361E+06         0.00000E+00
    0.17361E+06        -0.48780E+08         0.00000E+00
    0.00000E+00         0.00000E+00        -0.49876E+08
 
   -0.50569E+08         0.22144E+06         0.00000E+00
    0.22144E+06        -0.48767E+08         0.00000E+00
    0.00000E+00         0.00000E+00        -0.49869E+08
 
   -0.50539E+08         0.26952E+06         0.00000E+00
    0.26952E+06        -0.48758E+08         0.00000E+00
    0.00000E+00         0.00000E+00        -0.49861E+08
 
   -0.50504E+08         0.31724E+06         0.00000E+00
    0.31724E+06        -0.48753E+08         0.00000E+00
    0.00000E+00         0.00000E+00        -0.49853E+08
 
   -0.50463E+08         0.36398E+06         0.00000E+00
    0.36398E+06        -0.48753E+08         0.00000E+00
    0.00000E+00         0.00000E+00        -0.49845E+08
 
   -0.50417E+08         0.40901E+06         0.00000E+00
    0.40901E+06        -0.48757E+08         0.00000E+00
    0.00000E+00         0.00000E+00        -0.49836E+08
 
   -0.50364E+08         0.45158E+06         0.00000E+00
    0.45158E+06        -0.48767E+08         0.00000E+00
    0.00000E+00         0.00000E+00        -0.49828E+08
 
   -0.50306E+08         0.49091E+06         0.00000E+00
    0.49091E+06        -0.48780E+08         0.00000E+00
    0.00000E+00         0.00000E+00        -0.49819E+08
 
   -0.50243E+08         0.52618E+06         0.00000E+00
    0.52618E+06        -0.48799E+08         0.00000E+00
    0.00000E+00         0.00000E+00        -0.49810E+08
 
   -0.50176E+08         0.55656E+06         0.00000E+00
    0.55656E+06        -0.48821E+08         0.00000E+00
    0.00000E+00         0.00000E+00        -0.49801E+08
 
   -0.50103E+08         0.58123E+06         0.00000E+00
    0.58123E+06        -0.48847E+08         0.00000E+00
    0.00000E+00         0.00000E+00        -0.49792E+08
 
   -0.50028E+08         0.59941E+06         0.00000E+00
    0.59941E+06        -0.48877E+08         0.00000E+00
    0.00000E+00         0.00000E+00        -0.49783E+08
 
   -0.49950E+08         0.61039E+06         0.00000E+00
    0.61039E+06        -0.48910E+08         0.00000E+00
    0.00000E+00         0.00000E+00        -0.49774E+08
 
   -0.49871E+08         0.61362E+06         0.00000E+00
    0.61362E+06        -0.48944E+08         0.00000E+00
    0.00000E+00         0.00000E+00        -0.49765E+08
 
   -0.49791E+08         0.60842E+06         0.00000E+00
    0.60842E+06        -0.48980E+08         0.00000E+00
    0.00000E+00         0.00000E+00        -0.49756E+08
 
   -0.51891E+08         0.16695E+05         0.00000E+00
    0.16695E+05        -0.50001E+08         0.00000E+00
    0.00000E+00         0.00000E+00        -0.50379E+08
 
   -0.51780E+08         0.37044E+05         0.00000E+00
    0.37044E+05        -0.50000E+08         0.00000E+00
    0.00000E+00         0.00000E+00        -0.50356E+08
 
   -0.51673E+08         0.52138E+05         0.00000E+00
    0.52138E+05        -0.49998E+08         0.00000E+00
    0.00000E+00         0.00000E+00        -0.50334E+08
 
   -0.51569E+08         0.62232E+05         0.00000E+00
    0.62232E+05        -0.49994E+08         0.00000E+00
    0.00000E+00         0.00000E+00        -0.50313E+08
 
   -0.51469E+08         0.67747E+05         0.00000E+00
    0.67747E+05        -0.49988E+08         0.00000E+00
    0.00000E+00         0.00000E+00        -0.50292E+08
 
   -0.51374E+08         0.69155E+05         0.00000E+00
    0.69155E+05        -0.49980E+08         0.00000E+00
    0.00000E+00         0.00000E+00        -0.50271E+08
 
   -0.51284E+08         0.66971E+05         0.00000E+00
    0.66971E+05        -0.49969E+08         0.00000E+00
    0.00000E+00         0.00000E+00        -0.50251E+08
 
   -0.51199E+08         0.61748E+05         0.00000E+00
    0.61748E+05        -0.49955E+08         0.00000E+00
    0.00000E+00         0.00000E+00        -0.50231E+08
 
   -0.51120E+08         0.54061E+05         0.00000E+00
    0.54061E+05        -0.49938E+08         0.00000E+00
    0.00000E+00         0.00000E+00        -0.50212E+08
 
   -0.51048E+08         0.44495E+05         0.00000E+00
    0.44495E+05        -0.49919E+08         0.00000E+00
    0.00000E+00         0.00000E+00        -0.50194E+08
 
   -0.50981E+08         0.33628E+05         0.00000E+00
    0.33628E+05        -0.49897E+08         0.00000E+00
    0.00000E+00         0.00000E+00        -0.50176E+08
 
   -0.50920E+08         0.22024E+05         0.00000E+00
    0.22024E+05        -0.49873E+08         0.00000E+00
    0.00000E+00         0.00000E+00        -0.50159E+08
 
   -0.50865E+08         0.10214E+05         0.00000E+00
    0.10214E+05        -0.49846E+08         0.00000E+00
    0.00000E+00         0.00000E+00        -0.50142E+08
 
   -0.50816E+08        -0.13065E+04         0.00000E+00
   -0.13065E+04        -0.49816E+08         0.00000E+00
    0.00000E+00         0.00000E+00        -0.50127E+08
 
   -0.50773E+08        -0.12086E+05         0.00000E+00
   -0.12086E+05        -0.49785E+08         0.00000E+00
    0.00000E+00         0.00000E+00        -0.50112E+08
 
   -0.50734E+08        -0.21720E+05         0.00000E+00
   -0.21720E+05        -0.49752E+08         0.00000E+00
    0.00000E+00         0.00000E+00        -0.50097E+08
 
   -0.50700E+08        -0.29856E+05         0.00000E+00
   -0.29856E+05        -0.49717E+08         0.00000E+00
    0.00000E+00         0.00000E+00        -0.50084E+08
 
   -0.50671E+08        -0.36191E+05         0.00000E+00
   -0.36191E+05        -0.49682E+08         0.00000E+00
    0.00000E+00         0.00000E+00        -0.50071E+08
 
   -0.50646E+08        -0.40476E+05         0.00000E+00
   -0.40476E+05        -0.49645E+08         0.00000E+00
    0.00000E+00         0.00000E+00        -0.50059E+08
 
   -0.50624E+08        -0.42510E+05         0.00000E+00
   -0.42510E+05        -0.49608E+08         0.00000E+00
    0.00000E+00         0.00000E+00        -0.50047E+08
 
   -0.50606E+08        -0.42139E+05         0.00000E+00
   -0.42139E+05        -0.49571E+08         0.00000E+00
    0.00000E+00         0.00000E+00        -0.50036E+08
 
   -0.50590E+08        -0.39254E+05         0.00000E+00
   -0.39254E+05        -0.49533E+08         0.00000E+00
    0.00000E+00         0.00000E+00        -0.50025E+08
 
   -0.50576E+08        -0.33789E+05         0.00000E+00
   -0.33789E+05        -0.49496E+08         0.00000E+00
    0.00000E+00         0.00000E+00        -0.50015E+08
 
   -0.50564E+08        -0.25716E+05         0.00000E+00
   -0.25716E+05        -0.49460E+08         0.00000E+00
    0.00000E+00         0.00000E+00        -0.50005E+08
 
   -0.50554E+08        -0.15044E+05         0.00000E+00
   -0.15044E+05        -0.49424E+08         0.00000E+00
    0.00000E+00         0.00000E+00        -0.49996E+08
 
   -0.50544E+08        -0.18163E+04         0.00000E+00
   -0.18163E+04        -0.49389E+08         0.00000E+00
    0.00000E+00         0.00000E+00        -0.49987E+08
 
   -0.50534E+08         0.13892E+05         0.00000E+00
    0.13892E+05        -0.49356E+08         0.00000E+00
    0.00000E+00         0.00000E+00        -0.49978E+08
 
   -0.50524E+08         0.31976E+05         0.00000E+00
    0.31976E+05        -0.49324E+08         0.00000E+00
    0.00000E+00         0.00000E+00        -0.49970E+08
 
   -0.50514E+08         0.52299E+05         0.00000E+00
    0.52299E+05        -0.49294E+08         0.00000E+00
    0.00000E+00         0.00000E+00        -0.49962E+08
 
   -0.50503E+08         0.74697E+05         0.00000E+00
    0.74697E+05        -0.49266E+08         0.00000E+00
    0.00000E+00         0.00000E+00        -0.49954E+08
 
   -0.50491E+08         0.98976E+05         0.00000E+00
    0.98976E+05        -0.49240E+08         0.00000E+00
    0.00000E+00         0.00000E+00        -0.49946E+08
 
   -0.50478E+08         0.12491E+06         0.00000E+00
    0.12491E+06        -0.49216E+08         0.00000E+00
    0.00000E+00         0.00000E+00        -0.49939E+08
 
   -0.50462E+08         0.15226E+06         0.00000E+00
    0.15226E+06        -0.49195E+08         0.00000E+00
    0.00000E+00         0.00000E+00        -0.49932E+08
 
   -0.50445E+08         0.18072E+06         0.00000E+00
    0.18072E+06        -0.49176E+08         0.00000E+00
    0.00000E+00         0.00000E+00        -0.49924E+08
 
   -0.50425E+08         0.21000E+06         0.00000E+00
    0.21000E+06        -0.49161E+08         0.00000E+00
    0.00000E+00         0.00000E+00        -0.49917E+08
 
   -0.50402E+08         0.23975E+06         0.00000E+00
    0.23975E+06        -0.49148E+08         0.00000E+00
    0.00000E+00         0.00000E+00        -0.49910E+08
 
   -0.50377E+08         0.26959E+06         0.00000E+00
    0.26959E+06        -0.49138E+08         0.00000E+00
    0.00000E+00         0.00000E+00        -0.49903E+08
 
   -0.50349E+08         0.29915E+06         0.00000E+00
    0.29915E+06        -0.49131E+08         0.00000E+00
    0.00000E+00         0.00000E+00        -0.49896E+08
 
   -0.50318E+08         0.32799E+06         0.00000E+00
    0.32799E+06        -0.49128E+08         0.00000E+00
    0.00000E+00         0.00000E+00        -0.49889E+08
 
   -0.50284E+08         0.35568E+06         0.00000E+00
    0.35568E+06        -0.49127E+08         0.00000E+00
    0.00000E+00         0.00000E+00        -0.49882E+08
 
   -0.50247E+08         0.38176E+06         0.00000E+00
    0.38176E+06        -0.49130E+08         0.00000E+00
    0.00000E+00         0.00000E+00        -0.49876E+08
 
   -0.50208E+08         0.40577E+06         0.00000E+00
    0.40577E+06        -0.49136E+08         0.00000E+00
    0.00000E+00         0.00000E+00        -0.49869E+08
 
   -0.50166E+08         0.42726E+06         0.00000E+00
    0.42726E+06        -0.49144E+08         0.00000E+00
    0.00000E+00         0.00000E+00        -0.49862E+08
 
   -0.50122E+08         0.44575E+06         0.00000E+00
    0.44575E+06        -0.49155E+08         0.00000E+00
    0.00000E+00         0.00000E+00        -0.49856E+08
 
   -0.50076E+08         0.46082E+06         0.00000E+00
    0.46082E+06        -0.49169E+08         0.00000E+00
    0.00000E+00         0.00000E+00        -0.49849E+08
 
   -0.50029E+08         0.47204E+06         0.00000E+00
    0.47204E+06        -0.49185E+08         0.00000E+00
    0.00000E+00         0.00000E+00        -0.49843E+08
 
   -0.49982E+08         0.47905E+06         0.00000E+00
    0.47905E+06        -0.49203E+08         0.00000E+00
    0.00000E+00         0.00000E+00        -0.49837E+08
 
   -0.49934E+08         0.48152E+06         0.00000E+00
    0.48152E+06        -0.49222E+08         0.00000E+00
    0.00000E+00         0.00000E+00        -0.49831E+08
 
   -0.49887E+08         0.47914E+06         0.00000E+00
    0.47914E+06        -0.49242E+08         0.00000E+00
    0.00000E+00         0.00000E+00        -0.49826E+08
 
   -0.49841E+08         0.47175E+06         0.00000E+00
    0.47175E+06        -0.49262E+08         0.00000E+00
    0.00000E+00         0.00000E+00        -0.49821E+08
 
   -0.51764E+08         0.17528E+05         0.00000E+00
    0.17528E+05        -0.50000E+08         0.00000E+00
    0.00000E+00         0.00000E+00        -0.50353E+08
 
   -0.51677E+08         0.42880E+05         0.00000E+00
    0.42880E+05        -0.50000E+08         0.00000E+00
    0.00000E+00         0.00000E+00        -0.50335E+08
 
   -0.51591E+08         0.64282E+05         0.00000E+00
    0.64282E+05        -0.49999E+08         0.00000E+00
    0.00000E+00         0.00000E+00        -0.50318E+08
 
   -0.51508E+08         0.81962E+05         0.00000E+00
    0.81962E+05        -0.49996E+08         0.00000E+00
    0.00000E+00         0.00000E+00        -0.50301E+08
 
   -0.51427E+08         0.96163E+05         0.00000E+00
    0.96163E+05        -0.49993E+08         0.00000E+00
    0.00000E+00         0.00000E+00        -0.50284E+08
 
   -0.51349E+08         0.10716E+06         0.00000E+00
    0.10716E+06        -0.49988E+08         0.00000E+00
    0.00000E+00         0.00000E+00        -0.50267E+08
 
   -0.51274E+08         0.11526E+06         0.00000E+00
    0.11526E+06        -0.49981E+08         0.00000E+00
    0.00000E+00         0.00000E+00        -0.50251E+08
 
   -0.51202E+08         0.12080E+06         0.00000E+00
    0.12080E+06        -0.49973E+08         0.00000E+00
    0.00000E+00         0.00000E+00        -0.50235E+08
 
   -0.51134E+08         0.12412E+06         0.00000E+00
    0.12412E+06        -0.49963E+08         0.00000E+00
    0.00000E+00         0.00000E+00        -0.50220E+08
 
   -0.51070E+08         0.12557E+06         0.00000E+00
    0.12557E+06        -0.49952E+08         0.00000E+00
    0.00000E+00         0.00000E+00        -0.50204E+08
 
   -0.51009E+08         0.12550E+06         0.00000E+00
    0.12550E+06        -0.49938E+08         0.00000E+00
    0.00000E+00         0.00000E+00        -0.50189E+08
 
   -0.50952E+08         0.12428E+06         0.00000E+00
    0.12428E+06        -0.49923E+08         0.00000E+00
    0.00000E+00         0.00000E+00        -0.50175E+08
 
   -0.50899E+08         0.12226E+06         0.00000E+00
    0.12226E+06        -0.49907E+08         0.00000E+00
    0.00000E+00         0.00000E+00        -0.50161E+08
 
   -0.50849E+08         0.11975E+06         0.00000E+00
    0.11975E+06        -0.49888E+08         0.00000E+00
    0.00000E+00         0.00000E+00        -0.50148E+08
 
   -0.50803E+08         0.11708E+06         0.00000E+00
    0.11708E+06        -0.49869E+08         0.00000E+00
    0.00000E+00         0.00000E+00        -0.50134E+08
 
   -0.50761E+08         0.11455E+06         0.00000E+00
    0.11455E+06        -0.49848E+08         0.00000E+00
    0.00000E+00         0.00000E+00        -0.50122E+08
 
   -0.50722E+08         0.11241E+06         0.00000E+00
    0.11241E+06        -0.49826E+08         0.00000E+00
    0.00000E+00         0.00000E+00        -0.50110E+08
 
   -0.50687E+08         0.11091E+06         0.00000E+00
    0.11091E+06        -0.49802E+08         0.00000E+00
    0.00000E+00         0.00000E+00        -0.50098E+08
 
   -0.50654E+08         0.11026E+06         0.00000E+00
    0.11026E+06        -0.49779E+08         0.00000E+00
    0.00000E+00         0.00000E+00        -0.50087E+08
 
   -0.50624E+08         0.11064E+06         0.00000E+00
    0.11064E+06        -0.49754E+08         0.00000E+00
    0.00000E+00         0.00000E+00        -0.50076E+08
 
   -0.50596E+08         0.11219E+06         0.00000E+00
    0.11219E+06        -0.49729E+08         0.00000E+00
    0.00000E+00         0.00000E+00        -0.50065E+08
 
   -0.50571E+08         0.11503E+06         0.00000E+00
    0.11503E+06        -0.49704E+08         0.00000E+00
    0.00000E+00         0.00000E+00        -0.50055E+08
 
   -0.50547E+08         0.11926E+06         0.00000E+00
    0.11926E+06        -0.49679E+08         0.00000E+00
    0.00000E+00         0.00000E+00        -0.50045E+08
 
   -0.50525E+08         0.12493E+06         0.00000E+00
    0.12493E+06        -0.49654E+08         0.00000E+00
    0.00000E+00         0.00000E+00        -0.50036E+08
 
   -0.50504E+08         0.13205E+06         0.00000E+00
    0.13205E+06        -0.49630E+08         0.00000E+00
    0.00000E+00         0.00000E+00        -0.50027E+08
 
   -0.50485E+08         0.14064E+06         0.00000E+00
    0.14064E+06        -0.49606E+08         0.00000E+00
    0.00000E+00         0.00000E+00        -0.50018E+08
 
   -0.50465E+08         0.15065E+06         0.00000E+00
    0.15065E+06        -0.49583E+08         0.00000E+00
    0.00000E+00         0.00000E+00        -0.50010E+08
 
   -0.50447E+08         0.16204E+06         0.00000E+00
    0.16204E+06        -0.49561E+08         0.00000E+00
    0.00000E+00         0.00000E+00        -0.50002E+08
 
   -0.50428E+08         0.17471E+06         0.00000E+00
    0.17471E+06        -0.49540E+08         0.00000E+00
    0.00000E+00         0.00000E+00        -0.49994E+08
 
   -0.50410E+08         0.18857E+06         0.00000E+00
    0.18857E+06        -0.49521E+08         0.00000E+00
    0.00000E+00         0.00000E+00        -0.49986E+08
 
   -0.50391E+08         0.20347E+06         0.00000E+00
    0.20347E+06        -0.49502E+08         0.00000E+00
    0.00000E+00         0.00000E+00        -0.49979E+08
 
   -0.50372E+08         0.21926E+06         0.00000E+00
    0.21926E+06        -0.49486E+08         0.00000E+00
    0.00000E+00         0.00000E+00        -0.49972E+08
 
   -0.50351E+08         0.23576E+06         0.00000E+00
    0.23576E+06        -0.49471E+08         0.00000E+00
    0.00000E+00         0.00000E+00        -0.49965E+08
 
   -0.50331E+08         0.25279E+06         0.00000E+00
    0.25279E+06        -0.49459E+08         0.00000E+00
    0.00000E+00         0.00000E+00        -0.49958E+08
 
   -0.50309E+08         0.27011E+06         0.00000E+00
    0.27011E+06        -0.49448E+08         0.00000E+00
    0.00000E+00         0.00000E+00        -0.49951E+08
 
   -0.50285E+08         0.28751E+06         0.00000E+00
    0.28751E+06        -0.49439E+08         0.00000E+00
    0.00000E+00         0.00000E+00        -0.49945E+08
 
   -0.50261E+08         0.30473E+06         0.00000E+00
    0.30473E+06        -0.49432E+08         0.00000E+00
    0.00000E+00         0.00000E+00        -0.49939E+08
 
   -0.50236E+08         0.32152E+06         0.00000E+00
    0.32152E+06        -0.49427E+08         0.00000E+00
    0.00000E+00         0.00000E+00        -0.49933E+08
 
   -0.50209E+08         0.33762E+06         0.00000E+00
    0.33762E+06        -0.49424E+08         0.00000E+00
    0.00000E+00         0.00000E+00        -0.49927E+08
 
   -0.50182E+08         0.35274E+06         0.00000E+00
    0.35274E+06        -0.49423E+08         0.00000E+00
    0.00000E+00         0.00000E+00        -0.49921E+08
 
   -0.50153E+08         0.36662E+06         0.00000E+00
    0.36662E+06        -0.49425E+08         0.00000E+00
    0.00000E+00         0.00000E+00        -0.49916E+08
 
   -0.50123E+08         0.37899E+06         0.00000E+00
    0.37899E+06        -0.49428E+08         0.00000E+00
    0.00000E+00         0.00000E+00        -0.49910E+08
 
   -0.50093E+08         0.38958E+06         0.00000E+00
    0.38958E+06        -0.49433E+08         0.00000E+00
    0.00000E+00         0.00000E+00        -0.49905E+08
 
   -0.50063E+08         0.39815E+06         0.00000E+00
    0.39815E+06        -0.49439E+08         0.00000E+00
    0.00000E+00         0.00000E+00        -0.49900E+08
 
   -0.50032E+08         0.40447E+06         0.00000E+00
    0.40447E+06        -0.49447E+08         0.00000E+00
    0.00000E+00         0.00000E+00        -0.49896E+08
 
   -0.50001E+08         0.40833E+06         0.00000E+00
    0.40833E+06        -0.49456E+08         0.00000E+00
    0.00000E+00         0.00000E+00        -0.49892E+08
 
   -0.49971E+08         0.40953E+06         0.00000E+00
    0.40953E+06        -0.49466E+08         0.00000E+00
    0.00000E+00         0.00000E+00        -0.49888E+08
 
   -0.49942E+08         0.40793E+06         0.00000E+00
    0.40793E+06        -0.49477E+08         0.00000E+00
    0.00000E+00         0.00000E+00        -0.49884E+08
 
   -0.49914E+08         0.40342E+06         0.00000E+00
    0.40342E+06        -0.49488E+08         0.00000E+00
    0.00000E+00         0.00000E+00        -0.49881E+08
 
   -0.49889E+08         0.39591E+06         0.00000E+00
    0.39591E+06        -0.49499E+08         0.00000E+00
    0.00000E+00         0.00000E+00        -0.49878E+08
 
   -0.51620E+08         0.17908E+05         0.00000E+00
    0.17908E+05        -0.50000E+08         0.00000E+00
    0.00000E+00         0.00000E+00        -0.50324E+08
 
   -0.51551E+08         0.45998E+05         0.00000E+00
    0.45998E+05        -0.50000E+08         0.00000E+00
    0.00000E+00         0.00000E+00        -0.50310E+08
 
   -0.51483E+08         0.70966E+05         0.00000E+00
    0.70966E+05        -0.49999E+08         0.00000E+00
    0.00000E+00         0.00000E+00        -0.50296E+08
 
   -0.51416E+08         0.92965E+05         0.00000E+00
    0.92965E+05        -0.49998E+08         0.00000E+00
    0.00000E+00         0.00000E+00        -0.50283E+08
 
   -0.51350E+08         0.11217E+06         0.00000E+00
    0.11217E+06        -0.49997E+08         0.00000E+00
    0.00000E+00         0.00000E+00        -0.50269E+08
 
   -0.51286E+08         0.12877E+06         0.00000E+00
    0.12877E+06        -0.49994E+08         0.00000E+00
    0.00000E+00         0.00000E+00        -0.50256E+08
 
   -0.51223E+08         0.14296E+06         0.00000E+00
    0.14296E+06        -0.49991E+08         0.00000E+00
    0.00000E+00         0.00000E+00        -0.50243E+08
 
   -0.51163E+08         0.15496E+06         0.00000E+00
    0.15496E+06        -0.49986E+08         0.00000E+00
    0.00000E+00         0.00000E+00        -0.50230E+08
 
   -0.51104E+08         0.16500E+06         0.00000E+00
    0.16500E+06        -0.49981E+08         0.00000E+00
    0.00000E+00         0.00000E+00        -0.50217E+08
 
   -0.51048E+08         0.17328E+06         0.00000E+00
    0.17328E+06        -0.49974E+08         0.00000E+00
    0.00000E+00         0.00000E+00        -0.50204E+08
 
   -0.50994E+08         0.18006E+06         0.00000E+00
    0.18006E+06        -0.49967E+08         0.00000E+00
    0.00000E+00         0.00000E+00        -0.50192E+08
 
   -0.50942E+08         0.18555E+06         0.00000E+00
    0.18555E+06        -0.49958E+08         0.00000E+00
    0.00000E+00         0.00000E+00        -0.50180E+08
 
   -0.50893E+08         0.18998E+06         0.00000E+00
    0.18998E+06        -0.49949E+08         0.00000E+00
    0.00000E+00         0.00000E+00        -0.50168E+08
 
   -0.50846E+08         0.19358E+06         0.00000E+00
    0.19358E+06        -0.49938E+08         0.00000E+00
    0.00000E+00         0.00000E+00        -0.50157E+08
 
   -0.50802E+08         0.19656E+06         0.00000E+00
    0.19656E+06        -0.49926E+08         0.00000E+00
    0.00000E+00         0.00000E+00        -0.50146E+08
 
   -0.50760E+08         0.19912E+06         0.00000E+00
    0.19912E+06        -0.49914E+08         0.00000E+00
    0.00000E+00         0.00000E+00        -0.50135E+08
 
   -0.50720E+08         0.20146E+06         0.00000E+00
    0.20146E+06        -0.49901E+08         0.00000E+00
    0.00000E+00         0.00000E+00        -0.50124E+08
 
   -0.50683E+08         0.20373E+06         0.00000E+00
    0.20373E+06        -0.49887E+08         0.00000E+00
    0.00000E+00         0.00000E+00        -0.50114E+08
 
   -0.50647E+08         0.20611E+06         0.00000E+00
    0.20611E+06        -0.49872E+08         0.00000E+00
    0.00000E+00         0.00000E+00        -0.50104E+08
 
   -0.50614E+08         0.20873E+06         0.00000E+00
    0.20873E+06        -0.49857E+08         0.00000E+00
    0.00000E+00         0.00000E+00        -0.50094E+08
 
   -0.50582E+08         0.21170E+06         0.00000E+00
    0.21170E+06        -0.49842E+08         0.00000E+00
    0.00000E+00         0.00000E+00        -0.50085E+08
 
   -0.50552E+08         0.21514E+06         0.00000E+00
    0.21514E+06        -0.49826E+08         0.00000E+00
    0.00000E+00         0.00000E+00        -0.50076E+08
 
   -0.50524E+08         0.21911E+06         0.00000E+00
    0.21911E+06        -0.49811E+08         0.00000E+00
    0.00000E+00         0.00000E+00        -0.50067E+08
 
   -0.50497E+08         0.22368E+06         0.00000E+00
    0.22368E+06        -0.49795E+08         0.00000E+00
    0.00000E+00         0.00000E+00        -0.50058E+08
 
   -0.50471E+08         0.22888E+06         0.00000E+00
    0.22888E+06        -0.49780E+08         0.00000E+00
    0.00000E+00         0.00000E+00        -0.50050E+08
 
   -0.50446E+08         0.23473E+06         0.00000E+00
    0.23473E+06        -0.49765E+08         0.00000E+00
    0.00000E+00         0.00000E+00        -0.50042E+08
 
   -0.50422E+08         0.24124E+06         0.00000E+00
    0.24124E+06        -0.49750E+08         0.00000E+00
    0.00000E+00         0.00000E+00        -0.50034E+08
 
   -0.50399E+08         0.24836E+06         0.00000E+00
    0.24836E+06        -0.49736E+08         0.00000E+00
    0.00000E+00         0.00000E+00        -0.50027E+08
 
   -0.50376E+08         0.25608E+06         0.00000E+00
    0.25608E+06        -0.49723E+08         0.00000E+00
    0.00000E+00         0.00000E+00        -0.50020E+08
 
   -0.50353E+08         0.26431E+06         0.00000E+00
    0.26431E+06        -0.49711E+08         0.00000E+00
    0.00000E+00         0.00000E+00        -0.50013E+08
 
   -0.50331E+08         0.27300E+06         0.00000E+00
    0.27300E+06        -0.49700E+08         0.00000E+00
    0.00000E+00         0.00000E+00        -0.50006E+08
 
   -0.50309E+08         0.28205E+06         0.00000E+00
    0.28205E+06        -0.49689E+08         0.00000E+00
    0.00000E+00         0.00000E+00        -0.50000E+08
 
   -0.50287E+08         0.29135E+06         0.00000E+00
    0.29135E+06        -0.49680E+08         0.00000E+00
    0.00000E+00         0.00000E+00        -0.49993E+08
 
   -0.50265E+08         0.30078E+06         0.00000E+00
    0.30078E+06        -0.49672E+08         0.00000E+00
    0.00000E+00         0.00000E+00        -0.49987E+08
 
   -0.50243E+08         0.31022E+06         0.00000E+00
    0.31022E+06        -0.49665E+08         0.00000E+00
    0.00000E+00         0.00000E+00        -0.49981E+08
 
   -0.50220E+08         0.31952E+06         0.00000E+00
    0.31952E+06        -0.49659E+08         0.00000E+00
    0.00000E+00         0.00000E+00        -0.49976E+08
 
   -0.50198E+08         0.32854E+06         0.00000E+00
    0.32854E+06        -0.49655E+08         0.00000E+00
    0.00000E+00         0.00000E+00        -0.49970E+08
 
   -0.50175E+08         0.33713E+06         0.00000E+00
    0.33713E+06        -0.49652E+08         0.00000E+00
    0.00000E+00         0.00000E+00        -0.49965E+08
 
   -0.50152E+08         0.34513E+06         0.00000E+00
    0.34513E+06        -0.49650E+08         0.00000E+00
    0.00000E+00         0.00000E+00        -0.49960E+08
 
   -0.50129E+08         0.35239E+06         0.00000E+00
    0.35239E+06        -0.49649E+08         0.00000E+00
    0.00000E+00         0.00000E+00        -0.49956E+08
 
   -0.50106E+08         0.35876E+06         0.00000E+00
    0.35876E+06        -0.49650E+08         0.00000E+00
    0.00000E+00         0.00000E+00        -0.49951E+08
 
   -0.50084E+08         0.36409E+06         0.00000E+00
    0.36409E+06        -0.49652E+08         0.00000E+00
    0.00000E+00         0.00000E+00        -0.49947E+08
 
   -0.50061E+08         0.36824E+06         0.00000E+00
    0.36824E+06        -0.49655E+08         0.00000E+00
    0.00000E+00         0.00000E+00        -0.49943E+08
 
   -0.50039E+08         0.37107E+06         0.00000E+00
    0.37107E+06        -0.49658E+08         0.00000E+00
    0.00000E+00         0.00000E+00        -0.49940E+08
 
   -0.50018E+08         0.37249E+06         0.00000E+00
    0.37249E+06        -0.49663E+08         0.00000E+00
    0.00000E+00         0.00000E+00        -0.49936E+08
 
   -0.49998E+08         0.37238E+06         0.00000E+00
    0.37238E+06        -0.49668E+08         0.00000E+00
    0.00000E+00         0.00000E+00        -0.49933E+08
 
   -0.49978E+08         0.37067E+06         0.00000E+00
    0.37067E+06        -0.49674E+08         0.00000E+00
    0.00000E+00         0.00000E+00        -0.49930E+08
 
   -0.49961E+08         0.36731E+06         0.00000E+00
    0.36731E+06        -0.49679E+08         0.00000E+00
    0.00000E+00         0.00000E+00        -0.49928E+08
 
   -0.49944E+08         0.36224E+06         0.00000E+00
    0.36224E+06        -0.49685E+08         0.00000E+00
    0.00000E+00         0.00000E+00        -0.49926E+08
 
   -0.49930E+08         0.35548E+06         0.00000E+00
    0.35548E+06        -0.49691E+08         0.00000E+00
    0.00000E+00         0.00000E+00        -0.49924E+08
 
   -0.51469E+08         0.17689E+05         0.00000E+00
    0.17689E+05        -0.50000E+08         0.00000E+00
    0.00000E+00         0.00000E+00        -0.50294E+08
 
   -0.51415E+08         0.46768E+05         0.00000E+00
    0.46768E+05        -0.50000E+08         0.00000E+00
    0.00000E+00         0.00000E+00        -0.50283E+08
 
   -0.51360E+08         0.73293E+05         0.00000E+00
    0.73293E+05        -0.50000E+08         0.00000E+00
    0.00000E+00         0.00000E+00        -0.50272E+08
 
   -0.51306E+08         0.97381E+05         0.00000E+00
    0.97381E+05        -0.50000E+08         0.00000E+00
    0.00000E+00         0.00000E+00        -0.50261E+08
 
   -0.51253E+08         0.11916E+06         0.00000E+00
    0.11916E+06        -0.50000E+08         0.00000E+00
    0.00000E+00         0.00000E+00        -0.50250E+08
 
   -0.51200E+08         0.13875E+06         0.00000E+00
    0.13875E+06        -0.49999E+08         0.00000E+00
    0.00000E+00         0.00000E+00        -0.50240E+08
 
   -0.51148E+08         0.15630E+06         0.00000E+00
    0.15630E+06        -0.49997E+08         0.00000E+00
    0.00000E+00         0.00000E+00        -0.50229E+08
 
   -0.51097E+08         0.17195E+06         0.00000E+00
    0.17195E+06        -0.49996E+08         0.00000E+00
    0.00000E+00         0.00000E+00        -0.50219E+08
 
   -0.51048E+08         0.18585E+06         0.00000E+00
    0.18585E+06        -0.49993E+08         0.00000E+00
    0.00000E+00         0.00000E+00        -0.50208E+08
 
   -0.50999E+08         0.19816E+06         0.00000E+00
    0.19816E+06        -0.49991E+08         0.00000E+00
    0.00000E+00         0.00000E+00        -0.50198E+08
 
   -0.50952E+08         0.20902E+06         0.00000E+00
    0.20902E+06        -0.49987E+08         0.00000E+00
    0.00000E+00         0.00000E+00        -0.50188E+08
 
   -0.50907E+08         0.21858E+06         0.00000E+00
    0.21858E+06        -0.49983E+08         0.00000E+00
    0.00000E+00         0.00000E+00        -0.50178E+08
 
   -0.50863E+08         0.22702E+06         0.00000E+00
    0.22702E+06        -0.49978E+08         0.00000E+00
    0.00000E+00         0.00000E+00        -0.50168E+08
 
   -0.50820E+08         0.23446E+06         0.00000E+00
    0.23446E+06        -0.49973E+08         0.00000E+00
    0.00000E+00         0.00000E+00        -0.50159E+08
 
   -0.50779E+08         0.24106E+06         0.00000E+00
    0.24106E+06        -0.49967E+08         0.00000E+00
    0.00000E+00         0.00000E+00        -0.50149E+08
 
   -0.50739E+08         0.24695E+06         0.00000E+00
    0.24695E+06        -0.49961E+08         0.00000E+00
    0.00000E+00         0.00000E+00        -0.50140E+08
 
   -0.50701E+08         0.25228E+06         0.00000E+00
    0.25228E+06        -0.49954E+08         0.00000E+00
    0.00000E+00         0.00000E+00        -0.50131E+08
 
   -0.50665E+08         0.25715E+06         0.00000E+00
    0.25715E+06        -0.49946E+08         0.00000E+00
    0.00000E+00         0.00000E+00        -0.50122E+08
 
   -0.50630E+08         0.26169E+06         0.00000E+00
    0.26169E+06        -0.49938E+08         0.00000E+00
    0.00000E+00         0.00000E+00        -0.50114E+08
 
   -0.50596E+08         0.26599E+06         0.00000E+00
    0.26599E+06        -0.49930E+08         0.00000E+00
    0.00000E+00         0.00000E+00        -0.50105E+08
 
   -0.50564E+08         0.27014E+06         0.00000E+00
    0.27014E+06        -0.49922E+08         0.00000E+00
    0.00000E+00         0.00000E+00        -0.50097E+08
 
   -0.50533E+08         0.27423E+06         0.00000E+00
    0.27423E+06        -0.49913E+08         0.00000E+00
    0.00000E+00         0.00000E+00        -0.50089E+08
 
   -0.50503E+08         0.27833E+06         0.00000E+00
    0.27833E+06        -0.49905E+08         0.00000E+00
    0.00000E+00         0.00000E+00        -0.50082E+08
 
   -0.50474E+08         0.28247E+06         0.00000E+00
    0.28247E+06        -0.49896E+08         0.00000E+00
    0.00000E+00         0.00000E+00        -0.50074E+08
 
   -0.50446E+08         0.28670E+06         0.00000E+00
    0.28670E+06        -0.49888E+08         0.00000E+00
    0.00000E+00         0.00000E+00        -0.50067E+08
 
   -0.50420E+08         0.29106E+06         0.00000E+00
    0.29106E+06        -0.49879E+08         0.00000E+00
    0.00000E+00         0.00000E+00        -0.50060E+08
 
   -0.50394E+08         0.29554E+06         0.00000E+00
    0.29554E+06        -0.49871E+08         0.00000E+00
    0.00000E+00         0.00000E+00        -0.50053E+08
 
   -0.50369E+08         0.30015E+06         0.00000E+00
    0.30015E+06        -0.49863E+08         0.00000E+00
    0.00000E+00         0.00000E+00        -0.50046E+08
 
   -0.50344E+08         0.30489E+06         0.00000E+00
    0.30489E+06        -0.49856E+08         0.00000E+00
    0.00000E+00         0.00000E+00        -0.50040E+08
 
   -0.50320E+08         0.30972E+06         0.00000E+00
    0.30972E+06        -0.49849E+08         0.00000E+00
    0.00000E+00         0.00000E+00        -0.50034E+08
 
   -0.50297E+08         0.31461E+06         0.00000E+00
    0.31461E+06        -0.49843E+08         0.00000E+00
    0.00000E+00         0.00000E+00        -0.50028E+08
 
   -0.50274E+08         0.31951E+06         0.00000E+00
    0.31951E+06        -0.49837E+08         0.00000E+00
    0.00000E+00         0.00000E+00        -0.50022E+08
 
   -0.50252E+08         0.32438E+06         0.00000E+00
    0.32438E+06        -0.49832E+08         0.00000E+00
    0.00000E+00         0.00000E+00        -0.50017E+08
 
   -0.50230E+08         0.32915E+06         0.00000E+00
    0.32915E+06        -0.49828E+08         0.00000E+00
    0.00000E+00         0.00000E+00        -0.50012E+08
 
   -0.50208E+08         0.33375E+06         0.00000E+00
    0.33375E+06        -0.49824E+08         0.00000E+00
    0.00000E+00         0.00000E+00        -0.50006E+08
 
   -0.50187E+08         0.33812E+06         0.00000E+00
    0.33812E+06        -0.49821E+08         0.00000E+00
    0.00000E+00         0.00000E+00        -0.50002E+08
 
   -0.50166E+08         0.34217E+06         0.00000E+00
    0.34217E+06        -0.49819E+08         0.00000E+00
    0.00000E+00         0.00000E+00        -0.49997E+08
 
   -0.50146E+08         0.34583E+06         0.00000E+00
    0.34583E+06        -0.49818E+08         0.00000E+00
    0.00000E+00         0.00000E+00        -0.49993E+08
 
   -0.50126E+08         0.34901E+06         0.00000E+00
    0.34901E+06        -0.49817E+08         0.00000E+00
    0.00000E+00         0.00000E+00        -0.49989E+08
 
   -0.50107E+08         0.35164E+06         0.00000E+00
    0.35164E+06        -0.49817E+08         0.00000E+00
    0.00000E+00         0.00000E+00        -0.49985E+08
 
   -0.50088E+08         0.35364E+06         0.00000E+00
    0.35364E+06        -0.49818E+08         0.00000E+00
    0.00000E+00         0.00000E+00        -0.49981E+08
 
   -0.50070E+08         0.35495E+06         0.00000E+00
    0.35495E+06        -0.49819E+08         0.00000E+00
    0.00000E+00         0.00000E+00        -0.49978E+08
 
   -0.50053E+08         0.35549E+06         0.00000E+00
    0.35549E+06        -0.49821E+08         0.00000E+00
    0.00000E+00         0.00000E+00        -0.49975E+08
 
   -0.50036E+08         0.35522E+06         0.00000E+00
    0.35522E+06        -0.49823E+08         0.00000E+00
    0.00000E+00         0.00000E+00        -0.49972E+08
 
   -0.50021E+08         0.35408E+06         0.00000E+00
    0.35408E+06        -0.49826E+08         0.00000E+00
    0.00000E+00         0.00000E+00        -0.49969E+08
 
   -0.50006E+08         0.35205E+06         0.00000E+00
    0.35205E+06        -0.49829E+08         0.00000E+00
    0.00000E+00         0.00000E+00        -0.49967E+08
 
   -0.49993E+08         0.34909E+06         0.00000E+00
    0.34909E+06        -0.49832E+08         0.00000E+00
    0.00000E+00         0.00000E+00        -0.49965E+08
 
   -0.49982E+08         0.34521E+06         0.00000E+00
    0.34521E+06        -0.49835E+08         0.00000E+00
    0.00000E+00         0.00000E+00        -0.49963E+08
 
   -0.49972E+08         0.34041E+06         0.00000E+00
    0.34041E+06        -0.49839E+08         0.00000E+00
    0.00000E+00         0.00000E+00        -0.49962E+08
 
   -0.49964E+08         0.33473E+06         0.00000E+00
    0.33473E+06        -0.49842E+08         0.00000E+00
    0.00000E+00         0.00000E+00        -0.49961E+08
 
   -0.51318E+08         0.16935E+05         0.00000E+00
    0.16935E+05        -0.50000E+08         0.00000E+00
    0.00000E+00         0.00000E+00        -0.50264E+08
 
   -0.51276E+08         0.45652E+05         0.00000E+00
    0.45652E+05        -0.50000E+08         0.00000E+00
    0.00000E+00         0.00000E+00        -0.50255E+08
 
   -0.51233E+08         0.72266E+05         0.00000E+00
    0.72266E+05        -0.50001E+08         0.00000E+00
    0.00000E+00         0.00000E+00        -0.50247E+08
 
   -0.51189E+08         0.96857E+05         0.00000E+00
    0.96857E+05        -0.50001E+08         0.00000E+00
    0.00000E+00         0.00000E+00        -0.50238E+08
 
   -0.51146E+08         0.11951E+06         0.00000E+00
    0.11951E+06        -0.50002E+08         0.00000E+00
    0.00000E+00         0.00000E+00        -0.50230E+08
 
   -0.51103E+08         0.14033E+06         0.00000E+00
    0.14033E+06        -0.50002E+08         0.00000E+00
    0.00000E+00         0.00000E+00        -0.50221E+08
 
   -0.51061E+08         0.15939E+06         0.00000E+00
    0.15939E+06        -0.50003E+08         0.00000E+00
    0.00000E+00         0.00000E+00        -0.50213E+08
 
   -0.51018E+08         0.17681E+06         0.00000E+00
    0.17681E+06        -0.50003E+08         0.00000E+00
    0.00000E+00         0.00000E+00        -0.50204E+08
 
   -0.50977E+08         0.19267E+06         0.00000E+00
    0.19267E+06        -0.50002E+08         0.00000E+00
    0.00000E+00         0.00000E+00        -0.50196E+08
 
   -0.50936E+08         0.20710E+06         0.00000E+00
    0.20710E+06        -0.50002E+08         0.00000E+00
    0.00000E+00         0.00000E+00        -0.50188E+08
 
   -0.50895E+08         0.22018E+06         0.00000E+00
    0.22018E+06        -0.50001E+08         0.00000E+00
    0.00000E+00         0.00000E+00        -0.50179E+08
 
   -0.50855E+08         0.23202E+06         0.00000E+00
    0.23202E+06        -0.50000E+08         0.00000E+00
    0.00000E+00         0.00000E+00        -0.50171E+08
 
   -0.50817E+08         0.24273E+06         0.00000E+00
    0.24273E+06        -0.49999E+08         0.00000E+00
    0.00000E+00         0.00000E+00        -0.50163E+08
 
   -0.50779E+08         0.25241E+06         0.00000E+00
    0.25241E+06        -0.49997E+08         0.00000E+00
    0.00000E+00         0.00000E+00        -0.50155E+08
 
   -0.50742E+08         0.26116E+06         0.00000E+00
    0.26116E+06        -0.49995E+08         0.00000E+00
    0.00000E+00         0.00000E+00        -0.50147E+08
 
   -0.50706E+08         0.26908E+06         0.00000E+00
    0.26908E+06        -0.49993E+08         0.00000E+00
    0.00000E+00         0.00000E+00        -0.50140E+08
 
   -0.50671E+08         0.27625E+06         0.00000E+00
    0.27625E+06        -0.49990E+08         0.00000E+00
    0.00000E+00         0.00000E+00        -0.50132E+08
 
   -0.50637E+08         0.28277E+06         0.00000E+00
    0.28277E+06        -0.49988E+08         0.00000E+00
    0.00000E+00         0.00000E+00        -0.50125E+08
 
   -0.50604E+08         0.28871E+06         0.00000E+00
    0.28871E+06        -0.49985E+08         0.00000E+00
    0.00000E+00         0.00000E+00        -0.50118E+08
 
   -0.50572E+08         0.29416E+06         0.00000E+00
    0.29416E+06        -0.49981E+08         0.00000E+00
    0.00000E+00         0.00000E+00        -0.50111E+08
 
   -0.50541E+08         0.29917E+06         0.00000E+00
    0.29917E+06        -0.49978E+08         0.00000E+00
    0.00000E+00         0.00000E+00        -0.50104E+08
 
   -0.50511E+08         0.30382E+06         0.00000E+00
    0.30382E+06        -0.49974E+08         0.00000E+00
    0.00000E+00         0.00000E+00        -0.50097E+08
 
   -0.50482E+08         0.30814E+06         0.00000E+00
    0.30814E+06        -0.49970E+08         0.00000E+00
    0.00000E+00         0.00000E+00        -0.50090E+08
 
   -0.50454E+08         0.31220E+06         0.00000E+00
    0.31220E+06        -0.49967E+08         0.00000E+00
    0.00000E+00         0.00000E+00        -0.50084E+08
 
   -0.50426E+08         0.31602E+06         0.00000E+00
    0.31602E+06        -0.49963E+08         0.00000E+00
    0.00000E+00         0.00000E+00        -0.50078E+08
 
   -0.50400E+08         0.31964E+06         0.00000E+00
    0.31964E+06        -0.49959E+08         0.00000E+00
    0.00000E+00         0.00000E+00        -0.50072E+08
 
   -0.50374E+08         0.32307E+06         0.00000E+00
    0.32307E+06        -0.49956E+08         0.00000E+00
    0.00000E+00         0.00000E+00        -0.50066E+08
 
   -0.50349E+08         0.32633E+06         0.00000E+00
    0.32633E+06        -0.49953E+08         0.00000E+00
    0.00000E+00         0.00000E+00        -0.50060E+08
 
   -0.50325E+08         0.32943E+06         0.00000E+00
    0.32943E+06        -0.49950E+08         0.00000E+00
    0.00000E+00         0.00000E+00        -0.50055E+08
 
   -0.50301E+08         0.33236E+06         0.00000E+00
    0.33236E+06        -0.49947E+08         0.00000E+00
    0.00000E+00         0.00000E+00        -0.50050E+08
 
   -0.50278E+08         0.33512E+06         0.00000E+00
    0.33512E+06        -0.49944E+08         0.00000E+00
    0.00000E+00         0.00000E+00        -0.50044E+08
 
   -0.50256E+08         0.33770E+06         0.00000E+00
    0.33770E+06        -0.49942E+08         0.00000E+00
    0.00000E+00         0.00000E+00        -0.50040E+08
 
   -0.50234E+08         0.34006E+06         0.00000E+00
    0.34006E+06        -0.49940E+08         0.00000E+00
    0.00000E+00         0.00000E+00        -0.50035E+08
 
   -0.50213E+08         0.34220E+06         0.00000E+00
    0.34220E+06        -0.49938E+08         0.00000E+00
    0.00000E+00         0.00000E+00        -0.50030E+08
 
   -0.50193E+08         0.34408E+06         0.00000E+00
    0.34408E+06        -0.49937E+08         0.00000E+00
    0.00000E+00         0.00000E+00        -0.50026E+08
 
   -0.50173E+08         0.34568E+06         0.00000E+00
    0.34568E+06        -0.49936E+08         0.00000E+00
    0.00000E+00         0.00000E+00        -0.50022E+08
 
   -0.50154E+08         0.34695E+06         0.00000E+00
    0.34695E+06        -0.49936E+08         0.00000E+00
    0.00000E+00         0.00000E+00        -0.50018E+08
 
   -0.50136E+08         0.34788E+06         0.00000E+00
    0.34788E+06        -0.49936E+08         0.00000E+00
    0.00000E+00         0.00000E+00        -0.50014E+08
 
   -0.50118E+08         0.34843E+06         0.00000E+00
    0.34843E+06        -0.49937E+08         0.00000E+00
    0.00000E+00         0.00000E+00        -0.50011E+08
 
   -0.50102E+08         0.34856E+06         0.00000E+00
    0.34856E+06        -0.49937E+08         0.00000E+00
    0.00000E+00         0.00000E+00        -0.50008E+08
 
   -0.50086E+08         0.34826E+06         0.00000E+00
    0.34826E+06        -0.49938E+08         0.00000E+00
    0.00000E+00         0.00000E+00        -0.50005E+08
 
   -0.50070E+08         0.34749E+06         0.00000E+00
    0.34749E+06        -0.49940E+08         0.00000E+00
    0.00000E+00         0.00000E+00        -0.50002E+08
 
   -0.50056E+08         0.34624E+06         0.00000E+00
    0.34624E+06        -0.49941E+08         0.00000E+00
    0.00000E+00         0.00000E+00        -0.50000E+08
 
   -0.50043E+08         0.34449E+06         0.00000E+00
    0.34449E+06        -0.49943E+08         0.00000E+00
    0.00000E+00         0.00000E+00        -0.49997E+08
 
   -0.50031E+08         0.34224E+06         0.00000E+00
    0.34224E+06        -0.49945E+08         0.00000E+00
    0.00000E+00         0.00000E+00        -0.49995E+08
 
   -0.50020E+08         0.33949E+06         0.00000E+00
    0.33949E+06        -0.49947E+08         0.00000E+00
    0.00000E+00         0.00000E+00        -0.49994E+08
 
   -0.50011E+08         0.33625E+06         0.00000E+00
    0.33625E+06        -0.49950E+08         0.00000E+00
    0.00000E+00         0.00000E+00        -0.49992E+08
 
   -0.50003E+08         0.33255E+06         0.00000E+00
    0.33255E+06        -0.49952E+08         0.00000E+00
    0.00000E+00         0.00000E+00        -0.49991E+08
 
   -0.49996E+08         0.32840E+06         0.00000E+00
    0.32840E+06        -0.49954E+08         0.00000E+00
    0.00000E+00         0.00000E+00        -0.49990E+08
 
   -0.49991E+08         0.32387E+06         0.00000E+00
    0.32387E+06        -0.49955E+08         0.00000E+00
    0.00000E+00         0.00000E+00        -0.49989E+08
 
   -0.51173E+08         0.15786E+05         0.00000E+00
    0.15786E+05        -0.50000E+08         0.00000E+00
    0.00000E+00         0.00000E+00        -0.50235E+08
 
   -0.51140E+08         0.43175E+05         0.00000E+00
    0.43175E+05        -0.50000E+08         0.00000E+00
    0.00000E+00         0.00000E+00        -0.50228E+08
 
   -0.51106E+08         0.68840E+05         0.00000E+00
    0.68840E+05        -0.50001E+08         0.00000E+00
    0.00000E+00         0.00000E+00        -0.50221E+08
 
   -0.51072E+08         0.92835E+05         0.00000E+00
    0.92835E+05        -0.50002E+08         0.00000E+00
    0.00000E+00         0.00000E+00        -0.50215E+08
 
   -0.51038E+08         0.11521E+06         0.00000E+00
    0.11521E+06        -0.50003E+08         0.00000E+00
    0.00000E+00         0.00000E+00        -0.50208E+08
 
   -0.51003E+08         0.13604E+06         0.00000E+00
    0.13604E+06        -0.50005E+08         0.00000E+00
    0.00000E+00         0.00000E+00        -0.50202E+08
 
   -0.50968E+08         0.15538E+06         0.00000E+00
    0.15538E+06        -0.50006E+08         0.00000E+00
    0.00000E+00         0.00000E+00        -0.50195E+08
 
   -0.50933E+08         0.17329E+06         0.00000E+00
    0.17329E+06        -0.50007E+08         0.00000E+00
    0.00000E+00         0.00000E+00        -0.50188E+08
 
   -0.50899E+08         0.18984E+06         0.00000E+00
    0.18984E+06        -0.50009E+08         0.00000E+00
    0.00000E+00         0.00000E+00        -0.50181E+08
 
   -0.50864E+08         0.20511E+06         0.00000E+00
    0.20511E+06        -0.50010E+08         0.00000E+00
    0.00000E+00         0.00000E+00        -0.50175E+08
 
   -0.50830E+08         0.21916E+06         0.00000E+00
    0.21916E+06        -0.50011E+08         0.00000E+00
    0.00000E+00         0.00000E+00        -0.50168E+08
 
   -0.50796E+08         0.23206E+06         0.00000E+00
    0.23206E+06        -0.50012E+08         0.00000E+00
    0.00000E+00         0.00000E+00        -0.50162E+08
 
   -0.50763E+08         0.24389E+06         0.00000E+00
    0.24389E+06        -0.50013E+08         0.00000E+00
    0.00000E+00         0.00000E+00        -0.50155E+08
 
   -0.50730E+08         0.25471E+06         0.00000E+00
    0.25471E+06        -0.50014E+08         0.00000E+00
    0.00000E+00         0.00000E+00        -0.50149E+08
 
   -0.50697E+08         0.26460E+06         0.00000E+00
    0.26460E+06        -0.50015E+08         0.00000E+00
    0.00000E+00         0.00000E+00        -0.50142E+08
 
   -0.50665E+08         0.27361E+06         0.00000E+00
    0.27361E+06        -0.50015E+08         0.00000E+00
    0.00000E+00         0.00000E+00        -0.50136E+08
 
   -0.50634E+08         0.28183E+06         0.00000E+00
    0.28183E+06        -0.50015E+08         0.00000E+00
    0.00000E+00         0.00000E+00        -0.50130E+08
 
   -0.50603E+08         0.28930E+06         0.00000E+00
    0.28930E+06        -0.50016E+08         0.00000E+00
    0.00000E+00         0.00000E+00        -0.50124E+08
 
   -0.50573E+08         0.29609E+06         0.00000E+00
    0.29609E+06        -0.50016E+08         0.00000E+00
    0.00000E+00         0.00000E+00        -0.50118E+08
 
   -0.50544E+08         0.30226E+06         0.00000E+00
    0.30226E+06        -0.50016E+08         0.00000E+00
    0.00000E+00         0.00000E+00        -0.50112E+08
 
   -0.50516E+08         0.30785E+06         0.00000E+00
    0.30785E+06        -0.50015E+08         0.00000E+00
    0.00000E+00         0.00000E+00        -0.50106E+08
 
   -0.50488E+08         0.31291E+06         0.00000E+00
    0.31291E+06        -0.50015E+08         0.00000E+00
    0.00000E+00         0.00000E+00        -0.50101E+08
 
   -0.50460E+08         0.31749E+06         0.00000E+00
    0.31749E+06        -0.50015E+08         0.00000E+00
    0.00000E+00         0.00000E+00        -0.50095E+08
 
   -0.50434E+08         0.32162E+06         0.00000E+00
    0.32162E+06        -0.50015E+08         0.00000E+00
    0.00000E+00         0.00000E+00        -0.50090E+08
 
   -0.50408E+08         0.32535E+06         0.00000E+00
    0.32535E+06        -0.50014E+08         0.00000E+00
    0.00000E+00         0.00000E+00        -0.50084E+08
 
   -0.50383E+08         0.32869E+06         0.00000E+00
    0.32869E+06        -0.50014E+08         0.00000E+00
    0.00000E+00         0.00000E+00        -0.50079E+08
 
   -0.50359E+08         0.33167E+06         0.00000E+00
    0.33167E+06        -0.50014E+08         0.00000E+00
    0.00000E+00         0.00000E+00        -0.50074E+08
 
   -0.50335E+08         0.33432E+06         0.00000E+00
    0.33432E+06        -0.50013E+08         0.00000E+00
    0.00000E+00         0.00000E+00        -0.50070E+08
 
   -0.50312E+08         0.33664E+06         0.00000E+00
    0.33664E+06        -0.50013E+08         0.00000E+00
    0.00000E+00         0.00000E+00        -0.50065E+08
 
   -0.50289E+08         0.33866E+06         0.00000E+00
    0.33866E+06        -0.50013E+08         0.00000E+00
    0.00000E+00         0.00000E+00        -0.50060E+08
 
   -0.50268E+08         0.34037E+06         0.00000E+00
    0.34037E+06        -0.50013E+08         0.00000E+00
    0.00000E+00         0.00000E+00        -0.50056E+08
 
   -0.50247E+08         0.34179E+06         0.00000E+00
    0.34179E+06        -0.50013E+08         0.00000E+00
    0.00000E+00         0.00000E+00        -0.50052E+08
 
   -0.50226E+08         0.34291E+06         0.00000E+00
    0.34291E+06        -0.50014E+08         0.00000E+00
    0.00000E+00         0.00000E+00        -0.50048E+08
 
   -0.50207E+08         0.34374E+06         0.00000E+00
    0.34374E+06        -0.50014E+08         0.00000E+00
    0.00000E+00         0.00000E+00        -0.50044E+08
 
   -0.50188E+08         0.34427E+06         0.00000E+00
    0.34427E+06        -0.50015E+08         0.00000E+00
    0.00000E+00         0.00000E+00        -0.50041E+08
 
   -0.50170E+08         0.34451E+06         0.00000E+00
    0.34451E+06        -0.50016E+08         0.00000E+00
    0.00000E+00         0.00000E+00        -0.50037E+08
 
   -0.50152E+08         0.34443E+06         0.00000E+00
    0.34443E+06        -0.50017E+08         0.00000E+00
    0.00000E+00         0.00000E+00        -0.50034E+08
 
   -0.50136E+08         0.34405E+06         0.00000E+00
    0.34405E+06        -0.50018E+08         0.00000E+00
    0.00000E+00         0.00000E+00        -0.50031E+08
 
   -0.50120E+08         0.34336E+06         0.00000E+00
    0.34336E+06        -0.50019E+08         0.00000E+00
    0.00000E+00         0.00000E+00        -0.50028E+08
 
   -0.50105E+08         0.34235E+06         0.00000E+00
    0.34235E+06        -0.50021E+08         0.00000E+00
    0.00000E+00         0.00000E+00        -0.50025E+08
 
   -0.50091E+08         0.34103E+06         0.00000E+00
    0.34103E+06        -0.50023E+08         0.00000E+00
    0.00000E+00         0.00000E+00        -0.50023E+08
 
   -0.50077E+08         0.33940E+06         0.00000E+00
    0.33940E+06        -0.50024E+08         0.00000E+00
    0.00000E+00         0.00000E+00        -0.50020E+08
 
   -0.50065E+08         0.33746E+06         0.00000E+00
    0.33746E+06        -0.50026E+08         0.00000E+00
    0.00000E+00         0.00000E+00        -0.50018E+08
 
   -0.50054E+08         0.33523E+06         0.00000E+00
    0.33523E+06        -0.50028E+08         0.00000E+00
    0.00000E+00         0.00000E+00        -0.50016E+08
 
   -0.50044E+08         0.33272E+06         0.00000E+00
    0.33272E+06        -0.50030E+08         0.00000E+00
    0.00000E+00         0.00000E+00        -0.50015E+08
 
   -0.50035E+08         0.32996E+06         0.00000E+00
    0.32996E+06        -0.50032E+08         0.00000E+00
    0.00000E+00         0.00000E+00        -0.50013E+08
 
   -0.50027E+08         0.32697E+06         0.00000E+00
    0.32697E+06        -0.50034E+08         0.00000E+00
    0.00000E+00         0.00000E+00        -0.50012E+08
 
   -0.50020E+08         0.32378E+06         0.00000E+00
    0.32378E+06        -0.50035E+08         0.00000E+00
    0.00000E+00         0.00000E+00        -0.50011E+08
 
   -0.50015E+08         0.32044E+06         0.00000E+00
    0.32044E+06        -0.50037E+08         0.00000E+00
    0.00000E+00         0.00000E+00        -0.50010E+08
 
   -0.50011E+08         0.31700E+06         0.00000E+00
    0.31700E+06        -0.50038E+08         0.00000E+00
    0.00000E+00         0.00000E+00        -0.50010E+08
 
   -0.51037E+08         0.14393E+05         0.00000E+00
    0.14393E+05        -0.50000E+08         0.00000E+00
    0.00000E+00         0.00000E+00        -0.50207E+08
 
   -0.51012E+08         0.39832E+05         0.00000E+00
    0.39832E+05        -0.50000E+08         0.00000E+00
    0.00000E+00         0.00000E+00        -0.50202E+08
 
   -0.50986E+08         0.63873E+05         0.00000E+00
    0.63873E+05        -0.50001E+08         0.00000E+00
    0.00000E+00         0.00000E+00        -0.50197E+08
 
   -0.50959E+08         0.86548E+05         0.00000E+00
    0.86548E+05        -0.50003E+08         0.00000E+00
    0.00000E+00         0.00000E+00        -0.50192E+08
 
   -0.50932E+08         0.10789E+06         0.00000E+00
    0.10789E+06        -0.50004E+08         0.00000E+00
    0.00000E+00         0.00000E+00        -0.50187E+08
 
   -0.50904E+08         0.12793E+06         0.00000E+00
    0.12793E+06        -0.50006E+08         0.00000E+00
    0.00000E+00         0.00000E+00        -0.50182E+08
 
   -0.50876E+08         0.14672E+06         0.00000E+00
    0.14672E+06        -0.50008E+08         0.00000E+00
    0.00000E+00         0.00000E+00        -0.50177E+08
 
   -0.50848E+08         0.16429E+06         0.00000E+00
    0.16429E+06        -0.50010E+08         0.00000E+00
    0.00000E+00         0.00000E+00        -0.50172E+08
 
   -0.50819E+08         0.18068E+06         0.00000E+00
    0.18068E+06        -0.50012E+08         0.00000E+00
    0.00000E+00         0.00000E+00        -0.50166E+08
 
   -0.50790E+08         0.19595E+06         0.00000E+00
    0.19595E+06        -0.50015E+08         0.00000E+00
    0.00000E+00         0.00000E+00        -0.50161E+08
 
   -0.50762E+08         0.21014E+06         0.00000E+00
    0.21014E+06        -0.50017E+08         0.00000E+00
    0.00000E+00         0.00000E+00        -0.50156E+08
 
   -0.50733E+08         0.22330E+06         0.00000E+00
    0.22330E+06        -0.50020E+08         0.00000E+00
    0.00000E+00         0.00000E+00        -0.50151E+08
 
   -0.50705E+08         0.23547E+06         0.00000E+00
    0.23547E+06        -0.50022E+08         0.00000E+00
    0.00000E+00         0.00000E+00        -0.50145E+08
 
   -0.50677E+08         0.24670E+06         0.00000E+00
    0.24670E+06        -0.50024E+08         0.00000E+00
    0.00000E+00         0.00000E+00        -0.50140E+08
 
   -0.50649E+08         0.25704E+06         0.00000E+00
    0.25704E+06        -0.50027E+08         0.00000E+00
    0.00000E+00         0.00000E+00        -0.50135E+08
 
   -0.50621E+08         0.26654E+06         0.00000E+00
    0.26654E+06        -0.50029E+08         0.00000E+00
    0.00000E+00         0.00000E+00        -0.50130E+08
 
   -0.50593E+08         0.27524E+06         0.00000E+00
    0.27524E+06        -0.50031E+08         0.00000E+00
    0.00000E+00         0.00000E+00        -0.50125E+08
 
   -0.50566E+08         0.28319E+06         0.00000E+00
    0.28319E+06        -0.50033E+08         0.00000E+00
    0.00000E+00         0.00000E+00        -0.50120E+08
 
   -0.50540E+08         0.29043E+06         0.00000E+00
    0.29043E+06        -0.50035E+08         0.00000E+00
    0.00000E+00         0.00000E+00        -0.50115E+08
 
   -0.50514E+08         0.29700E+06         0.00000E+00
    0.29700E+06        -0.50037E+08         0.00000E+00
    0.00000E+00         0.00000E+00        -0.50110E+08
 
   -0.50488E+08         0.30294E+06         0.00000E+00
    0.30294E+06        -0.50039E+08         0.00000E+00
    0.00000E+00         0.00000E+00        -0.50105E+08
 
   -0.50463E+08         0.30830E+06         0.00000E+00
    0.30830E+06        -0.50041E+08         0.00000E+00
    0.00000E+00         0.00000E+00        -0.50101E+08
 
   -0.50438E+08         0.31310E+06         0.00000E+00
    0.31310E+06        -0.50043E+08         0.00000E+00
    0.00000E+00         0.00000E+00        -0.50096E+08
 
   -0.50414E+08         0.31738E+06         0.00000E+00
    0.31738E+06        -0.50045E+08         0.00000E+00
    0.00000E+00         0.00000E+00        -0.50092E+08
 
   -0.50390E+08         0.32117E+06         0.00000E+00
    0.32117E+06        -0.50047E+08         0.00000E+00
    0.00000E+00         0.00000E+00        -0.50087E+08
 
   -0.50367E+08         0.32449E+06         0.00000E+00
    0.32449E+06        -0.50049E+08         0.00000E+00
    0.00000E+00         0.00000E+00        -0.50083E+08
 
   -0.50345E+08         0.32737E+06         0.00000E+00
    0.32737E+06        -0.50051E+08         0.00000E+00
    0.00000E+00         0.00000E+00        -0.50079E+08
 
   -0.50323E+08         0.32984E+06         0.00000E+00
    0.32984E+06        -0.50053E+08         0.00000E+00
    0.00000E+00         0.00000E+00        -0.50075E+08
 
   -0.50302E+08         0.33192E+06         0.00000E+00
    0.33192E+06        -0.50054E+08         0.00000E+00
    0.00000E+00         0.00000E+00        -0.50071E+08
 
   -0.50281E+08         0.33361E+06         0.00000E+00
    0.33361E+06        -0.50056E+08         0.00000E+00
    0.00000E+00         0.00000E+00        -0.50067E+08
 
   -0.50261E+08         0.33495E+06         0.00000E+00
    0.33495E+06        -0.50058E+08         0.00000E+00
    0.00000E+00         0.00000E+00        -0.50064E+08
 
   -0.50241E+08         0.33594E+06         0.00000E+00
    0.33594E+06        -0.50060E+08         0.00000E+00
    0.00000E+00         0.00000E+00        -0.50060E+08
 
   -0.50223E+08         0.33660E+06         0.00000E+00
    0.33660E+06        -0.50062E+08         0.00000E+00
    0.00000E+00         0.00000E+00        -0.50057E+08
 
   -0.50205E+08         0.33694E+06         0.00000E+00
    0.33694E+06        -0.50064E+08         0.00000E+00
    0.00000E+00         0.00000E+00        -0.50054E+08
 
   -0.50187E+08         0.33697E+06         0.00000E+00
    0.33697E+06        -0.50066E+08         0.00000E+00
    0.00000E+00         0.00000E+00        -0.50051E+08
 
   -0.50171E+08         0.33671E+06         0.00000E+00
    0.33671E+06        -0.50068E+08         0.00000E+00
    0.00000E+00         0.00000E+00        -0.50048E+08
 
   -0.50155E+08         0.33616E+06         0.00000E+00
    0.33616E+06        -0.50070E+08         0.00000E+00
    0.00000E+00         0.00000E+00        -0.50045E+08
 
   -0.50139E+08         0.33534E+06         0.00000E+00
    0.33534E+06        -0.50072E+08         0.00000E+00
    0.00000E+00         0.00000E+00        -0.50042E+08
 
   -0.50125E+08         0.33426E+06         0.00000E+00
    0.33426E+06        -0.50074E+08         0.00000E+00
    0.00000E+00         0.00000E+00        -0.50040E+08
 
   -0.50111E+08         0.33293E+06         0.00000E+00
    0.33293E+06        -0.50077E+08         0.00000E+00
    0.00000E+00         0.00000E+00        -0.50038E+08
 
   -0.50098E+08         0.33136E+06         0.00000E+00
    0.33136E+06        -0.50079E+08         0.00000E+00
    0.00000E+00         0.00000E+00        -0.50035E+08
 
   -0.50087E+08         0.32958E+06         0.00000E+00
    0.32958E+06        -0.50081E+08         0.00000E+00
    0.00000E+00         0.00000E+00        -0.50034E+08
 
   -0.50075E+08         0.32761E+06         0.00000E+00
    0.32761E+06        -0.50083E+08         0.00000E+00
    0.00000E+00         0.00000E+00        -0.50032E+08
 
   -0.50065E+08         0.32547E+06         0.00000E+00
    0.32547E+06        -0.50085E+08         0.00000E+00
    0.00000E+00         0.00000E+00        -0.50030E+08
 
   -0.50056E+08         0.32318E+06         0.00000E+00
    0.32318E+06        -0.50087E+08         0.00000E+00
    0.00000E+00         0.00000E+00        -0.50029E+08
 
   -0.50048E+08         0.32077E+06         0.00000E+00
    0.32077E+06        -0.50089E+08         0.00000E+00
    0.00000E+00         0.00000E+00        -0.50027E+08
 
   -0.50041E+08         0.31829E+06         0.00000E+00
    0.31829E+06        -0.50091E+08         0.00000E+00
    0.00000E+00         0.00000E+00        -0.50026E+08
 
   -0.50035E+08         0.31576E+06         0.00000E+00
    0.31576E+06        -0.50093E+08         0.00000E+00
    0.00000E+00         0.00000E+00        -0.50026E+08
 
   -0.50030E+08         0.31323E+06         0.00000E+00
    0.31323E+06        -0.50095E+08         0.00000E+00
    0.00000E+00         0.00000E+00        -0.50025E+08
 
   -0.50026E+08         0.31075E+06         0.00000E+00
    0.31075E+06        -0.50096E+08         0.00000E+00
    0.00000E+00         0.00000E+00        -0.50024E+08
 
   -0.50912E+08         0.12892E+05         0.00000E+00
    0.12892E+05        -0.50000E+08         0.00000E+00
    0.00000E+00         0.00000E+00        -0.50182E+08
 
   -0.50893E+08         0.36039E+05         0.00000E+00
    0.36039E+05        -0.50000E+08         0.00000E+00
    0.00000E+00         0.00000E+00        -0.50179E+08
 
   -0.50873E+08         0.58069E+05         0.00000E+00
    0.58069E+05        -0.50001E+08         0.00000E+00
    0.00000E+00         0.00000E+00        -0.50175E+08
 
   -0.50853E+08         0.78997E+05         0.00000E+00
    0.78997E+05        -0.50003E+08         0.00000E+00
    0.00000E+00         0.00000E+00        -0.50171E+08
 
   -0.50832E+08         0.98837E+05         0.00000E+00
    0.98837E+05        -0.50005E+08         0.00000E+00
    0.00000E+00         0.00000E+00        -0.50167E+08
 
   -0.50810E+08         0.11761E+06         0.00000E+00
    0.11761E+06        -0.50007E+08         0.00000E+00
    0.00000E+00         0.00000E+00        -0.50163E+08
 
   -0.50787E+08         0.13533E+06         0.00000E+00
    0.13533E+06        -0.50009E+08         0.00000E+00
    0.00000E+00         0.00000E+00        -0.50159E+08
 
   -0.50764E+08         0.15203E+06         0.00000E+00
    0.15203E+06        -0.50012E+08         0.00000E+00
    0.00000E+00         0.00000E+00        -0.50155E+08
 
   -0.50741E+08         0.16774E+06         0.00000E+00
    0.16774E+06        -0.50014E+08         0.00000E+00
    0.00000E+00         0.00000E+00        -0.50151E+08
 
   -0.50718E+08         0.18247E+06         0.00000E+00
    0.18247E+06        -0.50017E+08         0.00000E+00
    0.00000E+00         0.00000E+00        -0.50147E+08
 
   -0.50694E+08         0.19626E+06         0.00000E+00
    0.19626E+06        -0.50020E+08         0.00000E+00
    0.00000E+00         0.00000E+00        -0.50143E+08
 
   -0.50670E+08         0.20915E+06         0.00000E+00
    0.20915E+06        -0.50024E+08         0.00000E+00
    0.00000E+00         0.00000E+00        -0.50139E+08
 
   -0.50646E+08         0.22115E+06         0.00000E+00
    0.22115E+06        -0.50027E+08         0.00000E+00
    0.00000E+00         0.00000E+00        -0.50135E+08
 
   -0.50623E+08         0.23231E+06         0.00000E+00
    0.23231E+06        -0.50030E+08         0.00000E+00
    0.00000E+00         0.00000E+00        -0.50131E+08
 
   -0.50599E+08         0.24265E+06         0.00000E+00
    0.24265E+06        -0.50033E+08         0.00000E+00
    0.00000E+00         0.00000E+00        -0.50126E+08
 
   -0.50575E+08         0.25221E+06         0.00000E+00
    0.25221E+06        -0.50037E+08         0.00000E+00
    0.00000E+00         0.00000E+00        -0.50122E+08
 
   -0.50551E+08         0.26102E+06         0.00000E+00
    0.26102E+06        -0.50040E+08         0.00000E+00
    0.00000E+00         0.00000E+00        -0.50118E+08
 
   -0.50528E+08         0.26911E+06         0.00000E+00
    0.26911E+06        -0.50043E+08         0.00000E+00
    0.00000E+00         0.00000E+00        -0.50114E+08
 
   -0.50505E+08         0.27652E+06         0.00000E+00
    0.27652E+06        -0.50047E+08         0.00000E+00
    0.00000E+00         0.00000E+00        -0.50110E+08
 
   -0.50482E+08         0.28328E+06         0.00000E+00
    0.28328E+06        -0.50050E+08         0.00000E+00
    0.00000E+00         0.00000E+00        -0.50106E+08
 
   -0.50459E+08         0.28941E+06         0.00000E+00
    0.28941E+06        -0.50054E+08         0.00000E+00
    0.00000E+00         0.00000E+00        -0.50103E+08
 
   -0.50437E+08         0.29494E+06         0.00000E+00
    0.29494E+06        -0.50057E+08         0.00000E+00
    0.00000E+00         0.00000E+00        -0.50099E+08
 
   -0.50415E+08         0.29992E+06         0.00000E+00
    0.29992E+06        -0.50060E+08         0.00000E+00
    0.00000E+00         0.00000E+00        -0.50095E+08
 
   -0.50393E+08         0.30435E+06         0.00000E+00
    0.30435E+06        -0.50063E+08         0.00000E+00
    0.00000E+00         0.00000E+00        -0.50091E+08
 
   -0.50372E+08         0.30827E+06         0.00000E+00
    0.30827E+06        -0.50067E+08         0.00000E+00
    0.00000E+00         0.00000E+00        -0.50088E+08
 
   -0.50351E+08         0.31170E+06         0.00000E+00
    0.31170E+06        -0.50070E+08         0.00000E+00
    0.00000E+00         0.00000E+00        -0.50084E+08
 
   -0.50331E+08         0.31467E+06         0.00000E+00
    0.31467E+06        -0.50073E+08         0.00000E+00
    0.00000E+00         0.00000E+00        -0.50081E+08
 
   -0.50311E+08         0.31721E+06         0.00000E+00
    0.31721E+06        -0.50076E+08         0.00000E+00
    0.00000E+00         0.00000E+00        -0.50077E+08
 
   -0.50292E+08         0.31932E+06         0.00000E+00
    0.31932E+06        -0.50079E+08         0.00000E+00
    0.00000E+00         0.00000E+00        -0.50074E+08
 
   -0.50273E+08         0.32104E+06         0.00000E+00
    0.32104E+06        -0.50082E+08         0.00000E+00
    0.00000E+00         0.00000E+00        -0.50071E+08
 
   -0.50255E+08         0.32238E+06         0.00000E+00
    0.32238E+06        -0.50085E+08         0.00000E+00
    0.00000E+00         0.00000E+00        -0.50068E+08
 
   -0.50237E+08         0.32337E+06         0.00000E+00
    0.32337E+06        -0.50088E+08         0.00000E+00
    0.00000E+00         0.00000E+00        -0.50065E+08
 
   -0.50220E+08         0.32401E+06         0.00000E+00
    0.32401E+06        -0.50091E+08         0.00000E+00
    0.00000E+00         0.00000E+00        -0.50062E+08
 
   -0.50204E+08         0.32434E+06         0.00000E+00
    0.32434E+06        -0.50094E+08         0.00000E+00
    0.00000E+00         0.00000E+00        -0.50060E+08
 
   -0.50188E+08         0.32436E+06         0.00000E+00
    0.32436E+06        -0.50097E+08         0.00000E+00
    0.00000E+00         0.00000E+00        -0.50057E+08
 
   -0.50172E+08         0.32411E+06         0.00000E+00
    0.32411E+06        -0.50100E+08         0.00000E+00
    0.00000E+00         0.00000E+00        -0.50055E+08
 
   -0.50158E+08         0.32359E+06         0.00000E+00
    0.32359E+06        -0.50103E+08         0.00000E+00
    0.00000E+00         0.00000E+00        -0.50052E+08
 
   -0.50144E+08         0.32282E+06         0.00000E+00
    0.32282E+06        -0.50106E+08         0.00000E+00
    0.00000E+00         0.00000E+00        -0.50050E+08
 
   -0.50131E+08         0.32183E+06         0.00000E+00
    0.32183E+06        -0.50109E+08         0.00000E+00
    0.00000E+00         0.00000E+00        -0.50048E+08
 
   -0.50118E+08         0.32064E+06         0.00000E+00
    0.32064E+06        -0.50111E+08         0.00000E+00
    0.00000E+00         0.00000E+00        -0.50046E+08
 
   -0.50106E+08         0.31926E+06         0.00000E+00
    0.31926E+06        -0.50114E+08         0.00000E+00
    0.00000E+00         0.00000E+00        -0.50044E+08
 
   -0.50095E+08         0.31773E+06         0.00000E+00
    0.31773E+06        -0.50117E+08         0.00000E+00
    0.00000E+00         0.00000E+00        -0.50042E+08
 
   -0.50085E+08         0.31607E+06         0.00000E+00
    0.31607E+06        -0.50119E+08         0.00000E+00
    0.00000E+00         0.00000E+00        -0.50041E+08
 
   -0.50075E+08         0.31430E+06         0.00000E+00
    0.31430E+06        -0.50122E+08         0.00000E+00
    0.00000E+00         0.00000E+00        -0.50039E+08
 
   -0.50067E+08         0.31246E+06         0.00000E+00
    0.31246E+06        -0.50124E+08         0.00000E+00
    0.00000E+00         0.00000E+00        -0.50038E+08
 
   -0.50059E+08         0.31058E+06         0.00000E+00
    0.31058E+06        -0.50126E+08         0.00000E+00
    0.00000E+00         0.00000E+00        -0.50037E+08
 
   -0.50052E+08         0.30869E+06         0.00000E+00
    0.30869E+06        -0.50128E+08         0.00000E+00
    0.00000E+00         0.00000E+00        -0.50036E+08
 
   -0.50045E+08         0.30683E+06         0.00000E+00
    0.30683E+06        -0.50130E+08         0.00000E+00
    0.00000E+00         0.00000E+00        -0.50035E+08
 
   -0.50040E+08         0.30505E+06         0.00000E+00
    0.30505E+06        -0.50132E+08         0.00000E+00
    0.00000E+00         0.00000E+00        -0.50034E+08
 
   -0.50036E+08         0.30337E+06         0.00000E+00
    0.30337E+06        -0.50134E+08         0.00000E+00
    0.00000E+00         0.00000E+00        -0.50034E+08
 
   -0.50800E+08         0.11386E+05         0.00000E+00
    0.11386E+05        -0.50000E+08         0.00000E+00
    0.00000E+00         0.00000E+00        -0.50160E+08
 
   -0.50786E+08         0.32115E+05         0.00000E+00
    0.32115E+05        -0.50000E+08         0.00000E+00
    0.00000E+00         0.00000E+00        -0.50157E+08
 
   -0.50771E+08         0.51967E+05         0.00000E+00
    0.51967E+05        -0.50001E+08         0.00000E+00
    0.00000E+00         0.00000E+00        -0.50155E+08
 
   -0.50756E+08         0.70942E+05         0.00000E+00
    0.70942E+05        -0.50003E+08         0.00000E+00
    0.00000E+00         0.00000E+00        -0.50152E+08
 
   -0.50739E+08         0.89043E+05         0.00000E+00
    0.89043E+05        -0.50005E+08         0.00000E+00
    0.00000E+00         0.00000E+00        -0.50149E+08
 
   -0.50722E+08         0.10628E+06         0.00000E+00
    0.10628E+06        -0.50007E+08         0.00000E+00
    0.00000E+00         0.00000E+00        -0.50146E+08
 
   -0.50704E+08         0.12265E+06         0.00000E+00
    0.12265E+06        -0.50009E+08         0.00000E+00
    0.00000E+00         0.00000E+00        -0.50143E+08
 
   -0.50686E+08         0.13818E+06         0.00000E+00
    0.13818E+06        -0.50012E+08         0.00000E+00
    0.00000E+00         0.00000E+00        -0.50140E+08
 
   -0.50667E+08         0.15287E+06         0.00000E+00
    0.15287E+06        -0.50015E+08         0.00000E+00
    0.00000E+00         0.00000E+00        -0.50137E+08
 
   -0.50648E+08         0.16674E+06         0.00000E+00
    0.16674E+06        -0.50018E+08         0.00000E+00
    0.00000E+00         0.00000E+00        -0.50133E+08
 
   -0.50629E+08         0.17981E+06         0.00000E+00
    0.17981E+06        -0.50022E+08         0.00000E+00
    0.00000E+00         0.00000E+00        -0.50130E+08
 
   -0.50609E+08         0.19209E+06         0.00000E+00
    0.19209E+06        -0.50025E+08         0.00000E+00
    0.00000E+00         0.00000E+00        -0.50127E+08
 
   -0.50590E+08         0.20361E+06         0.00000E+00
    0.20361E+06        -0.50029E+08         0.00000E+00
    0.00000E+00         0.00000E+00        -0.50124E+08
 
   -0.50570E+08         0.21438E+06         0.00000E+00
    0.21438E+06        -0.50033E+08         0.00000E+00
    0.00000E+00         0.00000E+00        -0.50120E+08
 
   -0.50549E+08         0.22443E+06         0.00000E+00
    0.22443E+06        -0.50036E+08         0.00000E+00
    0.00000E+00         0.00000E+00        -0.50117E+08
 
   -0.50529E+08         0.23378E+06         0.00000E+00
    0.23378E+06        -0.50040E+08         0.00000E+00
    0.00000E+00         0.00000E+00        -0.50114E+08
 
   -0.50509E+08         0.24245E+06         0.00000E+00
    0.24245E+06        -0.50044E+08         0.00000E+00
    0.00000E+00         0.00000E+00        -0.50111E+08
 
   -0.50489E+08         0.25046E+06         0.00000E+00
    0.25046E+06        -0.50048E+08         0.00000E+00
    0.00000E+00         0.00000E+00        -0.50107E+08
 
   -0.50469E+08         0.25784E+06         0.00000E+00
    0.25784E+06        -0.50052E+08         0.00000E+00
    0.00000E+00         0.00000E+00        -0.50104E+08
 
   -0.50449E+08         0.26461E+06         0.00000E+00
    0.26461E+06        -0.50056E+08         0.00000E+00
    0.00000E+00         0.00000E+00        -0.50101E+08
 
   -0.50430E+08         0.27079E+06         0.00000E+00
    0.27079E+06        -0.50060E+08         0.00000E+00
    0.00000E+00         0.00000E+00        -0.50098E+08
 
   -0.50410E+08         0.27641E+06         0.00000E+00
    0.27641E+06        -0.50064E+08         0.00000E+00
    0.00000E+00         0.00000E+00        -0.50095E+08
 
   -0.50391E+08         0.28149E+06         0.00000E+00
    0.28149E+06        -0.50068E+08         0.00000E+00
    0.00000E+00         0.00000E+00        -0.50092E+08
 
   -0.50372E+08         0.28605E+06         0.00000E+00
    0.28605E+06        -0.50072E+08         0.00000E+00
    0.00000E+00         0.00000E+00        -0.50089E+08
 
   -0.50353E+08         0.29011E+06         0.00000E+00
    0.29011E+06        -0.50076E+08         0.00000E+00
    0.00000E+00         0.00000E+00        -0.50086E+08
 
   -0.50335E+08         0.29370E+06         0.00000E+00
    0.29370E+06        -0.50080E+08         0.00000E+00
    0.00000E+00         0.00000E+00        -0.50083E+08
 
   -0.50317E+08         0.29684E+06         0.00000E+00
    0.29684E+06        -0.50084E+08         0.00000E+00
    0.00000E+00         0.00000E+00        -0.50080E+08
 
   -0.50299E+08         0.29954E+06         0.00000E+00
    0.29954E+06        -0.50088E+08         0.00000E+00
    0.00000E+00         0.00000E+00        -0.50077E+08
 
   -0.50282E+08         0.30184E+06         0.00000E+00
    0.30184E+06        -0.50092E+08         0.00000E+00
    0.00000E+00         0.00000E+00        -0.50075E+08
 
   -0.50265E+08         0.30375E+06         0.00000E+00
    0.30375E+06        -0.50096E+08         0.00000E+00
    0.00000E+00         0.00000E+00        -0.50072E+08
 
   -0.50249E+08         0.30529E+06         0.00000E+00
    0.30529E+06        -0.50100E+08         0.00000E+00
    0.00000E+00         0.00000E+00        -0.50070E+08
 
   -0.50233E+08         0.30648E+06         0.00000E+00
    0.30648E+06        -0.50103E+08         0.00000E+00
    0.00000E+00         0.00000E+00        -0.50067E+08
 
   -0.50217E+08         0.30735E+06         0.00000E+00
    0.30735E+06        -0.50107E+08         0.00000E+00
    0.00000E+00         0.00000E+00        -0.50065E+08
 
   -0.50202E+08         0.30791E+06         0.00000E+00
    0.30791E+06        -0.50111E+08         0.00000E+00
    0.00000E+00         0.00000E+00        -0.50063E+08
 
   -0.50188E+08         0.30819E+06         0.00000E+00
    0.30819E+06        -0.50114E+08         0.00000E+00
    0.00000E+00         0.00000E+00        -0.50060E+08
 
   -0.50174E+08         0.30820E+06         0.00000E+00
    0.30820E+06        -0.50118E+08         0.00000E+00
    0.00000E+00         0.00000E+00        -0.50058E+08
 
   -0.50160E+08         0.30797E+06         0.00000E+00
    0.30797E+06        -0.50121E+08         0.00000E+00
    0.00000E+00         0.00000E+00        -0.50056E+08
 
   -0.50147E+08         0.30751E+06         0.00000E+00
    0.30751E+06        -0.50124E+08         0.00000E+00
    0.00000E+00         0.00000E+00        -0.50054E+08
 
   -0.50135E+08         0.30686E+06         0.00000E+00
    0.30686E+06        -0.50128E+08         0.00000E+00
    0.00000E+00         0.00000E+00        -0.50053E+08
 
   -0.50123E+08         0.30604E+06         0.00000E+00
    0.30604E+06        -0.50131E+08         0.00000E+00
    0.00000E+00         0.00000E+00        -0.50051E+08
 
   -0.50112E+08         0.30506E+06         0.00000E+00
    0.30506E+06        -0.50134E+08         0.00000E+00
    0.00000E+00         0.00000E+00        -0.50049E+08
 
   -0.50102E+08         0.30396E+06         0.00000E+00
    0.30396E+06        -0.50137E+08         0.00000E+00
    0.00000E+00         0.00000E+00        -0.50048E+08
 
   -0.50092E+08         0.30276E+06         0.00000E+00
    0.30276E+06        -0.50140E+08         0.00000E+00
    0.00000E+00         0.00000E+00        -0.50046E+08
 
   -0.50083E+08         0.30149E+06         0.00000E+00
    0.30149E+06        -0.50142E+08         0.00000E+00
    0.00000E+00         0.00000E+00        -0.50045E+08
 
   -0.50074E+08         0.30018E+06         0.00000E+00
    0.30018E+06        -0.50145E+08         0.00000E+00
    0.00000E+00         0.00000E+00        -0.50044E+08
 
   -0.50067E+08         0.29886E+06         0.00000E+00
    0.29886E+06        -0.50148E+08         0.00000E+00
    0.00000E+00         0.00000E+00        -0.50043E+08
 
   -0.50059E+08         0.29756E+06         0.00000E+00
    0.29756E+06        -0.50150E+08         0.00000E+00
    0.00000E+00         0.00000E+00        -0.50042E+08
 
   -0.50053E+08         0.29632E+06         0.00000E+00
    0.29632E+06        -0.50152E+08         0.00000E+00
    0.00000E+00         0.00000E+00        -0.50041E+08
 
   -0.50047E+08         0.29517E+06         0.00000E+00
    0.29517E+06        -0.50155E+08         0.00000E+00
    0.00000E+00         0.00000E+00        -0.50040E+08
 
   -0.50042E+08         0.29416E+06         0.00000E+00
    0.29416E+06        -0.50157E+08         0.00000E+00
    0.00000E+00         0.00000E+00        -0.50040E+08
 
   -0.50700E+08         0.99466E+04         0.00000E+00
    0.99466E+04        -0.50000E+08         0.00000E+00
    0.00000E+00         0.00000E+00        -0.50140E+08
 
   -0.50690E+08         0.28287E+05         0.00000E+00
    0.28287E+05        -0.50000E+08         0.00000E+00
    0.00000E+00         0.00000E+00        -0.50138E+08
 
   -0.50679E+08         0.45949E+05         0.00000E+00
    0.45949E+05        -0.50001E+08         0.00000E+00
    0.00000E+00         0.00000E+00        -0.50136E+08
 
   -0.50668E+08         0.62924E+05         0.00000E+00
    0.62924E+05        -0.50003E+08         0.00000E+00
    0.00000E+00         0.00000E+00        -0.50134E+08
 
   -0.50655E+08         0.79207E+05         0.00000E+00
    0.79207E+05        -0.50005E+08         0.00000E+00
    0.00000E+00         0.00000E+00        -0.50132E+08
 
   -0.50642E+08         0.94797E+05         0.00000E+00
    0.94797E+05        -0.50007E+08         0.00000E+00
    0.00000E+00         0.00000E+00        -0.50130E+08
 
   -0.50628E+08         0.10969E+06         0.00000E+00
    0.10969E+06        -0.50009E+08         0.00000E+00
    0.00000E+00         0.00000E+00        -0.50127E+08
 
   -0.50614E+08         0.12389E+06         0.00000E+00
    0.12389E+06        -0.50012E+08         0.00000E+00
    0.00000E+00         0.00000E+00        -0.50125E+08
 
   -0.50599E+08         0.13741E+06         0.00000E+00
    0.13741E+06        -0.50015E+08         0.00000E+00
    0.00000E+00         0.00000E+00        -0.50123E+08
 
   -0.50583E+08         0.15024E+06         0.00000E+00
    0.15024E+06        -0.50018E+08         0.00000E+00
    0.00000E+00         0.00000E+00        -0.50120E+08
 
   -0.50568E+08         0.16240E+06         0.00000E+00
    0.16240E+06        -0.50021E+08         0.00000E+00
    0.00000E+00         0.00000E+00        -0.50118E+08
 
   -0.50552E+08         0.17390E+06         0.00000E+00
    0.17390E+06        -0.50025E+08         0.00000E+00
    0.00000E+00         0.00000E+00        -0.50115E+08
 
   -0.50535E+08         0.18474E+06         0.00000E+00
    0.18474E+06        -0.50029E+08         0.00000E+00
    0.00000E+00         0.00000E+00        -0.50113E+08
 
   -0.50519E+08         0.19494E+06         0.00000E+00
    0.19494E+06        -0.50033E+08         0.00000E+00
    0.00000E+00         0.00000E+00        -0.50110E+08
 
   -0.50502E+08         0.20451E+06         0.00000E+00
    0.20451E+06        -0.50037E+08         0.00000E+00
    0.00000E+00         0.00000E+00        -0.50108E+08
 
   -0.50485E+08         0.21347E+06         0.00000E+00
    0.21347E+06        -0.50041E+08         0.00000E+00
    0.00000E+00         0.00000E+00        -0.50105E+08
 
   -0.50468E+08         0.22183E+06         0.00000E+00
    0.22183E+06        -0.50045E+08         0.00000E+00
    0.00000E+00         0.00000E+00        -0.50103E+08
 
   -0.50451E+08         0.22960E+06         0.00000E+00
    0.22960E+06        -0.50049E+08         0.00000E+00
    0.00000E+00         0.00000E+00        -0.50100E+08
 
   -0.50434E+08         0.23681E+06         0.00000E+00
    0.23681E+06        -0.50053E+08         0.00000E+00
    0.00000E+00         0.00000E+00        -0.50098E+08
 
   -0.50417E+08         0.24347E+06         0.00000E+00
    0.24347E+06        -0.50058E+08         0.00000E+00
    0.00000E+00         0.00000E+00        -0.50095E+08
 
   -0.50400E+08         0.24960E+06         0.00000E+00
    0.24960E+06        -0.50062E+08         0.00000E+00
    0.00000E+00         0.00000E+00        -0.50092E+08
 
   -0.50383E+08         0.25521E+06         0.00000E+00
    0.25521E+06        -0.50067E+08         0.00000E+00
    0.00000E+00         0.00000E+00        -0.50090E+08
 
   -0.50367E+08         0.26033E+06         0.00000E+00
    0.26033E+06        -0.50071E+08         0.00000E+00
    0.00000E+00         0.00000E+00        -0.50088E+08
 
   -0.50350E+08         0.26496E+06         0.00000E+00
    0.26496E+06        -0.50075E+08         0.00000E+00
    0.00000E+00         0.00000E+00        -0.50085E+08
 
   -0.50334E+08         0.26914E+06         0.00000E+00
    0.26914E+06        -0.50080E+08         0.00000E+00
    0.00000E+00         0.00000E+00        -0.50083E+08
 
   -0.50318E+08         0.27288E+06         0.00000E+00
    0.27288E+06        -0.50084E+08         0.00000E+00
    0.00000E+00         0.00000E+00        -0.50080E+08
 
   -0.50302E+08         0.27619E+06         0.00000E+00
    0.27619E+06        -0.50088E+08         0.00000E+00
    0.00000E+00         0.00000E+00        -0.50078E+08
 
   -0.50286E+08         0.27910E+06         0.00000E+00
    0.27910E+06        -0.50093E+08         0.00000E+00
    0.00000E+00         0.00000E+00        -0.50076E+08
 
   -0.50271E+08         0.28163E+06         0.00000E+00
    0.28163E+06        -0.50097E+08         0.00000E+00
    0.00000E+00         0.00000E+00        -0.50074E+08
 
   -0.50256E+08         0.28379E+06         0.00000E+00
    0.28379E+06        -0.50101E+08         0.00000E+00
    0.00000E+00         0.00000E+00        -0.50071E+08
 
   -0.50241E+08         0.28560E+06         0.00000E+00
    0.28560E+06        -0.50105E+08         0.00000E+00
    0.00000E+00         0.00000E+00        -0.50069E+08
 
   -0.50227E+08         0.28709E+06         0.00000E+00
    0.28709E+06        -0.50109E+08         0.00000E+00
    0.00000E+00         0.00000E+00        -0.50067E+08
 
   -0.50213E+08         0.28828E+06         0.00000E+00
    0.28828E+06        -0.50113E+08         0.00000E+00
    0.00000E+00         0.00000E+00        -0.50065E+08
 
   -0.50199E+08         0.28917E+06         0.00000E+00
    0.28917E+06        -0.50117E+08         0.00000E+00
    0.00000E+00         0.00000E+00        -0.50063E+08
 
   -0.50186E+08         0.28981E+06         0.00000E+00
    0.28981E+06        -0.50121E+08         0.00000E+00
    0.00000E+00         0.00000E+00        -0.50061E+08
 
   -0.50173E+08         0.29020E+06         0.00000E+00
    0.29020E+06        -0.50125E+08         0.00000E+00
    0.00000E+00         0.00000E+00        -0.50060E+08
 
   -0.50161E+08         0.29036E+06         0.00000E+00
    0.29036E+06        -0.50129E+08         0.00000E+00
    0.00000E+00         0.00000E+00        -0.50058E+08
 
   -0.50149E+08         0.29032E+06         0.00000E+00
    0.29032E+06        -0.50132E+08         0.00000E+00
    0.00000E+00         0.00000E+00        -0.50056E+08
 
   -0.50138E+08         0.29011E+06         0.00000E+00
    0.29011E+06        -0.50136E+08         0.00000E+00
    0.00000E+00         0.00000E+00        -0.50055E+08
 
   -0.50127E+08         0.28973E+06         0.00000E+00
    0.28973E+06        -0.50139E+08         0.00000E+00
    0.00000E+00         0.00000E+00        -0.50053E+08
 
   -0.50116E+08         0.28923E+06         0.00000E+00
    0.28923E+06        -0.50142E+08         0.00000E+00
    0.00000E+00         0.00000E+00        -0.50052E+08
 
   -0.50106E+08         0.28861E+06         0.00000E+00
    0.28861E+06        -0.50146E+08         0.00000E+00
    0.00000E+00         0.00000E+00        -0.50050E+08
 
   -0.50097E+08         0.28792E+06         0.00000E+00
    0.28792E+06        -0.50149E+08         0.00000E+00
    0.00000E+00         0.00000E+00        -0.50049E+08
 
   -0.50088E+08         0.28716E+06         0.00000E+00
    0.28716E+06        -0.50152E+08         0.00000E+00
    0.00000E+00         0.00000E+00        -0.50048E+08
 
   -0.50080E+08         0.28637E+06         0.00000E+00
    0.28637E+06        -0.50155E+08         0.00000E+00
    0.00000E+00         0.00000E+00        -0.50047E+08
 
   -0.50072E+08         0.28559E+06         0.00000E+00
    0.28559E+06        -0.50158E+08         0.00000E+00
    0.00000E+00         0.00000E+00        -0.50046E+08
 
   -0.50064E+08         0.28482E+06         0.00000E+00
    0.28482E+06        -0.50160E+08         0.00000E+00
    0.00000E+00         0.00000E+00        -0.50045E+08
 
   -0.50057E+08         0.28411E+06         0.00000E+00
    0.28411E+06        -0.50163E+08         0.00000E+00
    0.00000E+00         0.00000E+00        -0.50044E+08
 
   -0.50051E+08         0.28349E+06         0.00000E+00
    0.28349E+06        -0.50166E+08         0.00000E+00
    0.00000E+00         0.00000E+00        -0.50043E+08
 
   -0.50045E+08         0.28299E+06         0.00000E+00
    0.28299E+06        -0.50168E+08         0.00000E+00
    0.00000E+00         0.00000E+00        -0.50043E+08
 
   -0.50613E+08         0.86194E+04         0.00000E+00
    0.86194E+04        -0.50000E+08         0.00000E+00
    0.00000E+00         0.00000E+00        -0.50123E+08
 
   -0.50606E+08         0.24699E+05         0.00000E+00
    0.24699E+05        -0.50000E+08         0.00000E+00
    0.00000E+00         0.00000E+00        -0.50121E+08
 
   -0.50598E+08         0.40263E+05         0.00000E+00
    0.40263E+05        -0.50001E+08         0.00000E+00
    0.00000E+00         0.00000E+00        -0.50120E+08
 
   -0.50589E+08         0.55298E+05         0.00000E+00
    0.55298E+05        -0.50003E+08         0.00000E+00
    0.00000E+00         0.00000E+00        -0.50118E+08
 
   -0.50580E+08         0.69793E+05         0.00000E+00
    0.69793E+05        -0.50004E+08         0.00000E+00
    0.00000E+00         0.00000E+00        -0.50117E+08
 
   -0.50570E+08         0.83742E+05         0.00000E+00
    0.83742E+05        -0.50006E+08         0.00000E+00
    0.00000E+00         0.00000E+00        -0.50115E+08
 
   -0.50559E+08         0.97137E+05         0.00000E+00
    0.97137E+05        -0.50009E+08         0.00000E+00
    0.00000E+00         0.00000E+00        -0.50113E+08
 
   -0.50548E+08         0.10998E+06         0.00000E+00
    0.10998E+06        -0.50011E+08         0.00000E+00
    0.00000E+00         0.00000E+00        -0.50112E+08
 
   -0.50536E+08         0.12226E+06         0.00000E+00
    0.12226E+06        -0.50014E+08         0.00000E+00
    0.00000E+00         0.00000E+00        -0.50110E+08
 
   -0.50524E+08         0.13398E+06         0.00000E+00
    0.13398E+06        -0.50017E+08         0.00000E+00
    0.00000E+00         0.00000E+00        -0.50108E+08
 
   -0.50511E+08         0.14514E+06         0.00000E+00
    0.14514E+06        -0.50020E+08         0.00000E+00
    0.00000E+00         0.00000E+00        -0.50106E+08
 
   -0.50498E+08         0.15576E+06         0.00000E+00
    0.15576E+06        -0.50024E+08         0.00000E+00
    0.00000E+00         0.00000E+00        -0.50104E+08
 
   -0.50484E+08         0.16582E+06         0.00000E+00
    0.16582E+06        -0.50027E+08         0.00000E+00
    0.00000E+00         0.00000E+00        -0.50102E+08
 
   -0.50471E+08         0.17534E+06         0.00000E+00
    0.17534E+06        -0.50031E+08         0.00000E+00
    0.00000E+00         0.00000E+00        -0.50100E+08
 
   -0.50457E+08         0.18433E+06         0.00000E+00
    0.18433E+06        -0.50035E+08         0.00000E+00
    0.00000E+00         0.00000E+00        -0.50098E+08
 
   -0.50443E+08         0.19279E+06         0.00000E+00
    0.19279E+06        -0.50039E+08         0.00000E+00
    0.00000E+00         0.00000E+00        -0.50096E+08
 
   -0.50429E+08         0.20073E+06         0.00000E+00
    0.20073E+06        -0.50043E+08         0.00000E+00
    0.00000E+00         0.00000E+00        -0.50094E+08
 
   -0.50414E+08         0.20817E+06         0.00000E+00
    0.20817E+06        -0.50048E+08         0.00000E+00
    0.00000E+00         0.00000E+00        -0.50092E+08
 
   -0.50400E+08         0.21511E+06         0.00000E+00
    0.21511E+06        -0.50052E+08         0.00000E+00
    0.00000E+00         0.00000E+00        -0.50090E+08
 
   -0.50386E+08         0.22157E+06         0.00000E+00
    0.22157E+06        -0.50056E+08         0.00000E+00
    0.00000E+00         0.00000E+00        -0.50088E+08
 
   -0.50371E+08         0.22755E+06         0.00000E+00
    0.22755E+06        -0.50061E+08         0.00000E+00
    0.00000E+00         0.00000E+00        -0.50086E+08
 
   -0.50357E+08         0.23308E+06         0.00000E+00
    0.23308E+06        -0.50065E+08         0.00000E+00
    0.00000E+00         0.00000E+00        -0.50084E+08
 
   -0.50342E+08         0.23817E+06         0.00000E+00
    0.23817E+06        -0.50070E+08         0.00000E+00
    0.00000E+00         0.00000E+00        -0.50082E+08
 
   -0.50328E+08         0.24282E+06         0.00000E+00
    0.24282E+06        -0.50074E+08         0.00000E+00
    0.00000E+00         0.00000E+00        -0.50080E+08
 
   -0.50314E+08         0.24707E+06         0.00000E+00
    0.24707E+06        -0.50079E+08         0.00000E+00
    0.00000E+00         0.00000E+00        -0.50078E+08
 
   -0.50300E+08         0.25091E+06         0.00000E+00
    0.25091E+06        -0.50083E+08         0.00000E+00
    0.00000E+00         0.00000E+00        -0.50077E+08
 
   -0.50286E+08         0.25437E+06         0.00000E+00
    0.25437E+06        -0.50087E+08         0.00000E+00
    0.00000E+00         0.00000E+00        -0.50075E+08
 
   -0.50272E+08         0.25746E+06         0.00000E+00
    0.25746E+06        -0.50092E+08         0.00000E+00
    0.00000E+00         0.00000E+00        -0.50073E+08
 
   -0.50258E+08         0.26021E+06         0.00000E+00
    0.26021E+06        -0.50096E+08         0.00000E+00
    0.00000E+00         0.00000E+00        -0.50071E+08
 
   -0.50245E+08         0.26262E+06         0.00000E+00
    0.26262E+06        -0.50100E+08         0.00000E+00
    0.00000E+00         0.00000E+00        -0.50069E+08
 
   -0.50232E+08         0.26471E+06         0.00000E+00
    0.26471E+06        -0.50105E+08         0.00000E+00
    0.00000E+00         0.00000E+00        -0.50067E+08
 
   -0.50219E+08         0.26650E+06         0.00000E+00
    0.26650E+06        -0.50109E+08         0.00000E+00
    0.00000E+00         0.00000E+00        -0.50066E+08
 
   -0.50207E+08         0.26802E+06         0.00000E+00
    0.26802E+06        -0.50113E+08         0.00000E+00
    0.00000E+00         0.00000E+00        -0.50064E+08
 
   -0.50194E+08         0.26927E+06         0.00000E+00
    0.26927E+06        -0.50117E+08         0.00000E+00
    0.00000E+00         0.00000E+00        -0.50062E+08
 
   -0.50182E+08         0.27027E+06         0.00000E+00
    0.27027E+06        -0.50121E+08         0.00000E+00
    0.00000E+00         0.00000E+00        -0.50061E+08
 
   -0.50171E+08         0.27105E+06         0.00000E+00
    0.27105E+06        -0.50125E+08         0.00000E+00
    0.00000E+00         0.00000E+00        -0.50059E+08
 
   -0.50159E+08         0.27163E+06         0.00000E+00
    0.27163E+06        -0.50129E+08         0.00000E+00
    0.00000E+00         0.00000E+00        -0.50058E+08
 
   -0.50149E+08         0.27202E+06         0.00000E+00
    0.27202E+06        -0.50133E+08         0.00000E+00
    0.00000E+00         0.00000E+00        -0.50056E+08
 
   -0.50138E+08         0.27224E+06         0.00000E+00
    0.27224E+06        -0.50136E+08         0.00000E+00
    0.00000E+00         0.00000E+00        -0.50055E+08
 
   -0.50128E+08         0.27232E+06         0.00000E+00
    0.27232E+06        -0.50140E+08         0.00000E+00
    0.00000E+00         0.00000E+00        -0.50054E+08
 
   -0.50118E+08         0.27228E+06         0.00000E+00
    0.27228E+06        -0.50143E+08         0.00000E+00
    0.00000E+00         0.00000E+00        -0.50052E+08
 
   -0.50108E+08         0.27213E+06         0.00000E+00
    0.27213E+06        -0.50147E+08         0.00000E+00
    0.00000E+00         0.00000E+00        -0.50051E+08
 
   -0.50099E+08         0.27191E+06         0.00000E+00
    0.27191E+06        -0.50150E+08         0.00000E+00
    0.00000E+00         0.00000E+00        -0.50050E+08
 
   -0.50091E+08         0.27163E+06         0.00000E+00
    0.27163E+06        -0.50153E+08         0.00000E+00
    0.00000E+00         0.00000E+00        -0.50049E+08
 
   -0.50082E+08         0.27131E+06         0.00000E+00
    0.27131E+06        -0.50157E+08         0.00000E+00
    0.00000E+00         0.00000E+00        -0.50048E+08
 
   -0.50074E+08         0.27099E+06         0.00000E+00
    0.27099E+06        -0.50160E+08         0.00000E+00
    0.00000E+00         0.00000E+00        -0.50047E+08
 
   -0.50067E+08         0.27068E+06         0.00000E+00
    0.27068E+06        -0.50163E+08         0.00000E+00
    0.00000E+00         0.00000E+00        -0.50046E+08
 
   -0.50060E+08         0.27041E+06         0.00000E+00
    0.27041E+06        -0.50166E+08         0.00000E+00
    0.00000E+00         0.00000E+00        -0.50045E+08
 
   -0.50053E+08         0.27020E+06         0.00000E+00
    0.27020E+06        -0.50168E+08         0.00000E+00
    0.00000E+00         0.00000E+00        -0.50044E+08
 
   -0.50046E+08         0.27008E+06         0.00000E+00
    0.27008E+06        -0.50171E+08         0.00000E+00
    0.00000E+00         0.00000E+00        -0.50043E+08
 
   -0.50537E+08         0.74272E+04         0.00000E+00
    0.74272E+04        -0.50000E+08         0.00000E+00
    0.00000E+00         0.00000E+00        -0.50107E+08
 
   -0.50532E+08         0.21434E+05         0.00000E+00
    0.21434E+05        -0.50000E+08         0.00000E+00
    0.00000E+00         0.00000E+00        -0.50106E+08
 
   -0.50526E+08         0.35055E+05         0.00000E+00
    0.35055E+05        -0.50001E+08         0.00000E+00
    0.00000E+00         0.00000E+00        -0.50105E+08
 
   -0.50520E+08         0.48276E+05         0.00000E+00
    0.48276E+05        -0.50002E+08         0.00000E+00
    0.00000E+00         0.00000E+00        -0.50104E+08
 
   -0.50513E+08         0.61082E+05         0.00000E+00
    0.61082E+05        -0.50004E+08         0.00000E+00
    0.00000E+00         0.00000E+00        -0.50103E+08
 
   -0.50505E+08         0.73463E+05         0.00000E+00
    0.73463E+05        -0.50006E+08         0.00000E+00
    0.00000E+00         0.00000E+00        -0.50102E+08
 
   -0.50497E+08         0.85409E+05         0.00000E+00
    0.85409E+05        -0.50008E+08         0.00000E+00
    0.00000E+00         0.00000E+00        -0.50101E+08
 
   -0.50488E+08         0.96915E+05         0.00000E+00
    0.96915E+05        -0.50010E+08         0.00000E+00
    0.00000E+00         0.00000E+00        -0.50100E+08
 
   -0.50479E+08         0.10797E+06         0.00000E+00
    0.10797E+06        -0.50013E+08         0.00000E+00
    0.00000E+00         0.00000E+00        -0.50098E+08
 
   -0.50469E+08         0.11858E+06         0.00000E+00
    0.11858E+06        -0.50016E+08         0.00000E+00
    0.00000E+00         0.00000E+00        -0.50097E+08
 
   -0.50459E+08         0.12873E+06         0.00000E+00
    0.12873E+06        -0.50019E+08         0.00000E+00
    0.00000E+00         0.00000E+00        -0.50096E+08
 
   -0.50448E+08         0.13843E+06         0.00000E+00
    0.13843E+06        -0.50022E+08         0.00000E+00
    0.00000E+00         0.00000E+00        -0.50094E+08
 
   -0.50437E+08         0.14768E+06         0.00000E+00
    0.14768E+06        -0.50025E+08         0.00000E+00
    0.00000E+00         0.00000E+00        -0.50093E+08
 
   -0.50426E+08         0.15647E+06         0.00000E+00
    0.15647E+06        -0.50029E+08         0.00000E+00
    0.00000E+00         0.00000E+00        -0.50091E+08
 
   -0.50415E+08         0.16482E+06         0.00000E+00
    0.16482E+06        -0.50033E+08         0.00000E+00
    0.00000E+00         0.00000E+00        -0.50090E+08
 
   -0.50403E+08         0.17272E+06         0.00000E+00
    0.17272E+06        -0.50037E+08         0.00000E+00
    0.00000E+00         0.00000E+00        -0.50088E+08
 
   -0.50391E+08         0.18019E+06         0.00000E+00
    0.18019E+06        -0.50041E+08         0.00000E+00
    0.00000E+00         0.00000E+00        -0.50086E+08
 
   -0.50379E+08         0.18722E+06         0.00000E+00
    0.18722E+06        -0.50045E+08         0.00000E+00
    0.00000E+00         0.00000E+00        -0.50085E+08
 
   -0.50367E+08         0.19382E+06         0.00000E+00
    0.19382E+06        -0.50049E+08         0.00000E+00
    0.00000E+00         0.00000E+00        -0.50083E+08
 
   -0.50355E+08         0.20001E+06         0.00000E+00
    0.20001E+06        -0.50053E+08         0.00000E+00
    0.00000E+00         0.00000E+00        -0.50082E+08
 
   -0.50343E+08         0.20579E+06         0.00000E+00
    0.20579E+06        -0.50057E+08         0.00000E+00
    0.00000E+00         0.00000E+00        -0.50080E+08
 
   -0.50330E+08         0.21118E+06         0.00000E+00
    0.21118E+06        -0.50062E+08         0.00000E+00
    0.00000E+00         0.00000E+00        -0.50078E+08
 
   -0.50318E+08         0.21617E+06         0.00000E+00
    0.21617E+06        -0.50066E+08         0.00000E+00
    0.00000E+00         0.00000E+00        -0.50077E+08
 
   -0.50306E+08         0.22079E+06         0.00000E+00
    0.22079E+06        -0.50070E+08         0.00000E+00
    0.00000E+00         0.00000E+00        -0.50075E+08
 
   -0.50293E+08         0.22504E+06         0.00000E+00
    0.22504E+06        -0.50075E+08         0.00000E+00
    0.00000E+00         0.00000E+00        -0.50074E+08
 
   -0.50281E+08         0.22894E+06         0.00000E+00
    0.22894E+06        -0.50079E+08         0.00000E+00
    0.00000E+00         0.00000E+00        -0.50072E+08
 
   -0.50269E+08         0.23249E+06         0.00000E+00
    0.23249E+06        -0.50083E+08         0.00000E+00
    0.00000E+00         0.00000E+00        -0.50070E+08
 
   -0.50257E+08         0.23572E+06         0.00000E+00
    0.23572E+06        -0.50088E+08         0.00000E+00
    0.00000E+00         0.00000E+00        -0.50069E+08
 
   -0.50245E+08         0.23864E+06         0.00000E+00
    0.23864E+06        -0.50092E+08         0.00000E+00
    0.00000E+00         0.00000E+00        -0.50067E+08
 
   -0.50233E+08         0.24126E+06         0.00000E+00
    0.24126E+06        -0.50096E+08         0.00000E+00
    0.00000E+00         0.00000E+00        -0.50066E+08
 
   -0.50222E+08         0.24359E+06         0.00000E+00
    0.24359E+06        -0.50100E+08         0.00000E+00
    0.00000E+00         0.00000E+00        -0.50064E+08
 
   -0.50210E+08         0.24565E+06         0.00000E+00
    0.24565E+06        -0.50104E+08         0.00000E+00
    0.00000E+00         0.00000E+00        -0.50063E+08
 
   -0.50199E+08         0.24746E+06         0.00000E+00
    0.24746E+06        -0.50109E+08         0.00000E+00
    0.00000E+00         0.00000E+00        -0.50061E+08
 
   -0.50188E+08         0.24902E+06         0.00000E+00
    0.24902E+06        -0.50113E+08         0.00000E+00
    0.00000E+00         0.00000E+00        -0.50060E+08
 
   -0.50177E+08         0.25037E+06         0.00000E+00
    0.25037E+06        -0.50117E+08         0.00000E+00
    0.00000E+00         0.00000E+00        -0.50059E+08
 
   -0.50166E+08         0.25151E+06         0.00000E+00
    0.25151E+06        -0.50121E+08         0.00000E+00
    0.00000E+00         0.00000E+00        -0.50057E+08
 
   -0.50156E+08         0.25246E+06         0.00000E+00
    0.25246E+06        -0.50125E+08         0.00000E+00
    0.00000E+00         0.00000E+00        -0.50056E+08
 
   -0.50146E+08         0.25323E+06         0.00000E+00
    0.25323E+06        -0.50128E+08         0.00000E+00
    0.00000E+00         0.00000E+00        -0.50055E+08
 
   -0.50136E+08         0.25385E+06         0.00000E+00
    0.25385E+06        -0.50132E+08         0.00000E+00
    0.00000E+00         0.00000E+00        -0.50054E+08
 
   -0.50127E+08         0.25434E+06         0.00000E+00
    0.25434E+06        -0.50136E+08         0.00000E+00
    0.00000E+00         0.00000E+00        -0.50052E+08
 
   -0.50117E+08         0.25471E+06         0.00000E+00
    0.25471E+06        -0.50139E+08         0.00000E+00
    0.00000E+00         0.00000E+00        -0.50051E+08
 
   -0.50108E+08         0.25497E+06         0.00000E+00
    0.25497E+06        -0.50143E+08         0.00000E+00
    0.00000E+00         0.00000E+00        -0.50050E+08
 
   -0.50099E+08         0.25516E+06         0.00000E+00
    0.25516E+06        -0.50146E+08         0.00000E+00
    0.00000E+00         0.00000E+00        -0.50049E+08
 
   -0.50091E+08         0.25529E+06         0.00000E+00
    0.25529E+06        -0.50150E+08         0.00000E+00
    0.00000E+00         0.00000E+00        -0.50048E+08
 
   -0.50083E+08         0.25537E+06         0.00000E+00
    0.25537E+06        -0.50153E+08         0.00000E+00
    0.00000E+00         0.00000E+00        -0.50047E+08
 
   -0.50075E+08         0.25543E+06         0.00000E+00
    0.25543E+06        -0.50156E+08         0.00000E+00
    0.00000E+00         0.00000E+00        -0.50046E+08
 
   -0.50067E+08         0.25548E+06         0.00000E+00
    0.25548E+06        -0.50159E+08         0.00000E+00
    0.00000E+00         0.00000E+00        -0.50045E+08
 
   -0.50060E+08         0.25555E+06         0.00000E+00
    0.25555E+06        -0.50162E+08         0.00000E+00
    0.00000E+00         0.00000E+00        -0.50044E+08
 
   -0.50053E+08         0.25566E+06         0.00000E+00
    0.25566E+06        -0.50165E+08         0.00000E+00
    0.00000E+00         0.00000E+00        -0.50044E+08
 
   -0.50046E+08         0.25582E+06         0.00000E+00
    0.25582E+06        -0.50168E+08         0.00000E+00
    0.00000E+00         0.00000E+00        -0.50043E+08
 
   -0.50471E+08         0.63778E+04         0.00000E+00
    0.63778E+04        -0.50000E+08         0.00000E+00
    0.00000E+00         0.00000E+00        -0.50094E+08
 
   -0.50467E+08         0.18527E+05         0.00000E+00
    0.18527E+05        -0.50000E+08         0.00000E+00
    0.00000E+00         0.00000E+00        -0.50094E+08
 
   -0.50463E+08         0.30394E+05         0.00000E+00
    0.30394E+05        -0.50001E+08         0.00000E+00
    0.00000E+00         0.00000E+00        -0.50093E+08
 
   -0.50459E+08         0.41961E+05         0.00000E+00
    0.41961E+05        -0.50002E+08         0.00000E+00
    0.00000E+00         0.00000E+00        -0.50092E+08
 
   -0.50454E+08         0.53216E+05         0.00000E+00
    0.53216E+05        -0.50003E+08         0.00000E+00
    0.00000E+00         0.00000E+00        -0.50091E+08
 
   -0.50448E+08         0.64145E+05         0.00000E+00
    0.64145E+05        -0.50005E+08         0.00000E+00
    0.00000E+00         0.00000E+00        -0.50091E+08
 
   -0.50441E+08         0.74737E+05         0.00000E+00
    0.74737E+05        -0.50007E+08         0.00000E+00
    0.00000E+00         0.00000E+00        -0.50090E+08
 
   -0.50435E+08         0.84983E+05         0.00000E+00
    0.84983E+05        -0.50009E+08         0.00000E+00
    0.00000E+00         0.00000E+00        -0.50089E+08
 
   -0.50427E+08         0.94876E+05         0.00000E+00
    0.94876E+05        -0.50011E+08         0.00000E+00
    0.00000E+00         0.00000E+00        -0.50088E+08
 
   -0.50420E+08         0.10441E+06         0.00000E+00
    0.10441E+06        -0.50014E+08         0.00000E+00
    0.00000E+00         0.00000E+00        -0.50087E+08
 
   -0.50412E+08         0.11358E+06         0.00000E+00
    0.11358E+06        -0.50017E+08         0.00000E+00
    0.00000E+00         0.00000E+00        -0.50086E+08
 
   -0.50403E+08         0.12238E+06         0.00000E+00
    0.12238E+06        -0.50020E+08         0.00000E+00
    0.00000E+00         0.00000E+00        -0.50085E+08
 
   -0.50394E+08         0.13081E+06         0.00000E+00
    0.13081E+06        -0.50023E+08         0.00000E+00
    0.00000E+00         0.00000E+00        -0.50083E+08
 
   -0.50385E+08         0.13887E+06         0.00000E+00
    0.13887E+06        -0.50026E+08         0.00000E+00
    0.00000E+00         0.00000E+00        -0.50082E+08
 
   -0.50376E+08         0.14656E+06         0.00000E+00
    0.14656E+06        -0.50030E+08         0.00000E+00
    0.00000E+00         0.00000E+00        -0.50081E+08
 
   -0.50366E+08         0.15388E+06         0.00000E+00
    0.15388E+06        -0.50033E+08         0.00000E+00
    0.00000E+00         0.00000E+00        -0.50080E+08
 
   -0.50356E+08         0.16083E+06         0.00000E+00
    0.16083E+06        -0.50037E+08         0.00000E+00
    0.00000E+00         0.00000E+00        -0.50079E+08
 
   -0.50346E+08         0.16742E+06         0.00000E+00
    0.16742E+06        -0.50041E+08         0.00000E+00
    0.00000E+00         0.00000E+00        -0.50077E+08
 
   -0.50336E+08         0.17365E+06         0.00000E+00
    0.17365E+06        -0.50045E+08         0.00000E+00
    0.00000E+00         0.00000E+00        -0.50076E+08
 
   -0.50326E+08         0.17952E+06         0.00000E+00
    0.17952E+06        -0.50049E+08         0.00000E+00
    0.00000E+00         0.00000E+00        -0.50075E+08
 
   -0.50315E+08         0.18504E+06         0.00000E+00
    0.18504E+06        -0.50053E+08         0.00000E+00
    0.00000E+00         0.00000E+00        -0.50074E+08
 
   -0.50305E+08         0.19023E+06         0.00000E+00
    0.19023E+06        -0.50057E+08         0.00000E+00
    0.00000E+00         0.00000E+00        -0.50072E+08
 
   -0.50294E+08         0.19508E+06         0.00000E+00
    0.19508E+06        -0.50061E+08         0.00000E+00
    0.00000E+00         0.00000E+00        -0.50071E+08
 
   -0.50284E+08         0.19960E+06         0.00000E+00
    0.19960E+06        -0.50065E+08         0.00000E+00
    0.00000E+00         0.00000E+00        -0.50070E+08
 
   -0.50273E+08         0.20380E+06         0.00000E+00
    0.20380E+06        -0.50069E+08         0.00000E+00
    0.00000E+00         0.00000E+00        -0.50068E+08
 
   -0.50262E+08         0.20770E+06         0.00000E+00
    0.20770E+06        -0.50073E+08         0.00000E+00
    0.00000E+00         0.00000E+00        -0.50067E+08
 
   -0.50252E+08         0.21130E+06         0.00000E+00
    0.21130E+06        -0.50077E+08         0.00000E+00
    0.00000E+00         0.00000E+00        -0.50066E+08
 
   -0.50241E+08         0.21460E+06         0.00000E+00
    0.21460E+06        -0.50081E+08         0.00000E+00
    0.00000E+00         0.00000E+00        -0.50065E+08
 
   -0.50231E+08         0.21764E+06         0.00000E+00
    0.21764E+06        -0.50085E+08         0.00000E+00
    0.00000E+00         0.00000E+00        -0.50063E+08
 
   -0.50220E+08         0.22040E+06         0.00000E+00
    0.22040E+06        -0.50090E+08         0.00000E+00
    0.00000E+00         0.00000E+00        -0.50062E+08
 
   -0.50210E+08         0.22291E+06         0.00000E+00
    0.22291E+06        -0.50094E+08         0.00000E+00
    0.00000E+00         0.00000E+00        -0.50061E+08
 
   -0.50200E+08         0.22518E+06         0.00000E+00
    0.22518E+06        -0.50098E+08         0.00000E+00
    0.00000E+00         0.00000E+00        -0.50060E+08
 
   -0.50190E+08         0.22722E+06         0.00000E+00
    0.22722E+06        -0.50102E+08         0.00000E+00
    0.00000E+00         0.00000E+00        -0.50058E+08
 
   -0.50180E+08         0.22905E+06         0.00000E+00
    0.22905E+06        -0.50106E+08         0.00000E+00
    0.00000E+00         0.00000E+00        -0.50057E+08
 
   -0.50170E+08         0.23067E+06         0.00000E+00
    0.23067E+06        -0.50110E+08         0.00000E+00
    0.00000E+00         0.00000E+00        -0.50056E+08
 
   -0.50160E+08         0.23211E+06         0.00000E+00
    0.23211E+06        -0.50113E+08         0.00000E+00
    0.00000E+00         0.00000E+00        -0.50055E+08
 
   -0.50151E+08         0.23337E+06         0.00000E+00
    0.23337E+06        -0.50117E+08         0.00000E+00
    0.00000E+00         0.00000E+00        -0.50054E+08
 
   -0.50142E+08         0.23446E+06         0.00000E+00
    0.23446E+06        -0.50121E+08         0.00000E+00
    0.00000E+00         0.00000E+00        -0.50053E+08
 
   -0.50132E+08         0.23542E+06         0.00000E+00
    0.23542E+06        -0.50125E+08         0.00000E+00
    0.00000E+00         0.00000E+00        -0.50051E+08
 
   -0.50123E+08         0.23624E+06         0.00000E+00
    0.23624E+06        -0.50128E+08         0.00000E+00
    0.00000E+00         0.00000E+00        -0.50050E+08
 
   -0.50115E+08         0.23695E+06         0.00000E+00
    0.23695E+06        -0.50132E+08         0.00000E+00
    0.00000E+00         0.00000E+00        -0.50049E+08
 
   -0.50106E+08         0.23755E+06         0.00000E+00
    0.23755E+06        -0.50135E+08         0.00000E+00
    0.00000E+00         0.00000E+00        -0.50048E+08
 
   -0.50098E+08         0.23807E+06         0.00000E+00
    0.23807E+06        -0.50139E+08         0.00000E+00
    0.00000E+00         0.00000E+00        -0.50047E+08
 
   -0.50090E+08         0.23852E+06         0.00000E+00
    0.23852E+06        -0.50142E+08         0.00000E+00
    0.00000E+00         0.00000E+00        -0.50046E+08
 
   -0.50082E+08         0.23892E+06         0.00000E+00
    0.23892E+06        -0.50146E+08         0.00000E+00
    0.00000E+00         0.00000E+00        -0.50045E+08
 
   -0.50074E+08         0.23928E+06         0.00000E+00
    0.23928E+06        -0.50149E+08         0.00000E+00
    0.00000E+00         0.00000E+00        -0.50045E+08
 
   -0.50066E+08         0.23962E+06         0.00000E+00
    0.23962E+06        -0.50152E+08         0.00000E+00
    0.00000E+00         0.00000E+00        -0.50044E+08
 
   -0.50059E+08         0.23995E+06         0.00000E+00
    0.23995E+06        -0.50155E+08         0.00000E+00
    0.00000E+00         0.00000E+00        -0.50043E+08
 
   -0.50051E+08         0.24029E+06         0.00000E+00
    0.24029E+06        -0.50158E+08         0.00000E+00
    0.00000E+00         0.00000E+00        -0.50042E+08
 
   -0.50044E+08         0.24065E+06         0.00000E+00
    0.24065E+06        -0.50162E+08         0.00000E+00
    0.00000E+00         0.00000E+00        -0.50041E+08
 
   -0.50413E+08         0.54682E+04         0.00000E+00
    0.54682E+04        -0.50000E+08         0.00000E+00
    0.00000E+00         0.00000E+00        -0.50083E+08
 
   -0.50411E+08         0.15982E+05         0.00000E+00
    0.15982E+05        -0.50000E+08         0.00000E+00
    0.00000E+00         0.00000E+00        -0.50082E+08
 
   -0.50409E+08         0.26293E+05         0.00000E+00
    0.26293E+05        -0.50001E+08         0.00000E+00
    0.00000E+00         0.00000E+00        -0.50082E+08
 
   -0.50405E+08         0.36385E+05         0.00000E+00
    0.36385E+05        -0.50002E+08         0.00000E+00
    0.00000E+00         0.00000E+00        -0.50081E+08
 
   -0.50402E+08         0.46243E+05         0.00000E+00
    0.46243E+05        -0.50003E+08         0.00000E+00
    0.00000E+00         0.00000E+00        -0.50081E+08
 
   -0.50397E+08         0.55855E+05         0.00000E+00
    0.55855E+05        -0.50004E+08         0.00000E+00
    0.00000E+00         0.00000E+00        -0.50080E+08
 
   -0.50392E+08         0.65210E+05         0.00000E+00
    0.65210E+05        -0.50006E+08         0.00000E+00
    0.00000E+00         0.00000E+00        -0.50080E+08
 
   -0.50387E+08         0.74297E+05         0.00000E+00
    0.74297E+05        -0.50008E+08         0.00000E+00
    0.00000E+00         0.00000E+00        -0.50079E+08
 
   -0.50381E+08         0.83108E+05         0.00000E+00
    0.83108E+05        -0.50010E+08         0.00000E+00
    0.00000E+00         0.00000E+00        -0.50078E+08
 
   -0.50375E+08         0.91635E+05         0.00000E+00
    0.91635E+05        -0.50012E+08         0.00000E+00
    0.00000E+00         0.00000E+00        -0.50078E+08
 
   -0.50369E+08         0.99873E+05         0.00000E+00
    0.99873E+05        -0.50015E+08         0.00000E+00
    0.00000E+00         0.00000E+00        -0.50077E+08
 
   -0.50362E+08         0.10782E+06         0.00000E+00
    0.10782E+06        -0.50018E+08         0.00000E+00
    0.00000E+00         0.00000E+00        -0.50076E+08
 
   -0.50355E+08         0.11546E+06         0.00000E+00
    0.11546E+06        -0.50020E+08         0.00000E+00
    0.00000E+00         0.00000E+00        -0.50075E+08
 
   -0.50347E+08         0.12280E+06         0.00000E+00
    0.12280E+06        -0.50023E+08         0.00000E+00
    0.00000E+00         0.00000E+00        -0.50074E+08
 
   -0.50340E+08         0.12984E+06         0.00000E+00
    0.12984E+06        -0.50027E+08         0.00000E+00
    0.00000E+00         0.00000E+00        -0.50073E+08
 
   -0.50332E+08         0.13657E+06         0.00000E+00
    0.13657E+06        -0.50030E+08         0.00000E+00
    0.00000E+00         0.00000E+00        -0.50072E+08
 
   -0.50324E+08         0.14301E+06         0.00000E+00
    0.14301E+06        -0.50033E+08         0.00000E+00
    0.00000E+00         0.00000E+00        -0.50071E+08
 
   -0.50315E+08         0.14913E+06         0.00000E+00
    0.14913E+06        -0.50037E+08         0.00000E+00
    0.00000E+00         0.00000E+00        -0.50070E+08
 
   -0.50307E+08         0.15496E+06         0.00000E+00
    0.15496E+06        -0.50040E+08         0.00000E+00
    0.00000E+00         0.00000E+00        -0.50069E+08
 
   -0.50298E+08         0.16049E+06         0.00000E+00
    0.16049E+06        -0.50044E+08         0.00000E+00
    0.00000E+00         0.00000E+00        -0.50068E+08
 
   -0.50289E+08         0.16573E+06         0.00000E+00
    0.16573E+06        -0.50047E+08         0.00000E+00
    0.00000E+00         0.00000E+00        -0.50067E+08
 
   -0.50280E+08         0.17067E+06         0.00000E+00
    0.17067E+06        -0.50051E+08         0.00000E+00
    0.00000E+00         0.00000E+00        -0.50066E+08
 
   -0.50271E+08         0.17533E+06         0.00000E+00
    0.17533E+06        -0.50055E+08         0.00000E+00
    0.00000E+00         0.00000E+00        -0.50065E+08
 
   -0.50262E+08         0.17971E+06         0.00000E+00
    0.17971E+06        -0.50059E+08         0.00000E+00
    0.00000E+00         0.00000E+00        -0.50064E+08
 
   -0.50253E+08         0.18381E+06         0.00000E+00
    0.18381E+06        -0.50063E+08         0.00000E+00
    0.00000E+00         0.00000E+00        -0.50063E+08
 
   -0.50244E+08         0.18765E+06         0.00000E+00
    0.18765E+06        -0.50066E+08         0.00000E+00
    0.00000E+00         0.00000E+00        -0.50062E+08
 
   -0.50234E+08         0.19123E+06         0.00000E+00
    0.19123E+06        -0.50070E+08         0.00000E+00
    0.00000E+00         0.00000E+00        -0.50061E+08
 
   -0.50225E+08         0.19456E+06         0.00000E+00
    0.19456E+06        -0.50074E+08         0.00000E+00
    0.00000E+00         0.00000E+00        -0.50060E+08
 
   -0.50216E+08         0.19765E+06         0.00000E+00
    0.19765E+06        -0.50078E+08         0.00000E+00
    0.00000E+00         0.00000E+00        -0.50059E+08
 
   -0.50207E+08         0.20050E+06         0.00000E+00
    0.20050E+06        -0.50082E+08         0.00000E+00
    0.00000E+00         0.00000E+00        -0.50058E+08
 
   -0.50198E+08         0.20313E+06         0.00000E+00
    0.20313E+06        -0.50086E+08         0.00000E+00
    0.00000E+00         0.00000E+00        -0.50057E+08
 
   -0.50189E+08         0.20554E+06         0.00000E+00
    0.20554E+06        -0.50090E+08         0.00000E+00
    0.00000E+00         0.00000E+00        -0.50056E+08
 
   -0.50180E+08         0.20775E+06         0.00000E+00
    0.20775E+06        -0.50094E+08         0.00000E+00
    0.00000E+00         0.00000E+00        -0.50055E+08
 
   -0.50171E+08         0.20977E+06         0.00000E+00
    0.20977E+06        -0.50097E+08         0.00000E+00
    0.00000E+00         0.00000E+00        -0.50054E+08
 
   -0.50162E+08         0.21160E+06         0.00000E+00
    0.21160E+06        -0.50101E+08         0.00000E+00
    0.00000E+00         0.00000E+00        -0.50053E+08
 
   -0.50153E+08         0.21325E+06         0.00000E+00
    0.21325E+06        -0.50105E+08         0.00000E+00
    0.00000E+00         0.00000E+00        -0.50052E+08
 
   -0.50144E+08         0.21475E+06         0.00000E+00
    0.21475E+06        -0.50108E+08         0.00000E+00
    0.00000E+00         0.00000E+00        -0.50051E+08
 
   -0.50136E+08         0.21610E+06         0.00000E+00
    0.21610E+06        -0.50112E+08         0.00000E+00
    0.00000E+00         0.00000E+00        -0.50050E+08
 
   -0.50127E+08         0.21731E+06         0.00000E+00
    0.21731E+06        -0.50116E+08         0.00000E+00
    0.00000E+00         0.00000E+00        -0.50049E+08
 
   -0.50119E+08         0.21839E+06         0.00000E+00
    0.21839E+06        -0.50119E+08         0.00000E+00
    0.00000E+00         0.00000E+00        -0.50048E+08
 
   -0.50111E+08         0.21936E+06         0.00000E+00
    0.21936E+06        -0.50123E+08         0.00000E+00
    0.00000E+00         0.00000E+00        -0.50047E+08
 
   -0.50103E+08         0.22023E+06         0.00000E+00
    0.22023E+06        -0.50126E+08         0.00000E+00
    0.00000E+00         0.00000E+00        -0.50046E+08
 
   -0.50095E+08         0.22101E+06         0.00000E+00
    0.22101E+06        -0.50130E+08         0.00000E+00
    0.00000E+00         0.00000E+00        -0.50045E+08
 
   -0.50087E+08         0.22171E+06         0.00000E+00
    0.22171E+06        -0.50133E+08         0.00000E+00
    0.00000E+00         0.00000E+00        -0.50044E+08
 
   -0.50079E+08         0.22234E+06         0.00000E+00
    0.22234E+06        -0.50136E+08         0.00000E+00
    0.00000E+00         0.00000E+00        -0.50043E+08
 
   -0.50071E+08         0.22293E+06         0.00000E+00
    0.22293E+06        -0.50140E+08         0.00000E+00
    0.00000E+00         0.00000E+00        -0.50042E+08
 
   -0.50064E+08         0.22347E+06         0.00000E+00
    0.22347E+06        -0.50143E+08         0.00000E+00
    0.00000E+00         0.00000E+00        -0.50041E+08
 
   -0.50057E+08         0.22398E+06         0.00000E+00
    0.22398E+06        -0.50146E+08         0.00000E+00
    0.00000E+00         0.00000E+00        -0.50041E+08
 
   -0.50049E+08         0.22448E+06         0.00000E+00
    0.22448E+06        -0.50149E+08         0.00000E+00
    0.00000E+00         0.00000E+00        -0.50040E+08
 
   -0.50042E+08         0.22497E+06         0.00000E+00
    0.22497E+06        -0.50152E+08         0.00000E+00
    0.00000E+00         0.00000E+00        -0.50039E+08
 
   -0.50364E+08         0.46891E+04         0.00000E+00
    0.46891E+04        -0.50000E+08         0.00000E+00
    0.00000E+00         0.00000E+00        -0.50073E+08
 
   -0.50363E+08         0.13782E+05         0.00000E+00
    0.13782E+05        -0.50000E+08         0.00000E+00
    0.00000E+00         0.00000E+00        -0.50073E+08
 
   -0.50361E+08         0.22733E+05         0.00000E+00
    0.22733E+05        -0.50001E+08         0.00000E+00
    0.00000E+00         0.00000E+00        -0.50072E+08
 
   -0.50359E+08         0.31525E+05         0.00000E+00
    0.31525E+05        -0.50002E+08         0.00000E+00
    0.00000E+00         0.00000E+00        -0.50072E+08
 
   -0.50356E+08         0.40147E+05         0.00000E+00
    0.40147E+05        -0.50003E+08         0.00000E+00
    0.00000E+00         0.00000E+00        -0.50072E+08
 
   -0.50353E+08         0.48585E+05         0.00000E+00
    0.48585E+05        -0.50004E+08         0.00000E+00
    0.00000E+00         0.00000E+00        -0.50071E+08
 
   -0.50349E+08         0.56828E+05         0.00000E+00
    0.56828E+05        -0.50005E+08         0.00000E+00
    0.00000E+00         0.00000E+00        -0.50071E+08
 
   -0.50345E+08         0.64867E+05         0.00000E+00
    0.64867E+05        -0.50007E+08         0.00000E+00
    0.00000E+00         0.00000E+00        -0.50070E+08
 
   -0.50341E+08         0.72692E+05         0.00000E+00
    0.72692E+05        -0.50009E+08         0.00000E+00
    0.00000E+00         0.00000E+00        -0.50070E+08
 
   -0.50336E+08         0.80296E+05         0.00000E+00
    0.80296E+05        -0.50011E+08         0.00000E+00
    0.00000E+00         0.00000E+00        -0.50069E+08
 
   -0.50331E+08         0.87671E+05         0.00000E+00
    0.87671E+05        -0.50013E+08         0.00000E+00
    0.00000E+00         0.00000E+00        -0.50069E+08
 
   -0.50325E+08         0.94813E+05         0.00000E+00
    0.94813E+05        -0.50015E+08         0.00000E+00
    0.00000E+00         0.00000E+00        -0.50068E+08
 
   -0.50319E+08         0.10171E+06         0.00000E+00
    0.10171E+06        -0.50018E+08         0.00000E+00
    0.00000E+00         0.00000E+00        -0.50067E+08
 
   -0.50313E+08         0.10837E+06         0.00000E+00
    0.10837E+06        -0.50021E+08         0.00000E+00
    0.00000E+00         0.00000E+00        -0.50067E+08
 
   -0.50307E+08         0.11479E+06         0.00000E+00
    0.11479E+06        -0.50023E+08         0.00000E+00
    0.00000E+00         0.00000E+00        -0.50066E+08
 
   -0.50300E+08         0.12095E+06         0.00000E+00
    0.12095E+06        -0.50026E+08         0.00000E+00
    0.00000E+00         0.00000E+00        -0.50065E+08
 
   -0.50293E+08         0.12687E+06         0.00000E+00
    0.12687E+06        -0.50029E+08         0.00000E+00
    0.00000E+00         0.00000E+00        -0.50065E+08
 
   -0.50286E+08         0.13254E+06         0.00000E+00
    0.13254E+06        -0.50032E+08         0.00000E+00
    0.00000E+00         0.00000E+00        -0.50064E+08
 
   -0.50279E+08         0.13795E+06         0.00000E+00
    0.13795E+06        -0.50036E+08         0.00000E+00
    0.00000E+00         0.00000E+00        -0.50063E+08
 
   -0.50272E+08         0.14312E+06         0.00000E+00
    0.14312E+06        -0.50039E+08         0.00000E+00
    0.00000E+00         0.00000E+00        -0.50062E+08
 
   -0.50264E+08         0.14804E+06         0.00000E+00
    0.14804E+06        -0.50042E+08         0.00000E+00
    0.00000E+00         0.00000E+00        -0.50061E+08
 
   -0.50257E+08         0.15272E+06         0.00000E+00
    0.15272E+06        -0.50046E+08         0.00000E+00
    0.00000E+00         0.00000E+00        -0.50060E+08
 
   -0.50249E+08         0.15716E+06         0.00000E+00
    0.15716E+06        -0.50049E+08         0.00000E+00
    0.00000E+00         0.00000E+00        -0.50060E+08
 
   -0.50241E+08         0.16136E+06         0.00000E+00
    0.16136E+06        -0.50053E+08         0.00000E+00
    0.00000E+00         0.00000E+00        -0.50059E+08
 
   -0.50233E+08         0.16532E+06         0.00000E+00
    0.16532E+06        -0.50056E+08         0.00000E+00
    0.00000E+00         0.00000E+00        -0.50058E+08
 
   -0.50225E+08         0.16906E+06         0.00000E+00
    0.16906E+06        -0.50060E+08         0.00000E+00
    0.00000E+00         0.00000E+00        -0.50057E+08
 
   -0.50217E+08         0.17257E+06         0.00000E+00
    0.17257E+06        -0.50063E+08         0.00000E+00
    0.00000E+00         0.00000E+00        -0.50056E+08
 
   -0.50209E+08         0.17587E+06         0.00000E+00
    0.17587E+06        -0.50067E+08         0.00000E+00
    0.00000E+00         0.00000E+00        -0.50055E+08
 
   -0.50201E+08         0.17895E+06         0.00000E+00
    0.17895E+06        -0.50070E+08         0.00000E+00
    0.00000E+00         0.00000E+00        -0.50054E+08
 
   -0.50193E+08         0.18183E+06         0.00000E+00
    0.18183E+06        -0.50074E+08         0.00000E+00
    0.00000E+00         0.00000E+00        -0.50053E+08
 
   -0.50185E+08         0.18451E+06         0.00000E+00
    0.18451E+06        -0.50078E+08         0.00000E+00
    0.00000E+00         0.00000E+00        -0.50053E+08
 
   -0.50177E+08         0.18700E+06         0.00000E+00
    0.18700E+06        -0.50081E+08         0.00000E+00
    0.00000E+00         0.00000E+00        -0.50052E+08
 
   -0.50169E+08         0.18931E+06         0.00000E+00
    0.18931E+06        -0.50085E+08         0.00000E+00
    0.00000E+00         0.00000E+00        -0.50051E+08
 
   -0.50161E+08         0.19145E+06         0.00000E+00
    0.19145E+06        -0.50088E+08         0.00000E+00
    0.00000E+00         0.00000E+00        -0.50050E+08
 
   -0.50153E+08         0.19342E+06         0.00000E+00
    0.19342E+06        -0.50092E+08         0.00000E+00
    0.00000E+00         0.00000E+00        -0.50049E+08
 
   -0.50145E+08         0.19523E+06         0.00000E+00
    0.19523E+06        -0.50095E+08         0.00000E+00
    0.00000E+00         0.00000E+00        -0.50048E+08
 
   -0.50137E+08         0.19689E+06         0.00000E+00
    0.19689E+06        -0.50099E+08         0.00000E+00
    0.00000E+00         0.00000E+00        -0.50047E+08
 
   -0.50129E+08         0.19841E+06         0.00000E+00
    0.19841E+06        -0.50102E+08         0.00000E+00
    0.00000E+00         0.00000E+00        -0.50046E+08
 
   -0.50121E+08         0.19981E+06         0.00000E+00
    0.19981E+06        -0.50106E+08         0.00000E+00
    0.00000E+00         0.00000E+00        -0.50045E+08
 
   -0.50113E+08         0.20108E+06         0.00000E+00
    0.20108E+06        -0.50109E+08         0.00000E+00
    0.00000E+00         0.00000E+00        -0.50045E+08
 
   -0.50106E+08         0.20224E+06         0.00000E+00
    0.20224E+06        -0.50113E+08         0.00000E+00
    0.00000E+00         0.00000E+00        -0.50044E+08
 
   -0.50098E+08         0.20330E+06         0.00000E+00
    0.20330E+06        -0.50116E+08         0.00000E+00
    0.00000E+00         0.00000E+00        -0.50043E+08
 
   -0.50090E+08         0.20426E+06         0.00000E+00
    0.20426E+06        -0.50119E+08         0.00000E+00
    0.00000E+00         0.00000E+00        -0.50042E+08
 
   -0.50083E+08         0.20514E+06         0.00000E+00
    0.20514E+06        -0.50123E+08         0.00000E+00
    0.00000E+00         0.00000E+00        -0.50041E+08
 
   -0.50076E+08         0.20595E+06         0.00000E+00
    0.20595E+06        -0.50126E+08         0.00000E+00
    0.00000E+00         0.00000E+00        -0.50040E+08
 
   -0.50068E+08         0.20669E+06         0.00000E+00
    0.20669E+06        -0.50129E+08         0.00000E+00
    0.00000E+00         0.00000E+00        -0.50039E+08
 
   -0.50061E+08         0.20737E+06         0.00000E+00
    0.20737E+06        -0.50132E+08         0.00000E+00
    0.00000E+00         0.00000E+00        -0.50039E+08
 
   -0.50054E+08         0.20801E+06         0.00000E+00
    0.20801E+06        -0.50135E+08         0.00000E+00
    0.00000E+00         0.00000E+00        -0.50038E+08
 
   -0.50047E+08         0.20861E+06         0.00000E+00
    0.20861E+06        -0.50139E+08         0.00000E+00
    0.00000E+00         0.00000E+00        -0.50037E+08
 
   -0.50039E+08         0.20918E+06         0.00000E+00
    0.20918E+06        -0.50142E+08         0.00000E+00
    0.00000E+00         0.00000E+00        -0.50036E+08
 
   -0.50321E+08         0.40277E+04         0.00000E+00
    0.40277E+04        -0.50000E+08         0.00000E+00
    0.00000E+00         0.00000E+00        -0.50064E+08
 
   -0.50321E+08         0.11898E+05         0.00000E+00
    0.11898E+05        -0.50000E+08         0.00000E+00
    0.00000E+00         0.00000E+00        -0.50064E+08
 
   -0.50320E+08         0.19671E+05         0.00000E+00
    0.19671E+05        -0.50001E+08         0.00000E+00
    0.00000E+00         0.00000E+00        -0.50064E+08
 
   -0.50318E+08         0.27333E+05         0.00000E+00
    0.27333E+05        -0.50001E+08         0.00000E+00
    0.00000E+00         0.00000E+00        -0.50064E+08
 
   -0.50316E+08         0.34871E+05         0.00000E+00
    0.34871E+05        -0.50002E+08         0.00000E+00
    0.00000E+00         0.00000E+00        -0.50064E+08
 
   -0.50314E+08         0.42275E+05         0.00000E+00
    0.42275E+05        -0.50003E+08         0.00000E+00
    0.00000E+00         0.00000E+00        -0.50063E+08
 
   -0.50311E+08         0.49533E+05         0.00000E+00
    0.49533E+05        -0.50005E+08         0.00000E+00
    0.00000E+00         0.00000E+00        -0.50063E+08
 
   -0.50308E+08         0.56636E+05         0.00000E+00
    0.56636E+05        -0.50006E+08         0.00000E+00
    0.00000E+00         0.00000E+00        -0.50063E+08
 
   -0.50304E+08         0.63575E+05         0.00000E+00
    0.63575E+05        -0.50008E+08         0.00000E+00
    0.00000E+00         0.00000E+00        -0.50062E+08
 
   -0.50300E+08         0.70343E+05         0.00000E+00
    0.70343E+05        -0.50009E+08         0.00000E+00
    0.00000E+00         0.00000E+00        -0.50062E+08
 
   -0.50296E+08         0.76933E+05         0.00000E+00
    0.76933E+05        -0.50011E+08         0.00000E+00
    0.00000E+00         0.00000E+00        -0.50062E+08
 
   -0.50292E+08         0.83338E+05         0.00000E+00
    0.83338E+05        -0.50013E+08         0.00000E+00
    0.00000E+00         0.00000E+00        -0.50061E+08
 
   -0.50287E+08         0.89554E+05         0.00000E+00
    0.89554E+05        -0.50016E+08         0.00000E+00
    0.00000E+00         0.00000E+00        -0.50061E+08
 
   -0.50282E+08         0.95575E+05         0.00000E+00
    0.95575E+05        -0.50018E+08         0.00000E+00
    0.00000E+00         0.00000E+00        -0.50060E+08
 
   -0.50277E+08         0.10140E+06         0.00000E+00
    0.10140E+06        -0.50020E+08         0.00000E+00
    0.00000E+00         0.00000E+00        -0.50059E+08
 
   -0.50271E+08         0.10702E+06         0.00000E+00
    0.10702E+06        -0.50023E+08         0.00000E+00
    0.00000E+00         0.00000E+00        -0.50059E+08
 
   -0.50266E+08         0.11244E+06         0.00000E+00
    0.11244E+06        -0.50026E+08         0.00000E+00
    0.00000E+00         0.00000E+00        -0.50058E+08
 
   -0.50260E+08         0.11765E+06         0.00000E+00
    0.11765E+06        -0.50028E+08         0.00000E+00
    0.00000E+00         0.00000E+00        -0.50058E+08
 
   -0.50254E+08         0.12266E+06         0.00000E+00
    0.12266E+06        -0.50031E+08         0.00000E+00
    0.00000E+00         0.00000E+00        -0.50057E+08
 
   -0.50248E+08         0.12746E+06         0.00000E+00
    0.12746E+06        -0.50034E+08         0.00000E+00
    0.00000E+00         0.00000E+00        -0.50056E+08
 
   -0.50241E+08         0.13206E+06         0.00000E+00
    0.13206E+06        -0.50037E+08         0.00000E+00
    0.00000E+00         0.00000E+00        -0.50056E+08
 
   -0.50235E+08         0.13646E+06         0.00000E+00
    0.13646E+06        -0.50040E+08         0.00000E+00
    0.00000E+00         0.00000E+00        -0.50055E+08
 
   -0.50228E+08         0.14065E+06         0.00000E+00
    0.14065E+06        -0.50043E+08         0.00000E+00
    0.00000E+00         0.00000E+00        -0.50054E+08
 
   -0.50221E+08         0.14463E+06         0.00000E+00
    0.14463E+06        -0.50047E+08         0.00000E+00
    0.00000E+00         0.00000E+00        -0.50054E+08
 
   -0.50214E+08         0.14843E+06         0.00000E+00
    0.14843E+06        -0.50050E+08         0.00000E+00
    0.00000E+00         0.00000E+00        -0.50053E+08
 
   -0.50207E+08         0.15202E+06         0.00000E+00
    0.15202E+06        -0.50053E+08         0.00000E+00
    0.00000E+00         0.00000E+00        -0.50052E+08
 
   -0.50200E+08         0.15543E+06         0.00000E+00
    0.15543E+06        -0.50056E+08         0.00000E+00
    0.00000E+00         0.00000E+00        -0.50051E+08
 
   -0.50193E+08         0.15864E+06         0.00000E+00
    0.15864E+06        -0.50060E+08         0.00000E+00
    0.00000E+00         0.00000E+00        -0.50051E+08
 
   -0.50186E+08         0.16167E+06         0.00000E+00
    0.16167E+06        -0.50063E+08         0.00000E+00
    0.00000E+00         0.00000E+00        -0.50050E+08
 
   -0.50179E+08         0.16453E+06         0.00000E+00
    0.16453E+06        -0.50066E+08         0.00000E+00
    0.00000E+00         0.00000E+00        -0.50049E+08
 
   -0.50172E+08         0.16721E+06         0.00000E+00
    0.16721E+06        -0.50070E+08         0.00000E+00
    0.00000E+00         0.00000E+00        -0.50048E+08
 
   -0.50165E+08         0.16972E+06         0.00000E+00
    0.16972E+06        -0.50073E+08         0.00000E+00
    0.00000E+00         0.00000E+00        -0.50048E+08
 
   -0.50157E+08         0.17207E+06         0.00000E+00
    0.17207E+06        -0.50076E+08         0.00000E+00
    0.00000E+00         0.00000E+00        -0.50047E+08
 
   -0.50150E+08         0.17427E+06         0.00000E+00
    0.17427E+06        -0.50079E+08         0.00000E+00
    0.00000E+00         0.00000E+00        -0.50046E+08
 
   -0.50143E+08         0.17631E+06         0.00000E+00
    0.17631E+06        -0.50083E+08         0.00000E+00
    0.00000E+00         0.00000E+00        -0.50045E+08
 
   -0.50136E+08         0.17821E+06         0.00000E+00
    0.17821E+06        -0.50086E+08         0.00000E+00
    0.00000E+00         0.00000E+00        -0.50044E+08
 
   -0.50128E+08         0.17998E+06         0.00000E+00
    0.17998E+06        -0.50089E+08         0.00000E+00
    0.00000E+00         0.00000E+00        -0.50044E+08
 
   -0.50121E+08         0.18161E+06         0.00000E+00
    0.18161E+06        -0.50093E+08         0.00000E+00
    0.00000E+00         0.00000E+00        -0.50043E+08
 
   -0.50114E+08         0.18312E+06         0.00000E+00
    0.18312E+06        -0.50096E+08         0.00000E+00
    0.00000E+00         0.00000E+00        -0.50042E+08
 
   -0.50107E+08         0.18452E+06         0.00000E+00
    0.18452E+06        -0.50099E+08         0.00000E+00
    0.00000E+00         0.00000E+00        -0.50041E+08
 
   -0.50100E+08         0.18580E+06         0.00000E+00
    0.18580E+06        -0.50102E+08         0.00000E+00
    0.00000E+00         0.00000E+00        -0.50040E+08
 
   -0.50093E+08         0.18698E+06         0.00000E+00
    0.18698E+06        -0.50106E+08         0.00000E+00
    0.00000E+00         0.00000E+00        -0.50040E+08
 
   -0.50086E+08         0.18807E+06         0.00000E+00
    0.18807E+06        -0.50109E+08         0.00000E+00
    0.00000E+00         0.00000E+00        -0.50039E+08
 
   -0.50078E+08         0.18907E+06         0.00000E+00
    0.18907E+06        -0.50112E+08         0.00000E+00
    0.00000E+00         0.00000E+00        -0.50038E+08
 
   -0.50071E+08         0.18998E+06         0.00000E+00
    0.18998E+06        -0.50115E+08         0.00000E+00
    0.00000E+00         0.00000E+00        -0.50037E+08
 
   -0.50064E+08         0.19083E+06         0.00000E+00
    0.19083E+06        -0.50118E+08         0.00000E+00
    0.00000E+00         0.00000E+00        -0.50037E+08
 
   -0.50057E+08         0.19160E+06         0.00000E+00
    0.19160E+06        -0.50121E+08         0.00000E+00
    0.00000E+00         0.00000E+00        -0.50036E+08
 
   -0.50050E+08         0.19232E+06         0.00000E+00
    0.19232E+06        -0.50124E+08         0.00000E+00
    0.00000E+00         0.00000E+00        -0.50035E+08
 
   -0.50043E+08         0.19298E+06         0.00000E+00
    0.19298E+06        -0.50127E+08         0.00000E+00
    0.00000E+00         0.00000E+00        -0.50034E+08
 
   -0.50036E+08         0.19359E+06         0.00000E+00
    0.19359E+06        -0.50131E+08         0.00000E+00
    0.00000E+00         0.00000E+00        -0.50033E+08
 
   -0.50285E+08         0.34697E+04         0.00000E+00
    0.34697E+04        -0.50000E+08         0.00000E+00
    0.00000E+00         0.00000E+00        -0.50057E+08
 
   -0.50284E+08         0.10296E+05         0.00000E+00
    0.10296E+05        -0.50000E+08         0.00000E+00
    0.00000E+00         0.00000E+00        -0.50057E+08
 
   -0.50284E+08         0.17058E+05         0.00000E+00
    0.17058E+05        -0.50001E+08         0.00000E+00
    0.00000E+00         0.00000E+00        -0.50057E+08
 
   -0.50282E+08         0.23743E+05         0.00000E+00
    0.23743E+05        -0.50001E+08         0.00000E+00
    0.00000E+00         0.00000E+00        -0.50057E+08
 
   -0.50281E+08         0.30340E+05         0.00000E+00
    0.30340E+05        -0.50002E+08         0.00000E+00
    0.00000E+00         0.00000E+00        -0.50057E+08
 
   -0.50279E+08         0.36840E+05         0.00000E+00
    0.36840E+05        -0.50003E+08         0.00000E+00
    0.00000E+00         0.00000E+00        -0.50056E+08
 
   -0.50277E+08         0.43232E+05         0.00000E+00
    0.43232E+05        -0.50004E+08         0.00000E+00
    0.00000E+00         0.00000E+00        -0.50056E+08
 
   -0.50275E+08         0.49508E+05         0.00000E+00
    0.49508E+05        -0.50005E+08         0.00000E+00
    0.00000E+00         0.00000E+00        -0.50056E+08
 
   -0.50272E+08         0.55660E+05         0.00000E+00
    0.55660E+05        -0.50007E+08         0.00000E+00
    0.00000E+00         0.00000E+00        -0.50056E+08
 
   -0.50269E+08         0.61680E+05         0.00000E+00
    0.61680E+05        -0.50008E+08         0.00000E+00
    0.00000E+00         0.00000E+00        -0.50055E+08
 
   -0.50265E+08         0.67561E+05         0.00000E+00
    0.67561E+05        -0.50010E+08         0.00000E+00
    0.00000E+00         0.00000E+00        -0.50055E+08
 
   -0.50262E+08         0.73298E+05         0.00000E+00
    0.73298E+05        -0.50012E+08         0.00000E+00
    0.00000E+00         0.00000E+00        -0.50055E+08
 
   -0.50258E+08         0.78885E+05         0.00000E+00
    0.78885E+05        -0.50014E+08         0.00000E+00
    0.00000E+00         0.00000E+00        -0.50054E+08
 
   -0.50254E+08         0.84317E+05         0.00000E+00
    0.84317E+05        -0.50016E+08         0.00000E+00
    0.00000E+00         0.00000E+00        -0.50054E+08
 
   -0.50250E+08         0.89591E+05         0.00000E+00
    0.89591E+05        -0.50018E+08         0.00000E+00
    0.00000E+00         0.00000E+00        -0.50053E+08
 
   -0.50245E+08         0.94702E+05         0.00000E+00
    0.94702E+05        -0.50020E+08         0.00000E+00
    0.00000E+00         0.00000E+00        -0.50053E+08
 
   -0.50240E+08         0.99649E+05         0.00000E+00
    0.99649E+05        -0.50022E+08         0.00000E+00
    0.00000E+00         0.00000E+00        -0.50053E+08
 
   -0.50235E+08         0.10443E+06         0.00000E+00
    0.10443E+06        -0.50025E+08         0.00000E+00
    0.00000E+00         0.00000E+00        -0.50052E+08
 
   -0.50230E+08         0.10904E+06         0.00000E+00
    0.10904E+06        -0.50027E+08         0.00000E+00
    0.00000E+00         0.00000E+00        -0.50052E+08
 
   -0.50225E+08         0.11348E+06         0.00000E+00
    0.11348E+06        -0.50030E+08         0.00000E+00
    0.00000E+00         0.00000E+00        -0.50051E+08
 
   -0.50219E+08         0.11775E+06         0.00000E+00
    0.11775E+06        -0.50033E+08         0.00000E+00
    0.00000E+00         0.00000E+00        -0.50050E+08
 
   -0.50214E+08         0.12185E+06         0.00000E+00
    0.12185E+06        -0.50035E+08         0.00000E+00
    0.00000E+00         0.00000E+00        -0.50050E+08
 
   -0.50208E+08         0.12578E+06         0.00000E+00
    0.12578E+06        -0.50038E+08         0.00000E+00
    0.00000E+00         0.00000E+00        -0.50049E+08
 
   -0.50202E+08         0.12954E+06         0.00000E+00
    0.12954E+06        -0.50041E+08         0.00000E+00
    0.00000E+00         0.00000E+00        -0.50049E+08
 
   -0.50196E+08         0.13313E+06         0.00000E+00
    0.13313E+06        -0.50044E+08         0.00000E+00
    0.00000E+00         0.00000E+00        -0.50048E+08
 
   -0.50190E+08         0.13656E+06         0.00000E+00
    0.13656E+06        -0.50047E+08         0.00000E+00
    0.00000E+00         0.00000E+00        -0.50047E+08
 
   -0.50184E+08         0.13982E+06         0.00000E+00
    0.13982E+06        -0.50050E+08         0.00000E+00
    0.00000E+00         0.00000E+00        -0.50047E+08
 
   -0.50178E+08         0.14292E+06         0.00000E+00
    0.14292E+06        -0.50053E+08         0.00000E+00
    0.00000E+00         0.00000E+00        -0.50046E+08
 
   -0.50172E+08         0.14587E+06         0.00000E+00
    0.14587E+06        -0.50056E+08         0.00000E+00
    0.00000E+00         0.00000E+00        -0.50045E+08
 
   -0.50165E+08         0.14865E+06         0.00000E+00
    0.14865E+06        -0.50059E+08         0.00000E+00
    0.00000E+00         0.00000E+00        -0.50045E+08
 
   -0.50159E+08         0.15129E+06         0.00000E+00
    0.15129E+06        -0.50062E+08         0.00000E+00
    0.00000E+00         0.00000E+00        -0.50044E+08
 
   -0.50153E+08         0.15377E+06         0.00000E+00
    0.15377E+06        -0.50065E+08         0.00000E+00
    0.00000E+00         0.00000E+00        -0.50043E+08
 
   -0.50146E+08         0.15612E+06         0.00000E+00
    0.15612E+06        -0.50068E+08         0.00000E+00
    0.00000E+00         0.00000E+00        -0.50043E+08
 
   -0.50140E+08         0.15832E+06         0.00000E+00
    0.15832E+06        -0.50071E+08         0.00000E+00
    0.00000E+00         0.00000E+00        -0.50042E+08
 
   -0.50133E+08         0.16038E+06         0.00000E+00
    0.16038E+06        -0.50074E+08         0.00000E+00
    0.00000E+00         0.00000E+00        -0.50041E+08
 
   -0.50126E+08         0.16232E+06         0.00000E+00
    0.16232E+06        -0.50077E+08         0.00000E+00
    0.00000E+00         0.00000E+00        -0.50041E+08
 
   -0.50120E+08         0.16413E+06         0.00000E+00
    0.16413E+06        -0.50080E+08         0.00000E+00
    0.00000E+00         0.00000E+00        -0.50040E+08
 
   -0.50113E+08         0.16582E+06         0.00000E+00
    0.16582E+06        -0.50083E+08         0.00000E+00
    0.00000E+00         0.00000E+00        -0.50039E+08
 
   -0.50107E+08         0.16739E+06         0.00000E+00
    0.16739E+06        -0.50086E+08         0.00000E+00
    0.00000E+00         0.00000E+00        -0.50039E+08
 
   -0.50100E+08         0.16885E+06         0.00000E+00
    0.16885E+06        -0.50089E+08         0.00000E+00
    0.00000E+00         0.00000E+00        -0.50038E+08
 
   -0.50093E+08         0.17020E+06         0.00000E+00
    0.17020E+06        -0.50092E+08         0.00000E+00
    0.00000E+00         0.00000E+00        -0.50037E+08
 
   -0.50087E+08         0.17145E+06         0.00000E+00
    0.17145E+06        -0.50095E+08         0.00000E+00
    0.00000E+00         0.00000E+00        -0.50036E+08
 
   -0.50080E+08         0.17261E+06         0.00000E+00
    0.17261E+06        -0.50098E+08         0.00000E+00
    0.00000E+00         0.00000E+00        -0.50036E+08
 
   -0.50073E+08         0.17368E+06         0.00000E+00
    0.17368E+06        -0.50101E+08         0.00000E+00
    0.00000E+00         0.00000E+00        -0.50035E+08
 
   -0.50067E+08         0.17466E+06         0.00000E+00
    0.17466E+06        -0.50104E+08         0.00000E+00
    0.00000E+00         0.00000E+00        -0.50034E+08
 
   -0.50060E+08         0.17556E+06         0.00000E+00
    0.17556E+06        -0.50107E+08         0.00000E+00
    0.00000E+00         0.00000E+00        -0.50034E+08
 
   -0.50054E+08         0.17638E+06         0.00000E+00
    0.17638E+06        -0.50110E+08         0.00000E+00
    0.00000E+00         0.00000E+00        -0.50033E+08
 
   -0.50047E+08         0.17713E+06         0.00000E+00
    0.17713E+06        -0.50113E+08         0.00000E+00
    0.00000E+00         0.00000E+00        -0.50032E+08
 
   -0.50040E+08         0.17782E+06         0.00000E+00
    0.17782E+06        -0.50116E+08         0.00000E+00
    0.00000E+00         0.00000E+00        -0.50031E+08
 
   -0.50034E+08         0.17844E+06         0.00000E+00
    0.17844E+06        -0.50119E+08         0.00000E+00
    0.00000E+00         0.00000E+00        -0.50031E+08
 
   -0.50253E+08         0.30008E+04         0.00000E+00
    0.30008E+04        -0.50000E+08         0.00000E+00
    0.00000E+00         0.00000E+00        -0.50051E+08
 
   -0.50253E+08         0.89395E+04         0.00000E+00
    0.89395E+04        -0.50000E+08         0.00000E+00
    0.00000E+00         0.00000E+00        -0.50051E+08
 
   -0.50252E+08         0.14837E+05         0.00000E+00
    0.14837E+05        -0.50000E+08         0.00000E+00
    0.00000E+00         0.00000E+00        -0.50051E+08
 
   -0.50251E+08         0.20683E+05         0.00000E+00
    0.20683E+05        -0.50001E+08         0.00000E+00
    0.00000E+00         0.00000E+00        -0.50050E+08
 
   -0.50250E+08         0.26468E+05         0.00000E+00
    0.26468E+05        -0.50002E+08         0.00000E+00
    0.00000E+00         0.00000E+00        -0.50050E+08
 
   -0.50249E+08         0.32183E+05         0.00000E+00
    0.32183E+05        -0.50002E+08         0.00000E+00
    0.00000E+00         0.00000E+00        -0.50050E+08
 
   -0.50247E+08         0.37820E+05         0.00000E+00
    0.37820E+05        -0.50003E+08         0.00000E+00
    0.00000E+00         0.00000E+00        -0.50050E+08
 
   -0.50245E+08         0.43370E+05         0.00000E+00
    0.43370E+05        -0.50004E+08         0.00000E+00
    0.00000E+00         0.00000E+00        -0.50050E+08
 
   -0.50243E+08         0.48826E+05         0.00000E+00
    0.48826E+05        -0.50006E+08         0.00000E+00
    0.00000E+00         0.00000E+00        -0.50050E+08
 
   -0.50241E+08         0.54181E+05         0.00000E+00
    0.54181E+05        -0.50007E+08         0.00000E+00
    0.00000E+00         0.00000E+00        -0.50050E+08
 
   -0.50238E+08         0.59429E+05         0.00000E+00
    0.59429E+05        -0.50008E+08         0.00000E+00
    0.00000E+00         0.00000E+00        -0.50049E+08
 
   -0.50235E+08         0.64564E+05         0.00000E+00
    0.64564E+05        -0.50010E+08         0.00000E+00
    0.00000E+00         0.00000E+00        -0.50049E+08
 
   -0.50232E+08         0.69581E+05         0.00000E+00
    0.69581E+05        -0.50012E+08         0.00000E+00
    0.00000E+00         0.00000E+00        -0.50049E+08
 
   -0.50228E+08         0.74476E+05         0.00000E+00
    0.74476E+05        -0.50013E+08         0.00000E+00
    0.00000E+00         0.00000E+00        -0.50048E+08
 
   -0.50225E+08         0.79244E+05         0.00000E+00
    0.79244E+05        -0.50015E+08         0.00000E+00
    0.00000E+00         0.00000E+00        -0.50048E+08
 
   -0.50221E+08         0.83881E+05         0.00000E+00
    0.83881E+05        -0.50017E+08         0.00000E+00
    0.00000E+00         0.00000E+00        -0.50048E+08
 
   -0.50217E+08         0.88385E+05         0.00000E+00
    0.88385E+05        -0.50019E+08         0.00000E+00
    0.00000E+00         0.00000E+00        -0.50047E+08
 
   -0.50213E+08         0.92753E+05         0.00000E+00
    0.92753E+05        -0.50022E+08         0.00000E+00
    0.00000E+00         0.00000E+00        -0.50047E+08
 
   -0.50208E+08         0.96982E+05         0.00000E+00
    0.96982E+05        -0.50024E+08         0.00000E+00
    0.00000E+00         0.00000E+00        -0.50046E+08
 
   -0.50204E+08         0.10107E+06         0.00000E+00
    0.10107E+06        -0.50026E+08         0.00000E+00
    0.00000E+00         0.00000E+00        -0.50046E+08
 
   -0.50199E+08         0.10502E+06         0.00000E+00
    0.10502E+06        -0.50028E+08         0.00000E+00
    0.00000E+00         0.00000E+00        -0.50046E+08
 
   -0.50195E+08         0.10883E+06         0.00000E+00
    0.10883E+06        -0.50031E+08         0.00000E+00
    0.00000E+00         0.00000E+00        -0.50045E+08
 
   -0.50190E+08         0.11249E+06         0.00000E+00
    0.11249E+06        -0.50033E+08         0.00000E+00
    0.00000E+00         0.00000E+00        -0.50045E+08
 
   -0.50185E+08         0.11601E+06         0.00000E+00
    0.11601E+06        -0.50036E+08         0.00000E+00
    0.00000E+00         0.00000E+00        -0.50044E+08
 
   -0.50179E+08         0.11939E+06         0.00000E+00
    0.11939E+06        -0.50038E+08         0.00000E+00
    0.00000E+00         0.00000E+00        -0.50044E+08
 
   -0.50174E+08         0.12263E+06         0.00000E+00
    0.12263E+06        -0.50041E+08         0.00000E+00
    0.00000E+00         0.00000E+00        -0.50043E+08
 
   -0.50169E+08         0.12573E+06         0.00000E+00
    0.12573E+06        -0.50044E+08         0.00000E+00
    0.00000E+00         0.00000E+00        -0.50042E+08
 
   -0.50163E+08         0.12868E+06         0.00000E+00
    0.12868E+06        -0.50046E+08         0.00000E+00
    0.00000E+00         0.00000E+00        -0.50042E+08
 
   -0.50158E+08         0.13150E+06         0.00000E+00
    0.13150E+06        -0.50049E+08         0.00000E+00
    0.00000E+00         0.00000E+00        -0.50041E+08
 
   -0.50152E+08         0.13419E+06         0.00000E+00
    0.13419E+06        -0.50052E+08         0.00000E+00
    0.00000E+00         0.00000E+00        -0.50041E+08
 
   -0.50146E+08         0.13674E+06         0.00000E+00
    0.13674E+06        -0.50055E+08         0.00000E+00
    0.00000E+00         0.00000E+00        -0.50040E+08
 
   -0.50141E+08         0.13916E+06         0.00000E+00
    0.13916E+06        -0.50057E+08         0.00000E+00
    0.00000E+00         0.00000E+00        -0.50040E+08
 
   -0.50135E+08         0.14145E+06         0.00000E+00
    0.14145E+06        -0.50060E+08         0.00000E+00
    0.00000E+00         0.00000E+00        -0.50039E+08
 
   -0.50129E+08         0.14362E+06         0.00000E+00
    0.14362E+06        -0.50063E+08         0.00000E+00
    0.00000E+00         0.00000E+00        -0.50038E+08
 
   -0.50123E+08         0.14567E+06         0.00000E+00
    0.14567E+06        -0.50066E+08         0.00000E+00
    0.00000E+00         0.00000E+00        -0.50038E+08
 
   -0.50117E+08         0.14759E+06         0.00000E+00
    0.14759E+06        -0.50069E+08         0.00000E+00
    0.00000E+00         0.00000E+00        -0.50037E+08
 
   -0.50111E+08         0.14940E+06         0.00000E+00
    0.14940E+06        -0.50072E+08         0.00000E+00
    0.00000E+00         0.00000E+00        -0.50037E+08
 
   -0.50105E+08         0.15110E+06         0.00000E+00
    0.15110E+06        -0.50074E+08         0.00000E+00
    0.00000E+00         0.00000E+00        -0.50036E+08
 
   -0.50099E+08         0.15268E+06         0.00000E+00
    0.15268E+06        -0.50077E+08         0.00000E+00
    0.00000E+00         0.00000E+00        -0.50035E+08
 
   -0.50093E+08         0.15417E+06         0.00000E+00
    0.15417E+06        -0.50080E+08         0.00000E+00
    0.00000E+00         0.00000E+00        -0.50035E+08
 
   -0.50087E+08         0.15555E+06         0.00000E+00
    0.15555E+06        -0.50083E+08         0.00000E+00
    0.00000E+00         0.00000E+00        -0.50034E+08
 
   -0.50081E+08         0.15683E+06         0.00000E+00
    0.15683E+06        -0.50086E+08         0.00000E+00
    0.00000E+00         0.00000E+00        -0.50033E+08
 
   -0.50074E+08         0.15801E+06         0.00000E+00
    0.15801E+06        -0.50088E+08         0.00000E+00
    0.00000E+00         0.00000E+00        -0.50033E+08
 
   -0.50068E+08         0.15911E+06         0.00000E+00
    0.15911E+06        -0.50091E+08         0.00000E+00
    0.00000E+00         0.00000E+00        -0.50032E+08
 
   -0.50062E+08         0.16011E+06         0.00000E+00
    0.16011E+06        -0.50094E+08         0.00000E+00
    0.00000E+00         0.00000E+00        -0.50031E+08
 
   -0.50056E+08         0.16103E+06         0.00000E+00
    0.16103E+06        -0.50097E+08         0.00000E+00
    0.00000E+00         0.00000E+00        -0.50031E+08
 
   -0.50050E+08         0.16187E+06         0.00000E+00
    0.16187E+06        -0.50100E+08         0.00000E+00
    0.00000E+00         0.00000E+00        -0.50030E+08
 
   -0.50043E+08         0.16263E+06         0.00000E+00
    0.16263E+06        -0.50103E+08         0.00000E+00
    0.00000E+00         0.00000E+00        -0.50029E+08
 
   -0.50037E+08         0.16331E+06         0.00000E+00
    0.16331E+06        -0.50105E+08         0.00000E+00
    0.00000E+00         0.00000E+00        -0.50028E+08
 
   -0.50031E+08         0.16393E+06         0.00000E+00
    0.16393E+06        -0.50108E+08         0.00000E+00
    0.00000E+00         0.00000E+00        -0.50028E+08
 
   -0.50225E+08         0.26076E+04         0.00000E+00
    0.26076E+04        -0.50000E+08         0.00000E+00
    0.00000E+00         0.00000E+00        -0.50045E+08
 
   -0.50225E+08         0.77936E+04         0.00000E+00
    0.77936E+04        -0.50000E+08         0.00000E+00
    0.00000E+00         0.00000E+00        -0.50045E+08
 
   -0.50225E+08         0.12955E+05         0.00000E+00
    0.12955E+05        -0.50000E+08         0.00000E+00
    0.00000E+00         0.00000E+00        -0.50045E+08
 
   -0.50224E+08         0.18083E+05         0.00000E+00
    0.18083E+05        -0.50001E+08         0.00000E+00
    0.00000E+00         0.00000E+00        -0.50045E+08
 
   -0.50223E+08         0.23169E+05         0.00000E+00
    0.23169E+05        -0.50001E+08         0.00000E+00
    0.00000E+00         0.00000E+00        -0.50045E+08
 
   -0.50222E+08         0.28206E+05         0.00000E+00
    0.28206E+05        -0.50002E+08         0.00000E+00
    0.00000E+00         0.00000E+00        -0.50045E+08
 
   -0.50221E+08         0.33186E+05         0.00000E+00
    0.33186E+05        -0.50003E+08         0.00000E+00
    0.00000E+00         0.00000E+00        -0.50045E+08
 
   -0.50219E+08         0.38101E+05         0.00000E+00
    0.38101E+05        -0.50004E+08         0.00000E+00
    0.00000E+00         0.00000E+00        -0.50045E+08
 
   -0.50218E+08         0.42946E+05         0.00000E+00
    0.42946E+05        -0.50005E+08         0.00000E+00
    0.00000E+00         0.00000E+00        -0.50044E+08
 
   -0.50216E+08         0.47714E+05         0.00000E+00
    0.47714E+05        -0.50006E+08         0.00000E+00
    0.00000E+00         0.00000E+00        -0.50044E+08
 
   -0.50213E+08         0.52399E+05         0.00000E+00
    0.52399E+05        -0.50007E+08         0.00000E+00
    0.00000E+00         0.00000E+00        -0.50044E+08
 
   -0.50211E+08         0.56997E+05         0.00000E+00
    0.56997E+05        -0.50009E+08         0.00000E+00
    0.00000E+00         0.00000E+00        -0.50044E+08
 
   -0.50208E+08         0.61501E+05         0.00000E+00
    0.61501E+05        -0.50010E+08         0.00000E+00
    0.00000E+00         0.00000E+00        -0.50044E+08
 
   -0.50205E+08         0.65908E+05         0.00000E+00
    0.65908E+05        -0.50012E+08         0.00000E+00
    0.00000E+00         0.00000E+00        -0.50043E+08
 
   -0.50202E+08         0.70214E+05         0.00000E+00
    0.70214E+05        -0.50013E+08         0.00000E+00
    0.00000E+00         0.00000E+00        -0.50043E+08
 
   -0.50199E+08         0.74416E+05         0.00000E+00
    0.74416E+05        -0.50015E+08         0.00000E+00
    0.00000E+00         0.00000E+00        -0.50043E+08
 
   -0.50196E+08         0.78509E+05         0.00000E+00
    0.78509E+05        -0.50017E+08         0.00000E+00
    0.00000E+00         0.00000E+00        -0.50043E+08
 
   -0.50192E+08         0.82491E+05         0.00000E+00
    0.82491E+05        -0.50019E+08         0.00000E+00
    0.00000E+00         0.00000E+00        -0.50042E+08
 
   -0.50189E+08         0.86359E+05         0.00000E+00
    0.86359E+05        -0.50021E+08         0.00000E+00
    0.00000E+00         0.00000E+00        -0.50042E+08
 
   -0.50185E+08         0.90113E+05         0.00000E+00
    0.90113E+05        -0.50023E+08         0.00000E+00
    0.00000E+00         0.00000E+00        -0.50041E+08
 
   -0.50181E+08         0.93749E+05         0.00000E+00
    0.93749E+05        -0.50025E+08         0.00000E+00
    0.00000E+00         0.00000E+00        -0.50041E+08
 
   -0.50177E+08         0.97266E+05         0.00000E+00
    0.97266E+05        -0.50027E+08         0.00000E+00
    0.00000E+00         0.00000E+00        -0.50041E+08
 
   -0.50172E+08         0.10066E+06         0.00000E+00
    0.10066E+06        -0.50029E+08         0.00000E+00
    0.00000E+00         0.00000E+00        -0.50040E+08
 
   -0.50168E+08         0.10394E+06         0.00000E+00
    0.10394E+06        -0.50031E+08         0.00000E+00
    0.00000E+00         0.00000E+00        -0.50040E+08
 
   -0.50163E+08         0.10710E+06         0.00000E+00
    0.10710E+06        -0.50034E+08         0.00000E+00
    0.00000E+00         0.00000E+00        -0.50039E+08
 
   -0.50159E+08         0.11014E+06         0.00000E+00
    0.11014E+06        -0.50036E+08         0.00000E+00
    0.00000E+00         0.00000E+00        -0.50039E+08
 
   -0.50154E+08         0.11305E+06         0.00000E+00
    0.11305E+06        -0.50038E+08         0.00000E+00
    0.00000E+00         0.00000E+00        -0.50038E+08
 
   -0.50149E+08         0.11585E+06         0.00000E+00
    0.11585E+06        -0.50041E+08         0.00000E+00
    0.00000E+00         0.00000E+00        -0.50038E+08
 
   -0.50144E+08         0.11853E+06         0.00000E+00
    0.11853E+06        -0.50043E+08         0.00000E+00
    0.00000E+00         0.00000E+00        -0.50037E+08
 
   -0.50139E+08         0.12109E+06         0.00000E+00
    0.12109E+06        -0.50046E+08         0.00000E+00
    0.00000E+00         0.00000E+00        -0.50037E+08
 
   -0.50134E+08         0.12353E+06         0.00000E+00
    0.12353E+06        -0.50048E+08         0.00000E+00
    0.00000E+00         0.00000E+00        -0.50036E+08
 
   -0.50129E+08         0.12586E+06         0.00000E+00
    0.12586E+06        -0.50051E+08         0.00000E+00
    0.00000E+00         0.00000E+00        -0.50036E+08
 
   -0.50124E+08         0.12807E+06         0.00000E+00
    0.12807E+06        -0.50053E+08         0.00000E+00
    0.00000E+00         0.00000E+00        -0.50035E+08
 
   -0.50119E+08         0.13017E+06         0.00000E+00
    0.13017E+06        -0.50056E+08         0.00000E+00
    0.00000E+00         0.00000E+00        -0.50035E+08
 
   -0.50113E+08         0.13216E+06         0.00000E+00
    0.13216E+06        -0.50058E+08         0.00000E+00
    0.00000E+00         0.00000E+00        -0.50034E+08
 
   -0.50108E+08         0.13404E+06         0.00000E+00
    0.13404E+06        -0.50061E+08         0.00000E+00
    0.00000E+00         0.00000E+00        -0.50034E+08
 
   -0.50102E+08         0.13581E+06         0.00000E+00
    0.13581E+06        -0.50064E+08         0.00000E+00
    0.00000E+00         0.00000E+00        -0.50033E+08
 
   -0.50097E+08         0.13748E+06         0.00000E+00
    0.13748E+06        -0.50066E+08         0.00000E+00
    0.00000E+00         0.00000E+00        -0.50033E+08
 
   -0.50091E+08         0.13905E+06         0.00000E+00
    0.13905E+06        -0.50069E+08         0.00000E+00
    0.00000E+00         0.00000E+00        -0.50032E+08
 
   -0.50086E+08         0.14052E+06         0.00000E+00
    0.14052E+06        -0.50071E+08         0.00000E+00
    0.00000E+00         0.00000E+00        -0.50031E+08
 
   -0.50080E+08         0.14189E+06         0.00000E+00
    0.14189E+06        -0.50074E+08         0.00000E+00
    0.00000E+00         0.00000E+00        -0.50031E+08
 
   -0.50074E+08         0.14316E+06         0.00000E+00
    0.14316E+06        -0.50077E+08         0.00000E+00
    0.00000E+00         0.00000E+00        -0.50030E+08
 
   -0.50069E+08         0.14434E+06         0.00000E+00
    0.14434E+06        -0.50079E+08         0.00000E+00
    0.00000E+00         0.00000E+00        -0.50030E+08
 
   -0.50063E+08         0.14543E+06         0.00000E+00
    0.14543E+06        -0.50082E+08         0.00000E+00
    0.00000E+00         0.00000E+00        -0.50029E+08
 
   -0.50057E+08         0.14644E+06         0.00000E+00
    0.14644E+06        -0.50085E+08         0.00000E+00
    0.00000E+00         0.00000E+00        -0.50028E+08
 
   -0.50051E+08         0.14735E+06         0.00000E+00
    0.14735E+06        -0.50087E+08         0.00000E+00
    0.00000E+00         0.00000E+00        -0.50028E+08
 
   -0.50046E+08         0.14818E+06         0.00000E+00
    0.14818E+06        -0.50090E+08         0.00000E+00
    0.00000E+00         0.00000E+00        -0.50027E+08
 
   -0.50040E+08         0.14893E+06         0.00000E+00
    0.14893E+06        -0.50093E+08         0.00000E+00
    0.00000E+00         0.00000E+00        -0.50026E+08
 
   -0.50034E+08         0.14960E+06         0.00000E+00
    0.14960E+06        -0.50095E+08         0.00000E+00
    0.00000E+00         0.00000E+00        -0.50026E+08
 
   -0.50028E+08         0.15018E+06         0.00000E+00
    0.15018E+06        -0.50098E+08         0.00000E+00
    0.00000E+00         0.00000E+00        -0.50025E+08
 
   -0.50200E+08         0.22779E+04         0.00000E+00
    0.22779E+04        -0.50000E+08         0.00000E+00
    0.00000E+00         0.00000E+00        -0.50040E+08
 
   -0.50201E+08         0.68262E+04         0.00000E+00
    0.68262E+04        -0.50000E+08         0.00000E+00
    0.00000E+00         0.00000E+00        -0.50040E+08
 
   -0.50200E+08         0.11361E+05         0.00000E+00
    0.11361E+05        -0.50000E+08         0.00000E+00
    0.00000E+00         0.00000E+00        -0.50040E+08
 
   -0.50200E+08         0.15875E+05         0.00000E+00
    0.15875E+05        -0.50001E+08         0.00000E+00
    0.00000E+00         0.00000E+00        -0.50040E+08
 
   -0.50199E+08         0.20362E+05         0.00000E+00
    0.20362E+05        -0.50001E+08         0.00000E+00
    0.00000E+00         0.00000E+00        -0.50040E+08
 
   -0.50199E+08         0.24813E+05         0.00000E+00
    0.24813E+05        -0.50002E+08         0.00000E+00
    0.00000E+00         0.00000E+00        -0.50040E+08
 
   -0.50198E+08         0.29224E+05         0.00000E+00
    0.29224E+05        -0.50002E+08         0.00000E+00
    0.00000E+00         0.00000E+00        -0.50040E+08
 
   -0.50196E+08         0.33587E+05         0.00000E+00
    0.33587E+05        -0.50003E+08         0.00000E+00
    0.00000E+00         0.00000E+00        -0.50040E+08
 
   -0.50195E+08         0.37897E+05         0.00000E+00
    0.37897E+05        -0.50004E+08         0.00000E+00
    0.00000E+00         0.00000E+00        -0.50040E+08
 
   -0.50193E+08         0.42148E+05         0.00000E+00
    0.42148E+05        -0.50005E+08         0.00000E+00
    0.00000E+00         0.00000E+00        -0.50040E+08
 
   -0.50191E+08         0.46335E+05         0.00000E+00
    0.46335E+05        -0.50006E+08         0.00000E+00
    0.00000E+00         0.00000E+00        -0.50040E+08
 
   -0.50189E+08         0.50454E+05         0.00000E+00
    0.50454E+05        -0.50007E+08         0.00000E+00
    0.00000E+00         0.00000E+00        -0.50039E+08
 
   -0.50187E+08         0.54499E+05         0.00000E+00
    0.54499E+05        -0.50009E+08         0.00000E+00
    0.00000E+00         0.00000E+00        -0.50039E+08
 
   -0.50185E+08         0.58467E+05         0.00000E+00
    0.58467E+05        -0.50010E+08         0.00000E+00
    0.00000E+00         0.00000E+00        -0.50039E+08
 
   -0.50182E+08         0.62355E+05         0.00000E+00
    0.62355E+05        -0.50011E+08         0.00000E+00
    0.00000E+00         0.00000E+00        -0.50039E+08
 
   -0.50179E+08         0.66157E+05         0.00000E+00
    0.66157E+05        -0.50013E+08         0.00000E+00
    0.00000E+00         0.00000E+00        -0.50038E+08
 
   -0.50177E+08         0.69872E+05         0.00000E+00
    0.69872E+05        -0.50014E+08         0.00000E+00
    0.00000E+00         0.00000E+00        -0.50038E+08
 
   -0.50174E+08         0.73496E+05         0.00000E+00
    0.73496E+05        -0.50016E+08         0.00000E+00
    0.00000E+00         0.00000E+00        -0.50038E+08
 
   -0.50170E+08         0.77027E+05         0.00000E+00
    0.77027E+05        -0.50018E+08         0.00000E+00
    0.00000E+00         0.00000E+00        -0.50038E+08
 
   -0.50167E+08         0.80462E+05         0.00000E+00
    0.80462E+05        -0.50020E+08         0.00000E+00
    0.00000E+00         0.00000E+00        -0.50037E+08
 
   -0.50164E+08         0.83800E+05         0.00000E+00
    0.83800E+05        -0.50021E+08         0.00000E+00
    0.00000E+00         0.00000E+00        -0.50037E+08
 
   -0.50160E+08         0.87040E+05         0.00000E+00
    0.87040E+05        -0.50023E+08         0.00000E+00
    0.00000E+00         0.00000E+00        -0.50037E+08
 
   -0.50156E+08         0.90178E+05         0.00000E+00
    0.90178E+05        -0.50025E+08         0.00000E+00
    0.00000E+00         0.00000E+00        -0.50036E+08
 
   -0.50152E+08         0.93215E+05         0.00000E+00
    0.93215E+05        -0.50027E+08         0.00000E+00
    0.00000E+00         0.00000E+00        -0.50036E+08
 
   -0.50148E+08         0.96150E+05         0.00000E+00
    0.96150E+05        -0.50029E+08         0.00000E+00
    0.00000E+00         0.00000E+00        -0.50036E+08
 
   -0.50144E+08         0.98982E+05         0.00000E+00
    0.98982E+05        -0.50031E+08         0.00000E+00
    0.00000E+00         0.00000E+00        -0.50035E+08
 
   -0.50140E+08         0.10171E+06         0.00000E+00
    0.10171E+06        -0.50034E+08         0.00000E+00
    0.00000E+00         0.00000E+00        -0.50035E+08
 
   -0.50136E+08         0.10433E+06         0.00000E+00
    0.10433E+06        -0.50036E+08         0.00000E+00
    0.00000E+00         0.00000E+00        -0.50034E+08
 
   -0.50132E+08         0.10686E+06         0.00000E+00
    0.10686E+06        -0.50038E+08         0.00000E+00
    0.00000E+00         0.00000E+00        -0.50034E+08
 
   -0.50127E+08         0.10927E+06         0.00000E+00
    0.10927E+06        -0.50040E+08         0.00000E+00
    0.00000E+00         0.00000E+00        -0.50033E+08
 
   -0.50123E+08         0.11159E+06         0.00000E+00
    0.11159E+06        -0.50042E+08         0.00000E+00
    0.00000E+00         0.00000E+00        -0.50033E+08
 
   -0.50118E+08         0.11380E+06         0.00000E+00
    0.11380E+06        -0.50045E+08         0.00000E+00
    0.00000E+00         0.00000E+00        -0.50033E+08
 
   -0.50113E+08         0.11591E+06         0.00000E+00
    0.11591E+06        -0.50047E+08         0.00000E+00
    0.00000E+00         0.00000E+00        -0.50032E+08
 
   -0.50109E+08         0.11792E+06         0.00000E+00
    0.11792E+06        -0.50049E+08         0.00000E+00
    0.00000E+00         0.00000E+00        -0.50032E+08
 
   -0.50104E+08         0.11983E+06         0.00000E+00
    0.11983E+06        -0.50052E+08         0.00000E+00
    0.00000E+00         0.00000E+00        -0.50031E+08
 
   -0.50099E+08         0.12164E+06         0.00000E+00
    0.12164E+06        -0.50054E+08         0.00000E+00
    0.00000E+00         0.00000E+00        -0.50031E+08
 
   -0.50094E+08         0.12335E+06         0.00000E+00
    0.12335E+06        -0.50056E+08         0.00000E+00
    0.00000E+00         0.00000E+00        -0.50030E+08
 
   -0.50089E+08         0.12497E+06         0.00000E+00
    0.12497E+06        -0.50059E+08         0.00000E+00
    0.00000E+00         0.00000E+00        -0.50030E+08
 
   -0.50084E+08         0.12649E+06         0.00000E+00
    0.12649E+06        -0.50061E+08         0.00000E+00
    0.00000E+00         0.00000E+00        -0.50029E+08
 
   -0.50079E+08         0.12792E+06         0.00000E+00
    0.12792E+06        -0.50064E+08         0.00000E+00
    0.00000E+00         0.00000E+00        -0.50028E+08
 
   -0.50074E+08         0.12925E+06         0.00000E+00
    0.12925E+06        -0.50066E+08         0.00000E+00
    0.00000E+00         0.00000E+00        -0.50028E+08
 
   -0.50068E+08         0.13049E+06         0.00000E+00
    0.13049E+06        -0.50068E+08         0.00000E+00
    0.00000E+00         0.00000E+00        -0.50027E+08
 
   -0.50063E+08         0.13165E+06         0.00000E+00
    0.13165E+06        -0.50071E+08         0.00000E+00
    0.00000E+00         0.00000E+00        -0.50027E+08
 
   -0.50058E+08         0.13271E+06         0.00000E+00
    0.13271E+06        -0.50073E+08         0.00000E+00
    0.00000E+00         0.00000E+00        -0.50026E+08
 
   -0.50052E+08         0.13369E+06         0.00000E+00
    0.13369E+06        -0.50076E+08         0.00000E+00
    0.00000E+00         0.00000E+00        -0.50026E+08
 
   -0.50047E+08         0.13458E+06         0.00000E+00
    0.13458E+06        -0.50078E+08         0.00000E+00
    0.00000E+00         0.00000E+00        -0.50025E+08
 
   -0.50042E+08         0.13538E+06         0.00000E+00
    0.13538E+06        -0.50081E+08         0.00000E+00
    0.00000E+00         0.00000E+00        -0.50024E+08
 
   -0.50036E+08         0.13610E+06         0.00000E+00
    0.13610E+06        -0.50083E+08         0.00000E+00
    0.00000E+00         0.00000E+00        -0.50024E+08
 
   -0.50031E+08         0.13674E+06         0.00000E+00
    0.13674E+06        -0.50086E+08         0.00000E+00
    0.00000E+00         0.00000E+00        -0.50023E+08
 
   -0.50025E+08         0.13730E+06         0.00000E+00
    0.13730E+06        -0.50088E+08         0.00000E+00
    0.00000E+00         0.00000E+00        -0.50023E+08
 
   -0.50179E+08         0.20011E+04         0.00000E+00
    0.20011E+04        -0.50000E+08         0.00000E+00
    0.00000E+00         0.00000E+00        -0.50036E+08
 
   -0.50179E+08         0.60090E+04         0.00000E+00
    0.60090E+04        -0.50000E+08         0.00000E+00
    0.00000E+00         0.00000E+00        -0.50036E+08
 
   -0.50179E+08         0.10011E+05         0.00000E+00
    0.10011E+05        -0.50000E+08         0.00000E+00
    0.00000E+00         0.00000E+00        -0.50036E+08
 
   -0.50179E+08         0.14001E+05         0.00000E+00
    0.14001E+05        -0.50001E+08         0.00000E+00
    0.00000E+00         0.00000E+00        -0.50036E+08
 
   -0.50178E+08         0.17972E+05         0.00000E+00
    0.17972E+05        -0.50001E+08         0.00000E+00
    0.00000E+00         0.00000E+00        -0.50036E+08
 
   -0.50178E+08         0.21919E+05         0.00000E+00
    0.21919E+05        -0.50001E+08         0.00000E+00
    0.00000E+00         0.00000E+00        -0.50036E+08
 
   -0.50177E+08         0.25837E+05         0.00000E+00
    0.25837E+05        -0.50002E+08         0.00000E+00
    0.00000E+00         0.00000E+00        -0.50036E+08
 
   -0.50176E+08         0.29719E+05         0.00000E+00
    0.29719E+05        -0.50003E+08         0.00000E+00
    0.00000E+00         0.00000E+00        -0.50036E+08
 
   -0.50175E+08         0.33562E+05         0.00000E+00
    0.33562E+05        -0.50003E+08         0.00000E+00
    0.00000E+00         0.00000E+00        -0.50036E+08
 
   -0.50173E+08         0.37359E+05         0.00000E+00
    0.37359E+05        -0.50004E+08         0.00000E+00
    0.00000E+00         0.00000E+00        -0.50036E+08
 
   -0.50172E+08         0.41107E+05         0.00000E+00
    0.41107E+05        -0.50005E+08         0.00000E+00
    0.00000E+00         0.00000E+00        -0.50035E+08
 
   -0.50170E+08         0.44801E+05         0.00000E+00
    0.44801E+05        -0.50006E+08         0.00000E+00
    0.00000E+00         0.00000E+00        -0.50035E+08
 
   -0.50168E+08         0.48437E+05         0.00000E+00
    0.48437E+05        -0.50007E+08         0.00000E+00
    0.00000E+00         0.00000E+00        -0.50035E+08
 
   -0.50166E+08         0.52011E+05         0.00000E+00
    0.52011E+05        -0.50009E+08         0.00000E+00
    0.00000E+00         0.00000E+00        -0.50035E+08
 
   -0.50164E+08         0.55520E+05         0.00000E+00
    0.55520E+05        -0.50010E+08         0.00000E+00
    0.00000E+00         0.00000E+00        -0.50035E+08
 
   -0.50162E+08         0.58961E+05         0.00000E+00
    0.58961E+05        -0.50011E+08         0.00000E+00
    0.00000E+00         0.00000E+00        -0.50035E+08
 
   -0.50159E+08         0.62330E+05         0.00000E+00
    0.62330E+05        -0.50012E+08         0.00000E+00
    0.00000E+00         0.00000E+00        -0.50034E+08
 
   -0.50156E+08         0.65624E+05         0.00000E+00
    0.65624E+05        -0.50014E+08         0.00000E+00
    0.00000E+00         0.00000E+00        -0.50034E+08
 
   -0.50154E+08         0.68842E+05         0.00000E+00
    0.68842E+05        -0.50015E+08         0.00000E+00
    0.00000E+00         0.00000E+00        -0.50034E+08
 
   -0.50151E+08         0.71980E+05         0.00000E+00
    0.71980E+05        -0.50017E+08         0.00000E+00
    0.00000E+00         0.00000E+00        -0.50034E+08
 
   -0.50148E+08         0.75037E+05         0.00000E+00
    0.75037E+05        -0.50019E+08         0.00000E+00
    0.00000E+00         0.00000E+00        -0.50033E+08
 
   -0.50145E+08         0.78011E+05         0.00000E+00
    0.78011E+05        -0.50020E+08         0.00000E+00
    0.00000E+00         0.00000E+00        -0.50033E+08
 
   -0.50141E+08         0.80899E+05         0.00000E+00
    0.80899E+05        -0.50022E+08         0.00000E+00
    0.00000E+00         0.00000E+00        -0.50033E+08
 
   -0.50138E+08         0.83702E+05         0.00000E+00
    0.83702E+05        -0.50024E+08         0.00000E+00
    0.00000E+00         0.00000E+00        -0.50032E+08
 
   -0.50135E+08         0.86417E+05         0.00000E+00
    0.86417E+05        -0.50026E+08         0.00000E+00
    0.00000E+00         0.00000E+00        -0.50032E+08
 
   -0.50131E+08         0.89044E+05         0.00000E+00
    0.89044E+05        -0.50027E+08         0.00000E+00
    0.00000E+00         0.00000E+00        -0.50032E+08
 
   -0.50127E+08         0.91582E+05         0.00000E+00
    0.91582E+05        -0.50029E+08         0.00000E+00
    0.00000E+00         0.00000E+00        -0.50031E+08
 
   -0.50123E+08         0.94029E+05         0.00000E+00
    0.94029E+05        -0.50031E+08         0.00000E+00
    0.00000E+00         0.00000E+00        -0.50031E+08
 
   -0.50120E+08         0.96387E+05         0.00000E+00
    0.96387E+05        -0.50033E+08         0.00000E+00
    0.00000E+00         0.00000E+00        -0.50031E+08
 
   -0.50116E+08         0.98653E+05         0.00000E+00
    0.98653E+05        -0.50035E+08         0.00000E+00
    0.00000E+00         0.00000E+00        -0.50030E+08
 
   -0.50112E+08         0.10083E+06         0.00000E+00
    0.10083E+06        -0.50037E+08         0.00000E+00
    0.00000E+00         0.00000E+00        -0.50030E+08
 
   -0.50107E+08         0.10291E+06         0.00000E+00
    0.10291E+06        -0.50039E+08         0.00000E+00
    0.00000E+00         0.00000E+00        -0.50029E+08
 
   -0.50103E+08         0.10491E+06         0.00000E+00
    0.10491E+06        -0.50041E+08         0.00000E+00
    0.00000E+00         0.00000E+00        -0.50029E+08
 
   -0.50099E+08         0.10681E+06         0.00000E+00
    0.10681E+06        -0.50043E+08         0.00000E+00
    0.00000E+00         0.00000E+00        -0.50028E+08
 
   -0.50095E+08         0.10862E+06         0.00000E+00
    0.10862E+06        -0.50046E+08         0.00000E+00
    0.00000E+00         0.00000E+00        -0.50028E+08
 
   -0.50090E+08         0.11035E+06         0.00000E+00
    0.11035E+06        -0.50048E+08         0.00000E+00
    0.00000E+00         0.00000E+00        -0.50028E+08
 
   -0.50086E+08         0.11198E+06         0.00000E+00
    0.11198E+06        -0.50050E+08         0.00000E+00
    0.00000E+00         0.00000E+00        -0.50027E+08
 
   -0.50081E+08         0.11352E+06         0.00000E+00
    0.11352E+06        -0.50052E+08         0.00000E+00
    0.00000E+00         0.00000E+00        -0.50027E+08
 
   -0.50077E+08         0.11498E+06         0.00000E+00
    0.11498E+06        -0.50054E+08         0.00000E+00
    0.00000E+00         0.00000E+00        -0.50026E+08
 
   -0.50072E+08         0.11635E+06         0.00000E+00
    0.11635E+06        -0.50056E+08         0.00000E+00
    0.00000E+00         0.00000E+00        -0.50026E+08
 
   -0.50067E+08         0.11763E+06         0.00000E+00
    0.11763E+06        -0.50059E+08         0.00000E+00
    0.00000E+00         0.00000E+00        -0.50025E+08
 
   -0.50063E+08         0.11882E+06         0.00000E+00
    0.11882E+06        -0.50061E+08         0.00000E+00
    0.00000E+00         0.00000E+00        -0.50025E+08
 
   -0.50058E+08         0.11993E+06         0.00000E+00
    0.11993E+06        -0.50063E+08         0.00000E+00
    0.00000E+00         0.00000E+00        -0.50024E+08
 
   -0.50053E+08         0.12095E+06         0.00000E+00
    0.12095E+06        -0.50065E+08         0.00000E+00
    0.00000E+00         0.00000E+00        -0.50024E+08
 
   -0.50048E+08         0.12189E+06         0.00000E+00
    0.12189E+06        -0.50068E+08         0.00000E+00
    0.00000E+00         0.00000E+00        -0.50023E+08
 
   -0.50043E+08         0.12274E+06         0.00000E+00
    0.12274E+06        -0.50070E+08         0.00000E+00
    0.00000E+00         0.00000E+00        -0.50023E+08
 
   -0.50038E+08         0.12351E+06         0.00000E+00
    0.12351E+06        -0.50072E+08         0.00000E+00
    0.00000E+00         0.00000E+00        -0.50022E+08
 
   -0.50033E+08         0.12419E+06         0.00000E+00
    0.12419E+06        -0.50074E+08         0.00000E+00
    0.00000E+00         0.00000E+00        -0.50021E+08
 
   -0.50028E+08         0.12479E+06         0.00000E+00
    0.12479E+06        -0.50077E+08         0.00000E+00
    0.00000E+00         0.00000E+00        -0.50021E+08
 
   -0.50023E+08         0.12531E+06         0.00000E+00
    0.12531E+06        -0.50079E+08         0.00000E+00
    0.00000E+00         0.00000E+00        -0.50020E+08
 
   -0.50160E+08         0.17679E+04         0.00000E+00
    0.17679E+04        -0.50000E+08         0.00000E+00
    0.00000E+00         0.00000E+00        -0.50032E+08
 
   -0.50160E+08         0.53168E+04         0.00000E+00
    0.53168E+04        -0.50000E+08         0.00000E+00
    0.00000E+00         0.00000E+00        -0.50032E+08
 
   -0.50160E+08         0.88644E+04         0.00000E+00
    0.88644E+04        -0.50000E+08         0.00000E+00
    0.00000E+00         0.00000E+00        -0.50032E+08
 
   -0.50160E+08         0.12405E+05         0.00000E+00
    0.12405E+05        -0.50000E+08         0.00000E+00
    0.00000E+00         0.00000E+00        -0.50032E+08
 
   -0.50160E+08         0.15934E+05         0.00000E+00
    0.15934E+05        -0.50001E+08         0.00000E+00
    0.00000E+00         0.00000E+00        -0.50032E+08
 
   -0.50159E+08         0.19447E+05         0.00000E+00
    0.19447E+05        -0.50001E+08         0.00000E+00
    0.00000E+00         0.00000E+00        -0.50032E+08
 
   -0.50159E+08         0.22937E+05         0.00000E+00
    0.22937E+05        -0.50002E+08         0.00000E+00
    0.00000E+00         0.00000E+00        -0.50032E+08
 
   -0.50158E+08         0.26402E+05         0.00000E+00
    0.26402E+05        -0.50002E+08         0.00000E+00
    0.00000E+00         0.00000E+00        -0.50032E+08
 
   -0.50157E+08         0.29836E+05         0.00000E+00
    0.29836E+05        -0.50003E+08         0.00000E+00
    0.00000E+00         0.00000E+00        -0.50032E+08
 
   -0.50155E+08         0.33236E+05         0.00000E+00
    0.33236E+05        -0.50004E+08         0.00000E+00
    0.00000E+00         0.00000E+00        -0.50032E+08
 
   -0.50154E+08         0.36597E+05         0.00000E+00
    0.36597E+05        -0.50004E+08         0.00000E+00
    0.00000E+00         0.00000E+00        -0.50032E+08
 
   -0.50153E+08         0.39915E+05         0.00000E+00
    0.39915E+05        -0.50005E+08         0.00000E+00
    0.00000E+00         0.00000E+00        -0.50032E+08
 
   -0.50151E+08         0.43187E+05         0.00000E+00
    0.43187E+05        -0.50006E+08         0.00000E+00
    0.00000E+00         0.00000E+00        -0.50031E+08
 
   -0.50149E+08         0.46409E+05         0.00000E+00
    0.46409E+05        -0.50007E+08         0.00000E+00
    0.00000E+00         0.00000E+00        -0.50031E+08
 
   -0.50147E+08         0.49578E+05         0.00000E+00
    0.49578E+05        -0.50008E+08         0.00000E+00
    0.00000E+00         0.00000E+00        -0.50031E+08
 
   -0.50145E+08         0.52692E+05         0.00000E+00
    0.52692E+05        -0.50010E+08         0.00000E+00
    0.00000E+00         0.00000E+00        -0.50031E+08
 
   -0.50143E+08         0.55746E+05         0.00000E+00
    0.55746E+05        -0.50011E+08         0.00000E+00
    0.00000E+00         0.00000E+00        -0.50031E+08
 
   -0.50141E+08         0.58739E+05         0.00000E+00
    0.58739E+05        -0.50012E+08         0.00000E+00
    0.00000E+00         0.00000E+00        -0.50031E+08
 
   -0.50139E+08         0.61668E+05         0.00000E+00
    0.61668E+05        -0.50013E+08         0.00000E+00
    0.00000E+00         0.00000E+00        -0.50030E+08
 
   -0.50136E+08         0.64530E+05         0.00000E+00
    0.64530E+05        -0.50015E+08         0.00000E+00
    0.00000E+00         0.00000E+00        -0.50030E+08
 
   -0.50133E+08         0.67324E+05         0.00000E+00
    0.67324E+05        -0.50016E+08         0.00000E+00
    0.00000E+00         0.00000E+00        -0.50030E+08
 
   -0.50131E+08         0.70048E+05         0.00000E+00
    0.70048E+05        -0.50018E+08         0.00000E+00
    0.00000E+00         0.00000E+00        -0.50030E+08
 
   -0.50128E+08         0.72700E+05         0.00000E+00
    0.72700E+05        -0.50019E+08         0.00000E+00
    0.00000E+00         0.00000E+00        -0.50029E+08
 
   -0.50125E+08         0.75278E+05         0.00000E+00
    0.75278E+05        -0.50021E+08         0.00000E+00
    0.00000E+00         0.00000E+00        -0.50029E+08
 
   -0.50122E+08         0.77781E+05         0.00000E+00
    0.77781E+05        -0.50022E+08         0.00000E+00
    0.00000E+00         0.00000E+00        -0.50029E+08
 
   -0.50118E+08         0.80208E+05         0.00000E+00
    0.80208E+05        -0.50024E+08         0.00000E+00
    0.00000E+00         0.00000E+00        -0.50028E+08
 
   -0.50115E+08         0.82558E+05         0.00000E+00
    0.82558E+05        -0.50026E+08         0.00000E+00
    0.00000E+00         0.00000E+00        -0.50028E+08
 
   -0.50112E+08         0.84829E+05         0.00000E+00
    0.84829E+05        -0.50027E+08         0.00000E+00
    0.00000E+00         0.00000E+00        -0.50028E+08
 
   -0.50108E+08         0.87021E+05         0.00000E+00
    0.87021E+05        -0.50029E+08         0.00000E+00
    0.00000E+00         0.00000E+00        -0.50027E+08
 
   -0.50105E+08         0.89132E+05         0.00000E+00
    0.89132E+05        -0.50031E+08         0.00000E+00
    0.00000E+00         0.00000E+00        -0.50027E+08
 
   -0.50101E+08         0.91164E+05         0.00000E+00
    0.91164E+05        -0.50033E+08         0.00000E+00
    0.00000E+00         0.00000E+00        -0.50027E+08
 
   -0.50098E+08         0.93114E+05         0.00000E+00
    0.93114E+05        -0.50035E+08         0.00000E+00
    0.00000E+00         0.00000E+00        -0.50026E+08
 
   -0.50094E+08         0.94984E+05         0.00000E+00
    0.94984E+05        -0.50036E+08         0.00000E+00
    0.00000E+00         0.00000E+00        -0.50026E+08
 
   -0.50090E+08         0.96771E+05         0.00000E+00
    0.96771E+05        -0.50038E+08         0.00000E+00
    0.00000E+00         0.00000E+00        -0.50026E+08
 
   -0.50086E+08         0.98477E+05         0.00000E+00
    0.98477E+05        -0.50040E+08         0.00000E+00
    0.00000E+00         0.00000E+00        -0.50025E+08
 
   -0.50082E+08         0.10010E+06         0.00000E+00
    0.10010E+06        -0.50042E+08         0.00000E+00
    0.00000E+00         0.00000E+00        -0.50025E+08
 
   -0.50078E+08         0.10164E+06         0.00000E+00
    0.10164E+06        -0.50044E+08         0.00000E+00
    0.00000E+00         0.00000E+00        -0.50024E+08
 
   -0.50074E+08         0.10310E+06         0.00000E+00
    0.10310E+06        -0.50046E+08         0.00000E+00
    0.00000E+00         0.00000E+00        -0.50024E+08
 
   -0.50070E+08         0.10448E+06         0.00000E+00
    0.10448E+06        -0.50048E+08         0.00000E+00
    0.00000E+00         0.00000E+00        -0.50024E+08
 
   -0.50066E+08         0.10578E+06         0.00000E+00
    0.10578E+06        -0.50050E+08         0.00000E+00
    0.00000E+00         0.00000E+00        -0.50023E+08
 
   -0.50061E+08         0.10699E+06         0.00000E+00
    0.10699E+06        -0.50052E+08         0.00000E+00
    0.00000E+00         0.00000E+00        -0.50023E+08
 
   -0.50057E+08         0.10812E+06         0.00000E+00
    0.10812E+06        -0.50054E+08         0.00000E+00
    0.00000E+00         0.00000E+00        -0.50022E+08
 
   -0.50053E+08         0.10917E+06         0.00000E+00
    0.10917E+06        -0.50056E+08         0.00000E+00
    0.00000E+00         0.00000E+00        -0.50022E+08
 
   -0.50048E+08         0.11014E+06         0.00000E+00
    0.11014E+06        -0.50058E+08         0.00000E+00
    0.00000E+00         0.00000E+00        -0.50021E+08
 
   -0.50044E+08         0.11103E+06         0.00000E+00
    0.11103E+06        -0.50060E+08         0.00000E+00
    0.00000E+00         0.00000E+00        -0.50021E+08
 
   -0.50039E+08         0.11184E+06         0.00000E+00
    0.11184E+06        -0.50062E+08         0.00000E+00
    0.00000E+00         0.00000E+00        -0.50020E+08
 
   -0.50034E+08         0.11256E+06         0.00000E+00
    0.11256E+06        -0.50065E+08         0.00000E+00
    0.00000E+00         0.00000E+00        -0.50020E+08
 
   -0.50030E+08         0.11320E+06         0.00000E+00
    0.11320E+06        -0.50067E+08         0.00000E+00
    0.00000E+00         0.00000E+00        -0.50019E+08
 
   -0.50025E+08         0.11377E+06         0.00000E+00
    0.11377E+06        -0.50069E+08         0.00000E+00
    0.00000E+00         0.00000E+00        -0.50019E+08
 
   -0.50020E+08         0.11425E+06         0.00000E+00
    0.11425E+06        -0.50071E+08         0.00000E+00
    0.00000E+00         0.00000E+00        -0.50018E+08
 
   -0.50144E+08         0.15707E+04         0.00000E+00
    0.15707E+04        -0.50000E+08         0.00000E+00
    0.00000E+00         0.00000E+00        -0.50029E+08
 
   -0.50144E+08         0.47288E+04         0.00000E+00
    0.47288E+04        -0.50000E+08         0.00000E+00
    0.00000E+00         0.00000E+00        -0.50029E+08
 
   -0.50144E+08         0.78880E+04         0.00000E+00
    0.78880E+04        -0.50000E+08         0.00000E+00
    0.00000E+00         0.00000E+00        -0.50029E+08
 
   -0.50143E+08         0.11044E+05         0.00000E+00
    0.11044E+05        -0.50000E+08         0.00000E+00
    0.00000E+00         0.00000E+00        -0.50029E+08
 
   -0.50143E+08         0.14193E+05         0.00000E+00
    0.14193E+05        -0.50001E+08         0.00000E+00
    0.00000E+00         0.00000E+00        -0.50029E+08
 
   -0.50143E+08         0.17329E+05         0.00000E+00
    0.17329E+05        -0.50001E+08         0.00000E+00
    0.00000E+00         0.00000E+00        -0.50029E+08
 
   -0.50142E+08         0.20451E+05         0.00000E+00
    0.20451E+05        -0.50001E+08         0.00000E+00
    0.00000E+00         0.00000E+00        -0.50029E+08
 
   -0.50141E+08         0.23552E+05         0.00000E+00
    0.23552E+05        -0.50002E+08         0.00000E+00
    0.00000E+00         0.00000E+00        -0.50029E+08
 
   -0.50140E+08         0.26630E+05         0.00000E+00
    0.26630E+05        -0.50003E+08         0.00000E+00
    0.00000E+00         0.00000E+00        -0.50029E+08
 
   -0.50139E+08         0.29681E+05         0.00000E+00
    0.29681E+05        -0.50003E+08         0.00000E+00
    0.00000E+00         0.00000E+00        -0.50029E+08
 
   -0.50138E+08         0.32701E+05         0.00000E+00
    0.32701E+05        -0.50004E+08         0.00000E+00
    0.00000E+00         0.00000E+00        -0.50028E+08
 
   -0.50137E+08         0.35687E+05         0.00000E+00
    0.35687E+05        -0.50005E+08         0.00000E+00
    0.00000E+00         0.00000E+00        -0.50028E+08
 
   -0.50136E+08         0.38635E+05         0.00000E+00
    0.38635E+05        -0.50005E+08         0.00000E+00
    0.00000E+00         0.00000E+00        -0.50028E+08
 
   -0.50134E+08         0.41543E+05         0.00000E+00
    0.41543E+05        -0.50006E+08         0.00000E+00
    0.00000E+00         0.00000E+00        -0.50028E+08
 
   -0.50132E+08         0.44408E+05         0.00000E+00
    0.44408E+05        -0.50007E+08         0.00000E+00
    0.00000E+00         0.00000E+00        -0.50028E+08
 
   -0.50131E+08         0.47227E+05         0.00000E+00
    0.47227E+05        -0.50008E+08         0.00000E+00
    0.00000E+00         0.00000E+00        -0.50028E+08
 
   -0.50129E+08         0.49996E+05         0.00000E+00
    0.49996E+05        -0.50009E+08         0.00000E+00
    0.00000E+00         0.00000E+00        -0.50028E+08
 
   -0.50127E+08         0.52715E+05         0.00000E+00
    0.52715E+05        -0.50010E+08         0.00000E+00
    0.00000E+00         0.00000E+00        -0.50027E+08
 
   -0.50125E+08         0.55379E+05         0.00000E+00
    0.55379E+05        -0.50012E+08         0.00000E+00
    0.00000E+00         0.00000E+00        -0.50027E+08
 
   -0.50122E+08         0.57988E+05         0.00000E+00
    0.57988E+05        -0.50013E+08         0.00000E+00
    0.00000E+00         0.00000E+00        -0.50027E+08
 
   -0.50120E+08         0.60539E+05         0.00000E+00
    0.60539E+05        -0.50014E+08         0.00000E+00
    0.00000E+00         0.00000E+00        -0.50027E+08
 
   -0.50118E+08         0.63030E+05         0.00000E+00
    0.63030E+05        -0.50015E+08         0.00000E+00
    0.00000E+00         0.00000E+00        -0.50027E+08
 
   -0.50115E+08         0.65459E+05         0.00000E+00
    0.65459E+05        -0.50017E+08         0.00000E+00
    0.00000E+00         0.00000E+00        -0.50026E+08
 
   -0.50113E+08         0.67825E+05         0.00000E+00
    0.67825E+05        -0.50018E+08         0.00000E+00
    0.00000E+00         0.00000E+00        -0.50026E+08
 
   -0.50110E+08         0.70126E+05         0.00000E+00
    0.70126E+05        -0.50019E+08         0.00000E+00
    0.00000E+00         0.00000E+00        -0.50026E+08
 
   -0.50107E+08         0.72361E+05         0.00000E+00
    0.72361E+05        -0.50021E+08         0.00000E+00
    0.00000E+00         0.00000E+00        -0.50026E+08
 
   -0.50104E+08         0.74528E+05         0.00000E+00
    0.74528E+05        -0.50022E+08         0.00000E+00
    0.00000E+00         0.00000E+00        -0.50025E+08
 
   -0.50101E+08         0.76627E+05         0.00000E+00
    0.76627E+05        -0.50024E+08         0.00000E+00
    0.00000E+00         0.00000E+00        -0.50025E+08
 
   -0.50098E+08         0.78656E+05         0.00000E+00
    0.78656E+05        -0.50025E+08         0.00000E+00
    0.00000E+00         0.00000E+00        -0.50025E+08
 
   -0.50095E+08         0.80615E+05         0.00000E+00
    0.80615E+05        -0.50027E+08         0.00000E+00
    0.00000E+00         0.00000E+00        -0.50024E+08
 
   -0.50092E+08         0.82501E+05         0.00000E+00
    0.82501E+05        -0.50029E+08         0.00000E+00
    0.00000E+00         0.00000E+00        -0.50024E+08
 
   -0.50088E+08         0.84316E+05         0.00000E+00
    0.84316E+05        -0.50030E+08         0.00000E+00
    0.00000E+00         0.00000E+00        -0.50024E+08
 
   -0.50085E+08         0.86057E+05         0.00000E+00
    0.86057E+05        -0.50032E+08         0.00000E+00
    0.00000E+00         0.00000E+00        -0.50023E+08
 
   -0.50082E+08         0.87725E+05         0.00000E+00
    0.87725E+05        -0.50034E+08         0.00000E+00
    0.00000E+00         0.00000E+00        -0.50023E+08
 
   -0.50078E+08         0.89319E+05         0.00000E+00
    0.89319E+05        -0.50035E+08         0.00000E+00
    0.00000E+00         0.00000E+00        -0.50023E+08
 
   -0.50074E+08         0.90838E+05         0.00000E+00
    0.90838E+05        -0.50037E+08         0.00000E+00
    0.00000E+00         0.00000E+00        -0.50022E+08
 
   -0.50071E+08         0.92283E+05         0.00000E+00
    0.92283E+05        -0.50039E+08         0.00000E+00
    0.00000E+00         0.00000E+00        -0.50022E+08
 
   -0.50067E+08         0.93652E+05         0.00000E+00
    0.93652E+05        -0.50041E+08         0.00000E+00
    0.00000E+00         0.00000E+00        -0.50022E+08
 
   -0.50063E+08         0.94945E+05         0.00000E+00
    0.94945E+05        -0.50043E+08         0.00000E+00
    0.00000E+00         0.00000E+00        -0.50021E+08
 
   -0.50059E+08         0.96162E+05         0.00000E+00
    0.96162E+05        -0.50044E+08         0.00000E+00
    0.00000E+00         0.00000E+00        -0.50021E+08
 
   -0.50056E+08         0.97303E+05         0.00000E+00
    0.97303E+05        -0.50046E+08         0.00000E+00
    0.00000E+00         0.00000E+00        -0.50020E+08
 
   -0.50052E+08         0.98367E+05         0.00000E+00
    0.98367E+05        -0.50048E+08         0.00000E+00
    0.00000E+00         0.00000E+00        -0.50020E+08
 
   -0.50048E+08         0.99354E+05         0.00000E+00
    0.99354E+05        -0.50050E+08         0.00000E+00
    0.00000E+00         0.00000E+00        -0.50020E+08
 
   -0.50044E+08         0.10026E+06         0.00000E+00
    0.10026E+06        -0.50052E+08         0.00000E+00
    0.00000E+00         0.00000E+00        -0.50019E+08
 
   -0.50039E+08         0.10110E+06         0.00000E+00
    0.10110E+06        -0.50054E+08         0.00000E+00
    0.00000E+00         0.00000E+00        -0.50019E+08
 
   -0.50035E+08         0.10185E+06         0.00000E+00
    0.10185E+06        -0.50056E+08         0.00000E+00
    0.00000E+00         0.00000E+00        -0.50018E+08
 
   -0.50031E+08         0.10253E+06         0.00000E+00
    0.10253E+06        -0.50058E+08         0.00000E+00
    0.00000E+00         0.00000E+00        -0.50018E+08
 
   -0.50027E+08         0.10313E+06         0.00000E+00
    0.10313E+06        -0.50059E+08         0.00000E+00
    0.00000E+00         0.00000E+00        -0.50017E+08
 
   -0.50023E+08         0.10365E+06         0.00000E+00
    0.10365E+06        -0.50061E+08         0.00000E+00
    0.00000E+00         0.00000E+00        -0.50017E+08
 
   -0.50018E+08         0.10409E+06         0.00000E+00
    0.10409E+06        -0.50063E+08         0.00000E+00
    0.00000E+00         0.00000E+00        -0.50016E+08
 
   -0.50129E+08         0.14032E+04         0.00000E+00
    0.14032E+04        -0.50000E+08         0.00000E+00
    0.00000E+00         0.00000E+00        -0.50026E+08
 
   -0.50129E+08         0.42270E+04         0.00000E+00
    0.42270E+04        -0.50000E+08         0.00000E+00
    0.00000E+00         0.00000E+00        -0.50026E+08
 
   -0.50129E+08         0.70534E+04         0.00000E+00
    0.70534E+04        -0.50000E+08         0.00000E+00
    0.00000E+00         0.00000E+00        -0.50026E+08
 
   -0.50129E+08         0.98786E+04         0.00000E+00
    0.98786E+04        -0.50000E+08         0.00000E+00
    0.00000E+00         0.00000E+00        -0.50026E+08
 
   -0.50128E+08         0.12699E+05         0.00000E+00
    0.12699E+05        -0.50001E+08         0.00000E+00
    0.00000E+00         0.00000E+00        -0.50026E+08
 
   -0.50128E+08         0.15511E+05         0.00000E+00
    0.15511E+05        -0.50001E+08         0.00000E+00
    0.00000E+00         0.00000E+00        -0.50026E+08
 
   -0.50127E+08         0.18311E+05         0.00000E+00
    0.18311E+05        -0.50001E+08         0.00000E+00
    0.00000E+00         0.00000E+00        -0.50026E+08
 
   -0.50127E+08         0.21096E+05         0.00000E+00
    0.21096E+05        -0.50002E+08         0.00000E+00
    0.00000E+00         0.00000E+00        -0.50026E+08
 
   -0.50126E+08         0.23863E+05         0.00000E+00
    0.23863E+05        -0.50002E+08         0.00000E+00
    0.00000E+00         0.00000E+00        -0.50026E+08
 
   -0.50125E+08         0.26608E+05         0.00000E+00
    0.26608E+05        -0.50003E+08         0.00000E+00
    0.00000E+00         0.00000E+00        -0.50026E+08
 
   -0.50124E+08         0.29328E+05         0.00000E+00
    0.29328E+05        -0.50003E+08         0.00000E+00
    0.00000E+00         0.00000E+00        -0.50025E+08
 
   -0.50123E+08         0.32021E+05         0.00000E+00
    0.32021E+05        -0.50004E+08         0.00000E+00
    0.00000E+00         0.00000E+00        -0.50025E+08
 
   -0.50122E+08         0.34682E+05         0.00000E+00
    0.34682E+05        -0.50005E+08         0.00000E+00
    0.00000E+00         0.00000E+00        -0.50025E+08
 
   -0.50120E+08         0.37311E+05         0.00000E+00
    0.37311E+05        -0.50005E+08         0.00000E+00
    0.00000E+00         0.00000E+00        -0.50025E+08
 
   -0.50119E+08         0.39903E+05         0.00000E+00
    0.39903E+05        -0.50006E+08         0.00000E+00
    0.00000E+00         0.00000E+00        -0.50025E+08
 
   -0.50117E+08         0.42457E+05         0.00000E+00
    0.42457E+05        -0.50007E+08         0.00000E+00
    0.00000E+00         0.00000E+00        -0.50025E+08
 
   -0.50116E+08         0.44970E+05         0.00000E+00
    0.44970E+05        -0.50008E+08         0.00000E+00
    0.00000E+00         0.00000E+00        -0.50025E+08
 
   -0.50114E+08         0.47440E+05         0.00000E+00
    0.47440E+05        -0.50009E+08         0.00000E+00
    0.00000E+00         0.00000E+00        -0.50025E+08
 
   -0.50112E+08         0.49864E+05         0.00000E+00
    0.49864E+05        -0.50010E+08         0.00000E+00
    0.00000E+00         0.00000E+00        -0.50024E+08
 
   -0.50110E+08         0.52241E+05         0.00000E+00
    0.52241E+05        -0.50011E+08         0.00000E+00
    0.00000E+00         0.00000E+00        -0.50024E+08
 
   -0.50108E+08         0.54568E+05         0.00000E+00
    0.54568E+05        -0.50012E+08         0.00000E+00
    0.00000E+00         0.00000E+00        -0.50024E+08
 
   -0.50106E+08         0.56843E+05         0.00000E+00
    0.56843E+05        -0.50013E+08         0.00000E+00
    0.00000E+00         0.00000E+00        -0.50024E+08
 
   -0.50104E+08         0.59066E+05         0.00000E+00
    0.59066E+05        -0.50015E+08         0.00000E+00
    0.00000E+00         0.00000E+00        -0.50024E+08
 
   -0.50101E+08         0.61233E+05         0.00000E+00
    0.61233E+05        -0.50016E+08         0.00000E+00
    0.00000E+00         0.00000E+00        -0.50023E+08
 
   -0.50099E+08         0.63344E+05         0.00000E+00
    0.63344E+05        -0.50017E+08         0.00000E+00
    0.00000E+00         0.00000E+00        -0.50023E+08
 
   -0.50096E+08         0.65398E+05         0.00000E+00
    0.65398E+05        -0.50018E+08         0.00000E+00
    0.00000E+00         0.00000E+00        -0.50023E+08
 
   -0.50094E+08         0.67392E+05         0.00000E+00
    0.67392E+05        -0.50020E+08         0.00000E+00
    0.00000E+00         0.00000E+00        -0.50023E+08
 
   -0.50091E+08         0.69325E+05         0.00000E+00
    0.69325E+05        -0.50021E+08         0.00000E+00
    0.00000E+00         0.00000E+00        -0.50022E+08
 
   -0.50088E+08         0.71197E+05         0.00000E+00
    0.71197E+05        -0.50022E+08         0.00000E+00
    0.00000E+00         0.00000E+00        -0.50022E+08
 
   -0.50086E+08         0.73006E+05         0.00000E+00
    0.73006E+05        -0.50024E+08         0.00000E+00
    0.00000E+00         0.00000E+00        -0.50022E+08
 
   -0.50083E+08         0.74751E+05         0.00000E+00
    0.74751E+05        -0.50025E+08         0.00000E+00
    0.00000E+00         0.00000E+00        -0.50022E+08
 
   -0.50080E+08         0.76432E+05         0.00000E+00
    0.76432E+05        -0.50027E+08         0.00000E+00
    0.00000E+00         0.00000E+00        -0.50021E+08
 
   -0.50077E+08         0.78046E+05         0.00000E+00
    0.78046E+05        -0.50028E+08         0.00000E+00
    0.00000E+00         0.00000E+00        -0.50021E+08
 
   -0.50074E+08         0.79595E+05         0.00000E+00
    0.79595E+05        -0.50030E+08         0.00000E+00
    0.00000E+00         0.00000E+00        -0.50021E+08
 
   -0.50070E+08         0.81076E+05         0.00000E+00
    0.81076E+05        -0.50031E+08         0.00000E+00
    0.00000E+00         0.00000E+00        -0.50020E+08
 
   -0.50067E+08         0.82489E+05         0.00000E+00
    0.82489E+05        -0.50033E+08         0.00000E+00
    0.00000E+00         0.00000E+00        -0.50020E+08
 
   -0.50064E+08         0.83833E+05         0.00000E+00
    0.83833E+05        -0.50034E+08         0.00000E+00
    0.00000E+00         0.00000E+00        -0.50020E+08
 
   -0.50061E+08         0.85109E+05         0.00000E+00
    0.85109E+05        -0.50036E+08         0.00000E+00
    0.00000E+00         0.00000E+00        -0.50019E+08
 
   -0.50057E+08         0.86314E+05         0.00000E+00
    0.86314E+05        -0.50038E+08         0.00000E+00
    0.00000E+00         0.00000E+00        -0.50019E+08
 
   -0.50054E+08         0.87449E+05         0.00000E+00
    0.87449E+05        -0.50039E+08         0.00000E+00
    0.00000E+00         0.00000E+00        -0.50019E+08
 
   -0.50050E+08         0.88514E+05         0.00000E+00
    0.88514E+05        -0.50041E+08         0.00000E+00
    0.00000E+00         0.00000E+00        -0.50018E+08
 
   -0.50047E+08         0.89507E+05         0.00000E+00
    0.89507E+05        -0.50043E+08         0.00000E+00
    0.00000E+00         0.00000E+00        -0.50018E+08
 
   -0.50043E+08         0.90428E+05         0.00000E+00
    0.90428E+05        -0.50044E+08         0.00000E+00
    0.00000E+00         0.00000E+00        -0.50017E+08
 
   -0.50039E+08         0.91276E+05         0.00000E+00
    0.91276E+05        -0.50046E+08         0.00000E+00
    0.00000E+00         0.00000E+00        -0.50017E+08
 
   -0.50036E+08         0.92052E+05         0.00000E+00
    0.92052E+05        -0.50048E+08         0.00000E+00
    0.00000E+00         0.00000E+00        -0.50017E+08
 
   -0.50032E+08         0.92754E+05         0.00000E+00
    0.92754E+05        -0.50050E+08         0.00000E+00
    0.00000E+00         0.00000E+00        -0.50016E+08
 
   -0.50028E+08         0.93382E+05         0.00000E+00
    0.93382E+05        -0.50051E+08         0.00000E+00
    0.00000E+00         0.00000E+00        -0.50016E+08
 
   -0.50024E+08         0.93936E+05         0.00000E+00
    0.93936E+05        -0.50053E+08         0.00000E+00
    0.00000E+00         0.00000E+00        -0.50015E+08
 
   -0.50020E+08         0.94414E+05         0.00000E+00
    0.94414E+05        -0.50055E+08         0.00000E+00
    0.00000E+00         0.00000E+00        -0.50015E+08
 
   -0.50016E+08         0.94817E+05         0.00000E+00
    0.94817E+05        -0.50057E+08         0.00000E+00
    0.00000E+00         0.00000E+00        -0.50015E+08
 
   -0.50115E+08         0.12602E+04         0.00000E+00
    0.12602E+04        -0.50000E+08         0.00000E+00
    0.00000E+00         0.00000E+00        -0.50023E+08
 
   -0.50115E+08         0.37971E+04         0.00000E+00
    0.37971E+04        -0.50000E+08         0.00000E+00
    0.00000E+00         0.00000E+00        -0.50023E+08
 
   -0.50115E+08         0.63369E+04         0.00000E+00
    0.63369E+04        -0.50000E+08         0.00000E+00
    0.00000E+00         0.00000E+00        -0.50023E+08
 
   -0.50115E+08         0.88767E+04         0.00000E+00
    0.88767E+04        -0.50000E+08         0.00000E+00
    0.00000E+00         0.00000E+00        -0.50023E+08
 
   -0.50115E+08         0.11413E+05         0.00000E+00
    0.11413E+05        -0.50001E+08         0.00000E+00
    0.00000E+00         0.00000E+00        -0.50023E+08
 
   -0.50115E+08         0.13944E+05         0.00000E+00
    0.13944E+05        -0.50001E+08         0.00000E+00
    0.00000E+00         0.00000E+00        -0.50023E+08
 
   -0.50114E+08         0.16465E+05         0.00000E+00
    0.16465E+05        -0.50001E+08         0.00000E+00
    0.00000E+00         0.00000E+00        -0.50023E+08
 
   -0.50113E+08         0.18974E+05         0.00000E+00
    0.18974E+05        -0.50001E+08         0.00000E+00
    0.00000E+00         0.00000E+00        -0.50023E+08
 
   -0.50113E+08         0.21469E+05         0.00000E+00
    0.21469E+05        -0.50002E+08         0.00000E+00
    0.00000E+00         0.00000E+00        -0.50023E+08
 
   -0.50112E+08         0.23945E+05         0.00000E+00
    0.23945E+05        -0.50002E+08         0.00000E+00
    0.00000E+00         0.00000E+00        -0.50023E+08
 
   -0.50111E+08         0.26402E+05         0.00000E+00
    0.26402E+05        -0.50003E+08         0.00000E+00
    0.00000E+00         0.00000E+00        -0.50023E+08
 
   -0.50110E+08         0.28835E+05         0.00000E+00
    0.28835E+05        -0.50003E+08         0.00000E+00
    0.00000E+00         0.00000E+00        -0.50023E+08
 
   -0.50109E+08         0.31243E+05         0.00000E+00
    0.31243E+05        -0.50004E+08         0.00000E+00
    0.00000E+00         0.00000E+00        -0.50023E+08
 
   -0.50108E+08         0.33623E+05         0.00000E+00
    0.33623E+05        -0.50005E+08         0.00000E+00
    0.00000E+00         0.00000E+00        -0.50023E+08
 
   -0.50107E+08         0.35973E+05         0.00000E+00
    0.35973E+05        -0.50005E+08         0.00000E+00
    0.00000E+00         0.00000E+00        -0.50022E+08
 
   -0.50105E+08         0.38290E+05         0.00000E+00
    0.38290E+05        -0.50006E+08         0.00000E+00
    0.00000E+00         0.00000E+00        -0.50022E+08
 
   -0.50104E+08         0.40572E+05         0.00000E+00
    0.40572E+05        -0.50007E+08         0.00000E+00
    0.00000E+00         0.00000E+00        -0.50022E+08
 
   -0.50102E+08         0.42817E+05         0.00000E+00
    0.42817E+05        -0.50008E+08         0.00000E+00
    0.00000E+00         0.00000E+00        -0.50022E+08
 
   -0.50101E+08         0.45024E+05         0.00000E+00
    0.45024E+05        -0.50009E+08         0.00000E+00
    0.00000E+00         0.00000E+00        -0.50022E+08
 
   -0.50099E+08         0.47189E+05         0.00000E+00
    0.47189E+05        -0.50010E+08         0.00000E+00
    0.00000E+00         0.00000E+00        -0.50022E+08
 
   -0.50097E+08         0.49311E+05         0.00000E+00
    0.49311E+05        -0.50011E+08         0.00000E+00
    0.00000E+00         0.00000E+00        -0.50022E+08
 
   -0.50095E+08         0.51389E+05         0.00000E+00
    0.51389E+05        -0.50012E+08         0.00000E+00
    0.00000E+00         0.00000E+00        -0.50021E+08
 
   -0.50093E+08         0.53421E+05         0.00000E+00
    0.53421E+05        -0.50013E+08         0.00000E+00
    0.00000E+00         0.00000E+00        -0.50021E+08
 
   -0.50091E+08         0.55404E+05         0.00000E+00
    0.55404E+05        -0.50014E+08         0.00000E+00
    0.00000E+00         0.00000E+00        -0.50021E+08
 
   -0.50089E+08         0.57339E+05         0.00000E+00
    0.57339E+05        -0.50015E+08         0.00000E+00
    0.00000E+00         0.00000E+00        -0.50021E+08
 
   -0.50087E+08         0.59222E+05         0.00000E+00
    0.59222E+05        -0.50016E+08         0.00000E+00
    0.00000E+00         0.00000E+00        -0.50021E+08
 
   -0.50084E+08         0.61053E+05         0.00000E+00
    0.61053E+05        -0.50017E+08         0.00000E+00
    0.00000E+00         0.00000E+00        -0.50020E+08
 
   -0.50082E+08         0.62830E+05         0.00000E+00
    0.62830E+05        -0.50018E+08         0.00000E+00
    0.00000E+00         0.00000E+00        -0.50020E+08
 
   -0.50080E+08         0.64553E+05         0.00000E+00
    0.64553E+05        -0.50020E+08         0.00000E+00
    0.00000E+00         0.00000E+00        -0.50020E+08
 
   -0.50077E+08         0.66219E+05         0.00000E+00
    0.66219E+05        -0.50021E+08         0.00000E+00
    0.00000E+00         0.00000E+00        -0.50020E+08
 
   -0.50075E+08         0.67828E+05         0.00000E+00
    0.67828E+05        -0.50022E+08         0.00000E+00
    0.00000E+00         0.00000E+00        -0.50019E+08
 
   -0.50072E+08         0.69379E+05         0.00000E+00
    0.69379E+05        -0.50024E+08         0.00000E+00
    0.00000E+00         0.00000E+00        -0.50019E+08
 
   -0.50069E+08         0.70871E+05         0.00000E+00
    0.70871E+05        -0.50025E+08         0.00000E+00
    0.00000E+00         0.00000E+00        -0.50019E+08
 
   -0.50066E+08         0.72303E+05         0.00000E+00
    0.72303E+05        -0.50026E+08         0.00000E+00
    0.00000E+00         0.00000E+00        -0.50019E+08
 
   -0.50064E+08         0.73673E+05         0.00000E+00
    0.73673E+05        -0.50028E+08         0.00000E+00
    0.00000E+00         0.00000E+00        -0.50018E+08
 
   -0.50061E+08         0.74982E+05         0.00000E+00
    0.74982E+05        -0.50029E+08         0.00000E+00
    0.00000E+00         0.00000E+00        -0.50018E+08
 
   -0.50058E+08         0.76228E+05         0.00000E+00
    0.76228E+05        -0.50030E+08         0.00000E+00
    0.00000E+00         0.00000E+00        -0.50018E+08
 
   -0.50055E+08         0.77410E+05         0.00000E+00
    0.77410E+05        -0.50032E+08         0.00000E+00
    0.00000E+00         0.00000E+00        -0.50017E+08
 
   -0.50052E+08         0.78529E+05         0.00000E+00
    0.78529E+05        -0.50033E+08         0.00000E+00
    0.00000E+00         0.00000E+00        -0.50017E+08
 
   -0.50048E+08         0.79582E+05         0.00000E+00
    0.79582E+05        -0.50035E+08         0.00000E+00
    0.00000E+00         0.00000E+00        -0.50017E+08
 
   -0.50045E+08         0.80569E+05         0.00000E+00
    0.80569E+05        -0.50036E+08         0.00000E+00
    0.00000E+00         0.00000E+00        -0.50016E+08
 
   -0.50042E+08         0.81490E+05         0.00000E+00
    0.81490E+05        -0.50038E+08         0.00000E+00
    0.00000E+00         0.00000E+00        -0.50016E+08
 
   -0.50039E+08         0.82345E+05         0.00000E+00
    0.82345E+05        -0.50039E+08         0.00000E+00
    0.00000E+00         0.00000E+00        -0.50016E+08
 
   -0.50035E+08         0.83131E+05         0.00000E+00
    0.83131E+05        -0.50041E+08         0.00000E+00
    0.00000E+00         0.00000E+00        -0.50015E+08
 
   -0.50032E+08         0.83850E+05         0.00000E+00
    0.83850E+05        -0.50043E+08         0.00000E+00
    0.00000E+00         0.00000E+00        -0.50015E+08
 
   -0.50029E+08         0.84499E+05         0.00000E+00
    0.84499E+05        -0.50044E+08         0.00000E+00
    0.00000E+00         0.00000E+00        -0.50015E+08
 
   -0.50025E+08         0.85079E+05         0.00000E+00
    0.85079E+05        -0.50046E+08         0.00000E+00
    0.00000E+00         0.00000E+00        -0.50014E+08
 
   -0.50022E+08         0.85588E+05         0.00000E+00
    0.85588E+05        -0.50047E+08         0.00000E+00
    0.00000E+00         0.00000E+00        -0.50014E+08
 
   -0.50018E+08         0.86027E+05         0.00000E+00
    0.86027E+05        -0.50049E+08         0.00000E+00
    0.00000E+00         0.00000E+00        -0.50013E+08
 
   -0.50015E+08         0.86394E+05         0.00000E+00
    0.86394E+05        -0.50050E+08         0.00000E+00
    0.00000E+00         0.00000E+00        -0.50013E+08
 
   -0.50103E+08         0.11373E+04         0.00000E+00
    0.11373E+04        -0.50000E+08         0.00000E+00
    0.00000E+00         0.00000E+00        -0.50021E+08
 
   -0.50103E+08         0.34269E+04         0.00000E+00
    0.34269E+04        -0.50000E+08         0.00000E+00
    0.00000E+00         0.00000E+00        -0.50021E+08
 
   -0.50103E+08         0.57193E+04         0.00000E+00
    0.57193E+04        -0.50000E+08         0.00000E+00
    0.00000E+00         0.00000E+00        -0.50021E+08
 
   -0.50103E+08         0.80121E+04         0.00000E+00
    0.80121E+04        -0.50000E+08         0.00000E+00
    0.00000E+00         0.00000E+00        -0.50021E+08
 
   -0.50103E+08         0.10303E+05         0.00000E+00
    0.10303E+05        -0.50000E+08         0.00000E+00
    0.00000E+00         0.00000E+00        -0.50021E+08
 
   -0.50102E+08         0.12588E+05         0.00000E+00
    0.12588E+05        -0.50001E+08         0.00000E+00
    0.00000E+00         0.00000E+00        -0.50021E+08
 
   -0.50102E+08         0.14866E+05         0.00000E+00
    0.14866E+05        -0.50001E+08         0.00000E+00
    0.00000E+00         0.00000E+00        -0.50021E+08
 
   -0.50102E+08         0.17135E+05         0.00000E+00
    0.17135E+05        -0.50001E+08         0.00000E+00
    0.00000E+00         0.00000E+00        -0.50021E+08
 
   -0.50101E+08         0.19391E+05         0.00000E+00
    0.19391E+05        -0.50002E+08         0.00000E+00
    0.00000E+00         0.00000E+00        -0.50021E+08
 
   -0.50100E+08         0.21632E+05         0.00000E+00
    0.21632E+05        -0.50002E+08         0.00000E+00
    0.00000E+00         0.00000E+00        -0.50020E+08
 
   -0.50100E+08         0.23856E+05         0.00000E+00
    0.23856E+05        -0.50002E+08         0.00000E+00
    0.00000E+00         0.00000E+00        -0.50020E+08
 
   -0.50099E+08         0.26061E+05         0.00000E+00
    0.26061E+05        -0.50003E+08         0.00000E+00
    0.00000E+00         0.00000E+00        -0.50020E+08
 
   -0.50098E+08         0.28244E+05         0.00000E+00
    0.28244E+05        -0.50004E+08         0.00000E+00
    0.00000E+00         0.00000E+00        -0.50020E+08
 
   -0.50097E+08         0.30404E+05         0.00000E+00
    0.30404E+05        -0.50004E+08         0.00000E+00
    0.00000E+00         0.00000E+00        -0.50020E+08
 
   -0.50096E+08         0.32537E+05         0.00000E+00
    0.32537E+05        -0.50005E+08         0.00000E+00
    0.00000E+00         0.00000E+00        -0.50020E+08
 
   -0.50094E+08         0.34642E+05         0.00000E+00
    0.34642E+05        -0.50005E+08         0.00000E+00
    0.00000E+00         0.00000E+00        -0.50020E+08
 
   -0.50093E+08         0.36718E+05         0.00000E+00
    0.36718E+05        -0.50006E+08         0.00000E+00
    0.00000E+00         0.00000E+00        -0.50020E+08
 
   -0.50092E+08         0.38761E+05         0.00000E+00
    0.38761E+05        -0.50007E+08         0.00000E+00
    0.00000E+00         0.00000E+00        -0.50020E+08
 
   -0.50090E+08         0.40771E+05         0.00000E+00
    0.40771E+05        -0.50008E+08         0.00000E+00
    0.00000E+00         0.00000E+00        -0.50020E+08
 
   -0.50089E+08         0.42745E+05         0.00000E+00
    0.42745E+05        -0.50008E+08         0.00000E+00
    0.00000E+00         0.00000E+00        -0.50019E+08
 
   -0.50087E+08         0.44682E+05         0.00000E+00
    0.44682E+05        -0.50009E+08         0.00000E+00
    0.00000E+00         0.00000E+00        -0.50019E+08
 
   -0.50085E+08         0.46579E+05         0.00000E+00
    0.46579E+05        -0.50010E+08         0.00000E+00
    0.00000E+00         0.00000E+00        -0.50019E+08
 
   -0.50084E+08         0.48436E+05         0.00000E+00
    0.48436E+05        -0.50011E+08         0.00000E+00
    0.00000E+00         0.00000E+00        -0.50019E+08
 
   -0.50082E+08         0.50251E+05         0.00000E+00
    0.50251E+05        -0.50012E+08         0.00000E+00
    0.00000E+00         0.00000E+00        -0.50019E+08
 
   -0.50080E+08         0.52022E+05         0.00000E+00
    0.52022E+05        -0.50013E+08         0.00000E+00
    0.00000E+00         0.00000E+00        -0.50019E+08
 
   -0.50078E+08         0.53748E+05         0.00000E+00
    0.53748E+05        -0.50014E+08         0.00000E+00
    0.00000E+00         0.00000E+00        -0.50018E+08
 
   -0.50076E+08         0.55427E+05         0.00000E+00
    0.55427E+05        -0.50015E+08         0.00000E+00
    0.00000E+00         0.00000E+00        -0.50018E+08
 
   -0.50074E+08         0.57059E+05         0.00000E+00
    0.57059E+05        -0.50016E+08         0.00000E+00
    0.00000E+00         0.00000E+00        -0.50018E+08
 
   -0.50072E+08         0.58641E+05         0.00000E+00
    0.58641E+05        -0.50017E+08         0.00000E+00
    0.00000E+00         0.00000E+00        -0.50018E+08
 
   -0.50069E+08         0.60173E+05         0.00000E+00
    0.60173E+05        -0.50018E+08         0.00000E+00
    0.00000E+00         0.00000E+00        -0.50018E+08
 
   -0.50067E+08         0.61654E+05         0.00000E+00
    0.61654E+05        -0.50020E+08         0.00000E+00
    0.00000E+00         0.00000E+00        -0.50017E+08
 
   -0.50065E+08         0.63082E+05         0.00000E+00
    0.63082E+05        -0.50021E+08         0.00000E+00
    0.00000E+00         0.00000E+00        -0.50017E+08
 
   -0.50062E+08         0.64457E+05         0.00000E+00
    0.64457E+05        -0.50022E+08         0.00000E+00
    0.00000E+00         0.00000E+00        -0.50017E+08
 
   -0.50060E+08         0.65777E+05         0.00000E+00
    0.65777E+05        -0.50023E+08         0.00000E+00
    0.00000E+00         0.00000E+00        -0.50017E+08
 
   -0.50057E+08         0.67042E+05         0.00000E+00
    0.67042E+05        -0.50024E+08         0.00000E+00
    0.00000E+00         0.00000E+00        -0.50016E+08
 
   -0.50054E+08         0.68250E+05         0.00000E+00
    0.68250E+05        -0.50026E+08         0.00000E+00
    0.00000E+00         0.00000E+00        -0.50016E+08
 
   -0.50052E+08         0.69400E+05         0.00000E+00
    0.69400E+05        -0.50027E+08         0.00000E+00
    0.00000E+00         0.00000E+00        -0.50016E+08
 
   -0.50049E+08         0.70493E+05         0.00000E+00
    0.70493E+05        -0.50028E+08         0.00000E+00
    0.00000E+00         0.00000E+00        -0.50015E+08
 
   -0.50046E+08         0.71526E+05         0.00000E+00
    0.71526E+05        -0.50030E+08         0.00000E+00
    0.00000E+00         0.00000E+00        -0.50015E+08
 
   -0.50044E+08         0.72499E+05         0.00000E+00
    0.72499E+05        -0.50031E+08         0.00000E+00
    0.00000E+00         0.00000E+00        -0.50015E+08
 
   -0.50041E+08         0.73412E+05         0.00000E+00
    0.73412E+05        -0.50032E+08         0.00000E+00
    0.00000E+00         0.00000E+00        -0.50015E+08
 
   -0.50038E+08         0.74263E+05         0.00000E+00
    0.74263E+05        -0.50034E+08         0.00000E+00
    0.00000E+00         0.00000E+00        -0.50014E+08
 
   -0.50035E+08         0.75053E+05         0.00000E+00
    0.75053E+05        -0.50035E+08         0.00000E+00
    0.00000E+00         0.00000E+00        -0.50014E+08
 
   -0.50032E+08         0.75779E+05         0.00000E+00
    0.75779E+05        -0.50036E+08         0.00000E+00
    0.00000E+00         0.00000E+00        -0.50014E+08
 
   -0.50029E+08         0.76441E+05         0.00000E+00
    0.76441E+05        -0.50038E+08         0.00000E+00
    0.00000E+00         0.00000E+00        -0.50013E+08
 
   -0.50026E+08         0.77040E+05         0.00000E+00
    0.77040E+05        -0.50039E+08         0.00000E+00
    0.00000E+00         0.00000E+00        -0.50013E+08
 
   -0.50023E+08         0.77573E+05         0.00000E+00
    0.77573E+05        -0.50041E+08         0.00000E+00
    0.00000E+00         0.00000E+00        -0.50013E+08
 
   -0.50019E+08         0.78040E+05         0.00000E+00
    0.78040E+05        -0.50042E+08         0.00000E+00
    0.00000E+00         0.00000E+00        -0.50012E+08
 
   -0.50016E+08         0.78441E+05         0.00000E+00
    0.78441E+05        -0.50043E+08         0.00000E+00
    0.00000E+00         0.00000E+00        -0.50012E+08
 
   -0.50013E+08         0.78775E+05         0.00000E+00
    0.78775E+05        -0.50045E+08         0.00000E+00
    0.00000E+00         0.00000E+00        -0.50012E+08
 
   -0.50092E+08         0.10313E+04         0.00000E+00
    0.10313E+04        -0.50000E+08         0.00000E+00
    0.00000E+00         0.00000E+00        -0.50018E+08
 
   -0.50092E+08         0.31068E+04         0.00000E+00
    0.31068E+04        -0.50000E+08         0.00000E+00
    0.00000E+00         0.00000E+00        -0.50018E+08
 
   -0.50092E+08         0.51848E+04         0.00000E+00
    0.51848E+04        -0.50000E+08         0.00000E+00
    0.00000E+00         0.00000E+00        -0.50018E+08
 
   -0.50092E+08         0.72631E+04         0.00000E+00
    0.72631E+04        -0.50000E+08         0.00000E+00
    0.00000E+00         0.00000E+00        -0.50018E+08
 
   -0.50092E+08         0.93396E+04         0.00000E+00
    0.93396E+04        -0.50000E+08         0.00000E+00
    0.00000E+00         0.00000E+00        -0.50018E+08
 
   -0.50092E+08         0.11412E+05         0.00000E+00
    0.11412E+05        -0.50001E+08         0.00000E+00
    0.00000E+00         0.00000E+00        -0.50018E+08
 
   -0.50091E+08         0.13478E+05         0.00000E+00
    0.13478E+05        -0.50001E+08         0.00000E+00
    0.00000E+00         0.00000E+00        -0.50018E+08
 
   -0.50091E+08         0.15536E+05         0.00000E+00
    0.15536E+05        -0.50001E+08         0.00000E+00
    0.00000E+00         0.00000E+00        -0.50018E+08
 
   -0.50090E+08         0.17583E+05         0.00000E+00
    0.17583E+05        -0.50001E+08         0.00000E+00
    0.00000E+00         0.00000E+00        -0.50018E+08
 
   -0.50090E+08         0.19617E+05         0.00000E+00
    0.19617E+05        -0.50002E+08         0.00000E+00
    0.00000E+00         0.00000E+00        -0.50018E+08
 
   -0.50089E+08         0.21637E+05         0.00000E+00
    0.21637E+05        -0.50002E+08         0.00000E+00
    0.00000E+00         0.00000E+00        -0.50018E+08
 
   -0.50088E+08         0.23640E+05         0.00000E+00
    0.23640E+05        -0.50003E+08         0.00000E+00
    0.00000E+00         0.00000E+00        -0.50018E+08
 
   -0.50087E+08         0.25625E+05         0.00000E+00
    0.25625E+05        -0.50003E+08         0.00000E+00
    0.00000E+00         0.00000E+00        -0.50018E+08
 
   -0.50086E+08         0.27588E+05         0.00000E+00
    0.27588E+05        -0.50004E+08         0.00000E+00
    0.00000E+00         0.00000E+00        -0.50018E+08
 
   -0.50085E+08         0.29530E+05         0.00000E+00
    0.29530E+05        -0.50004E+08         0.00000E+00
    0.00000E+00         0.00000E+00        -0.50018E+08
 
   -0.50084E+08         0.31447E+05         0.00000E+00
    0.31447E+05        -0.50005E+08         0.00000E+00
    0.00000E+00         0.00000E+00        -0.50018E+08
 
   -0.50083E+08         0.33337E+05         0.00000E+00
    0.33337E+05        -0.50005E+08         0.00000E+00
    0.00000E+00         0.00000E+00        -0.50018E+08
 
   -0.50082E+08         0.35200E+05         0.00000E+00
    0.35200E+05        -0.50006E+08         0.00000E+00
    0.00000E+00         0.00000E+00        -0.50018E+08
 
   -0.50081E+08         0.37033E+05         0.00000E+00
    0.37033E+05        -0.50007E+08         0.00000E+00
    0.00000E+00         0.00000E+00        -0.50017E+08
 
   -0.50079E+08         0.38834E+05         0.00000E+00
    0.38834E+05        -0.50007E+08         0.00000E+00
    0.00000E+00         0.00000E+00        -0.50017E+08
 
   -0.50078E+08         0.40603E+05         0.00000E+00
    0.40603E+05        -0.50008E+08         0.00000E+00
    0.00000E+00         0.00000E+00        -0.50017E+08
 
   -0.50076E+08         0.42337E+05         0.00000E+00
    0.42337E+05        -0.50009E+08         0.00000E+00
    0.00000E+00         0.00000E+00        -0.50017E+08
 
   -0.50075E+08         0.44035E+05         0.00000E+00
    0.44035E+05        -0.50010E+08         0.00000E+00
    0.00000E+00         0.00000E+00        -0.50017E+08
 
   -0.50073E+08         0.45696E+05         0.00000E+00
    0.45696E+05        -0.50011E+08         0.00000E+00
    0.00000E+00         0.00000E+00        -0.50017E+08
 
   -0.50071E+08         0.47318E+05         0.00000E+00
    0.47318E+05        -0.50011E+08         0.00000E+00
    0.00000E+00         0.00000E+00        -0.50017E+08
 
   -0.50070E+08         0.48899E+05         0.00000E+00
    0.48899E+05        -0.50012E+08         0.00000E+00
    0.00000E+00         0.00000E+00        -0.50016E+08
 
   -0.50068E+08         0.50439E+05         0.00000E+00
    0.50439E+05        -0.50013E+08         0.00000E+00
    0.00000E+00         0.00000E+00        -0.50016E+08
 
   -0.50066E+08         0.51936E+05         0.00000E+00
    0.51936E+05        -0.50014E+08         0.00000E+00
    0.00000E+00         0.00000E+00        -0.50016E+08
 
   -0.50064E+08         0.53388E+05         0.00000E+00
    0.53388E+05        -0.50015E+08         0.00000E+00
    0.00000E+00         0.00000E+00        -0.50016E+08
 
   -0.50062E+08         0.54796E+05         0.00000E+00
    0.54796E+05        -0.50016E+08         0.00000E+00
    0.00000E+00         0.00000E+00        -0.50016E+08
 
   -0.50060E+08         0.56157E+05         0.00000E+00
    0.56157E+05        -0.50017E+08         0.00000E+00
    0.00000E+00         0.00000E+00        -0.50015E+08
 
   -0.50058E+08         0.57470E+05         0.00000E+00
    0.57470E+05        -0.50018E+08         0.00000E+00
    0.00000E+00         0.00000E+00        -0.50015E+08
 
   -0.50056E+08         0.58735E+05         0.00000E+00
    0.58735E+05        -0.50019E+08         0.00000E+00
    0.00000E+00         0.00000E+00        -0.50015E+08
 
   -0.50053E+08         0.59950E+05         0.00000E+00
    0.59950E+05        -0.50020E+08         0.00000E+00
    0.00000E+00         0.00000E+00        -0.50015E+08
 
   -0.50051E+08         0.61114E+05         0.00000E+00
    0.61114E+05        -0.50022E+08         0.00000E+00
    0.00000E+00         0.00000E+00        -0.50015E+08
 
   -0.50049E+08         0.62227E+05         0.00000E+00
    0.62227E+05        -0.50023E+08         0.00000E+00
    0.00000E+00         0.00000E+00        -0.50014E+08
 
   -0.50046E+08         0.63287E+05         0.00000E+00
    0.63287E+05        -0.50024E+08         0.00000E+00
    0.00000E+00         0.00000E+00        -0.50014E+08
 
   -0.50044E+08         0.64294E+05         0.00000E+00
    0.64294E+05        -0.50025E+08         0.00000E+00
    0.00000E+00         0.00000E+00        -0.50014E+08
 
   -0.50042E+08         0.65247E+05         0.00000E+00
    0.65247E+05        -0.50026E+08         0.00000E+00
    0.00000E+00         0.00000E+00        -0.50014E+08
 
   -0.50039E+08         0.66144E+05         0.00000E+00
    0.66144E+05        -0.50027E+08         0.00000E+00
    0.00000E+00         0.00000E+00        -0.50013E+08
 
   -0.50036E+08         0.66986E+05         0.00000E+00
    0.66986E+05        -0.50029E+08         0.00000E+00
    0.00000E+00         0.00000E+00        -0.50013E+08
 
   -0.50034E+08         0.67770E+05         0.00000E+00
    0.67770E+05        -0.50030E+08         0.00000E+00
    0.00000E+00         0.00000E+00        -0.50013E+08
 
   -0.50031E+08         0.68497E+05         0.00000E+00
    0.68497E+05        -0.50031E+08         0.00000E+00
    0.00000E+00         0.00000E+00        -0.50012E+08
 
   -0.50029E+08         0.69166E+05         0.00000E+00
    0.69166E+05        -0.50032E+08         0.00000E+00
    0.00000E+00         0.00000E+00        -0.50012E+08
 
   -0.50026E+08         0.69776E+05         0.00000E+00
    0.69776E+05        -0.50034E+08         0.00000E+00
    0.00000E+00         0.00000E+00        -0.50012E+08
 
   -0.50023E+08         0.70326E+05         0.00000E+00
    0.70326E+05        -0.50035E+08         0.00000E+00
    0.00000E+00         0.00000E+00        -0.50012E+08
 
   -0.50020E+08         0.70815E+05         0.00000E+00
    0.70815E+05        -0.50036E+08         0.00000E+00
    0.00000E+00         0.00000E+00        -0.50011E+08
 
   -0.50017E+08         0.71243E+05         0.00000E+00
    0.71243E+05        -0.50037E+08         0.00000E+00
    0.00000E+00         0.00000E+00        -0.50011E+08
 
   -0.50015E+08         0.71609E+05         0.00000E+00
    0.71609E+05        -0.50039E+08         0.00000E+00
    0.00000E+00         0.00000E+00        -0.50011E+08
 
   -0.50012E+08         0.71913E+05         0.00000E+00
    0.71913E+05        -0.50040E+08         0.00000E+00
    0.00000E+00         0.00000E+00        -0.50010E+08
 
   -0.50082E+08         0.93948E+03         0.00000E+00
    0.93948E+03        -0.50000E+08         0.00000E+00
    0.00000E+00         0.00000E+00        -0.50016E+08
 
   -0.50082E+08         0.28290E+04         0.00000E+00
    0.28290E+04        -0.50000E+08         0.00000E+00
    0.00000E+00         0.00000E+00        -0.50016E+08
 
   -0.50082E+08         0.47206E+04         0.00000E+00
    0.47206E+04        -0.50000E+08         0.00000E+00
    0.00000E+00         0.00000E+00        -0.50016E+08
 
   -0.50082E+08         0.66123E+04         0.00000E+00
    0.66123E+04        -0.50000E+08         0.00000E+00
    0.00000E+00         0.00000E+00        -0.50016E+08
 
   -0.50082E+08         0.85022E+04         0.00000E+00
    0.85022E+04        -0.50000E+08         0.00000E+00
    0.00000E+00         0.00000E+00        -0.50016E+08
 
   -0.50082E+08         0.10388E+05         0.00000E+00
    0.10388E+05        -0.50001E+08         0.00000E+00
    0.00000E+00         0.00000E+00        -0.50016E+08
 
   -0.50081E+08         0.12269E+05         0.00000E+00
    0.12269E+05        -0.50001E+08         0.00000E+00
    0.00000E+00         0.00000E+00        -0.50016E+08
 
   -0.50081E+08         0.14142E+05         0.00000E+00
    0.14142E+05        -0.50001E+08         0.00000E+00
    0.00000E+00         0.00000E+00        -0.50016E+08
 
   -0.50081E+08         0.16006E+05         0.00000E+00
    0.16006E+05        -0.50001E+08         0.00000E+00
    0.00000E+00         0.00000E+00        -0.50016E+08
 
   -0.50080E+08         0.17859E+05         0.00000E+00
    0.17859E+05        -0.50002E+08         0.00000E+00
    0.00000E+00         0.00000E+00        -0.50016E+08
 
   -0.50079E+08         0.19699E+05         0.00000E+00
    0.19699E+05        -0.50002E+08         0.00000E+00
    0.00000E+00         0.00000E+00        -0.50016E+08
 
   -0.50079E+08         0.21525E+05         0.00000E+00
    0.21525E+05        -0.50002E+08         0.00000E+00
    0.00000E+00         0.00000E+00        -0.50016E+08
 
   -0.50078E+08         0.23333E+05         0.00000E+00
    0.23333E+05        -0.50003E+08         0.00000E+00
    0.00000E+00         0.00000E+00        -0.50016E+08
 
   -0.50077E+08         0.25124E+05         0.00000E+00
    0.25124E+05        -0.50003E+08         0.00000E+00
    0.00000E+00         0.00000E+00        -0.50016E+08
 
   -0.50076E+08         0.26895E+05         0.00000E+00
    0.26895E+05        -0.50004E+08         0.00000E+00
    0.00000E+00         0.00000E+00        -0.50016E+08
 
   -0.50075E+08         0.28644E+05         0.00000E+00
    0.28644E+05        -0.50004E+08         0.00000E+00
    0.00000E+00         0.00000E+00        -0.50016E+08
 
   -0.50074E+08         0.30370E+05         0.00000E+00
    0.30370E+05        -0.50005E+08         0.00000E+00
    0.00000E+00         0.00000E+00        -0.50016E+08
 
   -0.50073E+08         0.32071E+05         0.00000E+00
    0.32071E+05        -0.50005E+08         0.00000E+00
    0.00000E+00         0.00000E+00        -0.50016E+08
 
   -0.50072E+08         0.33746E+05         0.00000E+00
    0.33746E+05        -0.50006E+08         0.00000E+00
    0.00000E+00         0.00000E+00        -0.50016E+08
 
   -0.50071E+08         0.35393E+05         0.00000E+00
    0.35393E+05        -0.50006E+08         0.00000E+00
    0.00000E+00         0.00000E+00        -0.50015E+08
 
   -0.50070E+08         0.37010E+05         0.00000E+00
    0.37010E+05        -0.50007E+08         0.00000E+00
    0.00000E+00         0.00000E+00        -0.50015E+08
 
   -0.50068E+08         0.38597E+05         0.00000E+00
    0.38597E+05        -0.50008E+08         0.00000E+00
    0.00000E+00         0.00000E+00        -0.50015E+08
 
   -0.50067E+08         0.40151E+05         0.00000E+00
    0.40151E+05        -0.50009E+08         0.00000E+00
    0.00000E+00         0.00000E+00        -0.50015E+08
 
   -0.50065E+08         0.41672E+05         0.00000E+00
    0.41672E+05        -0.50009E+08         0.00000E+00
    0.00000E+00         0.00000E+00        -0.50015E+08
 
   -0.50064E+08         0.43158E+05         0.00000E+00
    0.43158E+05        -0.50010E+08         0.00000E+00
    0.00000E+00         0.00000E+00        -0.50015E+08
 
   -0.50062E+08         0.44608E+05         0.00000E+00
    0.44608E+05        -0.50011E+08         0.00000E+00
    0.00000E+00         0.00000E+00        -0.50015E+08
 
   -0.50061E+08         0.46020E+05         0.00000E+00
    0.46020E+05        -0.50012E+08         0.00000E+00
    0.00000E+00         0.00000E+00        -0.50014E+08
 
   -0.50059E+08         0.47394E+05         0.00000E+00
    0.47394E+05        -0.50012E+08         0.00000E+00
    0.00000E+00         0.00000E+00        -0.50014E+08
 
   -0.50057E+08         0.48728E+05         0.00000E+00
    0.48728E+05        -0.50013E+08         0.00000E+00
    0.00000E+00         0.00000E+00        -0.50014E+08
 
   -0.50055E+08         0.50020E+05         0.00000E+00
    0.50020E+05        -0.50014E+08         0.00000E+00
    0.00000E+00         0.00000E+00        -0.50014E+08
 
   -0.50054E+08         0.51271E+05         0.00000E+00
    0.51271E+05        -0.50015E+08         0.00000E+00
    0.00000E+00         0.00000E+00        -0.50014E+08
 
   -0.50052E+08         0.52478E+05         0.00000E+00
    0.52478E+05        -0.50016E+08         0.00000E+00
    0.00000E+00         0.00000E+00        -0.50014E+08
 
   -0.50050E+08         0.53641E+05         0.00000E+00
    0.53641E+05        -0.50017E+08         0.00000E+00
    0.00000E+00         0.00000E+00        -0.50013E+08
 
   -0.50048E+08         0.54759E+05         0.00000E+00
    0.54759E+05        -0.50018E+08         0.00000E+00
    0.00000E+00         0.00000E+00        -0.50013E+08
 
   -0.50046E+08         0.55830E+05         0.00000E+00
    0.55830E+05        -0.50019E+08         0.00000E+00
    0.00000E+00         0.00000E+00        -0.50013E+08
 
   -0.50044E+08         0.56854E+05         0.00000E+00
    0.56854E+05        -0.50020E+08         0.00000E+00
    0.00000E+00         0.00000E+00        -0.50013E+08
 
   -0.50041E+08         0.57830E+05         0.00000E+00
    0.57830E+05        -0.50021E+08         0.00000E+00
    0.00000E+00         0.00000E+00        -0.50013E+08
 
   -0.50039E+08         0.58757E+05         0.00000E+00
    0.58757E+05        -0.50022E+08         0.00000E+00
    0.00000E+00         0.00000E+00        -0.50012E+08
 
   -0.50037E+08         0.59634E+05         0.00000E+00
    0.59634E+05        -0.50023E+08         0.00000E+00
    0.00000E+00         0.00000E+00        -0.50012E+08
 
   -0.50035E+08         0.60460E+05         0.00000E+00
    0.60460E+05        -0.50024E+08         0.00000E+00
    0.00000E+00         0.00000E+00        -0.50012E+08
 
   -0.50033E+08         0.61235E+05         0.00000E+00
    0.61235E+05        -0.50025E+08         0.00000E+00
    0.00000E+00         0.00000E+00        -0.50012E+08
 
   -0.50030E+08         0.61957E+05         0.00000E+00
    0.61957E+05        -0.50026E+08         0.00000E+00
    0.00000E+00         0.00000E+00        -0.50011E+08
 
   -0.50028E+08         0.62626E+05         0.00000E+00
    0.62626E+05        -0.50027E+08         0.00000E+00
    0.00000E+00         0.00000E+00        -0.50011E+08
 
   -0.50025E+08         0.63240E+05         0.00000E+00
    0.63240E+05        -0.50029E+08         0.00000E+00
    0.00000E+00         0.00000E+00        -0.50011E+08
 
   -0.50023E+08         0.63801E+05         0.00000E+00
    0.63801E+05        -0.50030E+08         0.00000E+00
    0.00000E+00         0.00000E+00        -0.50011E+08
 
   -0.50021E+08         0.64305E+05         0.00000E+00
    0.64305E+05        -0.50031E+08         0.00000E+00
    0.00000E+00         0.00000E+00        -0.50010E+08
 
   -0.50018E+08         0.64754E+05         0.00000E+00
    0.64754E+05        -0.50032E+08         0.00000E+00
    0.00000E+00         0.00000E+00        -0.50010E+08
 
   -0.50015E+08         0.65146E+05         0.00000E+00
    0.65146E+05        -0.50033E+08         0.00000E+00
    0.00000E+00         0.00000E+00        -0.50010E+08
 
   -0.50013E+08         0.65480E+05         0.00000E+00
    0.65480E+05        -0.50034E+08         0.00000E+00
    0.00000E+00         0.00000E+00        -0.50009E+08
 
   -0.50010E+08         0.65756E+05         0.00000E+00
    0.65756E+05        -0.50035E+08         0.00000E+00
    0.00000E+00         0.00000E+00        -0.50009E+08
 
   -0.50073E+08         0.85959E+03         0.00000E+00
    0.85959E+03        -0.50000E+08         0.00000E+00
    0.00000E+00         0.00000E+00        -0.50015E+08
 
   -0.50073E+08         0.25872E+04         0.00000E+00
    0.25872E+04        -0.50000E+08         0.00000E+00
    0.00000E+00         0.00000E+00        -0.50015E+08
 
   -0.50073E+08         0.43164E+04         0.00000E+00
    0.43164E+04        -0.50000E+08         0.00000E+00
    0.00000E+00         0.00000E+00        -0.50015E+08
 
   -0.50073E+08         0.60453E+04         0.00000E+00
    0.60453E+04        -0.50000E+08         0.00000E+00
    0.00000E+00         0.00000E+00        -0.50015E+08
 
   -0.50073E+08         0.77724E+04         0.00000E+00
    0.77724E+04        -0.50000E+08         0.00000E+00
    0.00000E+00         0.00000E+00        -0.50015E+08
 
   -0.50073E+08         0.94961E+04         0.00000E+00
    0.94961E+04        -0.50000E+08         0.00000E+00
    0.00000E+00         0.00000E+00        -0.50015E+08
 
   -0.50072E+08         0.11215E+05         0.00000E+00
    0.11215E+05        -0.50001E+08         0.00000E+00
    0.00000E+00         0.00000E+00        -0.50015E+08
 
   -0.50072E+08         0.12926E+05         0.00000E+00
    0.12926E+05        -0.50001E+08         0.00000E+00
    0.00000E+00         0.00000E+00        -0.50015E+08
 
   -0.50072E+08         0.14630E+05         0.00000E+00
    0.14630E+05        -0.50001E+08         0.00000E+00
    0.00000E+00         0.00000E+00        -0.50015E+08
 
   -0.50071E+08         0.16323E+05         0.00000E+00
    0.16323E+05        -0.50001E+08         0.00000E+00
    0.00000E+00         0.00000E+00        -0.50015E+08
 
   -0.50071E+08         0.18005E+05         0.00000E+00
    0.18005E+05        -0.50002E+08         0.00000E+00
    0.00000E+00         0.00000E+00        -0.50014E+08
 
   -0.50070E+08         0.19674E+05         0.00000E+00
    0.19674E+05        -0.50002E+08         0.00000E+00
    0.00000E+00         0.00000E+00        -0.50014E+08
 
   -0.50069E+08         0.21328E+05         0.00000E+00
    0.21328E+05        -0.50002E+08         0.00000E+00
    0.00000E+00         0.00000E+00        -0.50014E+08
 
   -0.50069E+08         0.22965E+05         0.00000E+00
    0.22965E+05        -0.50003E+08         0.00000E+00
    0.00000E+00         0.00000E+00        -0.50014E+08
 
   -0.50068E+08         0.24585E+05         0.00000E+00
    0.24585E+05        -0.50003E+08         0.00000E+00
    0.00000E+00         0.00000E+00        -0.50014E+08
 
   -0.50067E+08         0.26185E+05         0.00000E+00
    0.26185E+05        -0.50004E+08         0.00000E+00
    0.00000E+00         0.00000E+00        -0.50014E+08
 
   -0.50066E+08         0.27765E+05         0.00000E+00
    0.27765E+05        -0.50004E+08         0.00000E+00
    0.00000E+00         0.00000E+00        -0.50014E+08
 
   -0.50065E+08         0.29323E+05         0.00000E+00
    0.29323E+05        -0.50005E+08         0.00000E+00
    0.00000E+00         0.00000E+00        -0.50014E+08
 
   -0.50064E+08         0.30856E+05         0.00000E+00
    0.30856E+05        -0.50005E+08         0.00000E+00
    0.00000E+00         0.00000E+00        -0.50014E+08
 
   -0.50063E+08         0.32365E+05         0.00000E+00
    0.32365E+05        -0.50006E+08         0.00000E+00
    0.00000E+00         0.00000E+00        -0.50014E+08
 
   -0.50062E+08         0.33847E+05         0.00000E+00
    0.33847E+05        -0.50006E+08         0.00000E+00
    0.00000E+00         0.00000E+00        -0.50014E+08
 
   -0.50061E+08         0.35302E+05         0.00000E+00
    0.35302E+05        -0.50007E+08         0.00000E+00
    0.00000E+00         0.00000E+00        -0.50014E+08
 
   -0.50059E+08         0.36727E+05         0.00000E+00
    0.36727E+05        -0.50007E+08         0.00000E+00
    0.00000E+00         0.00000E+00        -0.50013E+08
 
   -0.50058E+08         0.38123E+05         0.00000E+00
    0.38123E+05        -0.50008E+08         0.00000E+00
    0.00000E+00         0.00000E+00        -0.50013E+08
 
   -0.50057E+08         0.39486E+05         0.00000E+00
    0.39486E+05        -0.50009E+08         0.00000E+00
    0.00000E+00         0.00000E+00        -0.50013E+08
 
   -0.50055E+08         0.40817E+05         0.00000E+00
    0.40817E+05        -0.50010E+08         0.00000E+00
    0.00000E+00         0.00000E+00        -0.50013E+08
 
   -0.50054E+08         0.42114E+05         0.00000E+00
    0.42114E+05        -0.50010E+08         0.00000E+00
    0.00000E+00         0.00000E+00        -0.50013E+08
 
   -0.50052E+08         0.43375E+05         0.00000E+00
    0.43375E+05        -0.50011E+08         0.00000E+00
    0.00000E+00         0.00000E+00        -0.50013E+08
 
   -0.50051E+08         0.44601E+05         0.00000E+00
    0.44601E+05        -0.50012E+08         0.00000E+00
    0.00000E+00         0.00000E+00        -0.50013E+08
 
   -0.50049E+08         0.45789E+05         0.00000E+00
    0.45789E+05        -0.50013E+08         0.00000E+00
    0.00000E+00         0.00000E+00        -0.50012E+08
 
   -0.50048E+08         0.46939E+05         0.00000E+00
    0.46939E+05        -0.50013E+08         0.00000E+00
    0.00000E+00         0.00000E+00        -0.50012E+08
 
   -0.50046E+08         0.48049E+05         0.00000E+00
    0.48049E+05        -0.50014E+08         0.00000E+00
    0.00000E+00         0.00000E+00        -0.50012E+08
 
   -0.50044E+08         0.49118E+05         0.00000E+00
    0.49118E+05        -0.50015E+08         0.00000E+00
    0.00000E+00         0.00000E+00        -0.50012E+08
 
   -0.50042E+08         0.50147E+05         0.00000E+00
    0.50147E+05        -0.50016E+08         0.00000E+00
    0.00000E+00         0.00000E+00        -0.50012E+08
 
   -0.50041E+08         0.51132E+05         0.00000E+00
    0.51132E+05        -0.50017E+08         0.00000E+00
    0.00000E+00         0.00000E+00        -0.50011E+08
 
   -0.50039E+08         0.52075E+05         0.00000E+00
    0.52075E+05        -0.50018E+08         0.00000E+00
    0.00000E+00         0.00000E+00        -0.50011E+08
 
   -0.50037E+08         0.52973E+05         0.00000E+00
    0.52973E+05        -0.50019E+08         0.00000E+00
    0.00000E+00         0.00000E+00        -0.50011E+08
 
   -0.50035E+08         0.53826E+05         0.00000E+00
    0.53826E+05        -0.50019E+08         0.00000E+00
    0.00000E+00         0.00000E+00        -0.50011E+08
 
   -0.50033E+08         0.54633E+05         0.00000E+00
    0.54633E+05        -0.50020E+08         0.00000E+00
    0.00000E+00         0.00000E+00        -0.50011E+08
 
   -0.50031E+08         0.55394E+05         0.00000E+00
    0.55394E+05        -0.50021E+08         0.00000E+00
    0.00000E+00         0.00000E+00        -0.50010E+08
 
   -0.50029E+08         0.56107E+05         0.00000E+00
    0.56107E+05        -0.50022E+08         0.00000E+00
    0.00000E+00         0.00000E+00        -0.50010E+08
 
   -0.50027E+08         0.56771E+05         0.00000E+00
    0.56771E+05        -0.50023E+08         0.00000E+00
    0.00000E+00         0.00000E+00        -0.50010E+08
 
   -0.50025E+08         0.57386E+05         0.00000E+00
    0.57386E+05        -0.50024E+08         0.00000E+00
    0.00000E+00         0.00000E+00        -0.50010E+08
 
   -0.50023E+08         0.57951E+05         0.00000E+00
    0.57951E+05        -0.50025E+08         0.00000E+00
    0.00000E+00         0.00000E+00        -0.50010E+08
 
   -0.50020E+08         0.58466E+05         0.00000E+00
    0.58466E+05        -0.50026E+08         0.00000E+00
    0.00000E+00         0.00000E+00        -0.50009E+08
 
   -0.50018E+08         0.58930E+05         0.00000E+00
    0.58930E+05        -0.50027E+08         0.00000E+00
    0.00000E+00         0.00000E+00        -0.50009E+08
 
   -0.50016E+08         0.59341E+05         0.00000E+00
    0.59341E+05        -0.50028E+08         0.00000E+00
    0.00000E+00         0.00000E+00        -0.50009E+08
 
   -0.50014E+08         0.59700E+05         0.00000E+00
    0.59700E+05        -0.50029E+08         0.00000E+00
    0.00000E+00         0.00000E+00        -0.50009E+08
 
   -0.50011E+08         0.60005E+05         0.00000E+00
    0.60005E+05        -0.50030E+08         0.00000E+00
    0.00000E+00         0.00000E+00        -0.50008E+08
 
   -0.50009E+08         0.60256E+05         0.00000E+00
    0.60256E+05        -0.50031E+08         0.00000E+00
    0.00000E+00         0.00000E+00        -0.50008E+08
 
   -0.50065E+08         0.78998E+03         0.00000E+00
    0.78998E+03        -0.50000E+08         0.00000E+00
    0.00000E+00         0.00000E+00        -0.50013E+08
 
   -0.50065E+08         0.23765E+04         0.00000E+00
    0.23765E+04        -0.50000E+08         0.00000E+00
    0.00000E+00         0.00000E+00        -0.50013E+08
 
   -0.50065E+08         0.39639E+04         0.00000E+00
    0.39639E+04        -0.50000E+08         0.00000E+00
    0.00000E+00         0.00000E+00        -0.50013E+08
 
   -0.50065E+08         0.55509E+04         0.00000E+00
    0.55509E+04        -0.50000E+08         0.00000E+00
    0.00000E+00         0.00000E+00        -0.50013E+08
 
   -0.50065E+08         0.71359E+04         0.00000E+00
    0.71359E+04        -0.50000E+08         0.00000E+00
    0.00000E+00         0.00000E+00        -0.50013E+08
 
   -0.50065E+08         0.87175E+04         0.00000E+00
    0.87175E+04        -0.50000E+08         0.00000E+00
    0.00000E+00         0.00000E+00        -0.50013E+08
 
   -0.50064E+08         0.10294E+05         0.00000E+00
    0.10294E+05        -0.50001E+08         0.00000E+00
    0.00000E+00         0.00000E+00        -0.50013E+08
 
   -0.50064E+08         0.11865E+05         0.00000E+00
    0.11865E+05        -0.50001E+08         0.00000E+00
    0.00000E+00         0.00000E+00        -0.50013E+08
 
   -0.50064E+08         0.13427E+05         0.00000E+00
    0.13427E+05        -0.50001E+08         0.00000E+00
    0.00000E+00         0.00000E+00        -0.50013E+08
 
   -0.50063E+08         0.14981E+05         0.00000E+00
    0.14981E+05        -0.50001E+08         0.00000E+00
    0.00000E+00         0.00000E+00        -0.50013E+08
 
   -0.50063E+08         0.16524E+05         0.00000E+00
    0.16524E+05        -0.50001E+08         0.00000E+00
    0.00000E+00         0.00000E+00        -0.50013E+08
 
   -0.50062E+08         0.18055E+05         0.00000E+00
    0.18055E+05        -0.50002E+08         0.00000E+00
    0.00000E+00         0.00000E+00        -0.50013E+08
 
   -0.50061E+08         0.19572E+05         0.00000E+00
    0.19572E+05        -0.50002E+08         0.00000E+00
    0.00000E+00         0.00000E+00        -0.50013E+08
 
   -0.50061E+08         0.21075E+05         0.00000E+00
    0.21075E+05        -0.50002E+08         0.00000E+00
    0.00000E+00         0.00000E+00        -0.50013E+08
 
   -0.50060E+08         0.22562E+05         0.00000E+00
    0.22562E+05        -0.50003E+08         0.00000E+00
    0.00000E+00         0.00000E+00        -0.50013E+08
 
   -0.50059E+08         0.24031E+05         0.00000E+00
    0.24031E+05        -0.50003E+08         0.00000E+00
    0.00000E+00         0.00000E+00        -0.50012E+08
 
   -0.50059E+08         0.25481E+05         0.00000E+00
    0.25481E+05        -0.50004E+08         0.00000E+00
    0.00000E+00         0.00000E+00        -0.50012E+08
 
   -0.50058E+08         0.26911E+05         0.00000E+00
    0.26911E+05        -0.50004E+08         0.00000E+00
    0.00000E+00         0.00000E+00        -0.50012E+08
 
   -0.50057E+08         0.28320E+05         0.00000E+00
    0.28320E+05        -0.50004E+08         0.00000E+00
    0.00000E+00         0.00000E+00        -0.50012E+08
 
   -0.50056E+08         0.29705E+05         0.00000E+00
    0.29705E+05        -0.50005E+08         0.00000E+00
    0.00000E+00         0.00000E+00        -0.50012E+08
 
   -0.50055E+08         0.31067E+05         0.00000E+00
    0.31067E+05        -0.50005E+08         0.00000E+00
    0.00000E+00         0.00000E+00        -0.50012E+08
 
   -0.50054E+08         0.32404E+05         0.00000E+00
    0.32404E+05        -0.50006E+08         0.00000E+00
    0.00000E+00         0.00000E+00        -0.50012E+08
 
   -0.50053E+08         0.33714E+05         0.00000E+00
    0.33714E+05        -0.50007E+08         0.00000E+00
    0.00000E+00         0.00000E+00        -0.50012E+08
 
   -0.50052E+08         0.34997E+05         0.00000E+00
    0.34997E+05        -0.50007E+08         0.00000E+00
    0.00000E+00         0.00000E+00        -0.50012E+08
 
   -0.50050E+08         0.36251E+05         0.00000E+00
    0.36251E+05        -0.50008E+08         0.00000E+00
    0.00000E+00         0.00000E+00        -0.50012E+08
 
   -0.50049E+08         0.37475E+05         0.00000E+00
    0.37475E+05        -0.50008E+08         0.00000E+00
    0.00000E+00         0.00000E+00        -0.50011E+08
 
   -0.50048E+08         0.38668E+05         0.00000E+00
    0.38668E+05        -0.50009E+08         0.00000E+00
    0.00000E+00         0.00000E+00        -0.50011E+08
 
   -0.50046E+08         0.39829E+05         0.00000E+00
    0.39829E+05        -0.50010E+08         0.00000E+00
    0.00000E+00         0.00000E+00        -0.50011E+08
 
   -0.50045E+08         0.40956E+05         0.00000E+00
    0.40956E+05        -0.50010E+08         0.00000E+00
    0.00000E+00         0.00000E+00        -0.50011E+08
 
   -0.50044E+08         0.42050E+05         0.00000E+00
    0.42050E+05        -0.50011E+08         0.00000E+00
    0.00000E+00         0.00000E+00        -0.50011E+08
 
   -0.50042E+08         0.43108E+05         0.00000E+00
    0.43108E+05        -0.50012E+08         0.00000E+00
    0.00000E+00         0.00000E+00        -0.50011E+08
 
   -0.50041E+08         0.44131E+05         0.00000E+00
    0.44131E+05        -0.50012E+08         0.00000E+00
    0.00000E+00         0.00000E+00        -0.50011E+08
 
   -0.50039E+08         0.45116E+05         0.00000E+00
    0.45116E+05        -0.50013E+08         0.00000E+00
    0.00000E+00         0.00000E+00        -0.50010E+08
 
   -0.50038E+08         0.46063E+05         0.00000E+00
    0.46063E+05        -0.50014E+08         0.00000E+00
    0.00000E+00         0.00000E+00        -0.50010E+08
 
   -0.50036E+08         0.46971E+05         0.00000E+00
    0.46971E+05        -0.50015E+08         0.00000E+00
    0.00000E+00         0.00000E+00        -0.50010E+08
 
   -0.50034E+08         0.47839E+05         0.00000E+00
    0.47839E+05        -0.50016E+08         0.00000E+00
    0.00000E+00         0.00000E+00        -0.50010E+08
 
   -0.50033E+08         0.48667E+05         0.00000E+00
    0.48667E+05        -0.50016E+08         0.00000E+00
    0.00000E+00         0.00000E+00        -0.50010E+08
 
   -0.50031E+08         0.49453E+05         0.00000E+00
    0.49453E+05        -0.50017E+08         0.00000E+00
    0.00000E+00         0.00000E+00        -0.50010E+08
 
   -0.50029E+08         0.50196E+05         0.00000E+00
    0.50196E+05        -0.50018E+08         0.00000E+00
    0.00000E+00         0.00000E+00        -0.50009E+08
 
   -0.50027E+08         0.50896E+05         0.00000E+00
    0.50896E+05        -0.50019E+08         0.00000E+00
    0.00000E+00         0.00000E+00        -0.50009E+08
 
   -0.50026E+08         0.51553E+05         0.00000E+00
    0.51553E+05        -0.50020E+08         0.00000E+00
    0.00000E+00         0.00000E+00        -0.50009E+08
 
   -0.50024E+08         0.52165E+05         0.00000E+00
    0.52165E+05        -0.50021E+08         0.00000E+00
    0.00000E+00         0.00000E+00        -0.50009E+08
 
   -0.50022E+08         0.52731E+05         0.00000E+00
    0.52731E+05        -0.50021E+08         0.00000E+00
    0.00000E+00         0.00000E+00        -0.50009E+08
 
   -0.50020E+08         0.53251E+05         0.00000E+00
    0.53251E+05        -0.50022E+08         0.00000E+00
    0.00000E+00         0.00000E+00        -0.50008E+08
 
   -0.50018E+08         0.53724E+05         0.00000E+00
    0.53724E+05        -0.50023E+08         0.00000E+00
    0.00000E+00         0.00000E+00        -0.50008E+08
 
   -0.50016E+08         0.54150E+05         0.00000E+00
    0.54150E+05        -0.50024E+08         0.00000E+00
    0.00000E+00         0.00000E+00        -0.50008E+08
 
   -0.50014E+08         0.54528E+05         0.00000E+00
    0.54528E+05        -0.50025E+08         0.00000E+00
    0.00000E+00         0.00000E+00        -0.50008E+08
 
   -0.50012E+08         0.54857E+05         0.00000E+00
    0.54857E+05        -0.50026E+08         0.00000E+00
    0.00000E+00         0.00000E+00        -0.50008E+08
 
   -0.50010E+08         0.55136E+05         0.00000E+00
    0.55136E+05        -0.50027E+08         0.00000E+00
    0.00000E+00         0.00000E+00        -0.50007E+08
 
   -0.50008E+08         0.55366E+05         0.00000E+00
    0.55366E+05        -0.50028E+08         0.00000E+00
    0.00000E+00         0.00000E+00        -0.50007E+08
 
   -0.50057E+08         0.72931E+03         0.00000E+00
    0.72931E+03        -0.50000E+08         0.00000E+00
    0.00000E+00         0.00000E+00        -0.50011E+08
 
   -0.50057E+08         0.21928E+04         0.00000E+00
    0.21928E+04        -0.50000E+08         0.00000E+00
    0.00000E+00         0.00000E+00        -0.50011E+08
 
   -0.50057E+08         0.36568E+04         0.00000E+00
    0.36568E+04        -0.50000E+08         0.00000E+00
    0.00000E+00         0.00000E+00        -0.50011E+08
 
   -0.50057E+08         0.51199E+04         0.00000E+00
    0.51199E+04        -0.50000E+08         0.00000E+00
    0.00000E+00         0.00000E+00        -0.50011E+08
 
   -0.50057E+08         0.65809E+04         0.00000E+00
    0.65809E+04        -0.50000E+08         0.00000E+00
    0.00000E+00         0.00000E+00        -0.50011E+08
 
   -0.50057E+08         0.80385E+04         0.00000E+00
    0.80385E+04        -0.50000E+08         0.00000E+00
    0.00000E+00         0.00000E+00        -0.50011E+08
 
   -0.50057E+08         0.94914E+04         0.00000E+00
    0.94914E+04        -0.50000E+08         0.00000E+00
    0.00000E+00         0.00000E+00        -0.50011E+08
 
   -0.50056E+08         0.10938E+05         0.00000E+00
    0.10938E+05        -0.50001E+08         0.00000E+00
    0.00000E+00         0.00000E+00        -0.50011E+08
 
   -0.50056E+08         0.12378E+05         0.00000E+00
    0.12378E+05        -0.50001E+08         0.00000E+00
    0.00000E+00         0.00000E+00        -0.50011E+08
 
   -0.50056E+08         0.13809E+05         0.00000E+00
    0.13809E+05        -0.50001E+08         0.00000E+00
    0.00000E+00         0.00000E+00        -0.50011E+08
 
   -0.50055E+08         0.15231E+05         0.00000E+00
    0.15231E+05        -0.50001E+08         0.00000E+00
    0.00000E+00         0.00000E+00        -0.50011E+08
 
   -0.50055E+08         0.16641E+05         0.00000E+00
    0.16641E+05        -0.50002E+08         0.00000E+00
    0.00000E+00         0.00000E+00        -0.50011E+08
 
   -0.50054E+08         0.18039E+05         0.00000E+00
    0.18039E+05        -0.50002E+08         0.00000E+00
    0.00000E+00         0.00000E+00        -0.50011E+08
 
   -0.50054E+08         0.19423E+05         0.00000E+00
    0.19423E+05        -0.50002E+08         0.00000E+00
    0.00000E+00         0.00000E+00        -0.50011E+08
 
   -0.50053E+08         0.20792E+05         0.00000E+00
    0.20792E+05        -0.50002E+08         0.00000E+00
    0.00000E+00         0.00000E+00        -0.50011E+08
 
   -0.50052E+08         0.22146E+05         0.00000E+00
    0.22146E+05        -0.50003E+08         0.00000E+00
    0.00000E+00         0.00000E+00        -0.50011E+08
 
   -0.50052E+08         0.23482E+05         0.00000E+00
    0.23482E+05        -0.50003E+08         0.00000E+00
    0.00000E+00         0.00000E+00        -0.50011E+08
 
   -0.50051E+08         0.24800E+05         0.00000E+00
    0.24800E+05        -0.50003E+08         0.00000E+00
    0.00000E+00         0.00000E+00        -0.50011E+08
 
   -0.50050E+08         0.26098E+05         0.00000E+00
    0.26098E+05        -0.50004E+08         0.00000E+00
    0.00000E+00         0.00000E+00        -0.50011E+08
 
   -0.50049E+08         0.27375E+05         0.00000E+00
    0.27375E+05        -0.50004E+08         0.00000E+00
    0.00000E+00         0.00000E+00        -0.50011E+08
 
   -0.50048E+08         0.28630E+05         0.00000E+00
    0.28630E+05        -0.50005E+08         0.00000E+00
    0.00000E+00         0.00000E+00        -0.50011E+08
 
   -0.50047E+08         0.29862E+05         0.00000E+00
    0.29862E+05        -0.50005E+08         0.00000E+00
    0.00000E+00         0.00000E+00        -0.50011E+08
 
   -0.50046E+08         0.31070E+05         0.00000E+00
    0.31070E+05        -0.50006E+08         0.00000E+00
    0.00000E+00         0.00000E+00        -0.50010E+08
 
   -0.50045E+08         0.32253E+05         0.00000E+00
    0.32253E+05        -0.50006E+08         0.00000E+00
    0.00000E+00         0.00000E+00        -0.50010E+08
 
   -0.50044E+08         0.33409E+05         0.00000E+00
    0.33409E+05        -0.50007E+08         0.00000E+00
    0.00000E+00         0.00000E+00        -0.50010E+08
 
   -0.50043E+08         0.34538E+05         0.00000E+00
    0.34538E+05        -0.50007E+08         0.00000E+00
    0.00000E+00         0.00000E+00        -0.50010E+08
 
   -0.50042E+08         0.35638E+05         0.00000E+00
    0.35638E+05        -0.50008E+08         0.00000E+00
    0.00000E+00         0.00000E+00        -0.50010E+08
 
   -0.50041E+08         0.36709E+05         0.00000E+00
    0.36709E+05        -0.50008E+08         0.00000E+00
    0.00000E+00         0.00000E+00        -0.50010E+08
 
   -0.50040E+08         0.37749E+05         0.00000E+00
    0.37749E+05        -0.50009E+08         0.00000E+00
    0.00000E+00         0.00000E+00        -0.50010E+08
 
   -0.50039E+08         0.38758E+05         0.00000E+00
    0.38758E+05        -0.50010E+08         0.00000E+00
    0.00000E+00         0.00000E+00        -0.50010E+08
 
   -0.50037E+08         0.39735E+05         0.00000E+00
    0.39735E+05        -0.50010E+08         0.00000E+00
    0.00000E+00         0.00000E+00        -0.50010E+08
 
   -0.50036E+08         0.40679E+05         0.00000E+00
    0.40679E+05        -0.50011E+08         0.00000E+00
    0.00000E+00         0.00000E+00        -0.50009E+08
 
   -0.50035E+08         0.41588E+05         0.00000E+00
    0.41588E+05        -0.50012E+08         0.00000E+00
    0.00000E+00         0.00000E+00        -0.50009E+08
 
   -0.50033E+08         0.42462E+05         0.00000E+00
    0.42462E+05        -0.50012E+08         0.00000E+00
    0.00000E+00         0.00000E+00        -0.50009E+08
 
   -0.50032E+08         0.43300E+05         0.00000E+00
    0.43300E+05        -0.50013E+08         0.00000E+00
    0.00000E+00         0.00000E+00        -0.50009E+08
 
   -0.50030E+08         0.44101E+05         0.00000E+00
    0.44101E+05        -0.50014E+08         0.00000E+00
    0.00000E+00         0.00000E+00        -0.50009E+08
 
   -0.50029E+08         0.44865E+05         0.00000E+00
    0.44865E+05        -0.50014E+08         0.00000E+00
    0.00000E+00         0.00000E+00        -0.50009E+08
 
   -0.50027E+08         0.45590E+05         0.00000E+00
    0.45590E+05        -0.50015E+08         0.00000E+00
    0.00000E+00         0.00000E+00        -0.50008E+08
 
   -0.50026E+08         0.46277E+05         0.00000E+00
    0.46277E+05        -0.50016E+08         0.00000E+00
    0.00000E+00         0.00000E+00        -0.50008E+08
 
   -0.50024E+08         0.46923E+05         0.00000E+00
    0.46923E+05        -0.50016E+08         0.00000E+00
    0.00000E+00         0.00000E+00        -0.50008E+08
 
   -0.50023E+08         0.47528E+05         0.00000E+00
    0.47528E+05        -0.50017E+08         0.00000E+00
    0.00000E+00         0.00000E+00        -0.50008E+08
 
   -0.50021E+08         0.48093E+05         0.00000E+00
    0.48093E+05        -0.50018E+08         0.00000E+00
    0.00000E+00         0.00000E+00        -0.50008E+08
 
   -0.50019E+08         0.48615E+05         0.00000E+00
    0.48615E+05        -0.50019E+08         0.00000E+00
    0.00000E+00         0.00000E+00        -0.50008E+08
 
   -0.50018E+08         0.49094E+05         0.00000E+00
    0.49094E+05        -0.50020E+08         0.00000E+00
    0.00000E+00         0.00000E+00        -0.50007E+08
 
   -0.50016E+08         0.49530E+05         0.00000E+00
    0.49530E+05        -0.50020E+08         0.00000E+00
    0.00000E+00         0.00000E+00        -0.50007E+08
 
   -0.50014E+08         0.49923E+05         0.00000E+00
    0.49923E+05        -0.50021E+08         0.00000E+00
    0.00000E+00         0.00000E+00        -0.50007E+08
 
   -0.50012E+08         0.50270E+05         0.00000E+00
    0.50270E+05        -0.50022E+08         0.00000E+00
    0.00000E+00         0.00000E+00        -0.50007E+08
 
   -0.50011E+08         0.50572E+05         0.00000E+00
    0.50572E+05        -0.50023E+08         0.00000E+00
    0.00000E+00         0.00000E+00        -0.50007E+08
 
   -0.50009E+08         0.50829E+05         0.00000E+00
    0.50829E+05        -0.50024E+08         0.00000E+00
    0.00000E+00         0.00000E+00        -0.50006E+08
 
   -0.50007E+08         0.51039E+05         0.00000E+00
    0.51039E+05        -0.50024E+08         0.00000E+00
    0.00000E+00         0.00000E+00        -0.50006E+08
 
   -0.50050E+08         0.67651E+03         0.00000E+00
    0.67651E+03        -0.50000E+08         0.00000E+00
    0.00000E+00         0.00000E+00        -0.50010E+08
 
   -0.50050E+08         0.20330E+04         0.00000E+00
    0.20330E+04        -0.50000E+08         0.00000E+00
    0.00000E+00         0.00000E+00        -0.50010E+08
 
   -0.50050E+08         0.33895E+04         0.00000E+00
    0.33895E+04        -0.50000E+08         0.00000E+00
    0.00000E+00         0.00000E+00        -0.50010E+08
 
   -0.50050E+08         0.47450E+04         0.00000E+00
    0.47450E+04        -0.50000E+08         0.00000E+00
    0.00000E+00         0.00000E+00        -0.50010E+08
 
   -0.50050E+08         0.60981E+04         0.00000E+00
    0.60981E+04        -0.50000E+08         0.00000E+00
    0.00000E+00         0.00000E+00        -0.50010E+08
 
   -0.50050E+08         0.74478E+04         0.00000E+00
    0.74478E+04        -0.50000E+08         0.00000E+00
    0.00000E+00         0.00000E+00        -0.50010E+08
 
   -0.50050E+08         0.87929E+04         0.00000E+00
    0.87929E+04        -0.50000E+08         0.00000E+00
    0.00000E+00         0.00000E+00        -0.50010E+08
 
   -0.50049E+08         0.10132E+05         0.00000E+00
    0.10132E+05        -0.50001E+08         0.00000E+00
    0.00000E+00         0.00000E+00        -0.50010E+08
 
   -0.50049E+08         0.11465E+05         0.00000E+00
    0.11465E+05        -0.50001E+08         0.00000E+00
    0.00000E+00         0.00000E+00        -0.50010E+08
 
   -0.50049E+08         0.12789E+05         0.00000E+00
    0.12789E+05        -0.50001E+08         0.00000E+00
    0.00000E+00         0.00000E+00        -0.50010E+08
 
   -0.50048E+08         0.14104E+05         0.00000E+00
    0.14104E+05        -0.50001E+08         0.00000E+00
    0.00000E+00         0.00000E+00        -0.50010E+08
 
   -0.50048E+08         0.15409E+05         0.00000E+00
    0.15409E+05        -0.50001E+08         0.00000E+00
    0.00000E+00         0.00000E+00        -0.50010E+08
 
   -0.50047E+08         0.16703E+05         0.00000E+00
    0.16703E+05        -0.50002E+08         0.00000E+00
    0.00000E+00         0.00000E+00        -0.50010E+08
 
   -0.50047E+08         0.17983E+05         0.00000E+00
    0.17983E+05        -0.50002E+08         0.00000E+00
    0.00000E+00         0.00000E+00        -0.50010E+08
 
   -0.50046E+08         0.19250E+05         0.00000E+00
    0.19250E+05        -0.50002E+08         0.00000E+00
    0.00000E+00         0.00000E+00        -0.50010E+08
 
   -0.50046E+08         0.20502E+05         0.00000E+00
    0.20502E+05        -0.50002E+08         0.00000E+00
    0.00000E+00         0.00000E+00        -0.50010E+08
 
   -0.50045E+08         0.21739E+05         0.00000E+00
    0.21739E+05        -0.50003E+08         0.00000E+00
    0.00000E+00         0.00000E+00        -0.50010E+08
 
   -0.50045E+08         0.22958E+05         0.00000E+00
    0.22958E+05        -0.50003E+08         0.00000E+00
    0.00000E+00         0.00000E+00        -0.50010E+08
 
   -0.50044E+08         0.24158E+05         0.00000E+00
    0.24158E+05        -0.50003E+08         0.00000E+00
    0.00000E+00         0.00000E+00        -0.50009E+08
 
   -0.50043E+08         0.25340E+05         0.00000E+00
    0.25340E+05        -0.50004E+08         0.00000E+00
    0.00000E+00         0.00000E+00        -0.50009E+08
 
   -0.50042E+08         0.26502E+05         0.00000E+00
    0.26502E+05        -0.50004E+08         0.00000E+00
    0.00000E+00         0.00000E+00        -0.50009E+08
 
   -0.50042E+08         0.27642E+05         0.00000E+00
    0.27642E+05        -0.50005E+08         0.00000E+00
    0.00000E+00         0.00000E+00        -0.50009E+08
 
   -0.50041E+08         0.28759E+05         0.00000E+00
    0.28759E+05        -0.50005E+08         0.00000E+00
    0.00000E+00         0.00000E+00        -0.50009E+08
 
   -0.50040E+08         0.29854E+05         0.00000E+00
    0.29854E+05        -0.50005E+08         0.00000E+00
    0.00000E+00         0.00000E+00        -0.50009E+08
 
   -0.50039E+08         0.30924E+05         0.00000E+00
    0.30924E+05        -0.50006E+08         0.00000E+00
    0.00000E+00         0.00000E+00        -0.50009E+08
 
   -0.50038E+08         0.31969E+05         0.00000E+00
    0.31969E+05        -0.50006E+08         0.00000E+00
    0.00000E+00         0.00000E+00        -0.50009E+08
 
   -0.50037E+08         0.32987E+05         0.00000E+00
    0.32987E+05        -0.50007E+08         0.00000E+00
    0.00000E+00         0.00000E+00        -0.50009E+08
 
   -0.50036E+08         0.33978E+05         0.00000E+00
    0.33978E+05        -0.50007E+08         0.00000E+00
    0.00000E+00         0.00000E+00        -0.50009E+08
 
   -0.50035E+08         0.34941E+05         0.00000E+00
    0.34941E+05        -0.50008E+08         0.00000E+00
    0.00000E+00         0.00000E+00        -0.50009E+08
 
   -0.50034E+08         0.35875E+05         0.00000E+00
    0.35875E+05        -0.50008E+08         0.00000E+00
    0.00000E+00         0.00000E+00        -0.50008E+08
 
   -0.50033E+08         0.36779E+05         0.00000E+00
    0.36779E+05        -0.50009E+08         0.00000E+00
    0.00000E+00         0.00000E+00        -0.50008E+08
 
   -0.50031E+08         0.37653E+05         0.00000E+00
    0.37653E+05        -0.50009E+08         0.00000E+00
    0.00000E+00         0.00000E+00        -0.50008E+08
 
   -0.50030E+08         0.38494E+05         0.00000E+00
    0.38494E+05        -0.50010E+08         0.00000E+00
    0.00000E+00         0.00000E+00        -0.50008E+08
 
   -0.50029E+08         0.39303E+05         0.00000E+00
    0.39303E+05        -0.50011E+08         0.00000E+00
    0.00000E+00         0.00000E+00        -0.50008E+08
 
   -0.50028E+08         0.40079E+05         0.00000E+00
    0.40079E+05        -0.50011E+08         0.00000E+00
    0.00000E+00         0.00000E+00        -0.50008E+08
 
   -0.50027E+08         0.40821E+05         0.00000E+00
    0.40821E+05        -0.50012E+08         0.00000E+00
    0.00000E+00         0.00000E+00        -0.50008E+08
 
   -0.50025E+08         0.41528E+05         0.00000E+00
    0.41528E+05        -0.50012E+08         0.00000E+00
    0.00000E+00         0.00000E+00        -0.50008E+08
 
   -0.50024E+08         0.42199E+05         0.00000E+00
    0.42199E+05        -0.50013E+08         0.00000E+00
    0.00000E+00         0.00000E+00        -0.50007E+08
 
   -0.50023E+08         0.42834E+05         0.00000E+00
    0.42834E+05        -0.50014E+08         0.00000E+00
    0.00000E+00         0.00000E+00        -0.50007E+08
 
   -0.50021E+08         0.43432E+05         0.00000E+00
    0.43432E+05        -0.50014E+08         0.00000E+00
    0.00000E+00         0.00000E+00        -0.50007E+08
 
   -0.50020E+08         0.43993E+05         0.00000E+00
    0.43993E+05        -0.50015E+08         0.00000E+00
    0.00000E+00         0.00000E+00        -0.50007E+08
 
   -0.50018E+08         0.44515E+05         0.00000E+00
    0.44515E+05        -0.50016E+08         0.00000E+00
    0.00000E+00         0.00000E+00        -0.50007E+08
 
   -0.50017E+08         0.44997E+05         0.00000E+00
    0.44997E+05        -0.50016E+08         0.00000E+00
    0.00000E+00         0.00000E+00        -0.50007E+08
 
   -0.50015E+08         0.45441E+05         0.00000E+00
    0.45441E+05        -0.50017E+08         0.00000E+00
    0.00000E+00         0.00000E+00        -0.50006E+08
 
   -0.50014E+08         0.45844E+05         0.00000E+00
    0.45844E+05        -0.50018E+08         0.00000E+00
    0.00000E+00         0.00000E+00        -0.50006E+08
 
   -0.50012E+08         0.46206E+05         0.00000E+00
    0.46206E+05        -0.50018E+08         0.00000E+00
    0.00000E+00         0.00000E+00        -0.50006E+08
 
   -0.50011E+08         0.46527E+05         0.00000E+00
    0.46527E+05        -0.50019E+08         0.00000E+00
    0.00000E+00         0.00000E+00        -0.50006E+08
 
   -0.50009E+08         0.46805E+05         0.00000E+00
    0.46805E+05        -0.50020E+08         0.00000E+00
    0.00000E+00         0.00000E+00        -0.50006E+08
 
   -0.50008E+08         0.47042E+05         0.00000E+00
    0.47042E+05        -0.50021E+08         0.00000E+00
    0.00000E+00         0.00000E+00        -0.50006E+08
 
   -0.50006E+08         0.47235E+05         0.00000E+00
    0.47235E+05        -0.50021E+08         0.00000E+00
    0.00000E+00         0.00000E+00        -0.50005E+08
 
   -0.50044E+08         0.63074E+03         0.00000E+00
    0.63074E+03        -0.50000E+08         0.00000E+00
    0.00000E+00         0.00000E+00        -0.50009E+08
 
   -0.50044E+08         0.18946E+04         0.00000E+00
    0.18946E+04        -0.50000E+08         0.00000E+00
    0.00000E+00         0.00000E+00        -0.50009E+08
 
   -0.50044E+08         0.31581E+04         0.00000E+00
    0.31581E+04        -0.50000E+08         0.00000E+00
    0.00000E+00         0.00000E+00        -0.50009E+08
 
   -0.50044E+08         0.44202E+04         0.00000E+00
    0.44202E+04        -0.50000E+08         0.00000E+00
    0.00000E+00         0.00000E+00        -0.50009E+08
 
   -0.50044E+08         0.56799E+04         0.00000E+00
    0.56799E+04        -0.50000E+08         0.00000E+00
    0.00000E+00         0.00000E+00        -0.50009E+08
 
   -0.50043E+08         0.69362E+04         0.00000E+00
    0.69362E+04        -0.50000E+08         0.00000E+00
    0.00000E+00         0.00000E+00        -0.50009E+08
 
   -0.50043E+08         0.81880E+04         0.00000E+00
    0.81880E+04        -0.50000E+08         0.00000E+00
    0.00000E+00         0.00000E+00        -0.50009E+08
 
   -0.50043E+08         0.94341E+04         0.00000E+00
    0.94341E+04        -0.50000E+08         0.00000E+00
    0.00000E+00         0.00000E+00        -0.50009E+08
 
   -0.50043E+08         0.10674E+05         0.00000E+00
    0.10674E+05        -0.50001E+08         0.00000E+00
    0.00000E+00         0.00000E+00        -0.50009E+08
 
   -0.50042E+08         0.11906E+05         0.00000E+00
    0.11906E+05        -0.50001E+08         0.00000E+00
    0.00000E+00         0.00000E+00        -0.50009E+08
 
   -0.50042E+08         0.13129E+05         0.00000E+00
    0.13129E+05        -0.50001E+08         0.00000E+00
    0.00000E+00         0.00000E+00        -0.50009E+08
 
   -0.50042E+08         0.14342E+05         0.00000E+00
    0.14342E+05        -0.50001E+08         0.00000E+00
    0.00000E+00         0.00000E+00        -0.50009E+08
 
   -0.50041E+08         0.15545E+05         0.00000E+00
    0.15545E+05        -0.50001E+08         0.00000E+00
    0.00000E+00         0.00000E+00        -0.50009E+08
 
   -0.50041E+08         0.16736E+05         0.00000E+00
    0.16736E+05        -0.50002E+08         0.00000E+00
    0.00000E+00         0.00000E+00        -0.50008E+08
 
   -0.50040E+08         0.17913E+05         0.00000E+00
    0.17913E+05        -0.50002E+08         0.00000E+00
    0.00000E+00         0.00000E+00        -0.50008E+08
 
   -0.50040E+08         0.19077E+05         0.00000E+00
    0.19077E+05        -0.50002E+08         0.00000E+00
    0.00000E+00         0.00000E+00        -0.50008E+08
 
   -0.50039E+08         0.20227E+05         0.00000E+00
    0.20227E+05        -0.50002E+08         0.00000E+00
    0.00000E+00         0.00000E+00        -0.50008E+08
 
   -0.50039E+08         0.21360E+05         0.00000E+00
    0.21360E+05        -0.50003E+08         0.00000E+00
    0.00000E+00         0.00000E+00        -0.50008E+08
 
   -0.50038E+08         0.22476E+05         0.00000E+00
    0.22476E+05        -0.50003E+08         0.00000E+00
    0.00000E+00         0.00000E+00        -0.50008E+08
 
   -0.50037E+08         0.23574E+05         0.00000E+00
    0.23574E+05        -0.50003E+08         0.00000E+00
    0.00000E+00         0.00000E+00        -0.50008E+08
 
   -0.50037E+08         0.24654E+05         0.00000E+00
    0.24654E+05        -0.50004E+08         0.00000E+00
    0.00000E+00         0.00000E+00        -0.50008E+08
 
   -0.50036E+08         0.25714E+05         0.00000E+00
    0.25714E+05        -0.50004E+08         0.00000E+00
    0.00000E+00         0.00000E+00        -0.50008E+08
 
   -0.50035E+08         0.26752E+05         0.00000E+00
    0.26752E+05        -0.50004E+08         0.00000E+00
    0.00000E+00         0.00000E+00        -0.50008E+08
 
   -0.50035E+08         0.27770E+05         0.00000E+00
    0.27770E+05        -0.50005E+08         0.00000E+00
    0.00000E+00         0.00000E+00        -0.50008E+08
 
   -0.50034E+08         0.28764E+05         0.00000E+00
    0.28764E+05        -0.50005E+08         0.00000E+00
    0.00000E+00         0.00000E+00        -0.50008E+08
 
   -0.50033E+08         0.29735E+05         0.00000E+00
    0.29735E+05        -0.50005E+08         0.00000E+00
    0.00000E+00         0.00000E+00        -0.50008E+08
 
   -0.50032E+08         0.30682E+05         0.00000E+00
    0.30682E+05        -0.50006E+08         0.00000E+00
    0.00000E+00         0.00000E+00        -0.50008E+08
 
   -0.50031E+08         0.31603E+05         0.00000E+00
    0.31603E+05        -0.50006E+08         0.00000E+00
    0.00000E+00         0.00000E+00        -0.50008E+08
 
   -0.50030E+08         0.32498E+05         0.00000E+00
    0.32498E+05        -0.50007E+08         0.00000E+00
    0.00000E+00         0.00000E+00        -0.50007E+08
 
   -0.50029E+08         0.33366E+05         0.00000E+00
    0.33366E+05        -0.50007E+08         0.00000E+00
    0.00000E+00         0.00000E+00        -0.50007E+08
 
   -0.50028E+08         0.34207E+05         0.00000E+00
    0.34207E+05        -0.50008E+08         0.00000E+00
    0.00000E+00         0.00000E+00        -0.50007E+08
 
   -0.50027E+08         0.35018E+05         0.00000E+00
    0.35018E+05        -0.50008E+08         0.00000E+00
    0.00000E+00         0.00000E+00        -0.50007E+08
 
   -0.50026E+08         0.35800E+05         0.00000E+00
    0.35800E+05        -0.50009E+08         0.00000E+00
    0.00000E+00         0.00000E+00        -0.50007E+08
 
   -0.50025E+08         0.36552E+05         0.00000E+00
    0.36552E+05        -0.50009E+08         0.00000E+00
    0.00000E+00         0.00000E+00        -0.50007E+08
 
   -0.50024E+08         0.37273E+05         0.00000E+00
    0.37273E+05        -0.50010E+08         0.00000E+00
    0.00000E+00         0.00000E+00        -0.50007E+08
 
   -0.50023E+08         0.37963E+05         0.00000E+00
    0.37963E+05        -0.50010E+08         0.00000E+00
    0.00000E+00         0.00000E+00        -0.50007E+08
 
   -0.50022E+08         0.38620E+05         0.00000E+00
    0.38620E+05        -0.50011E+08         0.00000E+00
    0.00000E+00         0.00000E+00        -0.50007E+08
 
   -0.50021E+08         0.39243E+05         0.00000E+00
    0.39243E+05        -0.50011E+08         0.00000E+00
    0.00000E+00         0.00000E+00        -0.50006E+08
 
   -0.50020E+08         0.39833E+05         0.00000E+00
    0.39833E+05        -0.50012E+08         0.00000E+00
    0.00000E+00         0.00000E+00        -0.50006E+08
 
   -0.50018E+08         0.40389E+05         0.00000E+00
    0.40389E+05        -0.50012E+08         0.00000E+00
    0.00000E+00         0.00000E+00        -0.50006E+08
 
   -0.50017E+08         0.40909E+05         0.00000E+00
    0.40909E+05        -0.50013E+08         0.00000E+00
    0.00000E+00         0.00000E+00        -0.50006E+08
 
   -0.50016E+08         0.41394E+05         0.00000E+00
    0.41394E+05        -0.50014E+08         0.00000E+00
    0.00000E+00         0.00000E+00        -0.50006E+08
 
   -0.50015E+08         0.41842E+05         0.00000E+00
    0.41842E+05        -0.50014E+08         0.00000E+00
    0.00000E+00         0.00000E+00        -0.50006E+08
 
   -0.50013E+08         0.42253E+05         0.00000E+00
    0.42253E+05        -0.50015E+08         0.00000E+00
    0.00000E+00         0.00000E+00        -0.50006E+08
 
   -0.50012E+08         0.42627E+05         0.00000E+00
    0.42627E+05        -0.50015E+08         0.00000E+00
    0.00000E+00         0.00000E+00        -0.50005E+08
 
   -0.50011E+08         0.42963E+05         0.00000E+00
    0.42963E+05        -0.50016E+08         0.00000E+00
    0.00000E+00         0.00000E+00        -0.50005E+08
 
   -0.50009E+08         0.43260E+05         0.00000E+00
    0.43260E+05        -0.50017E+08         0.00000E+00
    0.00000E+00         0.00000E+00        -0.50005E+08
 
   -0.50008E+08         0.43519E+05         0.00000E+00
    0.43519E+05        -0.50017E+08         0.00000E+00
    0.00000E+00         0.00000E+00        -0.50005E+08
 
   -0.50007E+08         0.43737E+05         0.00000E+00
    0.43737E+05        -0.50018E+08         0.00000E+00
    0.00000E+00         0.00000E+00        -0.50005E+08
 
   -0.50005E+08         0.43916E+05         0.00000E+00
    0.43916E+05        -0.50018E+08         0.00000E+00
    0.00000E+00         0.00000E+00        -0.50005E+08
 
   -0.50038E+08         0.59136E+03         0.00000E+00
    0.59136E+03        -0.50000E+08         0.00000E+00
    0.00000E+00         0.00000E+00        -0.50008E+08
 
   -0.50038E+08         0.17755E+04         0.00000E+00
    0.17755E+04        -0.50000E+08         0.00000E+00
    0.00000E+00         0.00000E+00        -0.50008E+08
 
   -0.50038E+08         0.29590E+04         0.00000E+00
    0.29590E+04        -0.50000E+08         0.00000E+00
    0.00000E+00         0.00000E+00        -0.50008E+08
 
   -0.50038E+08         0.41410E+04         0.00000E+00
    0.41410E+04        -0.50000E+08         0.00000E+00
    0.00000E+00         0.00000E+00        -0.50008E+08
 
   -0.50038E+08         0.53204E+04         0.00000E+00
    0.53204E+04        -0.50000E+08         0.00000E+00
    0.00000E+00         0.00000E+00        -0.50008E+08
 
   -0.50037E+08         0.64964E+04         0.00000E+00
    0.64964E+04        -0.50000E+08         0.00000E+00
    0.00000E+00         0.00000E+00        -0.50008E+08
 
   -0.50037E+08         0.76679E+04         0.00000E+00
    0.76679E+04        -0.50000E+08         0.00000E+00
    0.00000E+00         0.00000E+00        -0.50007E+08
 
   -0.50037E+08         0.88339E+04         0.00000E+00
    0.88339E+04        -0.50000E+08         0.00000E+00
    0.00000E+00         0.00000E+00        -0.50007E+08
 
   -0.50037E+08         0.99936E+04         0.00000E+00
    0.99936E+04        -0.50001E+08         0.00000E+00
    0.00000E+00         0.00000E+00        -0.50007E+08
 
   -0.50036E+08         0.11146E+05         0.00000E+00
    0.11146E+05        -0.50001E+08         0.00000E+00
    0.00000E+00         0.00000E+00        -0.50007E+08
 
   -0.50036E+08         0.12290E+05         0.00000E+00
    0.12290E+05        -0.50001E+08         0.00000E+00
    0.00000E+00         0.00000E+00        -0.50007E+08
 
   -0.50036E+08         0.13425E+05         0.00000E+00
    0.13425E+05        -0.50001E+08         0.00000E+00
    0.00000E+00         0.00000E+00        -0.50007E+08
 
   -0.50036E+08         0.14549E+05         0.00000E+00
    0.14549E+05        -0.50001E+08         0.00000E+00
    0.00000E+00         0.00000E+00        -0.50007E+08
 
   -0.50035E+08         0.15662E+05         0.00000E+00
    0.15662E+05        -0.50001E+08         0.00000E+00
    0.00000E+00         0.00000E+00        -0.50007E+08
 
   -0.50035E+08         0.16764E+05         0.00000E+00
    0.16764E+05        -0.50002E+08         0.00000E+00
    0.00000E+00         0.00000E+00        -0.50007E+08
 
   -0.50034E+08         0.17852E+05         0.00000E+00
    0.17852E+05        -0.50002E+08         0.00000E+00
    0.00000E+00         0.00000E+00        -0.50007E+08
 
   -0.50034E+08         0.18926E+05         0.00000E+00
    0.18926E+05        -0.50002E+08         0.00000E+00
    0.00000E+00         0.00000E+00        -0.50007E+08
 
   -0.50033E+08         0.19985E+05         0.00000E+00
    0.19985E+05        -0.50002E+08         0.00000E+00
    0.00000E+00         0.00000E+00        -0.50007E+08
 
   -0.50033E+08         0.21028E+05         0.00000E+00
    0.21028E+05        -0.50003E+08         0.00000E+00
    0.00000E+00         0.00000E+00        -0.50007E+08
 
   -0.50032E+08         0.22054E+05         0.00000E+00
    0.22054E+05        -0.50003E+08         0.00000E+00
    0.00000E+00         0.00000E+00        -0.50007E+08
 
   -0.50032E+08         0.23063E+05         0.00000E+00
    0.23063E+05        -0.50003E+08         0.00000E+00
    0.00000E+00         0.00000E+00        -0.50007E+08
 
   -0.50031E+08         0.24053E+05         0.00000E+00
    0.24053E+05        -0.50003E+08         0.00000E+00
    0.00000E+00         0.00000E+00        -0.50007E+08
 
   -0.50030E+08         0.25024E+05         0.00000E+00
    0.25024E+05        -0.50004E+08         0.00000E+00
    0.00000E+00         0.00000E+00        -0.50007E+08
 
   -0.50030E+08         0.25974E+05         0.00000E+00
    0.25974E+05        -0.50004E+08         0.00000E+00
    0.00000E+00         0.00000E+00        -0.50007E+08
 
   -0.50029E+08         0.26903E+05         0.00000E+00
    0.26903E+05        -0.50004E+08         0.00000E+00
    0.00000E+00         0.00000E+00        -0.50007E+08
 
   -0.50028E+08         0.27811E+05         0.00000E+00
    0.27811E+05        -0.50005E+08         0.00000E+00
    0.00000E+00         0.00000E+00        -0.50007E+08
 
   -0.50028E+08         0.28695E+05         0.00000E+00
    0.28695E+05        -0.50005E+08         0.00000E+00
    0.00000E+00         0.00000E+00        -0.50007E+08
 
   -0.50027E+08         0.29556E+05         0.00000E+00
    0.29556E+05        -0.50005E+08         0.00000E+00
    0.00000E+00         0.00000E+00        -0.50006E+08
 
   -0.50026E+08         0.30392E+05         0.00000E+00
    0.30392E+05        -0.50006E+08         0.00000E+00
    0.00000E+00         0.00000E+00        -0.50006E+08
 
   -0.50025E+08         0.31203E+05         0.00000E+00
    0.31203E+05        -0.50006E+08         0.00000E+00
    0.00000E+00         0.00000E+00        -0.50006E+08
 
   -0.50024E+08         0.31987E+05         0.00000E+00
    0.31987E+05        -0.50007E+08         0.00000E+00
    0.00000E+00         0.00000E+00        -0.50006E+08
 
   -0.50024E+08         0.32745E+05         0.00000E+00
    0.32745E+05        -0.50007E+08         0.00000E+00
    0.00000E+00         0.00000E+00        -0.50006E+08
 
   -0.50023E+08         0.33476E+05         0.00000E+00
    0.33476E+05        -0.50007E+08         0.00000E+00
    0.00000E+00         0.00000E+00        -0.50006E+08
 
   -0.50022E+08         0.34178E+05         0.00000E+00
    0.34178E+05        -0.50008E+08         0.00000E+00
    0.00000E+00         0.00000E+00        -0.50006E+08
 
   -0.50021E+08         0.34851E+05         0.00000E+00
    0.34851E+05        -0.50008E+08         0.00000E+00
    0.00000E+00         0.00000E+00        -0.50006E+08
 
   -0.50020E+08         0.35495E+05         0.00000E+00
    0.35495E+05        -0.50009E+08         0.00000E+00
    0.00000E+00         0.00000E+00        -0.50006E+08
 
   -0.50019E+08         0.36108E+05         0.00000E+00
    0.36108E+05        -0.50009E+08         0.00000E+00
    0.00000E+00         0.00000E+00        -0.50006E+08
 
   -0.50018E+08         0.36691E+05         0.00000E+00
    0.36691E+05        -0.50010E+08         0.00000E+00
    0.00000E+00         0.00000E+00        -0.50006E+08
 
   -0.50017E+08         0.37241E+05         0.00000E+00
    0.37241E+05        -0.50010E+08         0.00000E+00
    0.00000E+00         0.00000E+00        -0.50005E+08
 
   -0.50016E+08         0.37760E+05         0.00000E+00
    0.37760E+05        -0.50011E+08         0.00000E+00
    0.00000E+00         0.00000E+00        -0.50005E+08
 
   -0.50015E+08         0.38245E+05         0.00000E+00
    0.38245E+05        -0.50011E+08         0.00000E+00
    0.00000E+00         0.00000E+00        -0.50005E+08
 
   -0.50014E+08         0.38697E+05         0.00000E+00
    0.38697E+05        -0.50012E+08         0.00000E+00
    0.00000E+00         0.00000E+00        -0.50005E+08
 
   -0.50013E+08         0.39116E+05         0.00000E+00
    0.39116E+05        -0.50012E+08         0.00000E+00
    0.00000E+00         0.00000E+00        -0.50005E+08
 
   -0.50012E+08         0.39499E+05         0.00000E+00
    0.39499E+05        -0.50013E+08         0.00000E+00
    0.00000E+00         0.00000E+00        -0.50005E+08
 
   -0.50010E+08         0.39848E+05         0.00000E+00
    0.39848E+05        -0.50013E+08         0.00000E+00
    0.00000E+00         0.00000E+00        -0.50005E+08
 
   -0.50009E+08         0.40161E+05         0.00000E+00
    0.40161E+05        -0.50014E+08         0.00000E+00
    0.00000E+00         0.00000E+00        -0.50005E+08
 
   -0.50008E+08         0.40438E+05         0.00000E+00
    0.40438E+05        -0.50014E+08         0.00000E+00
    0.00000E+00         0.00000E+00        -0.50004E+08
 
   -0.50007E+08         0.40679E+05         0.00000E+00
    0.40679E+05        -0.50015E+08         0.00000E+00
    0.00000E+00         0.00000E+00        -0.50004E+08
 
   -0.50006E+08         0.40882E+05         0.00000E+00
    0.40882E+05        -0.50015E+08         0.00000E+00
    0.00000E+00         0.00000E+00        -0.50004E+08
 
   -0.50005E+08         0.41049E+05         0.00000E+00
    0.41049E+05        -0.50016E+08         0.00000E+00
    0.00000E+00         0.00000E+00        -0.50004E+08
 
   -0.50032E+08         0.55784E+03         0.00000E+00
    0.55784E+03        -0.50000E+08         0.00000E+00
    0.00000E+00         0.00000E+00        -0.50006E+08
 
   -0.50032E+08         0.16742E+04         0.00000E+00
    0.16742E+04        -0.50000E+08         0.00000E+00
    0.00000E+00         0.00000E+00        -0.50006E+08
 
   -0.50032E+08         0.27897E+04         0.00000E+00
    0.27897E+04        -0.50000E+08         0.00000E+00
    0.00000E+00         0.00000E+00        -0.50006E+08
 
   -0.50032E+08         0.39036E+04         0.00000E+00
    0.39036E+04        -0.50000E+08         0.00000E+00
    0.00000E+00         0.00000E+00        -0.50006E+08
 
   -0.50032E+08         0.50147E+04         0.00000E+00
    0.50147E+04        -0.50000E+08         0.00000E+00
    0.00000E+00         0.00000E+00        -0.50006E+08
 
   -0.50032E+08         0.61224E+04         0.00000E+00
    0.61224E+04        -0.50000E+08         0.00000E+00
    0.00000E+00         0.00000E+00        -0.50006E+08
 
   -0.50032E+08         0.72257E+04         0.00000E+00
    0.72257E+04        -0.50000E+08         0.00000E+00
    0.00000E+00         0.00000E+00        -0.50006E+08
 
   -0.50031E+08         0.83237E+04         0.00000E+00
    0.83237E+04        -0.50000E+08         0.00000E+00
    0.00000E+00         0.00000E+00        -0.50006E+08
 
   -0.50031E+08         0.94155E+04         0.00000E+00
    0.94155E+04        -0.50000E+08         0.00000E+00
    0.00000E+00         0.00000E+00        -0.50006E+08
 
   -0.50031E+08         0.10500E+05         0.00000E+00
    0.10500E+05        -0.50001E+08         0.00000E+00
    0.00000E+00         0.00000E+00        -0.50006E+08
 
   -0.50031E+08         0.11577E+05         0.00000E+00
    0.11577E+05        -0.50001E+08         0.00000E+00
    0.00000E+00         0.00000E+00        -0.50006E+08
 
   -0.50030E+08         0.12645E+05         0.00000E+00
    0.12645E+05        -0.50001E+08         0.00000E+00
    0.00000E+00         0.00000E+00        -0.50006E+08
 
   -0.50030E+08         0.13703E+05         0.00000E+00
    0.13703E+05        -0.50001E+08         0.00000E+00
    0.00000E+00         0.00000E+00        -0.50006E+08
 
   -0.50030E+08         0.14750E+05         0.00000E+00
    0.14750E+05        -0.50001E+08         0.00000E+00
    0.00000E+00         0.00000E+00        -0.50006E+08
 
   -0.50029E+08         0.15786E+05         0.00000E+00
    0.15786E+05        -0.50001E+08         0.00000E+00
    0.00000E+00         0.00000E+00        -0.50006E+08
 
   -0.50029E+08         0.16809E+05         0.00000E+00
    0.16809E+05        -0.50001E+08         0.00000E+00
    0.00000E+00         0.00000E+00        -0.50006E+08
 
   -0.50029E+08         0.17819E+05         0.00000E+00
    0.17819E+05        -0.50002E+08         0.00000E+00
    0.00000E+00         0.00000E+00        -0.50006E+08
 
   -0.50028E+08         0.18815E+05         0.00000E+00
    0.18815E+05        -0.50002E+08         0.00000E+00
    0.00000E+00         0.00000E+00        -0.50006E+08
 
   -0.50028E+08         0.19796E+05         0.00000E+00
    0.19796E+05        -0.50002E+08         0.00000E+00
    0.00000E+00         0.00000E+00        -0.50006E+08
 
   -0.50027E+08         0.20761E+05         0.00000E+00
    0.20761E+05        -0.50002E+08         0.00000E+00
    0.00000E+00         0.00000E+00        -0.50006E+08
 
   -0.50027E+08         0.21710E+05         0.00000E+00
    0.21710E+05        -0.50003E+08         0.00000E+00
    0.00000E+00         0.00000E+00        -0.50006E+08
 
   -0.50026E+08         0.22640E+05         0.00000E+00
    0.22640E+05        -0.50003E+08         0.00000E+00
    0.00000E+00         0.00000E+00        -0.50006E+08
 
   -0.50026E+08         0.23553E+05         0.00000E+00
    0.23553E+05        -0.50003E+08         0.00000E+00
    0.00000E+00         0.00000E+00        -0.50006E+08
 
   -0.50025E+08         0.24446E+05         0.00000E+00
    0.24446E+05        -0.50003E+08         0.00000E+00
    0.00000E+00         0.00000E+00        -0.50006E+08
 
   -0.50025E+08         0.25320E+05         0.00000E+00
    0.25320E+05        -0.50004E+08         0.00000E+00
    0.00000E+00         0.00000E+00        -0.50006E+08
 
   -0.50024E+08         0.26172E+05         0.00000E+00
    0.26172E+05        -0.50004E+08         0.00000E+00
    0.00000E+00         0.00000E+00        -0.50006E+08
 
   -0.50023E+08         0.27003E+05         0.00000E+00
    0.27003E+05        -0.50004E+08         0.00000E+00
    0.00000E+00         0.00000E+00        -0.50006E+08
 
   -0.50023E+08         0.27812E+05         0.00000E+00
    0.27812E+05        -0.50005E+08         0.00000E+00
    0.00000E+00         0.00000E+00        -0.50005E+08
 
   -0.50022E+08         0.28597E+05         0.00000E+00
    0.28597E+05        -0.50005E+08         0.00000E+00
    0.00000E+00         0.00000E+00        -0.50005E+08
 
   -0.50021E+08         0.29359E+05         0.00000E+00
    0.29359E+05        -0.50005E+08         0.00000E+00
    0.00000E+00         0.00000E+00        -0.50005E+08
 
   -0.50021E+08         0.30097E+05         0.00000E+00
    0.30097E+05        -0.50006E+08         0.00000E+00
    0.00000E+00         0.00000E+00        -0.50005E+08
 
   -0.50020E+08         0.30809E+05         0.00000E+00
    0.30809E+05        -0.50006E+08         0.00000E+00
    0.00000E+00         0.00000E+00        -0.50005E+08
 
   -0.50019E+08         0.31495E+05         0.00000E+00
    0.31495E+05        -0.50006E+08         0.00000E+00
    0.00000E+00         0.00000E+00        -0.50005E+08
 
   -0.50018E+08         0.32155E+05         0.00000E+00
    0.32155E+05        -0.50007E+08         0.00000E+00
    0.00000E+00         0.00000E+00        -0.50005E+08
 
   -0.50018E+08         0.32787E+05         0.00000E+00
    0.32787E+05        -0.50007E+08         0.00000E+00
    0.00000E+00         0.00000E+00        -0.50005E+08
 
   -0.50017E+08         0.33391E+05         0.00000E+00
    0.33391E+05        -0.50007E+08         0.00000E+00
    0.00000E+00         0.00000E+00        -0.50005E+08
 
   -0.50016E+08         0.33967E+05         0.00000E+00
    0.33967E+05        -0.50008E+08         0.00000E+00
    0.00000E+00         0.00000E+00        -0.50005E+08
 
   -0.50015E+08         0.34514E+05         0.00000E+00
    0.34514E+05        -0.50008E+08         0.00000E+00
    0.00000E+00         0.00000E+00        -0.50005E+08
 
   -0.50014E+08         0.35031E+05         0.00000E+00
    0.35031E+05        -0.50009E+08         0.00000E+00
    0.00000E+00         0.00000E+00        -0.50005E+08
 
   -0.50013E+08         0.35518E+05         0.00000E+00
    0.35518E+05        -0.50009E+08         0.00000E+00
    0.00000E+00         0.00000E+00        -0.50004E+08
 
   -0.50012E+08         0.35973E+05         0.00000E+00
    0.35973E+05        -0.50009E+08         0.00000E+00
    0.00000E+00         0.00000E+00        -0.50004E+08
 
   -0.50012E+08         0.36398E+05         0.00000E+00
    0.36398E+05        -0.50010E+08         0.00000E+00
    0.00000E+00         0.00000E+00        -0.50004E+08
 
   -0.50011E+08         0.36790E+05         0.00000E+00
    0.36790E+05        -0.50010E+08         0.00000E+00
    0.00000E+00         0.00000E+00        -0.50004E+08
 
   -0.50010E+08         0.37150E+05         0.00000E+00
    0.37150E+05        -0.50011E+08         0.00000E+00
    0.00000E+00         0.00000E+00        -0.50004E+08
 
   -0.50009E+08         0.37477E+05         0.00000E+00
    0.37477E+05        -0.50011E+08         0.00000E+00
    0.00000E+00         0.00000E+00        -0.50004E+08
 
   -0.50008E+08         0.37771E+05         0.00000E+00
    0.37771E+05        -0.50012E+08         0.00000E+00
    0.00000E+00         0.00000E+00        -0.50004E+08
 
   -0.50007E+08         0.38030E+05         0.00000E+00
    0.38030E+05        -0.50012E+08         0.00000E+00
    0.00000E+00         0.00000E+00        -0.50004E+08
 
   -0.50006E+08         0.38256E+05         0.00000E+00
    0.38256E+05        -0.50012E+08         0.00000E+00
    0.00000E+00         0.00000E+00        -0.50004E+08
 
   -0.50005E+08         0.38447E+05         0.00000E+00
    0.38447E+05        -0.50013E+08         0.00000E+00
    0.00000E+00         0.00000E+00        -0.50004E+08
 
   -0.50004E+08         0.38602E+05         0.00000E+00
    0.38602E+05        -0.50013E+08         0.00000E+00
    0.00000E+00         0.00000E+00        -0.50003E+08
 
   -0.50027E+08         0.52977E+03         0.00000E+00
    0.52977E+03        -0.50000E+08         0.00000E+00
    0.00000E+00         0.00000E+00        -0.50005E+08
 
   -0.50027E+08         0.15894E+04         0.00000E+00
    0.15894E+04        -0.50000E+08         0.00000E+00
    0.00000E+00         0.00000E+00        -0.50005E+08
 
   -0.50027E+08         0.26481E+04         0.00000E+00
    0.26481E+04        -0.50000E+08         0.00000E+00
    0.00000E+00         0.00000E+00        -0.50005E+08
 
   -0.50026E+08         0.37049E+04         0.00000E+00
    0.37049E+04        -0.50000E+08         0.00000E+00
    0.00000E+00         0.00000E+00        -0.50005E+08
 
   -0.50026E+08         0.47590E+04         0.00000E+00
    0.47590E+04        -0.50000E+08         0.00000E+00
    0.00000E+00         0.00000E+00        -0.50005E+08
 
   -0.50026E+08         0.58097E+04         0.00000E+00
    0.58097E+04        -0.50000E+08         0.00000E+00
    0.00000E+00         0.00000E+00        -0.50005E+08
 
   -0.50026E+08         0.68559E+04         0.00000E+00
    0.68559E+04        -0.50000E+08         0.00000E+00
    0.00000E+00         0.00000E+00        -0.50005E+08
 
   -0.50026E+08         0.78970E+04         0.00000E+00
    0.78970E+04        -0.50000E+08         0.00000E+00
    0.00000E+00         0.00000E+00        -0.50005E+08
 
   -0.50026E+08         0.89320E+04         0.00000E+00
    0.89320E+04        -0.50000E+08         0.00000E+00
    0.00000E+00         0.00000E+00        -0.50005E+08
 
   -0.50026E+08         0.99601E+04         0.00000E+00
    0.99601E+04        -0.50000E+08         0.00000E+00
    0.00000E+00         0.00000E+00        -0.50005E+08
 
   -0.50025E+08         0.10980E+05         0.00000E+00
    0.10980E+05        -0.50001E+08         0.00000E+00
    0.00000E+00         0.00000E+00        -0.50005E+08
 
   -0.50025E+08         0.11992E+05         0.00000E+00
    0.11992E+05        -0.50001E+08         0.00000E+00
    0.00000E+00         0.00000E+00        -0.50005E+08
 
   -0.50025E+08         0.12995E+05         0.00000E+00
    0.12995E+05        -0.50001E+08         0.00000E+00
    0.00000E+00         0.00000E+00        -0.50005E+08
 
   -0.50025E+08         0.13987E+05         0.00000E+00
    0.13987E+05        -0.50001E+08         0.00000E+00
    0.00000E+00         0.00000E+00        -0.50005E+08
 
   -0.50024E+08         0.14968E+05         0.00000E+00
    0.14968E+05        -0.50001E+08         0.00000E+00
    0.00000E+00         0.00000E+00        -0.50005E+08
 
   -0.50024E+08         0.15937E+05         0.00000E+00
    0.15937E+05        -0.50001E+08         0.00000E+00
    0.00000E+00         0.00000E+00        -0.50005E+08
 
   -0.50024E+08         0.16894E+05         0.00000E+00
    0.16894E+05        -0.50001E+08         0.00000E+00
    0.00000E+00         0.00000E+00        -0.50005E+08
 
   -0.50023E+08         0.17837E+05         0.00000E+00
    0.17837E+05        -0.50002E+08         0.00000E+00
    0.00000E+00         0.00000E+00        -0.50005E+08
 
   -0.50023E+08         0.18766E+05         0.00000E+00
    0.18766E+05        -0.50002E+08         0.00000E+00
    0.00000E+00         0.00000E+00        -0.50005E+08
 
   -0.50023E+08         0.19679E+05         0.00000E+00
    0.19679E+05        -0.50002E+08         0.00000E+00
    0.00000E+00         0.00000E+00        -0.50005E+08
 
   -0.50022E+08         0.20577E+05         0.00000E+00
    0.20577E+05        -0.50002E+08         0.00000E+00
    0.00000E+00         0.00000E+00        -0.50005E+08
 
   -0.50022E+08         0.21458E+05         0.00000E+00
    0.21458E+05        -0.50002E+08         0.00000E+00
    0.00000E+00         0.00000E+00        -0.50005E+08
 
   -0.50021E+08         0.22322E+05         0.00000E+00
    0.22322E+05        -0.50003E+08         0.00000E+00
    0.00000E+00         0.00000E+00        -0.50005E+08
 
   -0.50021E+08         0.23167E+05         0.00000E+00
    0.23167E+05        -0.50003E+08         0.00000E+00
    0.00000E+00         0.00000E+00        -0.50005E+08
 
   -0.50020E+08         0.23994E+05         0.00000E+00
    0.23994E+05        -0.50003E+08         0.00000E+00
    0.00000E+00         0.00000E+00        -0.50005E+08
 
   -0.50020E+08         0.24800E+05         0.00000E+00
    0.24800E+05        -0.50003E+08         0.00000E+00
    0.00000E+00         0.00000E+00        -0.50005E+08
 
   -0.50019E+08         0.25587E+05         0.00000E+00
    0.25587E+05        -0.50004E+08         0.00000E+00
    0.00000E+00         0.00000E+00        -0.50005E+08
 
   -0.50019E+08         0.26352E+05         0.00000E+00
    0.26352E+05        -0.50004E+08         0.00000E+00
    0.00000E+00         0.00000E+00        -0.50005E+08
 
   -0.50018E+08         0.27095E+05         0.00000E+00
    0.27095E+05        -0.50004E+08         0.00000E+00
    0.00000E+00         0.00000E+00        -0.50004E+08
 
   -0.50018E+08         0.27816E+05         0.00000E+00
    0.27816E+05        -0.50004E+08         0.00000E+00
    0.00000E+00         0.00000E+00        -0.50004E+08
 
   -0.50017E+08         0.28513E+05         0.00000E+00
    0.28513E+05        -0.50005E+08         0.00000E+00
    0.00000E+00         0.00000E+00        -0.50004E+08
 
   -0.50016E+08         0.29187E+05         0.00000E+00
    0.29187E+05        -0.50005E+08         0.00000E+00
    0.00000E+00         0.00000E+00        -0.50004E+08
 
   -0.50016E+08         0.29836E+05         0.00000E+00
    0.29836E+05        -0.50005E+08         0.00000E+00
    0.00000E+00         0.00000E+00        -0.50004E+08
 
   -0.50015E+08         0.30459E+05         0.00000E+00
    0.30459E+05        -0.50006E+08         0.00000E+00
    0.00000E+00         0.00000E+00        -0.50004E+08
 
   -0.50015E+08         0.31057E+05         0.00000E+00
    0.31057E+05        -0.50006E+08         0.00000E+00
    0.00000E+00         0.00000E+00        -0.50004E+08
 
   -0.50014E+08         0.31629E+05         0.00000E+00
    0.31629E+05        -0.50006E+08         0.00000E+00
    0.00000E+00         0.00000E+00        -0.50004E+08
 
   -0.50013E+08         0.32173E+05         0.00000E+00
    0.32173E+05        -0.50006E+08         0.00000E+00
    0.00000E+00         0.00000E+00        -0.50004E+08
 
   -0.50013E+08         0.32690E+05         0.00000E+00
    0.32690E+05        -0.50007E+08         0.00000E+00
    0.00000E+00         0.00000E+00        -0.50004E+08
 
   -0.50012E+08         0.33178E+05         0.00000E+00
    0.33178E+05        -0.50007E+08         0.00000E+00
    0.00000E+00         0.00000E+00        -0.50004E+08
 
   -0.50011E+08         0.33638E+05         0.00000E+00
    0.33638E+05        -0.50007E+08         0.00000E+00
    0.00000E+00         0.00000E+00        -0.50004E+08
 
   -0.50010E+08         0.34069E+05         0.00000E+00
    0.34069E+05        -0.50008E+08         0.00000E+00
    0.00000E+00         0.00000E+00        -0.50004E+08
 
   -0.50010E+08         0.34470E+05         0.00000E+00
    0.34470E+05        -0.50008E+08         0.00000E+00
    0.00000E+00         0.00000E+00        -0.50004E+08
 
   -0.50009E+08         0.34841E+05         0.00000E+00
    0.34841E+05        -0.50009E+08         0.00000E+00
    0.00000E+00         0.00000E+00        -0.50003E+08
 
   -0.50008E+08         0.35181E+05         0.00000E+00
    0.35181E+05        -0.50009E+08         0.00000E+00
    0.00000E+00         0.00000E+00        -0.50003E+08
 
   -0.50007E+08         0.35490E+05         0.00000E+00
    0.35490E+05        -0.50009E+08         0.00000E+00
    0.00000E+00         0.00000E+00        -0.50003E+08
 
   -0.50006E+08         0.35767E+05         0.00000E+00
    0.35767E+05        -0.50010E+08         0.00000E+00
    0.00000E+00         0.00000E+00        -0.50003E+08
 
   -0.50006E+08         0.36012E+05         0.00000E+00
    0.36012E+05        -0.50010E+08         0.00000E+00
    0.00000E+00         0.00000E+00        -0.50003E+08
 
   -0.50005E+08         0.36225E+05         0.00000E+00
    0.36225E+05        -0.50010E+08         0.00000E+00
    0.00000E+00         0.00000E+00        -0.50003E+08
 
   -0.50004E+08         0.36405E+05         0.00000E+00
    0.36405E+05        -0.50011E+08         0.00000E+00
    0.00000E+00         0.00000E+00        -0.50003E+08
 
   -0.50003E+08         0.36552E+05         0.00000E+00
    0.36552E+05        -0.50011E+08         0.00000E+00
    0.00000E+00         0.00000E+00        -0.50003E+08
 
   -0.50021E+08         0.50684E+03         0.00000E+00
    0.50684E+03        -0.50000E+08         0.00000E+00
    0.00000E+00         0.00000E+00        -0.50004E+08
 
   -0.50021E+08         0.15202E+04         0.00000E+00
    0.15202E+04        -0.50000E+08         0.00000E+00
    0.00000E+00         0.00000E+00        -0.50004E+08
 
   -0.50021E+08         0.25324E+04         0.00000E+00
    0.25324E+04        -0.50000E+08         0.00000E+00
    0.00000E+00         0.00000E+00        -0.50004E+08
 
   -0.50021E+08         0.35427E+04         0.00000E+00
    0.35427E+04        -0.50000E+08         0.00000E+00
    0.00000E+00         0.00000E+00        -0.50004E+08
 
   -0.50021E+08         0.45503E+04         0.00000E+00
    0.45503E+04        -0.50000E+08         0.00000E+00
    0.00000E+00         0.00000E+00        -0.50004E+08
 
   -0.50021E+08         0.55544E+04         0.00000E+00
    0.55544E+04        -0.50000E+08         0.00000E+00
    0.00000E+00         0.00000E+00        -0.50004E+08
 
   -0.50021E+08         0.65541E+04         0.00000E+00
    0.65541E+04        -0.50000E+08         0.00000E+00
    0.00000E+00         0.00000E+00        -0.50004E+08
 
   -0.50021E+08         0.75487E+04         0.00000E+00
    0.75487E+04        -0.50000E+08         0.00000E+00
    0.00000E+00         0.00000E+00        -0.50004E+08
 
   -0.50021E+08         0.85374E+04         0.00000E+00
    0.85374E+04        -0.50000E+08         0.00000E+00
    0.00000E+00         0.00000E+00        -0.50004E+08
 
   -0.50021E+08         0.95193E+04         0.00000E+00
    0.95193E+04        -0.50000E+08         0.00000E+00
    0.00000E+00         0.00000E+00        -0.50004E+08
 
   -0.50020E+08         0.10494E+05         0.00000E+00
    0.10494E+05        -0.50000E+08         0.00000E+00
    0.00000E+00         0.00000E+00        -0.50004E+08
 
   -0.50020E+08         0.11460E+05         0.00000E+00
    0.11460E+05        -0.50001E+08         0.00000E+00
    0.00000E+00         0.00000E+00        -0.50004E+08
 
   -0.50020E+08         0.12417E+05         0.00000E+00
    0.12417E+05        -0.50001E+08         0.00000E+00
    0.00000E+00         0.00000E+00        -0.50004E+08
 
   -0.50020E+08         0.13364E+05         0.00000E+00
    0.13364E+05        -0.50001E+08         0.00000E+00
    0.00000E+00         0.00000E+00        -0.50004E+08
 
   -0.50020E+08         0.14301E+05         0.00000E+00
    0.14301E+05        -0.50001E+08         0.00000E+00
    0.00000E+00         0.00000E+00        -0.50004E+08
 
   -0.50019E+08         0.15226E+05         0.00000E+00
    0.15226E+05        -0.50001E+08         0.00000E+00
    0.00000E+00         0.00000E+00        -0.50004E+08
 
   -0.50019E+08         0.16139E+05         0.00000E+00
    0.16139E+05        -0.50001E+08         0.00000E+00
    0.00000E+00         0.00000E+00        -0.50004E+08
 
   -0.50019E+08         0.17039E+05         0.00000E+00
    0.17039E+05        -0.50001E+08         0.00000E+00
    0.00000E+00         0.00000E+00        -0.50004E+08
 
   -0.50019E+08         0.17925E+05         0.00000E+00
    0.17925E+05        -0.50001E+08         0.00000E+00
    0.00000E+00         0.00000E+00        -0.50004E+08
 
   -0.50018E+08         0.18796E+05         0.00000E+00
    0.18796E+05        -0.50002E+08         0.00000E+00
    0.00000E+00         0.00000E+00        -0.50004E+08
 
   -0.50018E+08         0.19653E+05         0.00000E+00
    0.19653E+05        -0.50002E+08         0.00000E+00
    0.00000E+00         0.00000E+00        -0.50004E+08
 
   -0.50018E+08         0.20493E+05         0.00000E+00
    0.20493E+05        -0.50002E+08         0.00000E+00
    0.00000E+00         0.00000E+00        -0.50004E+08
 
   -0.50017E+08         0.21317E+05         0.00000E+00
    0.21317E+05        -0.50002E+08         0.00000E+00
    0.00000E+00         0.00000E+00        -0.50004E+08
 
   -0.50017E+08         0.22123E+05         0.00000E+00
    0.22123E+05        -0.50002E+08         0.00000E+00
    0.00000E+00         0.00000E+00        -0.50004E+08
 
   -0.50016E+08         0.22911E+05         0.00000E+00
    0.22911E+05        -0.50002E+08         0.00000E+00
    0.00000E+00         0.00000E+00        -0.50004E+08
 
   -0.50016E+08         0.23680E+05         0.00000E+00
    0.23680E+05        -0.50003E+08         0.00000E+00
    0.00000E+00         0.00000E+00        -0.50004E+08
 
   -0.50016E+08         0.24430E+05         0.00000E+00
    0.24430E+05        -0.50003E+08         0.00000E+00
    0.00000E+00         0.00000E+00        -0.50004E+08
 
   -0.50015E+08         0.25159E+05         0.00000E+00
    0.25159E+05        -0.50003E+08         0.00000E+00
    0.00000E+00         0.00000E+00        -0.50004E+08
 
   -0.50015E+08         0.25867E+05         0.00000E+00
    0.25867E+05        -0.50003E+08         0.00000E+00
    0.00000E+00         0.00000E+00        -0.50004E+08
 
   -0.50014E+08         0.26554E+05         0.00000E+00
    0.26554E+05        -0.50003E+08         0.00000E+00
    0.00000E+00         0.00000E+00        -0.50004E+08
 
   -0.50014E+08         0.27219E+05         0.00000E+00
    0.27219E+05        -0.50004E+08         0.00000E+00
    0.00000E+00         0.00000E+00        -0.50003E+08
 
   -0.50013E+08         0.27861E+05         0.00000E+00
    0.27861E+05        -0.50004E+08         0.00000E+00
    0.00000E+00         0.00000E+00        -0.50003E+08
 
   -0.50013E+08         0.28479E+05         0.00000E+00
    0.28479E+05        -0.50004E+08         0.00000E+00
    0.00000E+00         0.00000E+00        -0.50003E+08
 
   -0.50012E+08         0.29074E+05         0.00000E+00
    0.29074E+05        -0.50004E+08         0.00000E+00
    0.00000E+00         0.00000E+00        -0.50003E+08
 
   -0.50012E+08         0.29643E+05         0.00000E+00
    0.29643E+05        -0.50005E+08         0.00000E+00
    0.00000E+00         0.00000E+00        -0.50003E+08
 
   -0.50011E+08         0.30188E+05         0.00000E+00
    0.30188E+05        -0.50005E+08         0.00000E+00
    0.00000E+00         0.00000E+00        -0.50003E+08
 
   -0.50011E+08         0.30706E+05         0.00000E+00
    0.30706E+05        -0.50005E+08         0.00000E+00
    0.00000E+00         0.00000E+00        -0.50003E+08
 
   -0.50010E+08         0.31199E+05         0.00000E+00
    0.31199E+05        -0.50005E+08         0.00000E+00
    0.00000E+00         0.00000E+00        -0.50003E+08
 
   -0.50010E+08         0.31664E+05         0.00000E+00
    0.31664E+05        -0.50006E+08         0.00000E+00
    0.00000E+00         0.00000E+00        -0.50003E+08
 
   -0.50009E+08         0.32102E+05         0.00000E+00
    0.32102E+05        -0.50006E+08         0.00000E+00
    0.00000E+00         0.00000E+00        -0.50003E+08
 
   -0.50008E+08         0.32512E+05         0.00000E+00
    0.32512E+05        -0.50006E+08         0.00000E+00
    0.00000E+00         0.00000E+00        -0.50003E+08
 
   -0.50008E+08         0.32894E+05         0.00000E+00
    0.32894E+05        -0.50007E+08         0.00000E+00
    0.00000E+00         0.00000E+00        -0.50003E+08
 
   -0.50007E+08         0.33247E+05         0.00000E+00
    0.33247E+05        -0.50007E+08         0.00000E+00
    0.00000E+00         0.00000E+00        -0.50003E+08
 
   -0.50006E+08         0.33570E+05         0.00000E+00
    0.33570E+05        -0.50007E+08         0.00000E+00
    0.00000E+00         0.00000E+00        -0.50003E+08
 
   -0.50006E+08         0.33864E+05         0.00000E+00
    0.33864E+05        -0.50007E+08         0.00000E+00
    0.00000E+00         0.00000E+00        -0.50003E+08
 
   -0.50005E+08         0.34128E+05         0.00000E+00
    0.34128E+05        -0.50008E+08         0.00000E+00
    0.00000E+00         0.00000E+00        -0.50003E+08
 
   -0.50005E+08         0.34361E+05         0.00000E+00
    0.34361E+05        -0.50008E+08         0.00000E+00
    0.00000E+00         0.00000E+00        -0.50003E+08
 
   -0.50004E+08         0.34564E+05         0.00000E+00
    0.34564E+05        -0.50008E+08         0.00000E+00
    0.00000E+00         0.00000E+00        -0.50002E+08
 
   -0.50003E+08         0.34735E+05         0.00000E+00
    0.34735E+05        -0.50009E+08         0.00000E+00
    0.00000E+00         0.00000E+00        -0.50002E+08
 
   -0.50003E+08         0.34875E+05         0.00000E+00
    0.34875E+05        -0.50009E+08         0.00000E+00
    0.00000E+00         0.00000E+00        -0.50002E+08
 
   -0.50016E+08         0.48880E+03         0.00000E+00
    0.48880E+03        -0.50000E+08         0.00000E+00
    0.00000E+00         0.00000E+00        -0.50003E+08
 
   -0.50016E+08         0.14658E+04         0.00000E+00
    0.14658E+04        -0.50000E+08         0.00000E+00
    0.00000E+00         0.00000E+00        -0.50003E+08
 
   -0.50016E+08         0.24415E+04         0.00000E+00
    0.24415E+04        -0.50000E+08         0.00000E+00
    0.00000E+00         0.00000E+00        -0.50003E+08
 
   -0.50016E+08         0.34152E+04         0.00000E+00
    0.34152E+04        -0.50000E+08         0.00000E+00
    0.00000E+00         0.00000E+00        -0.50003E+08
 
   -0.50016E+08         0.43862E+04         0.00000E+00
    0.43862E+04        -0.50000E+08         0.00000E+00
    0.00000E+00         0.00000E+00        -0.50003E+08
 
   -0.50016E+08         0.53536E+04         0.00000E+00
    0.53536E+04        -0.50000E+08         0.00000E+00
    0.00000E+00         0.00000E+00        -0.50003E+08
 
   -0.50016E+08         0.63168E+04         0.00000E+00
    0.63168E+04        -0.50000E+08         0.00000E+00
    0.00000E+00         0.00000E+00        -0.50003E+08
 
   -0.50016E+08         0.72749E+04         0.00000E+00
    0.72749E+04        -0.50000E+08         0.00000E+00
    0.00000E+00         0.00000E+00        -0.50003E+08
 
   -0.50016E+08         0.82271E+04         0.00000E+00
    0.82271E+04        -0.50000E+08         0.00000E+00
    0.00000E+00         0.00000E+00        -0.50003E+08
 
   -0.50016E+08         0.91728E+04         0.00000E+00
    0.91728E+04        -0.50000E+08         0.00000E+00
    0.00000E+00         0.00000E+00        -0.50003E+08
 
   -0.50016E+08         0.10111E+05         0.00000E+00
    0.10111E+05        -0.50000E+08         0.00000E+00
    0.00000E+00         0.00000E+00        -0.50003E+08
 
   -0.50016E+08         0.11041E+05         0.00000E+00
    0.11041E+05        -0.50000E+08         0.00000E+00
    0.00000E+00         0.00000E+00        -0.50003E+08
 
   -0.50015E+08         0.11963E+05         0.00000E+00
    0.11963E+05        -0.50000E+08         0.00000E+00
    0.00000E+00         0.00000E+00        -0.50003E+08
 
   -0.50015E+08         0.12875E+05         0.00000E+00
    0.12875E+05        -0.50001E+08         0.00000E+00
    0.00000E+00         0.00000E+00        -0.50003E+08
 
   -0.50015E+08         0.13776E+05         0.00000E+00
    0.13776E+05        -0.50001E+08         0.00000E+00
    0.00000E+00         0.00000E+00        -0.50003E+08
 
   -0.50015E+08         0.14666E+05         0.00000E+00
    0.14666E+05        -0.50001E+08         0.00000E+00
    0.00000E+00         0.00000E+00        -0.50003E+08
 
   -0.50015E+08         0.15545E+05         0.00000E+00
    0.15545E+05        -0.50001E+08         0.00000E+00
    0.00000E+00         0.00000E+00        -0.50003E+08
 
   -0.50014E+08         0.16411E+05         0.00000E+00
    0.16411E+05        -0.50001E+08         0.00000E+00
    0.00000E+00         0.00000E+00        -0.50003E+08
 
   -0.50014E+08         0.17263E+05         0.00000E+00
    0.17263E+05        -0.50001E+08         0.00000E+00
    0.00000E+00         0.00000E+00        -0.50003E+08
 
   -0.50014E+08         0.18102E+05         0.00000E+00
    0.18102E+05        -0.50001E+08         0.00000E+00
    0.00000E+00         0.00000E+00        -0.50003E+08
 
   -0.50014E+08         0.18925E+05         0.00000E+00
    0.18925E+05        -0.50001E+08         0.00000E+00
    0.00000E+00         0.00000E+00        -0.50003E+08
 
   -0.50013E+08         0.19734E+05         0.00000E+00
    0.19734E+05        -0.50001E+08         0.00000E+00
    0.00000E+00         0.00000E+00        -0.50003E+08
 
   -0.50013E+08         0.20526E+05         0.00000E+00
    0.20526E+05        -0.50002E+08         0.00000E+00
    0.00000E+00         0.00000E+00        -0.50003E+08
 
   -0.50013E+08         0.21301E+05         0.00000E+00
    0.21301E+05        -0.50002E+08         0.00000E+00
    0.00000E+00         0.00000E+00        -0.50003E+08
 
   -0.50013E+08         0.22059E+05         0.00000E+00
    0.22059E+05        -0.50002E+08         0.00000E+00
    0.00000E+00         0.00000E+00        -0.50003E+08
 
   -0.50012E+08         0.22798E+05         0.00000E+00
    0.22798E+05        -0.50002E+08         0.00000E+00
    0.00000E+00         0.00000E+00        -0.50003E+08
 
   -0.50012E+08         0.23519E+05         0.00000E+00
    0.23519E+05        -0.50002E+08         0.00000E+00
    0.00000E+00         0.00000E+00        -0.50003E+08
 
   -0.50012E+08         0.24220E+05         0.00000E+00
    0.24220E+05        -0.50002E+08         0.00000E+00
    0.00000E+00         0.00000E+00        -0.50003E+08
 
   -0.50011E+08         0.24901E+05         0.00000E+00
    0.24901E+05        -0.50002E+08         0.00000E+00
    0.00000E+00         0.00000E+00        -0.50003E+08
 
   -0.50011E+08         0.25562E+05         0.00000E+00
    0.25562E+05        -0.50003E+08         0.00000E+00
    0.00000E+00         0.00000E+00        -0.50003E+08
 
   -0.50011E+08         0.26200E+05         0.00000E+00
    0.26200E+05        -0.50003E+08         0.00000E+00
    0.00000E+00         0.00000E+00        -0.50003E+08
 
   -0.50010E+08         0.26817E+05         0.00000E+00
    0.26817E+05        -0.50003E+08         0.00000E+00
    0.00000E+00         0.00000E+00        -0.50003E+08
 
   -0.50010E+08         0.27412E+05         0.00000E+00
    0.27412E+05        -0.50003E+08         0.00000E+00
    0.00000E+00         0.00000E+00        -0.50003E+08
 
   -0.50009E+08         0.27983E+05         0.00000E+00
    0.27983E+05        -0.50003E+08         0.00000E+00
    0.00000E+00         0.00000E+00        -0.50003E+08
 
   -0.50009E+08         0.28530E+05         0.00000E+00
    0.28530E+05        -0.50004E+08         0.00000E+00
    0.00000E+00         0.00000E+00        -0.50003E+08
 
   -0.50009E+08         0.29053E+05         0.00000E+00
    0.29053E+05        -0.50004E+08         0.00000E+00
    0.00000E+00         0.00000E+00        -0.50002E+08
 
   -0.50008E+08         0.29551E+05         0.00000E+00
    0.29551E+05        -0.50004E+08         0.00000E+00
    0.00000E+00         0.00000E+00        -0.50002E+08
 
   -0.50008E+08         0.30024E+05         0.00000E+00
    0.30024E+05        -0.50004E+08         0.00000E+00
    0.00000E+00         0.00000E+00        -0.50002E+08
 
   -0.50007E+08         0.30471E+05         0.00000E+00
    0.30471E+05        -0.50004E+08         0.00000E+00
    0.00000E+00         0.00000E+00        -0.50002E+08
 
   -0.50007E+08         0.30892E+05         0.00000E+00
    0.30892E+05        -0.50005E+08         0.00000E+00
    0.00000E+00         0.00000E+00        -0.50002E+08
 
   -0.50006E+08         0.31286E+05         0.00000E+00
    0.31286E+05        -0.50005E+08         0.00000E+00
    0.00000E+00         0.00000E+00        -0.50002E+08
 
   -0.50006E+08         0.31652E+05         0.00000E+00
    0.31652E+05        -0.50005E+08         0.00000E+00
    0.00000E+00         0.00000E+00        -0.50002E+08
 
   -0.50005E+08         0.31991E+05         0.00000E+00
    0.31991E+05        -0.50005E+08         0.00000E+00
    0.00000E+00         0.00000E+00        -0.50002E+08
 
   -0.50005E+08         0.32302E+05         0.00000E+00
    0.32302E+05        -0.50005E+08         0.00000E+00
    0.00000E+00         0.00000E+00        -0.50002E+08
 
   -0.50004E+08         0.32584E+05         0.00000E+00
    0.32584E+05        -0.50006E+08         0.00000E+00
    0.00000E+00         0.00000E+00        -0.50002E+08
 
   -0.50004E+08         0.32837E+05         0.00000E+00
    0.32837E+05        -0.50006E+08         0.00000E+00
    0.00000E+00         0.00000E+00        -0.50002E+08
 
   -0.50004E+08         0.33061E+05         0.00000E+00
    0.33061E+05        -0.50006E+08         0.00000E+00
    0.00000E+00         0.00000E+00        -0.50002E+08
 
   -0.50003E+08         0.33255E+05         0.00000E+00
    0.33255E+05        -0.50006E+08         0.00000E+00
    0.00000E+00         0.00000E+00        -0.50002E+08
 
   -0.50003E+08         0.33420E+05         0.00000E+00
    0.33420E+05        -0.50007E+08         0.00000E+00
    0.00000E+00         0.00000E+00        -0.50002E+08
 
   -0.50002E+08         0.33554E+05         0.00000E+00
    0.33554E+05        -0.50007E+08         0.00000E+00
    0.00000E+00         0.00000E+00        -0.50002E+08
 
   -0.50012E+08         0.47547E+03         0.00000E+00
    0.47547E+03        -0.50000E+08         0.00000E+00
    0.00000E+00         0.00000E+00        -0.50002E+08
 
   -0.50012E+08         0.14255E+04         0.00000E+00
    0.14255E+04        -0.50000E+08         0.00000E+00
    0.00000E+00         0.00000E+00        -0.50002E+08
 
   -0.50012E+08         0.23743E+04         0.00000E+00
    0.23743E+04        -0.50000E+08         0.00000E+00
    0.00000E+00         0.00000E+00        -0.50002E+08
 
   -0.50012E+08         0.33210E+04         0.00000E+00
    0.33210E+04        -0.50000E+08         0.00000E+00
    0.00000E+00         0.00000E+00        -0.50002E+08
 
   -0.50012E+08         0.42649E+04         0.00000E+00
    0.42649E+04        -0.50000E+08         0.00000E+00
    0.00000E+00         0.00000E+00        -0.50002E+08
 
   -0.50011E+08         0.52053E+04         0.00000E+00
    0.52053E+04        -0.50000E+08         0.00000E+00
    0.00000E+00         0.00000E+00        -0.50002E+08
 
   -0.50011E+08         0.61414E+04         0.00000E+00
    0.61414E+04        -0.50000E+08         0.00000E+00
    0.00000E+00         0.00000E+00        -0.50002E+08
 
   -0.50011E+08         0.70725E+04         0.00000E+00
    0.70725E+04        -0.50000E+08         0.00000E+00
    0.00000E+00         0.00000E+00        -0.50002E+08
 
   -0.50011E+08         0.79979E+04         0.00000E+00
    0.79979E+04        -0.50000E+08         0.00000E+00
    0.00000E+00         0.00000E+00        -0.50002E+08
 
   -0.50011E+08         0.89167E+04         0.00000E+00
    0.89167E+04        -0.50000E+08         0.00000E+00
    0.00000E+00         0.00000E+00        -0.50002E+08
 
   -0.50011E+08         0.98284E+04         0.00000E+00
    0.98284E+04        -0.50000E+08         0.00000E+00
    0.00000E+00         0.00000E+00        -0.50002E+08
 
   -0.50011E+08         0.10732E+05         0.00000E+00
    0.10732E+05        -0.50000E+08         0.00000E+00
    0.00000E+00         0.00000E+00        -0.50002E+08
 
   -0.50011E+08         0.11627E+05         0.00000E+00
    0.11627E+05        -0.50000E+08         0.00000E+00
    0.00000E+00         0.00000E+00        -0.50002E+08
 
   -0.50011E+08         0.12513E+05         0.00000E+00
    0.12513E+05        -0.50000E+08         0.00000E+00
    0.00000E+00         0.00000E+00        -0.50002E+08
 
   -0.50011E+08         0.13388E+05         0.00000E+00
    0.13388E+05        -0.50000E+08         0.00000E+00
    0.00000E+00         0.00000E+00        -0.50002E+08
 
   -0.50011E+08         0.14252E+05         0.00000E+00
    0.14252E+05        -0.50001E+08         0.00000E+00
    0.00000E+00         0.00000E+00        -0.50002E+08
 
   -0.50010E+08         0.15105E+05         0.00000E+00
    0.15105E+05        -0.50001E+08         0.00000E+00
    0.00000E+00         0.00000E+00        -0.50002E+08
 
   -0.50010E+08         0.15946E+05         0.00000E+00
    0.15946E+05        -0.50001E+08         0.00000E+00
    0.00000E+00         0.00000E+00        -0.50002E+08
 
   -0.50010E+08         0.16774E+05         0.00000E+00
    0.16774E+05        -0.50001E+08         0.00000E+00
    0.00000E+00         0.00000E+00        -0.50002E+08
 
   -0.50010E+08         0.17588E+05         0.00000E+00
    0.17588E+05        -0.50001E+08         0.00000E+00
    0.00000E+00         0.00000E+00        -0.50002E+08
 
   -0.50010E+08         0.18387E+05         0.00000E+00
    0.18387E+05        -0.50001E+08         0.00000E+00
    0.00000E+00         0.00000E+00        -0.50002E+08
 
   -0.50010E+08         0.19172E+05         0.00000E+00
    0.19172E+05        -0.50001E+08         0.00000E+00
    0.00000E+00         0.00000E+00        -0.50002E+08
 
   -0.50009E+08         0.19941E+05         0.00000E+00
    0.19941E+05        -0.50001E+08         0.00000E+00
    0.00000E+00         0.00000E+00        -0.50002E+08
 
   -0.50009E+08         0.20693E+05         0.00000E+00
    0.20693E+05        -0.50001E+08         0.00000E+00
    0.00000E+00         0.00000E+00        -0.50002E+08
 
   -0.50009E+08         0.21428E+05         0.00000E+00
    0.21428E+05        -0.50001E+08         0.00000E+00
    0.00000E+00         0.00000E+00        -0.50002E+08
 
   -0.50009E+08         0.22146E+05         0.00000E+00
    0.22146E+05        -0.50001E+08         0.00000E+00
    0.00000E+00         0.00000E+00        -0.50002E+08
 
   -0.50008E+08         0.22845E+05         0.00000E+00
    0.22845E+05        -0.50002E+08         0.00000E+00
    0.00000E+00         0.00000E+00        -0.50002E+08
 
   -0.50008E+08         0.23525E+05         0.00000E+00
    0.23525E+05        -0.50002E+08         0.00000E+00
    0.00000E+00         0.00000E+00        -0.50002E+08
 
   -0.50008E+08         0.24186E+05         0.00000E+00
    0.24186E+05        -0.50002E+08         0.00000E+00
    0.00000E+00         0.00000E+00        -0.50002E+08
 
   -0.50008E+08         0.24826E+05         0.00000E+00
    0.24826E+05        -0.50002E+08         0.00000E+00
    0.00000E+00         0.00000E+00        -0.50002E+08
 
   -0.50007E+08         0.25446E+05         0.00000E+00
    0.25446E+05        -0.50002E+08         0.00000E+00
    0.00000E+00         0.00000E+00        -0.50002E+08
 
   -0.50007E+08         0.26044E+05         0.00000E+00
    0.26044E+05        -0.50002E+08         0.00000E+00
    0.00000E+00         0.00000E+00        -0.50002E+08
 
   -0.50007E+08         0.26620E+05         0.00000E+00
    0.26620E+05        -0.50002E+08         0.00000E+00
    0.00000E+00         0.00000E+00        -0.50002E+08
 
   -0.50007E+08         0.27174E+05         0.00000E+00
    0.27174E+05        -0.50002E+08         0.00000E+00
    0.00000E+00         0.00000E+00        -0.50002E+08
 
   -0.50006E+08         0.27705E+05         0.00000E+00
    0.27705E+05        -0.50003E+08         0.00000E+00
    0.00000E+00         0.00000E+00        -0.50002E+08
 
   -0.50006E+08         0.28212E+05         0.00000E+00
    0.28212E+05        -0.50003E+08         0.00000E+00
    0.00000E+00         0.00000E+00        -0.50002E+08
 
   -0.50006E+08         0.28695E+05         0.00000E+00
    0.28695E+05        -0.50003E+08         0.00000E+00
    0.00000E+00         0.00000E+00        -0.50002E+08
 
   -0.50005E+08         0.29154E+05         0.00000E+00
    0.29154E+05        -0.50003E+08         0.00000E+00
    0.00000E+00         0.00000E+00        -0.50002E+08
 
   -0.50005E+08         0.29587E+05         0.00000E+00
    0.29587E+05        -0.50003E+08         0.00000E+00
    0.00000E+00         0.00000E+00        -0.50002E+08
 
   -0.50005E+08         0.29995E+05         0.00000E+00
    0.29995E+05        -0.50003E+08         0.00000E+00
    0.00000E+00         0.00000E+00        -0.50002E+08
 
   -0.50005E+08         0.30376E+05         0.00000E+00
    0.30376E+05        -0.50003E+08         0.00000E+00
    0.00000E+00         0.00000E+00        -0.50002E+08
 
   -0.50004E+08         0.30732E+05         0.00000E+00
    0.30732E+05        -0.50004E+08         0.00000E+00
    0.00000E+00         0.00000E+00        -0.50002E+08
 
   -0.50004E+08         0.31060E+05         0.00000E+00
    0.31060E+05        -0.50004E+08         0.00000E+00
    0.00000E+00         0.00000E+00        -0.50002E+08
 
   -0.50004E+08         0.31361E+05         0.00000E+00
    0.31361E+05        -0.50004E+08         0.00000E+00
    0.00000E+00         0.00000E+00        -0.50001E+08
 
   -0.50003E+08         0.31635E+05         0.00000E+00
    0.31635E+05        -0.50004E+08         0.00000E+00
    0.00000E+00         0.00000E+00        -0.50001E+08
 
   -0.50003E+08         0.31880E+05         0.00000E+00
    0.31880E+05        -0.50004E+08         0.00000E+00
    0.00000E+00         0.00000E+00        -0.50001E+08
 
   -0.50002E+08         0.32097E+05         0.00000E+00
    0.32097E+05        -0.50004E+08         0.00000E+00
    0.00000E+00         0.00000E+00        -0.50001E+08
 
   -0.50002E+08         0.32285E+05         0.00000E+00
    0.32285E+05        -0.50004E+08         0.00000E+00
    0.00000E+00         0.00000E+00        -0.50001E+08
 
   -0.50002E+08         0.32444E+05         0.00000E+00
    0.32444E+05        -0.50005E+08         0.00000E+00
    0.00000E+00         0.00000E+00        -0.50001E+08
 
   -0.50001E+08         0.32574E+05         0.00000E+00
    0.32574E+05        -0.50005E+08         0.00000E+00
    0.00000E+00         0.00000E+00        -0.50001E+08
 
   -0.50007E+08         0.46672E+03         0.00000E+00
    0.46672E+03        -0.50000E+08         0.00000E+00
    0.00000E+00         0.00000E+00        -0.50001E+08
 
   -0.50007E+08         0.13991E+04         0.00000E+00
    0.13991E+04        -0.50000E+08         0.00000E+00
    0.00000E+00         0.00000E+00        -0.50001E+08
 
   -0.50007E+08         0.23302E+04         0.00000E+00
    0.23302E+04        -0.50000E+08         0.00000E+00
    0.00000E+00         0.00000E+00        -0.50001E+08
 
   -0.50007E+08         0.32591E+04         0.00000E+00
    0.32591E+04        -0.50000E+08         0.00000E+00
    0.00000E+00         0.00000E+00        -0.50001E+08
 
   -0.50007E+08         0.41853E+04         0.00000E+00
    0.41853E+04        -0.50000E+08         0.00000E+00
    0.00000E+00         0.00000E+00        -0.50001E+08
 
   -0.50007E+08         0.51079E+04         0.00000E+00
    0.51079E+04        -0.50000E+08         0.00000E+00
    0.00000E+00         0.00000E+00        -0.50001E+08
 
   -0.50007E+08         0.60262E+04         0.00000E+00
    0.60262E+04        -0.50000E+08         0.00000E+00
    0.00000E+00         0.00000E+00        -0.50001E+08
 
   -0.50007E+08         0.69395E+04         0.00000E+00
    0.69395E+04        -0.50000E+08         0.00000E+00
    0.00000E+00         0.00000E+00        -0.50001E+08
 
   -0.50007E+08         0.78471E+04         0.00000E+00
    0.78471E+04        -0.50000E+08         0.00000E+00
    0.00000E+00         0.00000E+00        -0.50001E+08
 
   -0.50007E+08         0.87483E+04         0.00000E+00
    0.87483E+04        -0.50000E+08         0.00000E+00
    0.00000E+00         0.00000E+00        -0.50001E+08
 
   -0.50007E+08         0.96423E+04         0.00000E+00
    0.96423E+04        -0.50000E+08         0.00000E+00
    0.00000E+00         0.00000E+00        -0.50001E+08
 
   -0.50007E+08         0.10528E+05         0.00000E+00
    0.10528E+05        -0.50000E+08         0.00000E+00
    0.00000E+00         0.00000E+00        -0.50001E+08
 
   -0.50007E+08         0.11406E+05         0.00000E+00
    0.11406E+05        -0.50000E+08         0.00000E+00
    0.00000E+00         0.00000E+00        -0.50001E+08
 
   -0.50006E+08         0.12274E+05         0.00000E+00
    0.12274E+05        -0.50000E+08         0.00000E+00
    0.00000E+00         0.00000E+00        -0.50001E+08
 
   -0.50006E+08         0.13132E+05         0.00000E+00
    0.13132E+05        -0.50000E+08         0.00000E+00
    0.00000E+00         0.00000E+00        -0.50001E+08
 
   -0.50006E+08         0.13980E+05         0.00000E+00
    0.13980E+05        -0.50000E+08         0.00000E+00
    0.00000E+00         0.00000E+00        -0.50001E+08
 
   -0.50006E+08         0.14816E+05         0.00000E+00
    0.14816E+05        -0.50000E+08         0.00000E+00
    0.00000E+00         0.00000E+00        -0.50001E+08
 
   -0.50006E+08         0.15640E+05         0.00000E+00
    0.15640E+05        -0.50000E+08         0.00000E+00
    0.00000E+00         0.00000E+00        -0.50001E+08
 
   -0.50006E+08         0.16451E+05         0.00000E+00
    0.16451E+05        -0.50000E+08         0.00000E+00
    0.00000E+00         0.00000E+00        -0.50001E+08
 
   -0.50006E+08         0.17249E+05         0.00000E+00
    0.17249E+05        -0.50000E+08         0.00000E+00
    0.00000E+00         0.00000E+00        -0.50001E+08
 
   -0.50006E+08         0.18032E+05         0.00000E+00
    0.18032E+05        -0.50001E+08         0.00000E+00
    0.00000E+00         0.00000E+00        -0.50001E+08
 
   -0.50006E+08         0.18801E+05         0.00000E+00
    0.18801E+05        -0.50001E+08         0.00000E+00
    0.00000E+00         0.00000E+00        -0.50001E+08
 
   -0.50006E+08         0.19554E+05         0.00000E+00
    0.19554E+05        -0.50001E+08         0.00000E+00
    0.00000E+00         0.00000E+00        -0.50001E+08
 
   -0.50005E+08         0.20292E+05         0.00000E+00
    0.20292E+05        -0.50001E+08         0.00000E+00
    0.00000E+00         0.00000E+00        -0.50001E+08
 
   -0.50005E+08         0.21012E+05         0.00000E+00
    0.21012E+05        -0.50001E+08         0.00000E+00
    0.00000E+00         0.00000E+00        -0.50001E+08
 
   -0.50005E+08         0.21715E+05         0.00000E+00
    0.21715E+05        -0.50001E+08         0.00000E+00
    0.00000E+00         0.00000E+00        -0.50001E+08
 
   -0.50005E+08         0.22400E+05         0.00000E+00
    0.22400E+05        -0.50001E+08         0.00000E+00
    0.00000E+00         0.00000E+00        -0.50001E+08
 
   -0.50005E+08         0.23066E+05         0.00000E+00
    0.23066E+05        -0.50001E+08         0.00000E+00
    0.00000E+00         0.00000E+00        -0.50001E+08
 
   -0.50005E+08         0.23713E+05         0.00000E+00
    0.23713E+05        -0.50001E+08         0.00000E+00
    0.00000E+00         0.00000E+00        -0.50001E+08
 
   -0.50005E+08         0.24341E+05         0.00000E+00
    0.24341E+05        -0.50001E+08         0.00000E+00
    0.00000E+00         0.00000E+00        -0.50001E+08
 
   -0.50004E+08         0.24947E+05         0.00000E+00
    0.24947E+05        -0.50001E+08         0.00000E+00
    0.00000E+00         0.00000E+00        -0.50001E+08
 
   -0.50004E+08         0.25533E+05         0.00000E+00
    0.25533E+05        -0.50001E+08         0.00000E+00
    0.00000E+00         0.00000E+00        -0.50001E+08
 
   -0.50004E+08         0.26098E+05         0.00000E+00
    0.26098E+05        -0.50001E+08         0.00000E+00
    0.00000E+00         0.00000E+00        -0.50001E+08
 
   -0.50004E+08         0.26640E+05         0.00000E+00
    0.26640E+05        -0.50001E+08         0.00000E+00
    0.00000E+00         0.00000E+00        -0.50001E+08
 
   -0.50004E+08         0.27159E+05         0.00000E+00
    0.27159E+05        -0.50002E+08         0.00000E+00
    0.00000E+00         0.00000E+00        -0.50001E+08
 
   -0.50004E+08         0.27656E+05         0.00000E+00
    0.27656E+05        -0.50002E+08         0.00000E+00
    0.00000E+00         0.00000E+00        -0.50001E+08
 
   -0.50003E+08         0.28129E+05         0.00000E+00
    0.28129E+05        -0.50002E+08         0.00000E+00
    0.00000E+00         0.00000E+00        -0.50001E+08
 
   -0.50003E+08         0.28578E+05         0.00000E+00
    0.28578E+05        -0.50002E+08         0.00000E+00
    0.00000E+00         0.00000E+00        -0.50001E+08
 
   -0.50003E+08         0.29002E+05         0.00000E+00
    0.29002E+05        -0.50002E+08         0.00000E+00
    0.00000E+00         0.00000E+00        -0.50001E+08
 
   -0.50003E+08         0.29401E+05         0.00000E+00
    0.29401E+05        -0.50002E+08         0.00000E+00
    0.00000E+00         0.00000E+00        -0.50001E+08
 
   -0.50003E+08         0.29775E+05         0.00000E+00
    0.29775E+05        -0.50002E+08         0.00000E+00
    0.00000E+00         0.00000E+00        -0.50001E+08
 
   -0.50003E+08         0.30122E+05         0.00000E+00
    0.30122E+05        -0.50002E+08         0.00000E+00
    0.00000E+00         0.00000E+00        -0.50001E+08
 
   -0.50002E+08         0.30444E+05         0.00000E+00
    0.30444E+05        -0.50002E+08         0.00000E+00
    0.00000E+00         0.00000E+00        -0.50001E+08
 
   -0.50002E+08         0.30738E+05         0.00000E+00
    0.30738E+05        -0.50002E+08         0.00000E+00
    0.00000E+00         0.00000E+00        -0.50001E+08
 
   -0.50002E+08         0.31006E+05         0.00000E+00
    0.31006E+05        -0.50002E+08         0.00000E+00
    0.00000E+00         0.00000E+00        -0.50001E+08
 
   -0.50002E+08         0.31246E+05         0.00000E+00
    0.31246E+05        -0.50002E+08         0.00000E+00
    0.00000E+00         0.00000E+00        -0.50001E+08
 
   -0.50001E+08         0.31458E+05         0.00000E+00
    0.31458E+05        -0.50003E+08         0.00000E+00
    0.00000E+00         0.00000E+00        -0.50001E+08
 
   -0.50001E+08         0.31643E+05         0.00000E+00
    0.31643E+05        -0.50003E+08         0.00000E+00
    0.00000E+00         0.00000E+00        -0.50001E+08
 
   -0.50001E+08         0.31798E+05         0.00000E+00
    0.31798E+05        -0.50003E+08         0.00000E+00
    0.00000E+00         0.00000E+00        -0.50001E+08
 
   -0.50001E+08         0.31926E+05         0.00000E+00
    0.31926E+05        -0.50003E+08         0.00000E+00
    0.00000E+00         0.00000E+00        -0.50001E+08
 
   -0.50002E+08         0.46248E+03         0.00000E+00
    0.46248E+03        -0.50000E+08         0.00000E+00
    0.00000E+00         0.00000E+00        -0.50000E+08
 
   -0.50002E+08         0.13863E+04         0.00000E+00
    0.13863E+04        -0.50000E+08         0.00000E+00
    0.00000E+00         0.00000E+00        -0.50000E+08
 
   -0.50002E+08         0.23087E+04         0.00000E+00
    0.23087E+04        -0.50000E+08         0.00000E+00
    0.00000E+00         0.00000E+00        -0.50000E+08
 
   -0.50002E+08         0.32290E+04         0.00000E+00
    0.32290E+04        -0.50000E+08         0.00000E+00
    0.00000E+00         0.00000E+00        -0.50000E+08
 
   -0.50002E+08         0.41464E+04         0.00000E+00
    0.41464E+04        -0.50000E+08         0.00000E+00
    0.00000E+00         0.00000E+00        -0.50000E+08
 
   -0.50002E+08         0.50603E+04         0.00000E+00
    0.50603E+04        -0.50000E+08         0.00000E+00
    0.00000E+00         0.00000E+00        -0.50000E+08
 
   -0.50002E+08         0.59699E+04         0.00000E+00
    0.59699E+04        -0.50000E+08         0.00000E+00
    0.00000E+00         0.00000E+00        -0.50000E+08
 
   -0.50002E+08         0.68745E+04         0.00000E+00
    0.68745E+04        -0.50000E+08         0.00000E+00
    0.00000E+00         0.00000E+00        -0.50000E+08
 
   -0.50002E+08         0.77733E+04         0.00000E+00
    0.77733E+04        -0.50000E+08         0.00000E+00
    0.00000E+00         0.00000E+00        -0.50000E+08
 
   -0.50002E+08         0.86658E+04         0.00000E+00
    0.86658E+04        -0.50000E+08         0.00000E+00
    0.00000E+00         0.00000E+00        -0.50000E+08
 
   -0.50002E+08         0.95511E+04         0.00000E+00
    0.95511E+04        -0.50000E+08         0.00000E+00
    0.00000E+00         0.00000E+00        -0.50000E+08
 
   -0.50002E+08         0.10429E+05         0.00000E+00
    0.10429E+05        -0.50000E+08         0.00000E+00
    0.00000E+00         0.00000E+00        -0.50000E+08
 
   -0.50002E+08         0.11297E+05         0.00000E+00
    0.11297E+05        -0.50000E+08         0.00000E+00
    0.00000E+00         0.00000E+00        -0.50000E+08
 
   -0.50002E+08         0.12157E+05         0.00000E+00
    0.12157E+05        -0.50000E+08         0.00000E+00
    0.00000E+00         0.00000E+00        -0.50000E+08
 
   -0.50002E+08         0.13007E+05         0.00000E+00
    0.13007E+05        -0.50000E+08         0.00000E+00
    0.00000E+00         0.00000E+00        -0.50000E+08
 
   -0.50002E+08         0.13846E+05         0.00000E+00
    0.13846E+05        -0.50000E+08         0.00000E+00
    0.00000E+00         0.00000E+00        -0.50000E+08
 
   -0.50002E+08         0.14673E+05         0.00000E+00
    0.14673E+05        -0.50000E+08         0.00000E+00
    0.00000E+00         0.00000E+00        -0.50000E+08
 
   -0.50002E+08         0.15489E+05         0.00000E+00
    0.15489E+05        -0.50000E+08         0.00000E+00
    0.00000E+00         0.00000E+00        -0.50000E+08
 
   -0.50002E+08         0.16292E+05         0.00000E+00
    0.16292E+05        -0.50000E+08         0.00000E+00
    0.00000E+00         0.00000E+00        -0.50000E+08
 
   -0.50002E+08         0.17081E+05         0.00000E+00
    0.17081E+05        -0.50000E+08         0.00000E+00
    0.00000E+00         0.00000E+00        -0.50000E+08
 
   -0.50002E+08         0.17857E+05         0.00000E+00
    0.17857E+05        -0.50000E+08         0.00000E+00
    0.00000E+00         0.00000E+00        -0.50000E+08
 
   -0.50002E+08         0.18618E+05         0.00000E+00
    0.18618E+05        -0.50000E+08         0.00000E+00
    0.00000E+00         0.00000E+00        -0.50000E+08
 
   -0.50002E+08         0.19363E+05         0.00000E+00
    0.19363E+05        -0.50000E+08         0.00000E+00
    0.00000E+00         0.00000E+00        -0.50000E+08
 
   -0.50002E+08         0.20093E+05         0.00000E+00
    0.20093E+05        -0.50000E+08         0.00000E+00
    0.00000E+00         0.00000E+00        -0.50000E+08
 
   -0.50002E+08         0.20806E+05         0.00000E+00
    0.20806E+05        -0.50000E+08         0.00000E+00
    0.00000E+00         0.00000E+00        -0.50000E+08
 
   -0.50002E+08         0.21501E+05         0.00000E+00
    0.21501E+05        -0.50000E+08         0.00000E+00
    0.00000E+00         0.00000E+00        -0.50000E+08
 
   -0.50002E+08         0.22179E+05         0.00000E+00
    0.22179E+05        -0.50000E+08         0.00000E+00
    0.00000E+00         0.00000E+00        -0.50000E+08
 
   -0.50002E+08         0.22838E+05         0.00000E+00
    0.22838E+05        -0.50000E+08         0.00000E+00
    0.00000E+00         0.00000E+00        -0.50000E+08
 
   -0.50002E+08         0.23478E+05         0.00000E+00
    0.23478E+05        -0.50000E+08         0.00000E+00
    0.00000E+00         0.00000E+00        -0.50000E+08
 
   -0.50002E+08         0.24099E+05         0.00000E+00
    0.24099E+05        -0.50000E+08         0.00000E+00
    0.00000E+00         0.00000E+00        -0.50000E+08
 
   -0.50001E+08         0.24699E+05         0.00000E+00
    0.24699E+05        -0.50000E+08         0.00000E+00
    0.00000E+00         0.00000E+00        -0.50000E+08
 
   -0.50001E+08         0.25279E+05         0.00000E+00
    0.25279E+05        -0.50000E+08         0.00000E+00
    0.00000E+00         0.00000E+00        -0.50000E+08
 
   -0.50001E+08         0.25837E+05         0.00000E+00
    0.25837E+05        -0.50000E+08         0.00000E+00
    0.00000E+00         0.00000E+00        -0.50000E+08
 
   -0.50001E+08         0.26373E+05         0.00000E+00
    0.26373E+05        -0.50000E+08         0.00000E+00
    0.00000E+00         0.00000E+00        -0.50000E+08
 
   -0.50001E+08         0.26887E+05         0.00000E+00
    0.26887E+05        -0.50000E+08         0.00000E+00
    0.00000E+00         0.00000E+00        -0.50000E+08
 
   -0.50001E+08         0.27378E+05         0.00000E+00
    0.27378E+05        -0.50001E+08         0.00000E+00
    0.00000E+00         0.00000E+00        -0.50000E+08
 
   -0.50001E+08         0.27846E+05         0.00000E+00
    0.27846E+05        -0.50001E+08         0.00000E+00
    0.00000E+00         0.00000E+00        -0.50000E+08
 
   -0.50001E+08         0.28290E+05         0.00000E+00
    0.28290E+05        -0.50001E+08         0.00000E+00
    0.00000E+00         0.00000E+00        -0.50000E+08
 
   -0.50001E+08         0.28709E+05         0.00000E+00
    0.28709E+05        -0.50001E+08         0.00000E+00
    0.00000E+00         0.00000E+00        -0.50000E+08
 
   -0.50001E+08         0.29104E+05         0.00000E+00
    0.29104E+05        -0.50001E+08         0.00000E+00
    0.00000E+00         0.00000E+00        -0.50000E+08
 
   -0.50001E+08         0.29474E+05         0.00000E+00
    0.29474E+05        -0.50001E+08         0.00000E+00
    0.00000E+00         0.00000E+00        -0.50000E+08
 
   -0.50001E+08         0.29818E+05         0.00000E+00
    0.29818E+05        -0.50001E+08         0.00000E+00
    0.00000E+00         0.00000E+00        -0.50000E+08
 
   -0.50001E+08         0.30135E+05         0.00000E+00
    0.30135E+05        -0.50001E+08         0.00000E+00
    0.00000E+00         0.00000E+00        -0.50000E+08
 
   -0.50001E+08         0.30427E+05         0.00000E+00
    0.30427E+05        -0.50001E+08         0.00000E+00
    0.00000E+00         0.00000E+00        -0.50000E+08
 
   -0.50001E+08         0.30691E+05         0.00000E+00
    0.30691E+05        -0.50001E+08         0.00000E+00
    0.00000E+00         0.00000E+00        -0.50000E+08
 
   -0.50001E+08         0.30929E+05         0.00000E+00
    0.30929E+05        -0.50001E+08         0.00000E+00
    0.00000E+00         0.00000E+00        -0.50000E+08
 
   -0.50000E+08         0.31139E+05         0.00000E+00
    0.31139E+05        -0.50001E+08         0.00000E+00
    0.00000E+00         0.00000E+00        -0.50000E+08
 
   -0.50000E+08         0.31321E+05         0.00000E+00
    0.31321E+05        -0.50001E+08         0.00000E+00
    0.00000E+00         0.00000E+00        -0.50000E+08
 
   -0.50000E+08         0.31475E+05         0.00000E+00
    0.31475E+05        -0.50001E+08         0.00000E+00
    0.00000E+00         0.00000E+00        -0.50000E+08
 
   -0.50000E+08         0.31601E+05         0.00000E+00
    0.31601E+05        -0.50001E+08         0.00000E+00
    0.00000E+00         0.00000E+00        -0.50000E+08
 
   -0.49998E+08         0.46271E+03         0.00000E+00
    0.46271E+03        -0.50000E+08         0.00000E+00
    0.00000E+00         0.00000E+00        -0.50000E+08
 
   -0.49998E+08         0.13869E+04         0.00000E+00
    0.13869E+04        -0.50000E+08         0.00000E+00
    0.00000E+00         0.00000E+00        -0.50000E+08
 
   -0.49998E+08         0.23097E+04         0.00000E+00
    0.23097E+04        -0.50000E+08         0.00000E+00
    0.00000E+00         0.00000E+00        -0.50000E+08
 
   -0.49998E+08         0.32303E+04         0.00000E+00
    0.32303E+04        -0.50000E+08         0.00000E+00
    0.00000E+00         0.00000E+00        -0.50000E+08
 
   -0.49998E+08         0.41480E+04         0.00000E+00
    0.41480E+04        -0.50000E+08         0.00000E+00
    0.00000E+00         0.00000E+00        -0.50000E+08
 
   -0.49998E+08         0.50621E+04         0.00000E+00
    0.50621E+04        -0.50000E+08         0.00000E+00
    0.00000E+00         0.00000E+00        -0.50000E+08
 
   -0.49998E+08         0.59719E+04         0.00000E+00
    0.59719E+04        -0.50000E+08         0.00000E+00
    0.00000E+00         0.00000E+00        -0.50000E+08
 
   -0.49998E+08         0.68767E+04         0.00000E+00
    0.68767E+04        -0.50000E+08         0.00000E+00
    0.00000E+00         0.00000E+00        -0.50000E+08
 
   -0.49998E+08         0.77757E+04         0.00000E+00
    0.77757E+04        -0.50000E+08         0.00000E+00
    0.00000E+00         0.00000E+00        -0.50000E+08
 
   -0.49998E+08         0.86683E+04         0.00000E+00
    0.86683E+04        -0.50000E+08         0.00000E+00
    0.00000E+00         0.00000E+00        -0.50000E+08
 
   -0.49998E+08         0.95536E+04         0.00000E+00
    0.95536E+04        -0.50000E+08         0.00000E+00
    0.00000E+00         0.00000E+00        -0.50000E+08
 
   -0.49998E+08         0.10431E+05         0.00000E+00
    0.10431E+05        -0.50000E+08         0.00000E+00
    0.00000E+00         0.00000E+00        -0.50000E+08
 
   -0.49998E+08         0.11300E+05         0.00000E+00
    0.11300E+05        -0.50000E+08         0.00000E+00
    0.00000E+00         0.00000E+00        -0.50000E+08
 
   -0.49998E+08         0.12160E+05         0.00000E+00
    0.12160E+05        -0.50000E+08         0.00000E+00
    0.00000E+00         0.00000E+00        -0.50000E+08
 
   -0.49998E+08         0.13009E+05         0.00000E+00
    0.13009E+05        -0.50000E+08         0.00000E+00
    0.00000E+00         0.00000E+00        -0.50000E+08
 
   -0.49998E+08         0.13848E+05         0.00000E+00
    0.13848E+05        -0.50000E+08         0.00000E+00
    0.00000E+00         0.00000E+00        -0.50000E+08
 
   -0.49998E+08         0.14676E+05         0.00000E+00
    0.14676E+05        -0.50000E+08         0.00000E+00
    0.00000E+00         0.00000E+00        -0.50000E+08
 
   -0.49998E+08         0.15491E+05         0.00000E+00
    0.15491E+05        -0.50000E+08         0.00000E+00
    0.00000E+00         0.00000E+00        -0.50000E+08
 
   -0.49998E+08         0.16294E+05         0.00000E+00
    0.16294E+05        -0.50000E+08         0.00000E+00
    0.00000E+00         0.00000E+00        -0.50000E+08
 
   -0.49998E+08         0.17084E+05         0.00000E+00
    0.17084E+05        -0.50000E+08         0.00000E+00
    0.00000E+00         0.00000E+00        -0.50000E+08
 
   -0.49998E+08         0.17859E+05         0.00000E+00
    0.17859E+05        -0.50000E+08         0.00000E+00
    0.00000E+00         0.00000E+00        -0.50000E+08
 
   -0.49998E+08         0.18620E+05         0.00000E+00
    0.18620E+05        -0.50000E+08         0.00000E+00
    0.00000E+00         0.00000E+00        -0.50000E+08
 
   -0.49998E+08         0.19365E+05         0.00000E+00
    0.19365E+05        -0.50000E+08         0.00000E+00
    0.00000E+00         0.00000E+00        -0.50000E+08
 
   -0.49998E+08         0.20094E+05         0.00000E+00
    0.20094E+05        -0.50000E+08         0.00000E+00
    0.00000E+00         0.00000E+00        -0.50000E+08
 
   -0.49998E+08         0.20807E+05         0.00000E+00
    0.20807E+05        -0.50000E+08         0.00000E+00
    0.00000E+00         0.00000E+00        -0.50000E+08
 
   -0.49998E+08         0.21502E+05         0.00000E+00
    0.21502E+05        -0.50000E+08         0.00000E+00
    0.00000E+00         0.00000E+00        -0.50000E+08
 
   -0.49998E+08         0.22179E+05         0.00000E+00
    0.22179E+05        -0.50000E+08         0.00000E+00
    0.00000E+00         0.00000E+00        -0.50000E+08
 
   -0.49998E+08         0.22838E+05         0.00000E+00
    0.22838E+05        -0.50000E+08         0.00000E+00
    0.00000E+00         0.00000E+00        -0.50000E+08
 
   -0.49998E+08         0.23478E+05         0.00000E+00
    0.23478E+05        -0.50000E+08         0.00000E+00
    0.00000E+00         0.00000E+00        -0.50000E+08
 
   -0.49998E+08         0.24099E+05         0.00000E+00
    0.24099E+05        -0.50000E+08         0.00000E+00
    0.00000E+00         0.00000E+00        -0.50000E+08
 
   -0.49999E+08         0.24699E+05         0.00000E+00
    0.24699E+05        -0.50000E+08         0.00000E+00
    0.00000E+00         0.00000E+00        -0.50000E+08
 
   -0.49999E+08         0.25278E+05         0.00000E+00
    0.25278E+05        -0.50000E+08         0.00000E+00
    0.00000E+00         0.00000E+00        -0.50000E+08
 
   -0.49999E+08         0.25836E+05         0.00000E+00
    0.25836E+05        -0.50000E+08         0.00000E+00
    0.00000E+00         0.00000E+00        -0.50000E+08
 
   -0.49999E+08         0.26372E+05         0.00000E+00
    0.26372E+05        -0.50000E+08         0.00000E+00
    0.00000E+00         0.00000E+00        -0.50000E+08
 
   -0.49999E+08         0.26886E+05         0.00000E+00
    0.26886E+05        -0.49999E+08         0.00000E+00
    0.00000E+00         0.00000E+00        -0.50000E+08
 
   -0.49999E+08         0.27376E+05         0.00000E+00
    0.27376E+05        -0.49999E+08         0.00000E+00
    0.00000E+00         0.00000E+00        -0.50000E+08
 
   -0.49999E+08         0.27844E+05         0.00000E+00
    0.27844E+05        -0.49999E+08         0.00000E+00
    0.00000E+00         0.00000E+00        -0.50000E+08
 
   -0.49999E+08         0.28287E+05         0.00000E+00
    0.28287E+05        -0.49999E+08         0.00000E+00
    0.00000E+00         0.00000E+00        -0.50000E+08
 
   -0.49999E+08         0.28707E+05         0.00000E+00
    0.28707E+05        -0.49999E+08         0.00000E+00
    0.00000E+00         0.00000E+00        -0.50000E+08
 
   -0.49999E+08         0.29101E+05         0.00000E+00
    0.29101E+05        -0.49999E+08         0.00000E+00
    0.00000E+00         0.00000E+00        -0.50000E+08
 
   -0.49999E+08         0.29470E+05         0.00000E+00
    0.29470E+05        -0.49999E+08         0.00000E+00
    0.00000E+00         0.00000E+00        -0.50000E+08
 
   -0.49999E+08         0.29814E+05         0.00000E+00
    0.29814E+05        -0.49999E+08         0.00000E+00
    0.00000E+00         0.00000E+00        -0.50000E+08
 
   -0.49999E+08         0.30131E+05         0.00000E+00
    0.30131E+05        -0.49999E+08         0.00000E+00
    0.00000E+00         0.00000E+00        -0.50000E+08
 
   -0.49999E+08         0.30423E+05         0.00000E+00
    0.30423E+05        -0.49999E+08         0.00000E+00
    0.00000E+00         0.00000E+00        -0.50000E+08
 
   -0.49999E+08         0.30687E+05         0.00000E+00
    0.30687E+05        -0.49999E+08         0.00000E+00
    0.00000E+00         0.00000E+00        -0.50000E+08
 
   -0.49999E+08         0.30924E+05         0.00000E+00
    0.30924E+05        -0.49999E+08         0.00000E+00
    0.00000E+00         0.00000E+00        -0.50000E+08
 
   -0.50000E+08         0.31134E+05         0.00000E+00
    0.31134E+05        -0.49999E+08         0.00000E+00
    0.00000E+00         0.00000E+00        -0.50000E+08
 
   -0.50000E+08         0.31316E+05         0.00000E+00
    0.31316E+05        -0.49999E+08         0.00000E+00
    0.00000E+00         0.00000E+00        -0.50000E+08
 
   -0.50000E+08         0.31470E+05         0.00000E+00
    0.31470E+05        -0.49999E+08         0.00000E+00
    0.00000E+00         0.00000E+00        -0.50000E+08
 
   -0.50000E+08         0.31595E+05         0.00000E+00
    0.31595E+05        -0.49999E+08         0.00000E+00
    0.00000E+00         0.00000E+00        -0.50000E+08
 
   -0.49993E+08         0.46742E+03         0.00000E+00
    0.46742E+03        -0.50000E+08         0.00000E+00
    0.00000E+00         0.00000E+00        -0.49999E+08
 
   -0.49993E+08         0.14010E+04         0.00000E+00
    0.14010E+04        -0.50000E+08         0.00000E+00
    0.00000E+00         0.00000E+00        -0.49999E+08
 
   -0.49993E+08         0.23331E+04         0.00000E+00
    0.23331E+04        -0.50000E+08         0.00000E+00
    0.00000E+00         0.00000E+00        -0.49999E+08
 
   -0.49993E+08         0.32630E+04         0.00000E+00
    0.32630E+04        -0.50000E+08         0.00000E+00
    0.00000E+00         0.00000E+00        -0.49999E+08
 
   -0.49993E+08         0.41900E+04         0.00000E+00
    0.41900E+04        -0.50000E+08         0.00000E+00
    0.00000E+00         0.00000E+00        -0.49999E+08
 
   -0.49993E+08         0.51133E+04         0.00000E+00
    0.51133E+04        -0.50000E+08         0.00000E+00
    0.00000E+00         0.00000E+00        -0.49999E+08
 
   -0.49993E+08         0.60323E+04         0.00000E+00
    0.60323E+04        -0.50000E+08         0.00000E+00
    0.00000E+00         0.00000E+00        -0.49999E+08
 
   -0.49993E+08         0.69462E+04         0.00000E+00
    0.69462E+04        -0.50000E+08         0.00000E+00
    0.00000E+00         0.00000E+00        -0.49999E+08
 
   -0.49993E+08         0.78542E+04         0.00000E+00
    0.78542E+04        -0.50000E+08         0.00000E+00
    0.00000E+00         0.00000E+00        -0.49999E+08
 
   -0.49993E+08         0.87557E+04         0.00000E+00
    0.87557E+04        -0.50000E+08         0.00000E+00
    0.00000E+00         0.00000E+00        -0.49999E+08
 
   -0.49993E+08         0.96500E+04         0.00000E+00
    0.96500E+04        -0.50000E+08         0.00000E+00
    0.00000E+00         0.00000E+00        -0.49999E+08
 
   -0.49993E+08         0.10536E+05         0.00000E+00
    0.10536E+05        -0.50000E+08         0.00000E+00
    0.00000E+00         0.00000E+00        -0.49999E+08
 
   -0.49994E+08         0.11414E+05         0.00000E+00
    0.11414E+05        -0.50000E+08         0.00000E+00
    0.00000E+00         0.00000E+00        -0.49999E+08
 
   -0.49994E+08         0.12282E+05         0.00000E+00
    0.12282E+05        -0.50000E+08         0.00000E+00
    0.00000E+00         0.00000E+00        -0.49999E+08
 
   -0.49994E+08         0.13140E+05         0.00000E+00
    0.13140E+05        -0.50000E+08         0.00000E+00
    0.00000E+00         0.00000E+00        -0.49999E+08
 
   -0.49994E+08         0.13988E+05         0.00000E+00
    0.13988E+05        -0.50000E+08         0.00000E+00
    0.00000E+00         0.00000E+00        -0.49999E+08
 
   -0.49994E+08         0.14823E+05         0.00000E+00
    0.14823E+05        -0.50000E+08         0.00000E+00
    0.00000E+00         0.00000E+00        -0.49999E+08
 
   -0.49994E+08         0.15647E+05         0.00000E+00
    0.15647E+05        -0.50000E+08         0.00000E+00
    0.00000E+00         0.00000E+00        -0.49999E+08
 
   -0.49994E+08         0.16458E+05         0.00000E+00
    0.16458E+05        -0.50000E+08         0.00000E+00
    0.00000E+00         0.00000E+00        -0.49999E+08
 
   -0.49994E+08         0.17255E+05         0.00000E+00
    0.17255E+05        -0.49999E+08         0.00000E+00
    0.00000E+00         0.00000E+00        -0.49999E+08
 
   -0.49994E+08         0.18038E+05         0.00000E+00
    0.18038E+05        -0.49999E+08         0.00000E+00
    0.00000E+00         0.00000E+00        -0.49999E+08
 
   -0.49994E+08         0.18806E+05         0.00000E+00
    0.18806E+05        -0.49999E+08         0.00000E+00
    0.00000E+00         0.00000E+00        -0.49999E+08
 
   -0.49994E+08         0.19559E+05         0.00000E+00
    0.19559E+05        -0.49999E+08         0.00000E+00
    0.00000E+00         0.00000E+00        -0.49999E+08
 
   -0.49995E+08         0.20295E+05         0.00000E+00
    0.20295E+05        -0.49999E+08         0.00000E+00
    0.00000E+00         0.00000E+00        -0.49999E+08
 
   -0.49995E+08         0.21015E+05         0.00000E+00
    0.21015E+05        -0.49999E+08         0.00000E+00
    0.00000E+00         0.00000E+00        -0.49999E+08
 
   -0.49995E+08         0.21717E+05         0.00000E+00
    0.21717E+05        -0.49999E+08         0.00000E+00
    0.00000E+00         0.00000E+00        -0.49999E+08
 
   -0.49995E+08         0.22401E+05         0.00000E+00
    0.22401E+05        -0.49999E+08         0.00000E+00
    0.00000E+00         0.00000E+00        -0.49999E+08
 
   -0.49995E+08         0.23067E+05         0.00000E+00
    0.23067E+05        -0.49999E+08         0.00000E+00
    0.00000E+00         0.00000E+00        -0.49999E+08
 
   -0.49995E+08         0.23713E+05         0.00000E+00
    0.23713E+05        -0.49999E+08         0.00000E+00
    0.00000E+00         0.00000E+00        -0.49999E+08
 
   -0.49995E+08         0.24340E+05         0.00000E+00
    0.24340E+05        -0.49999E+08         0.00000E+00
    0.00000E+00         0.00000E+00        -0.49999E+08
 
   -0.49996E+08         0.24946E+05         0.00000E+00
    0.24946E+05        -0.49999E+08         0.00000E+00
    0.00000E+00         0.00000E+00        -0.49999E+08
 
   -0.49996E+08         0.25531E+05         0.00000E+00
    0.25531E+05        -0.49999E+08         0.00000E+00
    0.00000E+00         0.00000E+00        -0.49999E+08
 
   -0.49996E+08         0.26094E+05         0.00000E+00
    0.26094E+05        -0.49999E+08         0.00000E+00
    0.00000E+00         0.00000E+00        -0.49999E+08
 
   -0.49996E+08         0.26635E+05         0.00000E+00
    0.26635E+05        -0.49999E+08         0.00000E+00
    0.00000E+00         0.00000E+00        -0.49999E+08
 
   -0.49996E+08         0.27154E+05         0.00000E+00
    0.27154E+05        -0.49998E+08         0.00000E+00
    0.00000E+00         0.00000E+00        -0.49999E+08
 
   -0.49996E+08         0.27650E+05         0.00000E+00
    0.27650E+05        -0.49998E+08         0.00000E+00
    0.00000E+00         0.00000E+00        -0.49999E+08
 
   -0.49997E+08         0.28122E+05         0.00000E+00
    0.28122E+05        -0.49998E+08         0.00000E+00
    0.00000E+00         0.00000E+00        -0.49999E+08
 
   -0.49997E+08         0.28569E+05         0.00000E+00
    0.28569E+05        -0.49998E+08         0.00000E+00
    0.00000E+00         0.00000E+00        -0.49999E+08
 
   -0.49997E+08         0.28993E+05         0.00000E+00
    0.28993E+05        -0.49998E+08         0.00000E+00
    0.00000E+00         0.00000E+00        -0.49999E+08
 
   -0.49997E+08         0.29391E+05         0.00000E+00
    0.29391E+05        -0.49998E+08         0.00000E+00
    0.00000E+00         0.00000E+00        -0.49999E+08
 
   -0.49997E+08         0.29764E+05         0.00000E+00
    0.29764E+05        -0.49998E+08         0.00000E+00
    0.00000E+00         0.00000E+00        -0.49999E+08
 
   -0.49998E+08         0.30111E+05         0.00000E+00
    0.30111E+05        -0.49998E+08         0.00000E+00
    0.00000E+00         0.00000E+00        -0.49999E+08
 
   -0.49998E+08         0.30432E+05         0.00000E+00
    0.30432E+05        -0.49998E+08         0.00000E+00
    0.00000E+00         0.00000E+00        -0.49999E+08
 
   -0.49998E+08         0.30726E+05         0.00000E+00
    0.30726E+05        -0.49998E+08         0.00000E+00
    0.00000E+00         0.00000E+00        -0.49999E+08
 
   -0.49998E+08         0.30993E+05         0.00000E+00
    0.30993E+05        -0.49998E+08         0.00000E+00
    0.00000E+00         0.00000E+00        -0.49999E+08
 
   -0.49998E+08         0.31232E+05         0.00000E+00
    0.31232E+05        -0.49998E+08         0.00000E+00
    0.00000E+00         0.00000E+00        -0.49999E+08
 
   -0.49999E+08         0.31444E+05         0.00000E+00
    0.31444E+05        -0.49997E+08         0.00000E+00
    0.00000E+00         0.00000E+00        -0.49999E+08
 
   -0.49999E+08         0.31628E+05         0.00000E+00
    0.31628E+05        -0.49997E+08         0.00000E+00
    0.00000E+00         0.00000E+00        -0.49999E+08
 
   -0.49999E+08         0.31783E+05         0.00000E+00
    0.31783E+05        -0.49997E+08         0.00000E+00
    0.00000E+00         0.00000E+00        -0.49999E+08
 
   -0.49999E+08         0.31910E+05         0.00000E+00
    0.31910E+05        -0.49997E+08         0.00000E+00
    0.00000E+00         0.00000E+00        -0.49999E+08
 
   -0.49988E+08         0.47664E+03         0.00000E+00
    0.47664E+03        -0.50000E+08         0.00000E+00
    0.00000E+00         0.00000E+00        -0.49998E+08
 
   -0.49988E+08         0.14287E+04         0.00000E+00
    0.14287E+04        -0.50000E+08         0.00000E+00
    0.00000E+00         0.00000E+00        -0.49998E+08
 
   -0.49988E+08         0.23792E+04         0.00000E+00
    0.23792E+04        -0.50000E+08         0.00000E+00
    0.00000E+00         0.00000E+00        -0.49998E+08
 
   -0.49988E+08         0.33275E+04         0.00000E+00
    0.33275E+04        -0.50000E+08         0.00000E+00
    0.00000E+00         0.00000E+00        -0.49998E+08
 
   -0.49988E+08         0.42728E+04         0.00000E+00
    0.42728E+04        -0.50000E+08         0.00000E+00
    0.00000E+00         0.00000E+00        -0.49998E+08
 
   -0.49988E+08         0.52144E+04         0.00000E+00
    0.52144E+04        -0.50000E+08         0.00000E+00
    0.00000E+00         0.00000E+00        -0.49998E+08
 
   -0.49989E+08         0.61516E+04         0.00000E+00
    0.61516E+04        -0.50000E+08         0.00000E+00
    0.00000E+00         0.00000E+00        -0.49998E+08
 
   -0.49989E+08         0.70836E+04         0.00000E+00
    0.70836E+04        -0.50000E+08         0.00000E+00
    0.00000E+00         0.00000E+00        -0.49998E+08
 
   -0.49989E+08         0.80096E+04         0.00000E+00
    0.80096E+04        -0.50000E+08         0.00000E+00
    0.00000E+00         0.00000E+00        -0.49998E+08
 
   -0.49989E+08         0.89290E+04         0.00000E+00
    0.89290E+04        -0.50000E+08         0.00000E+00
    0.00000E+00         0.00000E+00        -0.49998E+08
 
   -0.49989E+08         0.98411E+04         0.00000E+00
    0.98411E+04        -0.50000E+08         0.00000E+00
    0.00000E+00         0.00000E+00        -0.49998E+08
 
   -0.49989E+08         0.10745E+05         0.00000E+00
    0.10745E+05        -0.50000E+08         0.00000E+00
    0.00000E+00         0.00000E+00        -0.49998E+08
 
   -0.49989E+08         0.11640E+05         0.00000E+00
    0.11640E+05        -0.50000E+08         0.00000E+00
    0.00000E+00         0.00000E+00        -0.49998E+08
 
   -0.49989E+08         0.12526E+05         0.00000E+00
    0.12526E+05        -0.50000E+08         0.00000E+00
    0.00000E+00         0.00000E+00        -0.49998E+08
 
   -0.49989E+08         0.13401E+05         0.00000E+00
    0.13401E+05        -0.50000E+08         0.00000E+00
    0.00000E+00         0.00000E+00        -0.49998E+08
 
   -0.49989E+08         0.14265E+05         0.00000E+00
    0.14265E+05        -0.49999E+08         0.00000E+00
    0.00000E+00         0.00000E+00        -0.49998E+08
 
   -0.49990E+08         0.15117E+05         0.00000E+00
    0.15117E+05        -0.49999E+08         0.00000E+00
    0.00000E+00         0.00000E+00        -0.49998E+08
 
   -0.49990E+08         0.15958E+05         0.00000E+00
    0.15958E+05        -0.49999E+08         0.00000E+00
    0.00000E+00         0.00000E+00        -0.49998E+08
 
   -0.49990E+08         0.16785E+05         0.00000E+00
    0.16785E+05        -0.49999E+08         0.00000E+00
    0.00000E+00         0.00000E+00        -0.49998E+08
 
   -0.49990E+08         0.17598E+05         0.00000E+00
    0.17598E+05        -0.49999E+08         0.00000E+00
    0.00000E+00         0.00000E+00        -0.49998E+08
 
   -0.49990E+08         0.18396E+05         0.00000E+00
    0.18396E+05        -0.49999E+08         0.00000E+00
    0.00000E+00         0.00000E+00        -0.49998E+08
 
   -0.49991E+08         0.19180E+05         0.00000E+00
    0.19180E+05        -0.49999E+08         0.00000E+00
    0.00000E+00         0.00000E+00        -0.49998E+08
 
   -0.49991E+08         0.19948E+05         0.00000E+00
    0.19948E+05        -0.49999E+08         0.00000E+00
    0.00000E+00         0.00000E+00        -0.49998E+08
 
   -0.49991E+08         0.20699E+05         0.00000E+00
    0.20699E+05        -0.49999E+08         0.00000E+00
    0.00000E+00         0.00000E+00        -0.49998E+08
 
   -0.49991E+08         0.21433E+05         0.00000E+00
    0.21433E+05        -0.49999E+08         0.00000E+00
    0.00000E+00         0.00000E+00        -0.49998E+08
 
   -0.49991E+08         0.22149E+05         0.00000E+00
    0.22149E+05        -0.49999E+08         0.00000E+00
    0.00000E+00         0.00000E+00        -0.49998E+08
 
   -0.49992E+08         0.22847E+05         0.00000E+00
    0.22847E+05        -0.49998E+08         0.00000E+00
    0.00000E+00         0.00000E+00        -0.49998E+08
 
   -0.49992E+08         0.23526E+05         0.00000E+00
    0.23526E+05        -0.49998E+08         0.00000E+00
    0.00000E+00         0.00000E+00        -0.49998E+08
 
   -0.49992E+08         0.24185E+05         0.00000E+00
    0.24185E+05        -0.49998E+08         0.00000E+00
    0.00000E+00         0.00000E+00        -0.49998E+08
 
   -0.49992E+08         0.24824E+05         0.00000E+00
    0.24824E+05        -0.49998E+08         0.00000E+00
    0.00000E+00         0.00000E+00        -0.49998E+08
 
   -0.49993E+08         0.25442E+05         0.00000E+00
    0.25442E+05        -0.49998E+08         0.00000E+00
    0.00000E+00         0.00000E+00        -0.49998E+08
 
   -0.49993E+08         0.26039E+05         0.00000E+00
    0.26039E+05        -0.49998E+08         0.00000E+00
    0.00000E+00         0.00000E+00        -0.49998E+08
 
   -0.49993E+08         0.26614E+05         0.00000E+00
    0.26614E+05        -0.49998E+08         0.00000E+00
    0.00000E+00         0.00000E+00        -0.49998E+08
 
   -0.49993E+08         0.27166E+05         0.00000E+00
    0.27166E+05        -0.49998E+08         0.00000E+00
    0.00000E+00         0.00000E+00        -0.49998E+08
 
   -0.49994E+08         0.27695E+05         0.00000E+00
    0.27695E+05        -0.49997E+08         0.00000E+00
    0.00000E+00         0.00000E+00        -0.49998E+08
 
   -0.49994E+08         0.28201E+05         0.00000E+00
    0.28201E+05        -0.49997E+08         0.00000E+00
    0.00000E+00         0.00000E+00        -0.49998E+08
 
   -0.49994E+08         0.28682E+05         0.00000E+00
    0.28682E+05        -0.49997E+08         0.00000E+00
    0.00000E+00         0.00000E+00        -0.49998E+08
 
   -0.49995E+08         0.29139E+05         0.00000E+00
    0.29139E+05        -0.49997E+08         0.00000E+00
    0.00000E+00         0.00000E+00        -0.49998E+08
 
   -0.49995E+08         0.29571E+05         0.00000E+00
    0.29571E+05        -0.49997E+08         0.00000E+00
    0.00000E+00         0.00000E+00        -0.49998E+08
 
   -0.49995E+08         0.29977E+05         0.00000E+00
    0.29977E+05        -0.49997E+08         0.00000E+00
    0.00000E+00         0.00000E+00        -0.49998E+08
 
   -0.49996E+08         0.30358E+05         0.00000E+00
    0.30358E+05        -0.49997E+08         0.00000E+00
    0.00000E+00         0.00000E+00        -0.49998E+08
 
   -0.49996E+08         0.30712E+05         0.00000E+00
    0.30712E+05        -0.49996E+08         0.00000E+00
    0.00000E+00         0.00000E+00        -0.49998E+08
 
   -0.49996E+08         0.31039E+05         0.00000E+00
    0.31039E+05        -0.49996E+08         0.00000E+00
    0.00000E+00         0.00000E+00        -0.49998E+08
 
   -0.49997E+08         0.31339E+05         0.00000E+00
    0.31339E+05        -0.49996E+08         0.00000E+00
    0.00000E+00         0.00000E+00        -0.49999E+08
 
   -0.49997E+08         0.31611E+05         0.00000E+00
    0.31611E+05        -0.49996E+08         0.00000E+00
    0.00000E+00         0.00000E+00        -0.49999E+08
 
   -0.49997E+08         0.31856E+05         0.00000E+00
    0.31856E+05        -0.49996E+08         0.00000E+00
    0.00000E+00         0.00000E+00        -0.49999E+08
 
   -0.49998E+08         0.32072E+05         0.00000E+00
    0.32072E+05        -0.49996E+08         0.00000E+00
    0.00000E+00         0.00000E+00        -0.49999E+08
 
   -0.49998E+08         0.32259E+05         0.00000E+00
    0.32259E+05        -0.49996E+08         0.00000E+00
    0.00000E+00         0.00000E+00        -0.49999E+08
 
   -0.49998E+08         0.32418E+05         0.00000E+00
    0.32418E+05        -0.49995E+08         0.00000E+00
    0.00000E+00         0.00000E+00        -0.49999E+08
 
   -0.49999E+08         0.32547E+05         0.00000E+00
    0.32547E+05        -0.49995E+08         0.00000E+00
    0.00000E+00         0.00000E+00        -0.49999E+08
 
   -0.49983E+08         0.49047E+03         0.00000E+00
    0.49047E+03        -0.50000E+08         0.00000E+00
    0.00000E+00         0.00000E+00        -0.49997E+08
 
   -0.49984E+08         0.14702E+04         0.00000E+00
    0.14702E+04        -0.50000E+08         0.00000E+00
    0.00000E+00         0.00000E+00        -0.49997E+08
 
   -0.49984E+08         0.24484E+04         0.00000E+00
    0.24484E+04        -0.50000E+08         0.00000E+00
    0.00000E+00         0.00000E+00        -0.49997E+08
 
   -0.49984E+08         0.34243E+04         0.00000E+00
    0.34243E+04        -0.50000E+08         0.00000E+00
    0.00000E+00         0.00000E+00        -0.49997E+08
 
   -0.49984E+08         0.43972E+04         0.00000E+00
    0.43972E+04        -0.50000E+08         0.00000E+00
    0.00000E+00         0.00000E+00        -0.49997E+08
 
   -0.49984E+08         0.53663E+04         0.00000E+00
    0.53663E+04        -0.50000E+08         0.00000E+00
    0.00000E+00         0.00000E+00        -0.49997E+08
 
   -0.49984E+08         0.63309E+04         0.00000E+00
    0.63309E+04        -0.50000E+08         0.00000E+00
    0.00000E+00         0.00000E+00        -0.49997E+08
 
   -0.49984E+08         0.72902E+04         0.00000E+00
    0.72902E+04        -0.50000E+08         0.00000E+00
    0.00000E+00         0.00000E+00        -0.49997E+08
 
   -0.49984E+08         0.82434E+04         0.00000E+00
    0.82434E+04        -0.50000E+08         0.00000E+00
    0.00000E+00         0.00000E+00        -0.49997E+08
 
   -0.49984E+08         0.91899E+04         0.00000E+00
    0.91899E+04        -0.50000E+08         0.00000E+00
    0.00000E+00         0.00000E+00        -0.49997E+08
 
   -0.49984E+08         0.10129E+05         0.00000E+00
    0.10129E+05        -0.50000E+08         0.00000E+00
    0.00000E+00         0.00000E+00        -0.49997E+08
 
   -0.49984E+08         0.11059E+05         0.00000E+00
    0.11059E+05        -0.50000E+08         0.00000E+00
    0.00000E+00         0.00000E+00        -0.49997E+08
 
   -0.49985E+08         0.11981E+05         0.00000E+00
    0.11981E+05        -0.49999E+08         0.00000E+00
    0.00000E+00         0.00000E+00        -0.49997E+08
 
   -0.49985E+08         0.12892E+05         0.00000E+00
    0.12892E+05        -0.49999E+08         0.00000E+00
    0.00000E+00         0.00000E+00        -0.49997E+08
 
   -0.49985E+08         0.13793E+05         0.00000E+00
    0.13793E+05        -0.49999E+08         0.00000E+00
    0.00000E+00         0.00000E+00        -0.49997E+08
 
   -0.49985E+08         0.14683E+05         0.00000E+00
    0.14683E+05        -0.49999E+08         0.00000E+00
    0.00000E+00         0.00000E+00        -0.49997E+08
 
   -0.49985E+08         0.15561E+05         0.00000E+00
    0.15561E+05        -0.49999E+08         0.00000E+00
    0.00000E+00         0.00000E+00        -0.49997E+08
 
   -0.49986E+08         0.16426E+05         0.00000E+00
    0.16426E+05        -0.49999E+08         0.00000E+00
    0.00000E+00         0.00000E+00        -0.49997E+08
 
   -0.49986E+08         0.17277E+05         0.00000E+00
    0.17277E+05        -0.49999E+08         0.00000E+00
    0.00000E+00         0.00000E+00        -0.49997E+08
 
   -0.49986E+08         0.18115E+05         0.00000E+00
    0.18115E+05        -0.49999E+08         0.00000E+00
    0.00000E+00         0.00000E+00        -0.49997E+08
 
   -0.49986E+08         0.18937E+05         0.00000E+00
    0.18937E+05        -0.49999E+08         0.00000E+00
    0.00000E+00         0.00000E+00        -0.49997E+08
 
   -0.49987E+08         0.19744E+05         0.00000E+00
    0.19744E+05        -0.49999E+08         0.00000E+00
    0.00000E+00         0.00000E+00        -0.49997E+08
 
   -0.49987E+08         0.20535E+05         0.00000E+00
    0.20535E+05        -0.49998E+08         0.00000E+00
    0.00000E+00         0.00000E+00        -0.49997E+08
 
   -0.49987E+08         0.21308E+05         0.00000E+00
    0.21308E+05        -0.49998E+08         0.00000E+00
    0.00000E+00         0.00000E+00        -0.49997E+08
 
   -0.49987E+08         0.22064E+05         0.00000E+00
    0.22064E+05        -0.49998E+08         0.00000E+00
    0.00000E+00         0.00000E+00        -0.49997E+08
 
   -0.49988E+08         0.22802E+05         0.00000E+00
    0.22802E+05        -0.49998E+08         0.00000E+00
    0.00000E+00         0.00000E+00        -0.49997E+08
 
   -0.49988E+08         0.23521E+05         0.00000E+00
    0.23521E+05        -0.49998E+08         0.00000E+00
    0.00000E+00         0.00000E+00        -0.49997E+08
 
   -0.49988E+08         0.24220E+05         0.00000E+00
    0.24220E+05        -0.49998E+08         0.00000E+00
    0.00000E+00         0.00000E+00        -0.49997E+08
 
   -0.49989E+08         0.24899E+05         0.00000E+00
    0.24899E+05        -0.49997E+08         0.00000E+00
    0.00000E+00         0.00000E+00        -0.49997E+08
 
   -0.49989E+08         0.25557E+05         0.00000E+00
    0.25557E+05        -0.49997E+08         0.00000E+00
    0.00000E+00         0.00000E+00        -0.49997E+08
 
   -0.49990E+08         0.26194E+05         0.00000E+00
    0.26194E+05        -0.49997E+08         0.00000E+00
    0.00000E+00         0.00000E+00        -0.49997E+08
 
   -0.49990E+08         0.26809E+05         0.00000E+00
    0.26809E+05        -0.49997E+08         0.00000E+00
    0.00000E+00         0.00000E+00        -0.49997E+08
 
   -0.49990E+08         0.27401E+05         0.00000E+00
    0.27401E+05        -0.49997E+08         0.00000E+00
    0.00000E+00         0.00000E+00        -0.49997E+08
 
   -0.49991E+08         0.27969E+05         0.00000E+00
    0.27969E+05        -0.49997E+08         0.00000E+00
    0.00000E+00         0.00000E+00        -0.49997E+08
 
   -0.49991E+08         0.28515E+05         0.00000E+00
    0.28515E+05        -0.49996E+08         0.00000E+00
    0.00000E+00         0.00000E+00        -0.49997E+08
 
   -0.49991E+08         0.29036E+05         0.00000E+00
    0.29036E+05        -0.49996E+08         0.00000E+00
    0.00000E+00         0.00000E+00        -0.49998E+08
 
   -0.49992E+08         0.29532E+05         0.00000E+00
    0.29532E+05        -0.49996E+08         0.00000E+00
    0.00000E+00         0.00000E+00        -0.49998E+08
 
   -0.49992E+08         0.30002E+05         0.00000E+00
    0.30002E+05        -0.49996E+08         0.00000E+00
    0.00000E+00         0.00000E+00        -0.49998E+08
 
   -0.49993E+08         0.30447E+05         0.00000E+00
    0.30447E+05        -0.49996E+08         0.00000E+00
    0.00000E+00         0.00000E+00        -0.49998E+08
 
   -0.49993E+08         0.30866E+05         0.00000E+00
    0.30866E+05        -0.49995E+08         0.00000E+00
    0.00000E+00         0.00000E+00        -0.49998E+08
 
   -0.49994E+08         0.31258E+05         0.00000E+00
    0.31258E+05        -0.49995E+08         0.00000E+00
    0.00000E+00         0.00000E+00        -0.49998E+08
 
   -0.49994E+08         0.31623E+05         0.00000E+00
    0.31623E+05        -0.49995E+08         0.00000E+00
    0.00000E+00         0.00000E+00        -0.49998E+08
 
   -0.49995E+08         0.31960E+05         0.00000E+00
    0.31960E+05        -0.49995E+08         0.00000E+00
    0.00000E+00         0.00000E+00        -0.49998E+08
 
   -0.49995E+08         0.32269E+05         0.00000E+00
    0.32269E+05        -0.49995E+08         0.00000E+00
    0.00000E+00         0.00000E+00        -0.49998E+08
 
   -0.49996E+08         0.32549E+05         0.00000E+00
    0.32549E+05        -0.49994E+08         0.00000E+00
    0.00000E+00         0.00000E+00        -0.49998E+08
 
   -0.49996E+08         0.32801E+05         0.00000E+00
    0.32801E+05        -0.49994E+08         0.00000E+00
    0.00000E+00         0.00000E+00        -0.49998E+08
 
   -0.49997E+08         0.33024E+05         0.00000E+00
    0.33024E+05        -0.49994E+08         0.00000E+00
    0.00000E+00         0.00000E+00        -0.49998E+08
 
   -0.49997E+08         0.33217E+05         0.00000E+00
    0.33217E+05        -0.49994E+08         0.00000E+00
    0.00000E+00         0.00000E+00        -0.49998E+08
 
   -0.49998E+08         0.33380E+05         0.00000E+00
    0.33380E+05        -0.49993E+08         0.00000E+00
    0.00000E+00         0.00000E+00        -0.49998E+08
 
   -0.49998E+08         0.33514E+05         0.00000E+00
    0.33514E+05        -0.49993E+08         0.00000E+00
    0.00000E+00         0.00000E+00        -0.49998E+08
 
   -0.49979E+08         0.50902E+03         0.00000E+00
    0.50902E+03        -0.50000E+08         0.00000E+00
    0.00000E+00         0.00000E+00        -0.49996E+08
 
   -0.49979E+08         0.15259E+04         0.00000E+00
    0.15259E+04        -0.50000E+08         0.00000E+00
    0.00000E+00         0.00000E+00        -0.49996E+08
 
   -0.49979E+08         0.25413E+04         0.00000E+00
    0.25413E+04        -0.50000E+08         0.00000E+00
    0.00000E+00         0.00000E+00        -0.49996E+08
 
   -0.49979E+08         0.35544E+04         0.00000E+00
    0.35544E+04        -0.50000E+08         0.00000E+00
    0.00000E+00         0.00000E+00        -0.49996E+08
 
   -0.49979E+08         0.45644E+04         0.00000E+00
    0.45644E+04        -0.50000E+08         0.00000E+00
    0.00000E+00         0.00000E+00        -0.49996E+08
 
   -0.49979E+08         0.55706E+04         0.00000E+00
    0.55706E+04        -0.50000E+08         0.00000E+00
    0.00000E+00         0.00000E+00        -0.49996E+08
 
   -0.49979E+08         0.65721E+04         0.00000E+00
    0.65721E+04        -0.50000E+08         0.00000E+00
    0.00000E+00         0.00000E+00        -0.49996E+08
 
   -0.49979E+08         0.75681E+04         0.00000E+00
    0.75681E+04        -0.50000E+08         0.00000E+00
    0.00000E+00         0.00000E+00        -0.49996E+08
 
   -0.49979E+08         0.85579E+04         0.00000E+00
    0.85579E+04        -0.50000E+08         0.00000E+00
    0.00000E+00         0.00000E+00        -0.49996E+08
 
   -0.49979E+08         0.95407E+04         0.00000E+00
    0.95407E+04        -0.50000E+08         0.00000E+00
    0.00000E+00         0.00000E+00        -0.49996E+08
 
   -0.49980E+08         0.10516E+05         0.00000E+00
    0.10516E+05        -0.50000E+08         0.00000E+00
    0.00000E+00         0.00000E+00        -0.49996E+08
 
   -0.49980E+08         0.11482E+05         0.00000E+00
    0.11482E+05        -0.49999E+08         0.00000E+00
    0.00000E+00         0.00000E+00        -0.49996E+08
 
   -0.49980E+08         0.12439E+05         0.00000E+00
    0.12439E+05        -0.49999E+08         0.00000E+00
    0.00000E+00         0.00000E+00        -0.49996E+08
 
   -0.49980E+08         0.13386E+05         0.00000E+00
    0.13386E+05        -0.49999E+08         0.00000E+00
    0.00000E+00         0.00000E+00        -0.49996E+08
 
   -0.49980E+08         0.14322E+05         0.00000E+00
    0.14322E+05        -0.49999E+08         0.00000E+00
    0.00000E+00         0.00000E+00        -0.49996E+08
 
   -0.49981E+08         0.15246E+05         0.00000E+00
    0.15246E+05        -0.49999E+08         0.00000E+00
    0.00000E+00         0.00000E+00        -0.49996E+08
 
   -0.49981E+08         0.16158E+05         0.00000E+00
    0.16158E+05        -0.49999E+08         0.00000E+00
    0.00000E+00         0.00000E+00        -0.49996E+08
 
   -0.49981E+08         0.17057E+05         0.00000E+00
    0.17057E+05        -0.49999E+08         0.00000E+00
    0.00000E+00         0.00000E+00        -0.49996E+08
 
   -0.49982E+08         0.17941E+05         0.00000E+00
    0.17941E+05        -0.49999E+08         0.00000E+00
    0.00000E+00         0.00000E+00        -0.49996E+08
 
   -0.49982E+08         0.18811E+05         0.00000E+00
    0.18811E+05        -0.49998E+08         0.00000E+00
    0.00000E+00         0.00000E+00        -0.49996E+08
 
   -0.49982E+08         0.19666E+05         0.00000E+00
    0.19666E+05        -0.49998E+08         0.00000E+00
    0.00000E+00         0.00000E+00        -0.49996E+08
 
   -0.49983E+08         0.20504E+05         0.00000E+00
    0.20504E+05        -0.49998E+08         0.00000E+00
    0.00000E+00         0.00000E+00        -0.49996E+08
 
   -0.49983E+08         0.21326E+05         0.00000E+00
    0.21326E+05        -0.49998E+08         0.00000E+00
    0.00000E+00         0.00000E+00        -0.49996E+08
 
   -0.49983E+08         0.22130E+05         0.00000E+00
    0.22130E+05        -0.49998E+08         0.00000E+00
    0.00000E+00         0.00000E+00        -0.49996E+08
 
   -0.49984E+08         0.22916E+05         0.00000E+00
    0.22916E+05        -0.49998E+08         0.00000E+00
    0.00000E+00         0.00000E+00        -0.49996E+08
 
   -0.49984E+08         0.23682E+05         0.00000E+00
    0.23682E+05        -0.49997E+08         0.00000E+00
    0.00000E+00         0.00000E+00        -0.49996E+08
 
   -0.49984E+08         0.24429E+05         0.00000E+00
    0.24429E+05        -0.49997E+08         0.00000E+00
    0.00000E+00         0.00000E+00        -0.49996E+08
 
   -0.49985E+08         0.25156E+05         0.00000E+00
    0.25156E+05        -0.49997E+08         0.00000E+00
    0.00000E+00         0.00000E+00        -0.49996E+08
 
   -0.49985E+08         0.25862E+05         0.00000E+00
    0.25862E+05        -0.49997E+08         0.00000E+00
    0.00000E+00         0.00000E+00        -0.49996E+08
 
   -0.49986E+08         0.26546E+05         0.00000E+00
    0.26546E+05        -0.49997E+08         0.00000E+00
    0.00000E+00         0.00000E+00        -0.49996E+08
 
   -0.49986E+08         0.27208E+05         0.00000E+00
    0.27208E+05        -0.49996E+08         0.00000E+00
    0.00000E+00         0.00000E+00        -0.49997E+08
 
   -0.49987E+08         0.27847E+05         0.00000E+00
    0.27847E+05        -0.49996E+08         0.00000E+00
    0.00000E+00         0.00000E+00        -0.49997E+08
 
   -0.49987E+08         0.28463E+05         0.00000E+00
    0.28463E+05        -0.49996E+08         0.00000E+00
    0.00000E+00         0.00000E+00        -0.49997E+08
 
   -0.49988E+08         0.29054E+05         0.00000E+00
    0.29054E+05        -0.49996E+08         0.00000E+00
    0.00000E+00         0.00000E+00        -0.49997E+08
 
   -0.49988E+08         0.29621E+05         0.00000E+00
    0.29621E+05        -0.49995E+08         0.00000E+00
    0.00000E+00         0.00000E+00        -0.49997E+08
 
   -0.49989E+08         0.30162E+05         0.00000E+00
    0.30162E+05        -0.49995E+08         0.00000E+00
    0.00000E+00         0.00000E+00        -0.49997E+08
 
   -0.49989E+08         0.30678E+05         0.00000E+00
    0.30678E+05        -0.49995E+08         0.00000E+00
    0.00000E+00         0.00000E+00        -0.49997E+08
 
   -0.49990E+08         0.31168E+05         0.00000E+00
    0.31168E+05        -0.49995E+08         0.00000E+00
    0.00000E+00         0.00000E+00        -0.49997E+08
 
   -0.49991E+08         0.31630E+05         0.00000E+00
    0.31630E+05        -0.49994E+08         0.00000E+00
    0.00000E+00         0.00000E+00        -0.49997E+08
 
   -0.49991E+08         0.32066E+05         0.00000E+00
    0.32066E+05        -0.49994E+08         0.00000E+00
    0.00000E+00         0.00000E+00        -0.49997E+08
 
   -0.49992E+08         0.32473E+05         0.00000E+00
    0.32473E+05        -0.49994E+08         0.00000E+00
    0.00000E+00         0.00000E+00        -0.49997E+08
 
   -0.49992E+08         0.32853E+05         0.00000E+00
    0.32853E+05        -0.49993E+08         0.00000E+00
    0.00000E+00         0.00000E+00        -0.49997E+08
 
   -0.49993E+08         0.33203E+05         0.00000E+00
    0.33203E+05        -0.49993E+08         0.00000E+00
    0.00000E+00         0.00000E+00        -0.49997E+08
 
   -0.49994E+08         0.33525E+05         0.00000E+00
    0.33525E+05        -0.49993E+08         0.00000E+00
    0.00000E+00         0.00000E+00        -0.49997E+08
 
   -0.49994E+08         0.33817E+05         0.00000E+00
    0.33817E+05        -0.49993E+08         0.00000E+00
    0.00000E+00         0.00000E+00        -0.49997E+08
 
   -0.49995E+08         0.34078E+05         0.00000E+00
    0.34078E+05        -0.49992E+08         0.00000E+00
    0.00000E+00         0.00000E+00        -0.49997E+08
 
   -0.49995E+08         0.34310E+05         0.00000E+00
    0.34310E+05        -0.49992E+08         0.00000E+00
    0.00000E+00         0.00000E+00        -0.49997E+08
 
   -0.49996E+08         0.34511E+05         0.00000E+00
    0.34511E+05        -0.49992E+08         0.00000E+00
    0.00000E+00         0.00000E+00        -0.49998E+08
 
   -0.49997E+08         0.34681E+05         0.00000E+00
    0.34681E+05        -0.49991E+08         0.00000E+00
    0.00000E+00         0.00000E+00        -0.49998E+08
 
   -0.49997E+08         0.34819E+05         0.00000E+00
    0.34819E+05        -0.49991E+08         0.00000E+00
    0.00000E+00         0.00000E+00        -0.49998E+08
 
   -0.49973E+08         0.53248E+03         0.00000E+00
    0.53248E+03        -0.50000E+08         0.00000E+00
    0.00000E+00         0.00000E+00        -0.49995E+08
 
   -0.49973E+08         0.15964E+04         0.00000E+00
    0.15964E+04        -0.50000E+08         0.00000E+00
    0.00000E+00         0.00000E+00        -0.49995E+08
 
   -0.49973E+08         0.26589E+04         0.00000E+00
    0.26589E+04        -0.50000E+08         0.00000E+00
    0.00000E+00         0.00000E+00        -0.49995E+08
 
   -0.49973E+08         0.37190E+04         0.00000E+00
    0.37190E+04        -0.50000E+08         0.00000E+00
    0.00000E+00         0.00000E+00        -0.49995E+08
 
   -0.49974E+08         0.47760E+04         0.00000E+00
    0.47760E+04        -0.50000E+08         0.00000E+00
    0.00000E+00         0.00000E+00        -0.49995E+08
 
   -0.49974E+08         0.58290E+04         0.00000E+00
    0.58290E+04        -0.50000E+08         0.00000E+00
    0.00000E+00         0.00000E+00        -0.49995E+08
 
   -0.49974E+08         0.68773E+04         0.00000E+00
    0.68773E+04        -0.50000E+08         0.00000E+00
    0.00000E+00         0.00000E+00        -0.49995E+08
 
   -0.49974E+08         0.79199E+04         0.00000E+00
    0.79199E+04        -0.50000E+08         0.00000E+00
    0.00000E+00         0.00000E+00        -0.49995E+08
 
   -0.49974E+08         0.89561E+04         0.00000E+00
    0.89561E+04        -0.50000E+08         0.00000E+00
    0.00000E+00         0.00000E+00        -0.49995E+08
 
   -0.49974E+08         0.99849E+04         0.00000E+00
    0.99849E+04        -0.50000E+08         0.00000E+00
    0.00000E+00         0.00000E+00        -0.49995E+08
 
   -0.49975E+08         0.11006E+05         0.00000E+00
    0.11006E+05        -0.49999E+08         0.00000E+00
    0.00000E+00         0.00000E+00        -0.49995E+08
 
   -0.49975E+08         0.12018E+05         0.00000E+00
    0.12018E+05        -0.49999E+08         0.00000E+00
    0.00000E+00         0.00000E+00        -0.49995E+08
 
   -0.49975E+08         0.13020E+05         0.00000E+00
    0.13020E+05        -0.49999E+08         0.00000E+00
    0.00000E+00         0.00000E+00        -0.49995E+08
 
   -0.49975E+08         0.14011E+05         0.00000E+00
    0.14011E+05        -0.49999E+08         0.00000E+00
    0.00000E+00         0.00000E+00        -0.49995E+08
 
   -0.49976E+08         0.14992E+05         0.00000E+00
    0.14992E+05        -0.49999E+08         0.00000E+00
    0.00000E+00         0.00000E+00        -0.49995E+08
 
   -0.49976E+08         0.15960E+05         0.00000E+00
    0.15960E+05        -0.49999E+08         0.00000E+00
    0.00000E+00         0.00000E+00        -0.49995E+08
 
   -0.49976E+08         0.16915E+05         0.00000E+00
    0.16915E+05        -0.49999E+08         0.00000E+00
    0.00000E+00         0.00000E+00        -0.49995E+08
 
   -0.49977E+08         0.17856E+05         0.00000E+00
    0.17856E+05        -0.49998E+08         0.00000E+00
    0.00000E+00         0.00000E+00        -0.49995E+08
 
   -0.49977E+08         0.18783E+05         0.00000E+00
    0.18783E+05        -0.49998E+08         0.00000E+00
    0.00000E+00         0.00000E+00        -0.49995E+08
 
   -0.49977E+08         0.19695E+05         0.00000E+00
    0.19695E+05        -0.49998E+08         0.00000E+00
    0.00000E+00         0.00000E+00        -0.49995E+08
 
   -0.49978E+08         0.20590E+05         0.00000E+00
    0.20590E+05        -0.49998E+08         0.00000E+00
    0.00000E+00         0.00000E+00        -0.49995E+08
 
   -0.49978E+08         0.21468E+05         0.00000E+00
    0.21468E+05        -0.49998E+08         0.00000E+00
    0.00000E+00         0.00000E+00        -0.49995E+08
 
   -0.49979E+08         0.22329E+05         0.00000E+00
    0.22329E+05        -0.49997E+08         0.00000E+00
    0.00000E+00         0.00000E+00        -0.49995E+08
 
   -0.49979E+08         0.23172E+05         0.00000E+00
    0.23172E+05        -0.49997E+08         0.00000E+00
    0.00000E+00         0.00000E+00        -0.49995E+08
 
   -0.49980E+08         0.23995E+05         0.00000E+00
    0.23995E+05        -0.49997E+08         0.00000E+00
    0.00000E+00         0.00000E+00        -0.49995E+08
 
   -0.49980E+08         0.24799E+05         0.00000E+00
    0.24799E+05        -0.49997E+08         0.00000E+00
    0.00000E+00         0.00000E+00        -0.49995E+08
 
   -0.49981E+08         0.25582E+05         0.00000E+00
    0.25582E+05        -0.49996E+08         0.00000E+00
    0.00000E+00         0.00000E+00        -0.49995E+08
 
   -0.49981E+08         0.26344E+05         0.00000E+00
    0.26344E+05        -0.49996E+08         0.00000E+00
    0.00000E+00         0.00000E+00        -0.49995E+08
 
   -0.49982E+08         0.27084E+05         0.00000E+00
    0.27084E+05        -0.49996E+08         0.00000E+00
    0.00000E+00         0.00000E+00        -0.49996E+08
 
   -0.49982E+08         0.27801E+05         0.00000E+00
    0.27801E+05        -0.49996E+08         0.00000E+00
    0.00000E+00         0.00000E+00        -0.49996E+08
 
   -0.49983E+08         0.28495E+05         0.00000E+00
    0.28495E+05        -0.49995E+08         0.00000E+00
    0.00000E+00         0.00000E+00        -0.49996E+08
 
   -0.49984E+08         0.29165E+05         0.00000E+00
    0.29165E+05        -0.49995E+08         0.00000E+00
    0.00000E+00         0.00000E+00        -0.49996E+08
 
   -0.49984E+08         0.29811E+05         0.00000E+00
    0.29811E+05        -0.49995E+08         0.00000E+00
    0.00000E+00         0.00000E+00        -0.49996E+08
 
   -0.49985E+08         0.30431E+05         0.00000E+00
    0.30431E+05        -0.49994E+08         0.00000E+00
    0.00000E+00         0.00000E+00        -0.49996E+08
 
   -0.49986E+08         0.31025E+05         0.00000E+00
    0.31025E+05        -0.49994E+08         0.00000E+00
    0.00000E+00         0.00000E+00        -0.49996E+08
 
   -0.49986E+08         0.31593E+05         0.00000E+00
    0.31593E+05        -0.49994E+08         0.00000E+00
    0.00000E+00         0.00000E+00        -0.49996E+08
 
   -0.49987E+08         0.32134E+05         0.00000E+00
    0.32134E+05        -0.49994E+08         0.00000E+00
    0.00000E+00         0.00000E+00        -0.49996E+08
 
   -0.49988E+08         0.32648E+05         0.00000E+00
    0.32648E+05        -0.49993E+08         0.00000E+00
    0.00000E+00         0.00000E+00        -0.49996E+08
 
   -0.49988E+08         0.33133E+05         0.00000E+00
    0.33133E+05        -0.49993E+08         0.00000E+00
    0.00000E+00         0.00000E+00        -0.49996E+08
 
   -0.49989E+08         0.33590E+05         0.00000E+00
    0.33590E+05        -0.49993E+08         0.00000E+00
    0.00000E+00         0.00000E+00        -0.49996E+08
 
   -0.49990E+08         0.34017E+05         0.00000E+00
    0.34017E+05        -0.49992E+08         0.00000E+00
    0.00000E+00         0.00000E+00        -0.49996E+08
 
   -0.49990E+08         0.34415E+05         0.00000E+00
    0.34415E+05        -0.49992E+08         0.00000E+00
    0.00000E+00         0.00000E+00        -0.49996E+08
 
   -0.49991E+08         0.34783E+05         0.00000E+00
    0.34783E+05        -0.49992E+08         0.00000E+00
    0.00000E+00         0.00000E+00        -0.49997E+08
 
   -0.49992E+08         0.35120E+05         0.00000E+00
    0.35120E+05        -0.49991E+08         0.00000E+00
    0.00000E+00         0.00000E+00        -0.49997E+08
 
   -0.49993E+08         0.35426E+05         0.00000E+00
    0.35426E+05        -0.49991E+08         0.00000E+00
    0.00000E+00         0.00000E+00        -0.49997E+08
 
   -0.49994E+08         0.35701E+05         0.00000E+00
    0.35701E+05        -0.49990E+08         0.00000E+00
    0.00000E+00         0.00000E+00        -0.49997E+08
 
   -0.49994E+08         0.35944E+05         0.00000E+00
    0.35944E+05        -0.49990E+08         0.00000E+00
    0.00000E+00         0.00000E+00        -0.49997E+08
 
   -0.49995E+08         0.36155E+05         0.00000E+00
    0.36155E+05        -0.49990E+08         0.00000E+00
    0.00000E+00         0.00000E+00        -0.49997E+08
 
   -0.49996E+08         0.36333E+05         0.00000E+00
    0.36333E+05        -0.49989E+08         0.00000E+00
    0.00000E+00         0.00000E+00        -0.49997E+08
 
   -0.49997E+08         0.36478E+05         0.00000E+00
    0.36478E+05        -0.49989E+08         0.00000E+00
    0.00000E+00         0.00000E+00        -0.49997E+08
 
   -0.49968E+08         0.56105E+03         0.00000E+00
    0.56105E+03        -0.50000E+08         0.00000E+00
    0.00000E+00         0.00000E+00        -0.49994E+08
 
   -0.49968E+08         0.16823E+04         0.00000E+00
    0.16823E+04        -0.50000E+08         0.00000E+00
    0.00000E+00         0.00000E+00        -0.49994E+08
 
   -0.49968E+08         0.28022E+04         0.00000E+00
    0.28022E+04        -0.50000E+08         0.00000E+00
    0.00000E+00         0.00000E+00        -0.49994E+08
 
   -0.49968E+08         0.39197E+04         0.00000E+00
    0.39197E+04        -0.50000E+08         0.00000E+00
    0.00000E+00         0.00000E+00        -0.49994E+08
 
   -0.49968E+08         0.50340E+04         0.00000E+00
    0.50340E+04        -0.50000E+08         0.00000E+00
    0.00000E+00         0.00000E+00        -0.49994E+08
 
   -0.49968E+08         0.61443E+04         0.00000E+00
    0.61443E+04        -0.50000E+08         0.00000E+00
    0.00000E+00         0.00000E+00        -0.49994E+08
 
   -0.49968E+08         0.72496E+04         0.00000E+00
    0.72496E+04        -0.50000E+08         0.00000E+00
    0.00000E+00         0.00000E+00        -0.49994E+08
 
   -0.49969E+08         0.83490E+04         0.00000E+00
    0.83490E+04        -0.50000E+08         0.00000E+00
    0.00000E+00         0.00000E+00        -0.49994E+08
 
   -0.49969E+08         0.94418E+04         0.00000E+00
    0.94418E+04        -0.50000E+08         0.00000E+00
    0.00000E+00         0.00000E+00        -0.49994E+08
 
   -0.49969E+08         0.10527E+05         0.00000E+00
    0.10527E+05        -0.49999E+08         0.00000E+00
    0.00000E+00         0.00000E+00        -0.49994E+08
 
   -0.49969E+08         0.11604E+05         0.00000E+00
    0.11604E+05        -0.49999E+08         0.00000E+00
    0.00000E+00         0.00000E+00        -0.49994E+08
 
   -0.49970E+08         0.12671E+05         0.00000E+00
    0.12671E+05        -0.49999E+08         0.00000E+00
    0.00000E+00         0.00000E+00        -0.49994E+08
 
   -0.49970E+08         0.13729E+05         0.00000E+00
    0.13729E+05        -0.49999E+08         0.00000E+00
    0.00000E+00         0.00000E+00        -0.49994E+08
 
   -0.49970E+08         0.14775E+05         0.00000E+00
    0.14775E+05        -0.49999E+08         0.00000E+00
    0.00000E+00         0.00000E+00        -0.49994E+08
 
   -0.49971E+08         0.15809E+05         0.00000E+00
    0.15809E+05        -0.49999E+08         0.00000E+00
    0.00000E+00         0.00000E+00        -0.49994E+08
 
   -0.49971E+08         0.16831E+05         0.00000E+00
    0.16831E+05        -0.49999E+08         0.00000E+00
    0.00000E+00         0.00000E+00        -0.49994E+08
 
   -0.49971E+08         0.17839E+05         0.00000E+00
    0.17839E+05        -0.49998E+08         0.00000E+00
    0.00000E+00         0.00000E+00        -0.49994E+08
 
   -0.49972E+08         0.18833E+05         0.00000E+00
    0.18833E+05        -0.49998E+08         0.00000E+00
    0.00000E+00         0.00000E+00        -0.49994E+08
 
   -0.49972E+08         0.19811E+05         0.00000E+00
    0.19811E+05        -0.49998E+08         0.00000E+00
    0.00000E+00         0.00000E+00        -0.49994E+08
 
   -0.49973E+08         0.20773E+05         0.00000E+00
    0.20773E+05        -0.49998E+08         0.00000E+00
    0.00000E+00         0.00000E+00        -0.49994E+08
 
   -0.49973E+08         0.21719E+05         0.00000E+00
    0.21719E+05        -0.49997E+08         0.00000E+00
    0.00000E+00         0.00000E+00        -0.49994E+08
 
   -0.49974E+08         0.22647E+05         0.00000E+00
    0.22647E+05        -0.49997E+08         0.00000E+00
    0.00000E+00         0.00000E+00        -0.49994E+08
 
   -0.49974E+08         0.23556E+05         0.00000E+00
    0.23556E+05        -0.49997E+08         0.00000E+00
    0.00000E+00         0.00000E+00        -0.49994E+08
 
   -0.49975E+08         0.24445E+05         0.00000E+00
    0.24445E+05        -0.49997E+08         0.00000E+00
    0.00000E+00         0.00000E+00        -0.49994E+08
 
   -0.49976E+08         0.25315E+05         0.00000E+00
    0.25315E+05        -0.49996E+08         0.00000E+00
    0.00000E+00         0.00000E+00        -0.49994E+08
 
   -0.49976E+08         0.26164E+05         0.00000E+00
    0.26164E+05        -0.49996E+08         0.00000E+00
    0.00000E+00         0.00000E+00        -0.49994E+08
 
   -0.49977E+08         0.26991E+05         0.00000E+00
    0.26991E+05        -0.49996E+08         0.00000E+00
    0.00000E+00         0.00000E+00        -0.49994E+08
 
   -0.49977E+08         0.27796E+05         0.00000E+00
    0.27796E+05        -0.49995E+08         0.00000E+00
    0.00000E+00         0.00000E+00        -0.49995E+08
 
   -0.49978E+08         0.28577E+05         0.00000E+00
    0.28577E+05        -0.49995E+08         0.00000E+00
    0.00000E+00         0.00000E+00        -0.49995E+08
 
   -0.49979E+08         0.29335E+05         0.00000E+00
    0.29335E+05        -0.49995E+08         0.00000E+00
    0.00000E+00         0.00000E+00        -0.49995E+08
 
   -0.49979E+08         0.30069E+05         0.00000E+00
    0.30069E+05        -0.49994E+08         0.00000E+00
    0.00000E+00         0.00000E+00        -0.49995E+08
 
   -0.49980E+08         0.30777E+05         0.00000E+00
    0.30777E+05        -0.49994E+08         0.00000E+00
    0.00000E+00         0.00000E+00        -0.49995E+08
 
   -0.49981E+08         0.31459E+05         0.00000E+00
    0.31459E+05        -0.49994E+08         0.00000E+00
    0.00000E+00         0.00000E+00        -0.49995E+08
 
   -0.49982E+08         0.32114E+05         0.00000E+00
    0.32114E+05        -0.49993E+08         0.00000E+00
    0.00000E+00         0.00000E+00        -0.49995E+08
 
   -0.49983E+08         0.32742E+05         0.00000E+00
    0.32742E+05        -0.49993E+08         0.00000E+00
    0.00000E+00         0.00000E+00        -0.49995E+08
 
   -0.49983E+08         0.33343E+05         0.00000E+00
    0.33343E+05        -0.49993E+08         0.00000E+00
    0.00000E+00         0.00000E+00        -0.49995E+08
 
   -0.49984E+08         0.33915E+05         0.00000E+00
    0.33915E+05        -0.49992E+08         0.00000E+00
    0.00000E+00         0.00000E+00        -0.49995E+08
 
   -0.49985E+08         0.34457E+05         0.00000E+00
    0.34457E+05        -0.49992E+08         0.00000E+00
    0.00000E+00         0.00000E+00        -0.49995E+08
 
   -0.49986E+08         0.34970E+05         0.00000E+00
    0.34970E+05        -0.49991E+08         0.00000E+00
    0.00000E+00         0.00000E+00        -0.49995E+08
 
   -0.49987E+08         0.35453E+05         0.00000E+00
    0.35453E+05        -0.49991E+08         0.00000E+00
    0.00000E+00         0.00000E+00        -0.49996E+08
 
   -0.49988E+08         0.35905E+05         0.00000E+00
    0.35905E+05        -0.49991E+08         0.00000E+00
    0.00000E+00         0.00000E+00        -0.49996E+08
 
   -0.49988E+08         0.36326E+05         0.00000E+00
    0.36326E+05        -0.49990E+08         0.00000E+00
    0.00000E+00         0.00000E+00        -0.49996E+08
 
   -0.49989E+08         0.36715E+05         0.00000E+00
    0.36715E+05        -0.49990E+08         0.00000E+00
    0.00000E+00         0.00000E+00        -0.49996E+08
 
   -0.49990E+08         0.37071E+05         0.00000E+00
    0.37071E+05        -0.49989E+08         0.00000E+00
    0.00000E+00         0.00000E+00        -0.49996E+08
 
   -0.49991E+08         0.37395E+05         0.00000E+00
    0.37395E+05        -0.49989E+08         0.00000E+00
    0.00000E+00         0.00000E+00        -0.49996E+08
 
   -0.49992E+08         0.37686E+05         0.00000E+00
    0.37686E+05        -0.49988E+08         0.00000E+00
    0.00000E+00         0.00000E+00        -0.49996E+08
 
   -0.49993E+08         0.37943E+05         0.00000E+00
    0.37943E+05        -0.49988E+08         0.00000E+00
    0.00000E+00         0.00000E+00        -0.49996E+08
 
   -0.49994E+08         0.38166E+05         0.00000E+00
    0.38166E+05        -0.49988E+08         0.00000E+00
    0.00000E+00         0.00000E+00        -0.49996E+08
 
   -0.49995E+08         0.38354E+05         0.00000E+00
    0.38354E+05        -0.49987E+08         0.00000E+00
    0.00000E+00         0.00000E+00        -0.49996E+08
 
   -0.49996E+08         0.38508E+05         0.00000E+00
    0.38508E+05        -0.49987E+08         0.00000E+00
    0.00000E+00         0.00000E+00        -0.49997E+08
 
   -0.49962E+08         0.59499E+03         0.00000E+00
    0.59499E+03        -0.50000E+08         0.00000E+00
    0.00000E+00         0.00000E+00        -0.49992E+08
 
   -0.49962E+08         0.17845E+04         0.00000E+00
    0.17845E+04        -0.50000E+08         0.00000E+00
    0.00000E+00         0.00000E+00        -0.49992E+08
 
   -0.49962E+08         0.29726E+04         0.00000E+00
    0.29726E+04        -0.50000E+08         0.00000E+00
    0.00000E+00         0.00000E+00        -0.49992E+08
 
   -0.49962E+08         0.41584E+04         0.00000E+00
    0.41584E+04        -0.50000E+08         0.00000E+00
    0.00000E+00         0.00000E+00        -0.49992E+08
 
   -0.49962E+08         0.53409E+04         0.00000E+00
    0.53409E+04        -0.50000E+08         0.00000E+00
    0.00000E+00         0.00000E+00        -0.49992E+08
 
   -0.49963E+08         0.65193E+04         0.00000E+00
    0.65193E+04        -0.50000E+08         0.00000E+00
    0.00000E+00         0.00000E+00        -0.49992E+08
 
   -0.49963E+08         0.76926E+04         0.00000E+00
    0.76926E+04        -0.50000E+08         0.00000E+00
    0.00000E+00         0.00000E+00        -0.49992E+08
 
   -0.49963E+08         0.88599E+04         0.00000E+00
    0.88599E+04        -0.50000E+08         0.00000E+00
    0.00000E+00         0.00000E+00        -0.49993E+08
 
   -0.49963E+08         0.10020E+05         0.00000E+00
    0.10020E+05        -0.49999E+08         0.00000E+00
    0.00000E+00         0.00000E+00        -0.49993E+08
 
   -0.49964E+08         0.11173E+05         0.00000E+00
    0.11173E+05        -0.49999E+08         0.00000E+00
    0.00000E+00         0.00000E+00        -0.49993E+08
 
   -0.49964E+08         0.12316E+05         0.00000E+00
    0.12316E+05        -0.49999E+08         0.00000E+00
    0.00000E+00         0.00000E+00        -0.49993E+08
 
   -0.49964E+08         0.13450E+05         0.00000E+00
    0.13450E+05        -0.49999E+08         0.00000E+00
    0.00000E+00         0.00000E+00        -0.49993E+08
 
   -0.49965E+08         0.14573E+05         0.00000E+00
    0.14573E+05        -0.49999E+08         0.00000E+00
    0.00000E+00         0.00000E+00        -0.49993E+08
 
   -0.49965E+08         0.15685E+05         0.00000E+00
    0.15685E+05        -0.49999E+08         0.00000E+00
    0.00000E+00         0.00000E+00        -0.49993E+08
 
   -0.49965E+08         0.16784E+05         0.00000E+00
    0.16784E+05        -0.49998E+08         0.00000E+00
    0.00000E+00         0.00000E+00        -0.49993E+08
 
   -0.49966E+08         0.17869E+05         0.00000E+00
    0.17869E+05        -0.49998E+08         0.00000E+00
    0.00000E+00         0.00000E+00        -0.49993E+08
 
   -0.49966E+08         0.18940E+05         0.00000E+00
    0.18940E+05        -0.49998E+08         0.00000E+00
    0.00000E+00         0.00000E+00        -0.49993E+08
 
   -0.49967E+08         0.19997E+05         0.00000E+00
    0.19997E+05        -0.49998E+08         0.00000E+00
    0.00000E+00         0.00000E+00        -0.49993E+08
 
   -0.49967E+08         0.21036E+05         0.00000E+00
    0.21036E+05        -0.49998E+08         0.00000E+00
    0.00000E+00         0.00000E+00        -0.49993E+08
 
   -0.49968E+08         0.22059E+05         0.00000E+00
    0.22059E+05        -0.49997E+08         0.00000E+00
    0.00000E+00         0.00000E+00        -0.49993E+08
 
   -0.49968E+08         0.23064E+05         0.00000E+00
    0.23064E+05        -0.49997E+08         0.00000E+00
    0.00000E+00         0.00000E+00        -0.49993E+08
 
   -0.49969E+08         0.24051E+05         0.00000E+00
    0.24051E+05        -0.49997E+08         0.00000E+00
    0.00000E+00         0.00000E+00        -0.49993E+08
 
   -0.49970E+08         0.25017E+05         0.00000E+00
    0.25017E+05        -0.49996E+08         0.00000E+00
    0.00000E+00         0.00000E+00        -0.49993E+08
 
   -0.49970E+08         0.25963E+05         0.00000E+00
    0.25963E+05        -0.49996E+08         0.00000E+00
    0.00000E+00         0.00000E+00        -0.49993E+08
 
   -0.49971E+08         0.26888E+05         0.00000E+00
    0.26888E+05        -0.49996E+08         0.00000E+00
    0.00000E+00         0.00000E+00        -0.49993E+08
 
   -0.49972E+08         0.27791E+05         0.00000E+00
    0.27791E+05        -0.49995E+08         0.00000E+00
    0.00000E+00         0.00000E+00        -0.49993E+08
 
   -0.49973E+08         0.28671E+05         0.00000E+00
    0.28671E+05        -0.49995E+08         0.00000E+00
    0.00000E+00         0.00000E+00        -0.49994E+08
 
   -0.49973E+08         0.29527E+05         0.00000E+00
    0.29527E+05        -0.49995E+08         0.00000E+00
    0.00000E+00         0.00000E+00        -0.49994E+08
 
   -0.49974E+08         0.30358E+05         0.00000E+00
    0.30358E+05        -0.49994E+08         0.00000E+00
    0.00000E+00         0.00000E+00        -0.49994E+08
 
   -0.49975E+08         0.31165E+05         0.00000E+00
    0.31165E+05        -0.49994E+08         0.00000E+00
    0.00000E+00         0.00000E+00        -0.49994E+08
 
   -0.49976E+08         0.31945E+05         0.00000E+00
    0.31945E+05        -0.49993E+08         0.00000E+00
    0.00000E+00         0.00000E+00        -0.49994E+08
 
   -0.49977E+08         0.32698E+05         0.00000E+00
    0.32698E+05        -0.49993E+08         0.00000E+00
    0.00000E+00         0.00000E+00        -0.49994E+08
 
   -0.49978E+08         0.33424E+05         0.00000E+00
    0.33424E+05        -0.49993E+08         0.00000E+00
    0.00000E+00         0.00000E+00        -0.49994E+08
 
   -0.49978E+08         0.34122E+05         0.00000E+00
    0.34122E+05        -0.49992E+08         0.00000E+00
    0.00000E+00         0.00000E+00        -0.49994E+08
 
   -0.49979E+08         0.34790E+05         0.00000E+00
    0.34790E+05        -0.49992E+08         0.00000E+00
    0.00000E+00         0.00000E+00        -0.49994E+08
 
   -0.49980E+08         0.35429E+05         0.00000E+00
    0.35429E+05        -0.49991E+08         0.00000E+00
    0.00000E+00         0.00000E+00        -0.49994E+08
 
   -0.49981E+08         0.36038E+05         0.00000E+00
    0.36038E+05        -0.49991E+08         0.00000E+00
    0.00000E+00         0.00000E+00        -0.49994E+08
 
   -0.49982E+08         0.36616E+05         0.00000E+00
    0.36616E+05        -0.49990E+08         0.00000E+00
    0.00000E+00         0.00000E+00        -0.49995E+08
 
   -0.49983E+08         0.37162E+05         0.00000E+00
    0.37162E+05        -0.49990E+08         0.00000E+00
    0.00000E+00         0.00000E+00        -0.49995E+08
 
   -0.49984E+08         0.37676E+05         0.00000E+00
    0.37676E+05        -0.49989E+08         0.00000E+00
    0.00000E+00         0.00000E+00        -0.49995E+08
 
   -0.49985E+08         0.38157E+05         0.00000E+00
    0.38157E+05        -0.49989E+08         0.00000E+00
    0.00000E+00         0.00000E+00        -0.49995E+08
 
   -0.49986E+08         0.38605E+05         0.00000E+00
    0.38605E+05        -0.49988E+08         0.00000E+00
    0.00000E+00         0.00000E+00        -0.49995E+08
 
   -0.49987E+08         0.39020E+05         0.00000E+00
    0.39020E+05        -0.49988E+08         0.00000E+00
    0.00000E+00         0.00000E+00        -0.49995E+08
 
   -0.49989E+08         0.39399E+05         0.00000E+00
    0.39399E+05        -0.49987E+08         0.00000E+00
    0.00000E+00         0.00000E+00        -0.49995E+08
 
   -0.49990E+08         0.39744E+05         0.00000E+00
    0.39744E+05        -0.49987E+08         0.00000E+00
    0.00000E+00         0.00000E+00        -0.49995E+08
 
   -0.49991E+08         0.40054E+05         0.00000E+00
    0.40054E+05        -0.49986E+08         0.00000E+00
    0.00000E+00         0.00000E+00        -0.49995E+08
 
   -0.49992E+08         0.40328E+05         0.00000E+00
    0.40328E+05        -0.49986E+08         0.00000E+00
    0.00000E+00         0.00000E+00        -0.49996E+08
 
   -0.49993E+08         0.40565E+05         0.00000E+00
    0.40565E+05        -0.49985E+08         0.00000E+00
    0.00000E+00         0.00000E+00        -0.49996E+08
 
   -0.49994E+08         0.40766E+05         0.00000E+00
    0.40766E+05        -0.49985E+08         0.00000E+00
    0.00000E+00         0.00000E+00        -0.49996E+08
 
   -0.49995E+08         0.40930E+05         0.00000E+00
    0.40930E+05        -0.49984E+08         0.00000E+00
    0.00000E+00         0.00000E+00        -0.49996E+08
 
   -0.49956E+08         0.63464E+03         0.00000E+00
    0.63464E+03        -0.50000E+08         0.00000E+00
    0.00000E+00         0.00000E+00        -0.49991E+08
 
   -0.49956E+08         0.19039E+04         0.00000E+00
    0.19039E+04        -0.50000E+08         0.00000E+00
    0.00000E+00         0.00000E+00        -0.49991E+08
 
   -0.49956E+08         0.31718E+04         0.00000E+00
    0.31718E+04        -0.50000E+08         0.00000E+00
    0.00000E+00         0.00000E+00        -0.49991E+08
 
   -0.49956E+08         0.44375E+04         0.00000E+00
    0.44375E+04        -0.50000E+08         0.00000E+00
    0.00000E+00         0.00000E+00        -0.49991E+08
 
   -0.49956E+08         0.56999E+04         0.00000E+00
    0.56999E+04        -0.50000E+08         0.00000E+00
    0.00000E+00         0.00000E+00        -0.49991E+08
 
   -0.49956E+08         0.69581E+04         0.00000E+00
    0.69581E+04        -0.50000E+08         0.00000E+00
    0.00000E+00         0.00000E+00        -0.49991E+08
 
   -0.49957E+08         0.82109E+04         0.00000E+00
    0.82109E+04        -0.50000E+08         0.00000E+00
    0.00000E+00         0.00000E+00        -0.49991E+08
 
   -0.49957E+08         0.94576E+04         0.00000E+00
    0.94576E+04        -0.50000E+08         0.00000E+00
    0.00000E+00         0.00000E+00        -0.49991E+08
 
   -0.49957E+08         0.10697E+05         0.00000E+00
    0.10697E+05        -0.49999E+08         0.00000E+00
    0.00000E+00         0.00000E+00        -0.49991E+08
 
   -0.49958E+08         0.11928E+05         0.00000E+00
    0.11928E+05        -0.49999E+08         0.00000E+00
    0.00000E+00         0.00000E+00        -0.49991E+08
 
   -0.49958E+08         0.13150E+05         0.00000E+00
    0.13150E+05        -0.49999E+08         0.00000E+00
    0.00000E+00         0.00000E+00        -0.49991E+08
 
   -0.49958E+08         0.14361E+05         0.00000E+00
    0.14361E+05        -0.49999E+08         0.00000E+00
    0.00000E+00         0.00000E+00        -0.49991E+08
 
   -0.49959E+08         0.15562E+05         0.00000E+00
    0.15562E+05        -0.49999E+08         0.00000E+00
    0.00000E+00         0.00000E+00        -0.49991E+08
 
   -0.49959E+08         0.16750E+05         0.00000E+00
    0.16750E+05        -0.49998E+08         0.00000E+00
    0.00000E+00         0.00000E+00        -0.49992E+08
 
   -0.49960E+08         0.17924E+05         0.00000E+00
    0.17924E+05        -0.49998E+08         0.00000E+00
    0.00000E+00         0.00000E+00        -0.49992E+08
 
   -0.49960E+08         0.19085E+05         0.00000E+00
    0.19085E+05        -0.49998E+08         0.00000E+00
    0.00000E+00         0.00000E+00        -0.49992E+08
 
   -0.49961E+08         0.20230E+05         0.00000E+00
    0.20230E+05        -0.49998E+08         0.00000E+00
    0.00000E+00         0.00000E+00        -0.49992E+08
 
   -0.49961E+08         0.21360E+05         0.00000E+00
    0.21360E+05        -0.49997E+08         0.00000E+00
    0.00000E+00         0.00000E+00        -0.49992E+08
 
   -0.49962E+08         0.22472E+05         0.00000E+00
    0.22472E+05        -0.49997E+08         0.00000E+00
    0.00000E+00         0.00000E+00        -0.49992E+08
 
   -0.49963E+08         0.23566E+05         0.00000E+00
    0.23566E+05        -0.49997E+08         0.00000E+00
    0.00000E+00         0.00000E+00        -0.49992E+08
 
   -0.49963E+08         0.24641E+05         0.00000E+00
    0.24641E+05        -0.49996E+08         0.00000E+00
    0.00000E+00         0.00000E+00        -0.49992E+08
 
   -0.49964E+08         0.25696E+05         0.00000E+00
    0.25696E+05        -0.49996E+08         0.00000E+00
    0.00000E+00         0.00000E+00        -0.49992E+08
 
   -0.49965E+08         0.26730E+05         0.00000E+00
    0.26730E+05        -0.49996E+08         0.00000E+00
    0.00000E+00         0.00000E+00        -0.49992E+08
 
   -0.49966E+08         0.27742E+05         0.00000E+00
    0.27742E+05        -0.49995E+08         0.00000E+00
    0.00000E+00         0.00000E+00        -0.49992E+08
 
   -0.49966E+08         0.28732E+05         0.00000E+00
    0.28732E+05        -0.49995E+08         0.00000E+00
    0.00000E+00         0.00000E+00        -0.49992E+08
 
   -0.49967E+08         0.29698E+05         0.00000E+00
    0.29698E+05        -0.49995E+08         0.00000E+00
    0.00000E+00         0.00000E+00        -0.49992E+08
 
   -0.49968E+08         0.30639E+05         0.00000E+00
    0.30639E+05        -0.49994E+08         0.00000E+00
    0.00000E+00         0.00000E+00        -0.49992E+08
 
   -0.49969E+08         0.31556E+05         0.00000E+00
    0.31556E+05        -0.49994E+08         0.00000E+00
    0.00000E+00         0.00000E+00        -0.49993E+08
 
   -0.49970E+08         0.32446E+05         0.00000E+00
    0.32446E+05        -0.49993E+08         0.00000E+00
    0.00000E+00         0.00000E+00        -0.49993E+08
 
   -0.49971E+08         0.33309E+05         0.00000E+00
    0.33309E+05        -0.49993E+08         0.00000E+00
    0.00000E+00         0.00000E+00        -0.49993E+08
 
   -0.49972E+08         0.34144E+05         0.00000E+00
    0.34144E+05        -0.49992E+08         0.00000E+00
    0.00000E+00         0.00000E+00        -0.49993E+08
 
   -0.49973E+08         0.34950E+05         0.00000E+00
    0.34950E+05        -0.49992E+08         0.00000E+00
    0.00000E+00         0.00000E+00        -0.49993E+08
 
   -0.49974E+08         0.35728E+05         0.00000E+00
    0.35728E+05        -0.49991E+08         0.00000E+00
    0.00000E+00         0.00000E+00        -0.49993E+08
 
   -0.49975E+08         0.36475E+05         0.00000E+00
    0.36475E+05        -0.49991E+08         0.00000E+00
    0.00000E+00         0.00000E+00        -0.49993E+08
 
   -0.49976E+08         0.37191E+05         0.00000E+00
    0.37191E+05        -0.49990E+08         0.00000E+00
    0.00000E+00         0.00000E+00        -0.49993E+08
 
   -0.49977E+08         0.37875E+05         0.00000E+00
    0.37875E+05        -0.49990E+08         0.00000E+00
    0.00000E+00         0.00000E+00        -0.49993E+08
 
   -0.49978E+08         0.38527E+05         0.00000E+00
    0.38527E+05        -0.49989E+08         0.00000E+00
    0.00000E+00         0.00000E+00        -0.49994E+08
 
   -0.49979E+08         0.39146E+05         0.00000E+00
    0.39146E+05        -0.49989E+08         0.00000E+00
    0.00000E+00         0.00000E+00        -0.49994E+08
 
   -0.49981E+08         0.39731E+05         0.00000E+00
    0.39731E+05        -0.49988E+08         0.00000E+00
    0.00000E+00         0.00000E+00        -0.49994E+08
 
   -0.49982E+08         0.40282E+05         0.00000E+00
    0.40282E+05        -0.49988E+08         0.00000E+00
    0.00000E+00         0.00000E+00        -0.49994E+08
 
   -0.49983E+08         0.40798E+05         0.00000E+00
    0.40798E+05        -0.49987E+08         0.00000E+00
    0.00000E+00         0.00000E+00        -0.49994E+08
 
   -0.49984E+08         0.41278E+05         0.00000E+00
    0.41278E+05        -0.49987E+08         0.00000E+00
    0.00000E+00         0.00000E+00        -0.49994E+08
 
   -0.49985E+08         0.41722E+05         0.00000E+00
    0.41722E+05        -0.49986E+08         0.00000E+00
    0.00000E+00         0.00000E+00        -0.49994E+08
 
   -0.49987E+08         0.42129E+05         0.00000E+00
    0.42129E+05        -0.49985E+08         0.00000E+00
    0.00000E+00         0.00000E+00        -0.49994E+08
 
   -0.49988E+08         0.42498E+05         0.00000E+00
    0.42498E+05        -0.49985E+08         0.00000E+00
    0.00000E+00         0.00000E+00        -0.49995E+08
 
   -0.49989E+08         0.42830E+05         0.00000E+00
    0.42830E+05        -0.49984E+08         0.00000E+00
    0.00000E+00         0.00000E+00        -0.49995E+08
 
   -0.49991E+08         0.43124E+05         0.00000E+00
    0.43124E+05        -0.49984E+08         0.00000E+00
    0.00000E+00         0.00000E+00        -0.49995E+08
 
   -0.49992E+08         0.43378E+05         0.00000E+00
    0.43378E+05        -0.49983E+08         0.00000E+00
    0.00000E+00         0.00000E+00        -0.49995E+08
 
   -0.49993E+08         0.43594E+05         0.00000E+00
    0.43594E+05        -0.49982E+08         0.00000E+00
    0.00000E+00         0.00000E+00        -0.49995E+08
 
   -0.49995E+08         0.43769E+05         0.00000E+00
    0.43769E+05        -0.49982E+08         0.00000E+00
    0.00000E+00         0.00000E+00        -0.49995E+08
 
   -0.49949E+08         0.68039E+03         0.00000E+00
    0.68039E+03        -0.50000E+08         0.00000E+00
    0.00000E+00         0.00000E+00        -0.49990E+08
 
   -0.49949E+08         0.20417E+04         0.00000E+00
    0.20417E+04        -0.50000E+08         0.00000E+00
    0.00000E+00         0.00000E+00        -0.49990E+08
 
   -0.49949E+08         0.34019E+04         0.00000E+00
    0.34019E+04        -0.50000E+08         0.00000E+00
    0.00000E+00         0.00000E+00        -0.49990E+08
 
   -0.49950E+08         0.47599E+04         0.00000E+00
    0.47599E+04        -0.50000E+08         0.00000E+00
    0.00000E+00         0.00000E+00        -0.49990E+08
 
   -0.49950E+08         0.61147E+04         0.00000E+00
    0.61147E+04        -0.50000E+08         0.00000E+00
    0.00000E+00         0.00000E+00        -0.49990E+08
 
   -0.49950E+08         0.74651E+04         0.00000E+00
    0.74651E+04        -0.50000E+08         0.00000E+00
    0.00000E+00         0.00000E+00        -0.49990E+08
 
   -0.49950E+08         0.88100E+04         0.00000E+00
    0.88100E+04        -0.50000E+08         0.00000E+00
    0.00000E+00         0.00000E+00        -0.49990E+08
 
   -0.49951E+08         0.10148E+05         0.00000E+00
    0.10148E+05        -0.49999E+08         0.00000E+00
    0.00000E+00         0.00000E+00        -0.49990E+08
 
   -0.49951E+08         0.11479E+05         0.00000E+00
    0.11479E+05        -0.49999E+08         0.00000E+00
    0.00000E+00         0.00000E+00        -0.49990E+08
 
   -0.49951E+08         0.12801E+05         0.00000E+00
    0.12801E+05        -0.49999E+08         0.00000E+00
    0.00000E+00         0.00000E+00        -0.49990E+08
 
   -0.49952E+08         0.14114E+05         0.00000E+00
    0.14114E+05        -0.49999E+08         0.00000E+00
    0.00000E+00         0.00000E+00        -0.49990E+08
 
   -0.49952E+08         0.15415E+05         0.00000E+00
    0.15415E+05        -0.49999E+08         0.00000E+00
    0.00000E+00         0.00000E+00        -0.49990E+08
 
   -0.49953E+08         0.16705E+05         0.00000E+00
    0.16705E+05        -0.49998E+08         0.00000E+00
    0.00000E+00         0.00000E+00        -0.49990E+08
 
   -0.49953E+08         0.17982E+05         0.00000E+00
    0.17982E+05        -0.49998E+08         0.00000E+00
    0.00000E+00         0.00000E+00        -0.49990E+08
 
   -0.49954E+08         0.19244E+05         0.00000E+00
    0.19244E+05        -0.49998E+08         0.00000E+00
    0.00000E+00         0.00000E+00        -0.49990E+08
 
   -0.49954E+08         0.20492E+05         0.00000E+00
    0.20492E+05        -0.49998E+08         0.00000E+00
    0.00000E+00         0.00000E+00        -0.49990E+08
 
   -0.49955E+08         0.21723E+05         0.00000E+00
    0.21723E+05        -0.49997E+08         0.00000E+00
    0.00000E+00         0.00000E+00        -0.49990E+08
 
   -0.49956E+08         0.22937E+05         0.00000E+00
    0.22937E+05        -0.49997E+08         0.00000E+00
    0.00000E+00         0.00000E+00        -0.49991E+08
 
   -0.49956E+08         0.24132E+05         0.00000E+00
    0.24132E+05        -0.49997E+08         0.00000E+00
    0.00000E+00         0.00000E+00        -0.49991E+08
 
   -0.49957E+08         0.25309E+05         0.00000E+00
    0.25309E+05        -0.49996E+08         0.00000E+00
    0.00000E+00         0.00000E+00        -0.49991E+08
 
   -0.49958E+08         0.26465E+05         0.00000E+00
    0.26465E+05        -0.49996E+08         0.00000E+00
    0.00000E+00         0.00000E+00        -0.49991E+08
 
   -0.49959E+08         0.27599E+05         0.00000E+00
    0.27599E+05        -0.49996E+08         0.00000E+00
    0.00000E+00         0.00000E+00        -0.49991E+08
 
   -0.49959E+08         0.28712E+05         0.00000E+00
    0.28712E+05        -0.49995E+08         0.00000E+00
    0.00000E+00         0.00000E+00        -0.49991E+08
 
   -0.49960E+08         0.29801E+05         0.00000E+00
    0.29801E+05        -0.49995E+08         0.00000E+00
    0.00000E+00         0.00000E+00        -0.49991E+08
 
   -0.49961E+08         0.30865E+05         0.00000E+00
    0.30865E+05        -0.49994E+08         0.00000E+00
    0.00000E+00         0.00000E+00        -0.49991E+08
 
   -0.49962E+08         0.31904E+05         0.00000E+00
    0.31904E+05        -0.49994E+08         0.00000E+00
    0.00000E+00         0.00000E+00        -0.49991E+08
 
   -0.49963E+08         0.32918E+05         0.00000E+00
    0.32918E+05        -0.49993E+08         0.00000E+00
    0.00000E+00         0.00000E+00        -0.49991E+08
 
   -0.49964E+08         0.33903E+05         0.00000E+00
    0.33903E+05        -0.49993E+08         0.00000E+00
    0.00000E+00         0.00000E+00        -0.49991E+08
 
   -0.49965E+08         0.34861E+05         0.00000E+00
    0.34861E+05        -0.49992E+08         0.00000E+00
    0.00000E+00         0.00000E+00        -0.49992E+08
 
   -0.49966E+08         0.35790E+05         0.00000E+00
    0.35790E+05        -0.49992E+08         0.00000E+00
    0.00000E+00         0.00000E+00        -0.49992E+08
 
   -0.49968E+08         0.36689E+05         0.00000E+00
    0.36689E+05        -0.49991E+08         0.00000E+00
    0.00000E+00         0.00000E+00        -0.49992E+08
 
   -0.49969E+08         0.37557E+05         0.00000E+00
    0.37557E+05        -0.49991E+08         0.00000E+00
    0.00000E+00         0.00000E+00        -0.49992E+08
 
   -0.49970E+08         0.38394E+05         0.00000E+00
    0.38394E+05        -0.49990E+08         0.00000E+00
    0.00000E+00         0.00000E+00        -0.49992E+08
 
   -0.49971E+08         0.39198E+05         0.00000E+00
    0.39198E+05        -0.49990E+08         0.00000E+00
    0.00000E+00         0.00000E+00        -0.49992E+08
 
   -0.49972E+08         0.39969E+05         0.00000E+00
    0.39969E+05        -0.49989E+08         0.00000E+00
    0.00000E+00         0.00000E+00        -0.49992E+08
 
   -0.49974E+08         0.40706E+05         0.00000E+00
    0.40706E+05        -0.49988E+08         0.00000E+00
    0.00000E+00         0.00000E+00        -0.49992E+08
 
   -0.49975E+08         0.41408E+05         0.00000E+00
    0.41408E+05        -0.49988E+08         0.00000E+00
    0.00000E+00         0.00000E+00        -0.49993E+08
 
   -0.49976E+08         0.42075E+05         0.00000E+00
    0.42075E+05        -0.49987E+08         0.00000E+00
    0.00000E+00         0.00000E+00        -0.49993E+08
 
   -0.49978E+08         0.42705E+05         0.00000E+00
    0.42705E+05        -0.49986E+08         0.00000E+00
    0.00000E+00         0.00000E+00        -0.49993E+08
 
   -0.49979E+08         0.43298E+05         0.00000E+00
    0.43298E+05        -0.49986E+08         0.00000E+00
    0.00000E+00         0.00000E+00        -0.49993E+08
 
   -0.49980E+08         0.43854E+05         0.00000E+00
    0.43854E+05        -0.49985E+08         0.00000E+00
    0.00000E+00         0.00000E+00        -0.49993E+08
 
   -0.49982E+08         0.44371E+05         0.00000E+00
    0.44371E+05        -0.49984E+08         0.00000E+00
    0.00000E+00         0.00000E+00        -0.49993E+08
 
   -0.49983E+08         0.44849E+05         0.00000E+00
    0.44849E+05        -0.49984E+08         0.00000E+00
    0.00000E+00         0.00000E+00        -0.49993E+08
 
   -0.49985E+08         0.45288E+05         0.00000E+00
    0.45288E+05        -0.49983E+08         0.00000E+00
    0.00000E+00         0.00000E+00        -0.49994E+08
 
   -0.49986E+08         0.45687E+05         0.00000E+00
    0.45687E+05        -0.49982E+08         0.00000E+00
    0.00000E+00         0.00000E+00        -0.49994E+08
 
   -0.49988E+08         0.46044E+05         0.00000E+00
    0.46044E+05        -0.49982E+08         0.00000E+00
    0.00000E+00         0.00000E+00        -0.49994E+08
 
   -0.49989E+08         0.46361E+05         0.00000E+00
    0.46361E+05        -0.49981E+08         0.00000E+00
    0.00000E+00         0.00000E+00        -0.49994E+08
 
   -0.49991E+08         0.46635E+05         0.00000E+00
    0.46635E+05        -0.49980E+08         0.00000E+00
    0.00000E+00         0.00000E+00        -0.49994E+08
 
   -0.49992E+08         0.46867E+05         0.00000E+00
    0.46867E+05        -0.49980E+08         0.00000E+00
    0.00000E+00         0.00000E+00        -0.49994E+08
 
   -0.49994E+08         0.47057E+05         0.00000E+00
    0.47057E+05        -0.49979E+08         0.00000E+00
    0.00000E+00         0.00000E+00        -0.49995E+08
 
   -0.49942E+08         0.73271E+03         0.00000E+00
    0.73271E+03        -0.50000E+08         0.00000E+00
    0.00000E+00         0.00000E+00        -0.49988E+08
 
   -0.49942E+08         0.21995E+04         0.00000E+00
    0.21995E+04        -0.50000E+08         0.00000E+00
    0.00000E+00         0.00000E+00        -0.49988E+08
 
   -0.49942E+08         0.36654E+04         0.00000E+00
    0.36654E+04        -0.50000E+08         0.00000E+00
    0.00000E+00         0.00000E+00        -0.49988E+08
 
   -0.49943E+08         0.51292E+04         0.00000E+00
    0.51292E+04        -0.50000E+08         0.00000E+00
    0.00000E+00         0.00000E+00        -0.49988E+08
 
   -0.49943E+08         0.65897E+04         0.00000E+00
    0.65897E+04        -0.50000E+08         0.00000E+00
    0.00000E+00         0.00000E+00        -0.49989E+08
 
   -0.49943E+08         0.80459E+04         0.00000E+00
    0.80459E+04        -0.50000E+08         0.00000E+00
    0.00000E+00         0.00000E+00        -0.49989E+08
 
   -0.49943E+08         0.94965E+04         0.00000E+00
    0.94965E+04        -0.50000E+08         0.00000E+00
    0.00000E+00         0.00000E+00        -0.49989E+08
 
   -0.49944E+08         0.10940E+05         0.00000E+00
    0.10940E+05        -0.49999E+08         0.00000E+00
    0.00000E+00         0.00000E+00        -0.49989E+08
 
   -0.49944E+08         0.12376E+05         0.00000E+00
    0.12376E+05        -0.49999E+08         0.00000E+00
    0.00000E+00         0.00000E+00        -0.49989E+08
 
   -0.49944E+08         0.13803E+05         0.00000E+00
    0.13803E+05        -0.49999E+08         0.00000E+00
    0.00000E+00         0.00000E+00        -0.49989E+08
 
   -0.49945E+08         0.15219E+05         0.00000E+00
    0.15219E+05        -0.49999E+08         0.00000E+00
    0.00000E+00         0.00000E+00        -0.49989E+08
 
   -0.49945E+08         0.16624E+05         0.00000E+00
    0.16624E+05        -0.49999E+08         0.00000E+00
    0.00000E+00         0.00000E+00        -0.49989E+08
 
   -0.49946E+08         0.18016E+05         0.00000E+00
    0.18016E+05        -0.49998E+08         0.00000E+00
    0.00000E+00         0.00000E+00        -0.49989E+08
 
   -0.49946E+08         0.19394E+05         0.00000E+00
    0.19394E+05        -0.49998E+08         0.00000E+00
    0.00000E+00         0.00000E+00        -0.49989E+08
 
   -0.49947E+08         0.20757E+05         0.00000E+00
    0.20757E+05        -0.49998E+08         0.00000E+00
    0.00000E+00         0.00000E+00        -0.49989E+08
 
   -0.49948E+08         0.22104E+05         0.00000E+00
    0.22104E+05        -0.49997E+08         0.00000E+00
    0.00000E+00         0.00000E+00        -0.49989E+08
 
   -0.49949E+08         0.23434E+05         0.00000E+00
    0.23434E+05        -0.49997E+08         0.00000E+00
    0.00000E+00         0.00000E+00        -0.49989E+08
 
   -0.49949E+08         0.24745E+05         0.00000E+00
    0.24745E+05        -0.49997E+08         0.00000E+00
    0.00000E+00         0.00000E+00        -0.49989E+08
 
   -0.49950E+08         0.26037E+05         0.00000E+00
    0.26037E+05        -0.49996E+08         0.00000E+00
    0.00000E+00         0.00000E+00        -0.49989E+08
 
   -0.49951E+08         0.27308E+05         0.00000E+00
    0.27308E+05        -0.49996E+08         0.00000E+00
    0.00000E+00         0.00000E+00        -0.49989E+08
 
   -0.49952E+08         0.28557E+05         0.00000E+00
    0.28557E+05        -0.49995E+08         0.00000E+00
    0.00000E+00         0.00000E+00        -0.49989E+08
 
   -0.49953E+08         0.29783E+05         0.00000E+00
    0.29783E+05        -0.49995E+08         0.00000E+00
    0.00000E+00         0.00000E+00        -0.49990E+08
 
   -0.49954E+08         0.30985E+05         0.00000E+00
    0.30985E+05        -0.49994E+08         0.00000E+00
    0.00000E+00         0.00000E+00        -0.49990E+08
 
   -0.49955E+08         0.32161E+05         0.00000E+00
    0.32161E+05        -0.49994E+08         0.00000E+00
    0.00000E+00         0.00000E+00        -0.49990E+08
 
   -0.49956E+08         0.33312E+05         0.00000E+00
    0.33312E+05        -0.49993E+08         0.00000E+00
    0.00000E+00         0.00000E+00        -0.49990E+08
 
   -0.49957E+08         0.34435E+05         0.00000E+00
    0.34435E+05        -0.49993E+08         0.00000E+00
    0.00000E+00         0.00000E+00        -0.49990E+08
 
   -0.49958E+08         0.35530E+05         0.00000E+00
    0.35530E+05        -0.49992E+08         0.00000E+00
    0.00000E+00         0.00000E+00        -0.49990E+08
 
   -0.49959E+08         0.36596E+05         0.00000E+00
    0.36596E+05        -0.49992E+08         0.00000E+00
    0.00000E+00         0.00000E+00        -0.49990E+08
 
   -0.49960E+08         0.37632E+05         0.00000E+00
    0.37632E+05        -0.49991E+08         0.00000E+00
    0.00000E+00         0.00000E+00        -0.49990E+08
 
   -0.49962E+08         0.38636E+05         0.00000E+00
    0.38636E+05        -0.49991E+08         0.00000E+00
    0.00000E+00         0.00000E+00        -0.49990E+08
 
   -0.49963E+08         0.39608E+05         0.00000E+00
    0.39608E+05        -0.49990E+08         0.00000E+00
    0.00000E+00         0.00000E+00        -0.49991E+08
 
   -0.49964E+08         0.40547E+05         0.00000E+00
    0.40547E+05        -0.49989E+08         0.00000E+00
    0.00000E+00         0.00000E+00        -0.49991E+08
 
   -0.49966E+08         0.41451E+05         0.00000E+00
    0.41451E+05        -0.49989E+08         0.00000E+00
    0.00000E+00         0.00000E+00        -0.49991E+08
 
   -0.49967E+08         0.42321E+05         0.00000E+00
    0.42321E+05        -0.49988E+08         0.00000E+00
    0.00000E+00         0.00000E+00        -0.49991E+08
 
   -0.49968E+08         0.43155E+05         0.00000E+00
    0.43155E+05        -0.49987E+08         0.00000E+00
    0.00000E+00         0.00000E+00        -0.49991E+08
 
   -0.49970E+08         0.43952E+05         0.00000E+00
    0.43952E+05        -0.49987E+08         0.00000E+00
    0.00000E+00         0.00000E+00        -0.49991E+08
 
   -0.49971E+08         0.44712E+05         0.00000E+00
    0.44712E+05        -0.49986E+08         0.00000E+00
    0.00000E+00         0.00000E+00        -0.49991E+08
 
   -0.49973E+08         0.45433E+05         0.00000E+00
    0.45433E+05        -0.49985E+08         0.00000E+00
    0.00000E+00         0.00000E+00        -0.49992E+08
 
   -0.49974E+08         0.46115E+05         0.00000E+00
    0.46115E+05        -0.49985E+08         0.00000E+00
    0.00000E+00         0.00000E+00        -0.49992E+08
 
   -0.49976E+08         0.46757E+05         0.00000E+00
    0.46757E+05        -0.49984E+08         0.00000E+00
    0.00000E+00         0.00000E+00        -0.49992E+08
 
   -0.49978E+08         0.47358E+05         0.00000E+00
    0.47358E+05        -0.49983E+08         0.00000E+00
    0.00000E+00         0.00000E+00        -0.49992E+08
 
   -0.49979E+08         0.47918E+05         0.00000E+00
    0.47918E+05        -0.49982E+08         0.00000E+00
    0.00000E+00         0.00000E+00        -0.49992E+08
 
   -0.49981E+08         0.48436E+05         0.00000E+00
    0.48436E+05        -0.49982E+08         0.00000E+00
    0.00000E+00         0.00000E+00        -0.49992E+08
 
   -0.49983E+08         0.48911E+05         0.00000E+00
    0.48911E+05        -0.49981E+08         0.00000E+00
    0.00000E+00         0.00000E+00        -0.49993E+08
 
   -0.49984E+08         0.49342E+05         0.00000E+00
    0.49342E+05        -0.49980E+08         0.00000E+00
    0.00000E+00         0.00000E+00        -0.49993E+08
 
   -0.49986E+08         0.49730E+05         0.00000E+00
    0.49730E+05        -0.49979E+08         0.00000E+00
    0.00000E+00         0.00000E+00        -0.49993E+08
 
   -0.49988E+08         0.50073E+05         0.00000E+00
    0.50073E+05        -0.49978E+08         0.00000E+00
    0.00000E+00         0.00000E+00        -0.49993E+08
 
   -0.49989E+08         0.50370E+05         0.00000E+00
    0.50370E+05        -0.49978E+08         0.00000E+00
    0.00000E+00         0.00000E+00        -0.49993E+08
 
   -0.49991E+08         0.50622E+05         0.00000E+00
    0.50622E+05        -0.49977E+08         0.00000E+00
    0.00000E+00         0.00000E+00        -0.49994E+08
 
   -0.49993E+08         0.50827E+05         0.00000E+00
    0.50827E+05        -0.49976E+08         0.00000E+00
    0.00000E+00         0.00000E+00        -0.49994E+08
 
   -0.49935E+08         0.79217E+03         0.00000E+00
    0.79217E+03        -0.50000E+08         0.00000E+00
    0.00000E+00         0.00000E+00        -0.49987E+08
 
   -0.49935E+08         0.23789E+04         0.00000E+00
    0.23789E+04        -0.50000E+08         0.00000E+00
    0.00000E+00         0.00000E+00        -0.49987E+08
 
   -0.49935E+08         0.39651E+04         0.00000E+00
    0.39651E+04        -0.50000E+08         0.00000E+00
    0.00000E+00         0.00000E+00        -0.49987E+08
 
   -0.49935E+08         0.55494E+04         0.00000E+00
    0.55494E+04        -0.50000E+08         0.00000E+00
    0.00000E+00         0.00000E+00        -0.49987E+08
 
   -0.49935E+08         0.71305E+04         0.00000E+00
    0.71305E+04        -0.50000E+08         0.00000E+00
    0.00000E+00         0.00000E+00        -0.49987E+08
 
   -0.49935E+08         0.87072E+04         0.00000E+00
    0.87072E+04        -0.50000E+08         0.00000E+00
    0.00000E+00         0.00000E+00        -0.49987E+08
 
   -0.49936E+08         0.10278E+05         0.00000E+00
    0.10278E+05        -0.49999E+08         0.00000E+00
    0.00000E+00         0.00000E+00        -0.49987E+08
 
   -0.49936E+08         0.11842E+05         0.00000E+00
    0.11842E+05        -0.49999E+08         0.00000E+00
    0.00000E+00         0.00000E+00        -0.49987E+08
 
   -0.49937E+08         0.13397E+05         0.00000E+00
    0.13397E+05        -0.49999E+08         0.00000E+00
    0.00000E+00         0.00000E+00        -0.49987E+08
 
   -0.49937E+08         0.14943E+05         0.00000E+00
    0.14943E+05        -0.49999E+08         0.00000E+00
    0.00000E+00         0.00000E+00        -0.49987E+08
 
   -0.49937E+08         0.16478E+05         0.00000E+00
    0.16478E+05        -0.49999E+08         0.00000E+00
    0.00000E+00         0.00000E+00        -0.49987E+08
 
   -0.49938E+08         0.18001E+05         0.00000E+00
    0.18001E+05        -0.49998E+08         0.00000E+00
    0.00000E+00         0.00000E+00        -0.49987E+08
 
   -0.49939E+08         0.19510E+05         0.00000E+00
    0.19510E+05        -0.49998E+08         0.00000E+00
    0.00000E+00         0.00000E+00        -0.49987E+08
 
   -0.49939E+08         0.21004E+05         0.00000E+00
    0.21004E+05        -0.49998E+08         0.00000E+00
    0.00000E+00         0.00000E+00        -0.49987E+08
 
   -0.49940E+08         0.22482E+05         0.00000E+00
    0.22482E+05        -0.49997E+08         0.00000E+00
    0.00000E+00         0.00000E+00        -0.49987E+08
 
   -0.49941E+08         0.23942E+05         0.00000E+00
    0.23942E+05        -0.49997E+08         0.00000E+00
    0.00000E+00         0.00000E+00        -0.49988E+08
 
   -0.49942E+08         0.25384E+05         0.00000E+00
    0.25384E+05        -0.49997E+08         0.00000E+00
    0.00000E+00         0.00000E+00        -0.49988E+08
 
   -0.49942E+08         0.26806E+05         0.00000E+00
    0.26806E+05        -0.49996E+08         0.00000E+00
    0.00000E+00         0.00000E+00        -0.49988E+08
 
   -0.49943E+08         0.28207E+05         0.00000E+00
    0.28207E+05        -0.49996E+08         0.00000E+00
    0.00000E+00         0.00000E+00        -0.49988E+08
 
   -0.49944E+08         0.29585E+05         0.00000E+00
    0.29585E+05        -0.49995E+08         0.00000E+00
    0.00000E+00         0.00000E+00        -0.49988E+08
 
   -0.49945E+08         0.30940E+05         0.00000E+00
    0.30940E+05        -0.49995E+08         0.00000E+00
    0.00000E+00         0.00000E+00        -0.49988E+08
 
   -0.49946E+08         0.32270E+05         0.00000E+00
    0.32270E+05        -0.49994E+08         0.00000E+00
    0.00000E+00         0.00000E+00        -0.49988E+08
 
   -0.49948E+08         0.33574E+05         0.00000E+00
    0.33574E+05        -0.49994E+08         0.00000E+00
    0.00000E+00         0.00000E+00        -0.49988E+08
 
   -0.49949E+08         0.34851E+05         0.00000E+00
    0.34851E+05        -0.49993E+08         0.00000E+00
    0.00000E+00         0.00000E+00        -0.49988E+08
 
   -0.49950E+08         0.36099E+05         0.00000E+00
    0.36099E+05        -0.49992E+08         0.00000E+00
    0.00000E+00         0.00000E+00        -0.49988E+08
 
   -0.49951E+08         0.37318E+05         0.00000E+00
    0.37318E+05        -0.49992E+08         0.00000E+00
    0.00000E+00         0.00000E+00        -0.49989E+08
 
   -0.49952E+08         0.38507E+05         0.00000E+00
    0.38507E+05        -0.49991E+08         0.00000E+00
    0.00000E+00         0.00000E+00        -0.49989E+08
 
   -0.49954E+08         0.39663E+05         0.00000E+00
    0.39663E+05        -0.49991E+08         0.00000E+00
    0.00000E+00         0.00000E+00        -0.49989E+08
 
   -0.49955E+08         0.40787E+05         0.00000E+00
    0.40787E+05        -0.49990E+08         0.00000E+00
    0.00000E+00         0.00000E+00        -0.49989E+08
 
   -0.49957E+08         0.41877E+05         0.00000E+00
    0.41877E+05        -0.49989E+08         0.00000E+00
    0.00000E+00         0.00000E+00        -0.49989E+08
 
   -0.49958E+08         0.42932E+05         0.00000E+00
    0.42932E+05        -0.49989E+08         0.00000E+00
    0.00000E+00         0.00000E+00        -0.49989E+08
 
   -0.49959E+08         0.43951E+05         0.00000E+00
    0.43951E+05        -0.49988E+08         0.00000E+00
    0.00000E+00         0.00000E+00        -0.49989E+08
 
   -0.49961E+08         0.44933E+05         0.00000E+00
    0.44933E+05        -0.49987E+08         0.00000E+00
    0.00000E+00         0.00000E+00        -0.49990E+08
 
   -0.49963E+08         0.45877E+05         0.00000E+00
    0.45877E+05        -0.49986E+08         0.00000E+00
    0.00000E+00         0.00000E+00        -0.49990E+08
 
   -0.49964E+08         0.46783E+05         0.00000E+00
    0.46783E+05        -0.49986E+08         0.00000E+00
    0.00000E+00         0.00000E+00        -0.49990E+08
 
   -0.49966E+08         0.47648E+05         0.00000E+00
    0.47648E+05        -0.49985E+08         0.00000E+00
    0.00000E+00         0.00000E+00        -0.49990E+08
 
   -0.49967E+08         0.48473E+05         0.00000E+00
    0.48473E+05        -0.49984E+08         0.00000E+00
    0.00000E+00         0.00000E+00        -0.49990E+08
 
   -0.49969E+08         0.49256E+05         0.00000E+00
    0.49256E+05        -0.49983E+08         0.00000E+00
    0.00000E+00         0.00000E+00        -0.49990E+08
 
   -0.49971E+08         0.49997E+05         0.00000E+00
    0.49997E+05        -0.49982E+08         0.00000E+00
    0.00000E+00         0.00000E+00        -0.49991E+08
 
   -0.49973E+08         0.50694E+05         0.00000E+00
    0.50694E+05        -0.49982E+08         0.00000E+00
    0.00000E+00         0.00000E+00        -0.49991E+08
 
   -0.49975E+08         0.51348E+05         0.00000E+00
    0.51348E+05        -0.49981E+08         0.00000E+00
    0.00000E+00         0.00000E+00        -0.49991E+08
 
   -0.49976E+08         0.51956E+05         0.00000E+00
    0.51956E+05        -0.49980E+08         0.00000E+00
    0.00000E+00         0.00000E+00        -0.49991E+08
 
   -0.49978E+08         0.52519E+05         0.00000E+00
    0.52519E+05        -0.49979E+08         0.00000E+00
    0.00000E+00         0.00000E+00        -0.49991E+08
 
   -0.49980E+08         0.53035E+05         0.00000E+00
    0.53035E+05        -0.49978E+08         0.00000E+00
    0.00000E+00         0.00000E+00        -0.49992E+08
 
   -0.49982E+08         0.53504E+05         0.00000E+00
    0.53504E+05        -0.49977E+08         0.00000E+00
    0.00000E+00         0.00000E+00        -0.49992E+08
 
   -0.49984E+08         0.53925E+05         0.00000E+00
    0.53925E+05        -0.49976E+08         0.00000E+00
    0.00000E+00         0.00000E+00        -0.49992E+08
 
   -0.49986E+08         0.54298E+05         0.00000E+00
    0.54298E+05        -0.49975E+08         0.00000E+00
    0.00000E+00         0.00000E+00        -0.49992E+08
 
   -0.49988E+08         0.54622E+05         0.00000E+00
    0.54622E+05        -0.49975E+08         0.00000E+00
    0.00000E+00         0.00000E+00        -0.49993E+08
 
   -0.49990E+08         0.54896E+05         0.00000E+00
    0.54896E+05        -0.49974E+08         0.00000E+00
    0.00000E+00         0.00000E+00        -0.49993E+08
 
   -0.49992E+08         0.55120E+05         0.00000E+00
    0.55120E+05        -0.49973E+08         0.00000E+00
    0.00000E+00         0.00000E+00        -0.49993E+08
 
   -0.49926E+08         0.85949E+03         0.00000E+00
    0.85949E+03        -0.50000E+08         0.00000E+00
    0.00000E+00         0.00000E+00        -0.49985E+08
 
   -0.49926E+08         0.25823E+04         0.00000E+00
    0.25823E+04        -0.50000E+08         0.00000E+00
    0.00000E+00         0.00000E+00        -0.49985E+08
 
   -0.49927E+08         0.43048E+04         0.00000E+00
    0.43048E+04        -0.50000E+08         0.00000E+00
    0.00000E+00         0.00000E+00        -0.49985E+08
 
   -0.49927E+08         0.60258E+04         0.00000E+00
    0.60258E+04        -0.50000E+08         0.00000E+00
    0.00000E+00         0.00000E+00        -0.49985E+08
 
   -0.49927E+08         0.77437E+04         0.00000E+00
    0.77437E+04        -0.50000E+08         0.00000E+00
    0.00000E+00         0.00000E+00        -0.49985E+08
 
   -0.49927E+08         0.94570E+04         0.00000E+00
    0.94570E+04        -0.50000E+08         0.00000E+00
    0.00000E+00         0.00000E+00        -0.49985E+08
 
   -0.49928E+08         0.11165E+05         0.00000E+00
    0.11165E+05        -0.49999E+08         0.00000E+00
    0.00000E+00         0.00000E+00        -0.49985E+08
 
   -0.49928E+08         0.12865E+05         0.00000E+00
    0.12865E+05        -0.49999E+08         0.00000E+00
    0.00000E+00         0.00000E+00        -0.49985E+08
 
   -0.49928E+08         0.14556E+05         0.00000E+00
    0.14556E+05        -0.49999E+08         0.00000E+00
    0.00000E+00         0.00000E+00        -0.49985E+08
 
   -0.49929E+08         0.16237E+05         0.00000E+00
    0.16237E+05        -0.49999E+08         0.00000E+00
    0.00000E+00         0.00000E+00        -0.49986E+08
 
   -0.49930E+08         0.17906E+05         0.00000E+00
    0.17906E+05        -0.49998E+08         0.00000E+00
    0.00000E+00         0.00000E+00        -0.49986E+08
 
   -0.49930E+08         0.19562E+05         0.00000E+00
    0.19562E+05        -0.49998E+08         0.00000E+00
    0.00000E+00         0.00000E+00        -0.49986E+08
 
   -0.49931E+08         0.21204E+05         0.00000E+00
    0.21204E+05        -0.49998E+08         0.00000E+00
    0.00000E+00         0.00000E+00        -0.49986E+08
 
   -0.49932E+08         0.22829E+05         0.00000E+00
    0.22829E+05        -0.49997E+08         0.00000E+00
    0.00000E+00         0.00000E+00        -0.49986E+08
 
   -0.49932E+08         0.24438E+05         0.00000E+00
    0.24438E+05        -0.49997E+08         0.00000E+00
    0.00000E+00         0.00000E+00        -0.49986E+08
 
   -0.49933E+08         0.26027E+05         0.00000E+00
    0.26027E+05        -0.49997E+08         0.00000E+00
    0.00000E+00         0.00000E+00        -0.49986E+08
 
   -0.49934E+08         0.27596E+05         0.00000E+00
    0.27596E+05        -0.49996E+08         0.00000E+00
    0.00000E+00         0.00000E+00        -0.49986E+08
 
   -0.49935E+08         0.29144E+05         0.00000E+00
    0.29144E+05        -0.49996E+08         0.00000E+00
    0.00000E+00         0.00000E+00        -0.49986E+08
 
   -0.49936E+08         0.30668E+05         0.00000E+00
    0.30668E+05        -0.49995E+08         0.00000E+00
    0.00000E+00         0.00000E+00        -0.49986E+08
 
   -0.49937E+08         0.32169E+05         0.00000E+00
    0.32169E+05        -0.49995E+08         0.00000E+00
    0.00000E+00         0.00000E+00        -0.49986E+08
 
   -0.49938E+08         0.33643E+05         0.00000E+00
    0.33643E+05        -0.49994E+08         0.00000E+00
    0.00000E+00         0.00000E+00        -0.49986E+08
 
   -0.49940E+08         0.35091E+05         0.00000E+00
    0.35091E+05        -0.49993E+08         0.00000E+00
    0.00000E+00         0.00000E+00        -0.49987E+08
 
   -0.49941E+08         0.36510E+05         0.00000E+00
    0.36510E+05        -0.49993E+08         0.00000E+00
    0.00000E+00         0.00000E+00        -0.49987E+08
 
   -0.49942E+08         0.37900E+05         0.00000E+00
    0.37900E+05        -0.49992E+08         0.00000E+00
    0.00000E+00         0.00000E+00        -0.49987E+08
 
   -0.49943E+08         0.39259E+05         0.00000E+00
    0.39259E+05        -0.49991E+08         0.00000E+00
    0.00000E+00         0.00000E+00        -0.49987E+08
 
   -0.49945E+08         0.40586E+05         0.00000E+00
    0.40586E+05        -0.49991E+08         0.00000E+00
    0.00000E+00         0.00000E+00        -0.49987E+08
 
   -0.49946E+08         0.41880E+05         0.00000E+00
    0.41880E+05        -0.49990E+08         0.00000E+00
    0.00000E+00         0.00000E+00        -0.49987E+08
 
   -0.49948E+08         0.43139E+05         0.00000E+00
    0.43139E+05        -0.49989E+08         0.00000E+00
    0.00000E+00         0.00000E+00        -0.49987E+08
 
   -0.49949E+08         0.44363E+05         0.00000E+00
    0.44363E+05        -0.49989E+08         0.00000E+00
    0.00000E+00         0.00000E+00        -0.49988E+08
 
   -0.49951E+08         0.45549E+05         0.00000E+00
    0.45549E+05        -0.49988E+08         0.00000E+00
    0.00000E+00         0.00000E+00        -0.49988E+08
 
   -0.49953E+08         0.46698E+05         0.00000E+00
    0.46698E+05        -0.49987E+08         0.00000E+00
    0.00000E+00         0.00000E+00        -0.49988E+08
 
   -0.49954E+08         0.47808E+05         0.00000E+00
    0.47808E+05        -0.49986E+08         0.00000E+00
    0.00000E+00         0.00000E+00        -0.49988E+08
 
   -0.49956E+08         0.48877E+05         0.00000E+00
    0.48877E+05        -0.49985E+08         0.00000E+00
    0.00000E+00         0.00000E+00        -0.49988E+08
 
   -0.49958E+08         0.49906E+05         0.00000E+00
    0.49906E+05        -0.49985E+08         0.00000E+00
    0.00000E+00         0.00000E+00        -0.49988E+08
 
   -0.49960E+08         0.50891E+05         0.00000E+00
    0.50891E+05        -0.49984E+08         0.00000E+00
    0.00000E+00         0.00000E+00        -0.49989E+08
 
   -0.49961E+08         0.51834E+05         0.00000E+00
    0.51834E+05        -0.49983E+08         0.00000E+00
    0.00000E+00         0.00000E+00        -0.49989E+08
 
   -0.49963E+08         0.52733E+05         0.00000E+00
    0.52733E+05        -0.49982E+08         0.00000E+00
    0.00000E+00         0.00000E+00        -0.49989E+08
 
   -0.49965E+08         0.53586E+05         0.00000E+00
    0.53586E+05        -0.49981E+08         0.00000E+00
    0.00000E+00         0.00000E+00        -0.49989E+08
 
   -0.49967E+08         0.54393E+05         0.00000E+00
    0.54393E+05        -0.49980E+08         0.00000E+00
    0.00000E+00         0.00000E+00        -0.49989E+08
 
   -0.49969E+08         0.55153E+05         0.00000E+00
    0.55153E+05        -0.49979E+08         0.00000E+00
    0.00000E+00         0.00000E+00        -0.49990E+08
 
   -0.49971E+08         0.55864E+05         0.00000E+00
    0.55864E+05        -0.49978E+08         0.00000E+00
    0.00000E+00         0.00000E+00        -0.49990E+08
 
   -0.49973E+08         0.56528E+05         0.00000E+00
    0.56528E+05        -0.49977E+08         0.00000E+00
    0.00000E+00         0.00000E+00        -0.49990E+08
 
   -0.49975E+08         0.57141E+05         0.00000E+00
    0.57141E+05        -0.49976E+08         0.00000E+00
    0.00000E+00         0.00000E+00        -0.49990E+08
 
   -0.49978E+08         0.57704E+05         0.00000E+00
    0.57704E+05        -0.49975E+08         0.00000E+00
    0.00000E+00         0.00000E+00        -0.49991E+08
 
   -0.49980E+08         0.58216E+05         0.00000E+00
    0.58216E+05        -0.49974E+08         0.00000E+00
    0.00000E+00         0.00000E+00        -0.49991E+08
 
   -0.49982E+08         0.58675E+05         0.00000E+00
    0.58675E+05        -0.49973E+08         0.00000E+00
    0.00000E+00         0.00000E+00        -0.49991E+08
 
   -0.49984E+08         0.59082E+05         0.00000E+00
    0.59082E+05        -0.49972E+08         0.00000E+00
    0.00000E+00         0.00000E+00        -0.49991E+08
 
   -0.49986E+08         0.59436E+05         0.00000E+00
    0.59436E+05        -0.49971E+08         0.00000E+00
    0.00000E+00         0.00000E+00        -0.49992E+08
 
   -0.49989E+08         0.59735E+05         0.00000E+00
    0.59735E+05        -0.49970E+08         0.00000E+00
    0.00000E+00         0.00000E+00        -0.49992E+08
 
   -0.49991E+08         0.59980E+05         0.00000E+00
    0.59980E+05        -0.49969E+08         0.00000E+00
    0.00000E+00         0.00000E+00        -0.49992E+08
 
   -0.49917E+08         0.93552E+03         0.00000E+00
    0.93552E+03        -0.50000E+08         0.00000E+00
    0.00000E+00         0.00000E+00        -0.49983E+08
 
   -0.49917E+08         0.28120E+04         0.00000E+00
    0.28120E+04        -0.50000E+08         0.00000E+00
    0.00000E+00         0.00000E+00        -0.49983E+08
 
   -0.49918E+08         0.46889E+04         0.00000E+00
    0.46889E+04        -0.50000E+08         0.00000E+00
    0.00000E+00         0.00000E+00        -0.49983E+08
 
   -0.49918E+08         0.65644E+04         0.00000E+00
    0.65644E+04        -0.50000E+08         0.00000E+00
    0.00000E+00         0.00000E+00        -0.49984E+08
 
   -0.49918E+08         0.84370E+04         0.00000E+00
    0.84370E+04        -0.50000E+08         0.00000E+00
    0.00000E+00         0.00000E+00        -0.49984E+08
 
   -0.49918E+08         0.10305E+05         0.00000E+00
    0.10305E+05        -0.50000E+08         0.00000E+00
    0.00000E+00         0.00000E+00        -0.49984E+08
 
   -0.49919E+08         0.12167E+05         0.00000E+00
    0.12167E+05        -0.49999E+08         0.00000E+00
    0.00000E+00         0.00000E+00        -0.49984E+08
 
   -0.49919E+08         0.14021E+05         0.00000E+00
    0.14021E+05        -0.49999E+08         0.00000E+00
    0.00000E+00         0.00000E+00        -0.49984E+08
 
   -0.49920E+08         0.15866E+05         0.00000E+00
    0.15866E+05        -0.49999E+08         0.00000E+00
    0.00000E+00         0.00000E+00        -0.49984E+08
 
   -0.49920E+08         0.17700E+05         0.00000E+00
    0.17700E+05        -0.49999E+08         0.00000E+00
    0.00000E+00         0.00000E+00        -0.49984E+08
 
   -0.49921E+08         0.19522E+05         0.00000E+00
    0.19522E+05        -0.49998E+08         0.00000E+00
    0.00000E+00         0.00000E+00        -0.49984E+08
 
   -0.49922E+08         0.21329E+05         0.00000E+00
    0.21329E+05        -0.49998E+08         0.00000E+00
    0.00000E+00         0.00000E+00        -0.49984E+08
 
   -0.49922E+08         0.23121E+05         0.00000E+00
    0.23121E+05        -0.49997E+08         0.00000E+00
    0.00000E+00         0.00000E+00        -0.49984E+08
 
   -0.49923E+08         0.24895E+05         0.00000E+00
    0.24895E+05        -0.49997E+08         0.00000E+00
    0.00000E+00         0.00000E+00        -0.49984E+08
 
   -0.49924E+08         0.26650E+05         0.00000E+00
    0.26650E+05        -0.49997E+08         0.00000E+00
    0.00000E+00         0.00000E+00        -0.49984E+08
 
   -0.49925E+08         0.28385E+05         0.00000E+00
    0.28385E+05        -0.49996E+08         0.00000E+00
    0.00000E+00         0.00000E+00        -0.49984E+08
 
   -0.49926E+08         0.30098E+05         0.00000E+00
    0.30098E+05        -0.49996E+08         0.00000E+00
    0.00000E+00         0.00000E+00        -0.49984E+08
 
   -0.49927E+08         0.31787E+05         0.00000E+00
    0.31787E+05        -0.49995E+08         0.00000E+00
    0.00000E+00         0.00000E+00        -0.49984E+08
 
   -0.49928E+08         0.33451E+05         0.00000E+00
    0.33451E+05        -0.49994E+08         0.00000E+00
    0.00000E+00         0.00000E+00        -0.49985E+08
 
   -0.49929E+08         0.35089E+05         0.00000E+00
    0.35089E+05        -0.49994E+08         0.00000E+00
    0.00000E+00         0.00000E+00        -0.49985E+08
 
   -0.49931E+08         0.36699E+05         0.00000E+00
    0.36699E+05        -0.49993E+08         0.00000E+00
    0.00000E+00         0.00000E+00        -0.49985E+08
 
   -0.49932E+08         0.38279E+05         0.00000E+00
    0.38279E+05        -0.49993E+08         0.00000E+00
    0.00000E+00         0.00000E+00        -0.49985E+08
 
   -0.49933E+08         0.39828E+05         0.00000E+00
    0.39828E+05        -0.49992E+08         0.00000E+00
    0.00000E+00         0.00000E+00        -0.49985E+08
 
   -0.49935E+08         0.41345E+05         0.00000E+00
    0.41345E+05        -0.49991E+08         0.00000E+00
    0.00000E+00         0.00000E+00        -0.49985E+08
 
   -0.49936E+08         0.42829E+05         0.00000E+00
    0.42829E+05        -0.49990E+08         0.00000E+00
    0.00000E+00         0.00000E+00        -0.49985E+08
 
   -0.49938E+08         0.44277E+05         0.00000E+00
    0.44277E+05        -0.49990E+08         0.00000E+00
    0.00000E+00         0.00000E+00        -0.49986E+08
 
   -0.49940E+08         0.45690E+05         0.00000E+00
    0.45690E+05        -0.49989E+08         0.00000E+00
    0.00000E+00         0.00000E+00        -0.49986E+08
 
   -0.49941E+08         0.47064E+05         0.00000E+00
    0.47064E+05        -0.49988E+08         0.00000E+00
    0.00000E+00         0.00000E+00        -0.49986E+08
 
   -0.49943E+08         0.48400E+05         0.00000E+00
    0.48400E+05        -0.49987E+08         0.00000E+00
    0.00000E+00         0.00000E+00        -0.49986E+08
 
   -0.49945E+08         0.49695E+05         0.00000E+00
    0.49695E+05        -0.49986E+08         0.00000E+00
    0.00000E+00         0.00000E+00        -0.49986E+08
 
   -0.49947E+08         0.50949E+05         0.00000E+00
    0.50949E+05        -0.49985E+08         0.00000E+00
    0.00000E+00         0.00000E+00        -0.49986E+08
 
   -0.49949E+08         0.52160E+05         0.00000E+00
    0.52160E+05        -0.49984E+08         0.00000E+00
    0.00000E+00         0.00000E+00        -0.49987E+08
 
   -0.49950E+08         0.53327E+05         0.00000E+00
    0.53327E+05        -0.49984E+08         0.00000E+00
    0.00000E+00         0.00000E+00        -0.49987E+08
 
   -0.49952E+08         0.54450E+05         0.00000E+00
    0.54450E+05        -0.49983E+08         0.00000E+00
    0.00000E+00         0.00000E+00        -0.49987E+08
 
   -0.49955E+08         0.55526E+05         0.00000E+00
    0.55526E+05        -0.49982E+08         0.00000E+00
    0.00000E+00         0.00000E+00        -0.49987E+08
 
   -0.49957E+08         0.56555E+05         0.00000E+00
    0.56555E+05        -0.49981E+08         0.00000E+00
    0.00000E+00         0.00000E+00        -0.49987E+08
 
   -0.49959E+08         0.57536E+05         0.00000E+00
    0.57536E+05        -0.49980E+08         0.00000E+00
    0.00000E+00         0.00000E+00        -0.49988E+08
 
   -0.49961E+08         0.58467E+05         0.00000E+00
    0.58467E+05        -0.49979E+08         0.00000E+00
    0.00000E+00         0.00000E+00        -0.49988E+08
 
   -0.49963E+08         0.59349E+05         0.00000E+00
    0.59349E+05        -0.49978E+08         0.00000E+00
    0.00000E+00         0.00000E+00        -0.49988E+08
 
   -0.49965E+08         0.60178E+05         0.00000E+00
    0.60178E+05        -0.49976E+08         0.00000E+00
    0.00000E+00         0.00000E+00        -0.49988E+08
 
   -0.49968E+08         0.60956E+05         0.00000E+00
    0.60956E+05        -0.49975E+08         0.00000E+00
    0.00000E+00         0.00000E+00        -0.49989E+08
 
   -0.49970E+08         0.61680E+05         0.00000E+00
    0.61680E+05        -0.49974E+08         0.00000E+00
    0.00000E+00         0.00000E+00        -0.49989E+08
 
   -0.49972E+08         0.62351E+05         0.00000E+00
    0.62351E+05        -0.49973E+08         0.00000E+00
    0.00000E+00         0.00000E+00        -0.49989E+08
 
   -0.49975E+08         0.62966E+05         0.00000E+00
    0.62966E+05        -0.49972E+08         0.00000E+00
    0.00000E+00         0.00000E+00        -0.49989E+08
 
   -0.49977E+08         0.63525E+05         0.00000E+00
    0.63525E+05        -0.49971E+08         0.00000E+00
    0.00000E+00         0.00000E+00        -0.49990E+08
 
   -0.49980E+08         0.64028E+05         0.00000E+00
    0.64028E+05        -0.49970E+08         0.00000E+00
    0.00000E+00         0.00000E+00        -0.49990E+08
 
   -0.49982E+08         0.64474E+05         0.00000E+00
    0.64474E+05        -0.49969E+08         0.00000E+00
    0.00000E+00         0.00000E+00        -0.49990E+08
 
   -0.49985E+08         0.64861E+05         0.00000E+00
    0.64861E+05        -0.49968E+08         0.00000E+00
    0.00000E+00         0.00000E+00        -0.49990E+08
 
   -0.49987E+08         0.65189E+05         0.00000E+00
    0.65189E+05        -0.49966E+08         0.00000E+00
    0.00000E+00         0.00000E+00        -0.49991E+08
 
   -0.49990E+08         0.65458E+05         0.00000E+00
    0.65458E+05        -0.49965E+08         0.00000E+00
    0.00000E+00         0.00000E+00        -0.49991E+08
 
   -0.49908E+08         0.10213E+04         0.00000E+00
    0.10213E+04        -0.50000E+08         0.00000E+00
    0.00000E+00         0.00000E+00        -0.49982E+08
 
   -0.49908E+08         0.30715E+04         0.00000E+00
    0.30715E+04        -0.50000E+08         0.00000E+00
    0.00000E+00         0.00000E+00        -0.49982E+08
 
   -0.49908E+08         0.51227E+04         0.00000E+00
    0.51227E+04        -0.50000E+08         0.00000E+00
    0.00000E+00         0.00000E+00        -0.49982E+08
 
   -0.49908E+08         0.71729E+04         0.00000E+00
    0.71729E+04        -0.50000E+08         0.00000E+00
    0.00000E+00         0.00000E+00        -0.49982E+08
 
   -0.49908E+08         0.92204E+04         0.00000E+00
    0.92204E+04        -0.50000E+08         0.00000E+00
    0.00000E+00         0.00000E+00        -0.49982E+08
 
   -0.49909E+08         0.11263E+05         0.00000E+00
    0.11263E+05        -0.49999E+08         0.00000E+00
    0.00000E+00         0.00000E+00        -0.49982E+08
 
   -0.49909E+08         0.13300E+05         0.00000E+00
    0.13300E+05        -0.49999E+08         0.00000E+00
    0.00000E+00         0.00000E+00        -0.49982E+08
 
   -0.49909E+08         0.15329E+05         0.00000E+00
    0.15329E+05        -0.49999E+08         0.00000E+00
    0.00000E+00         0.00000E+00        -0.49982E+08
 
   -0.49910E+08         0.17347E+05         0.00000E+00
    0.17347E+05        -0.49999E+08         0.00000E+00
    0.00000E+00         0.00000E+00        -0.49982E+08
 
   -0.49911E+08         0.19354E+05         0.00000E+00
    0.19354E+05        -0.49998E+08         0.00000E+00
    0.00000E+00         0.00000E+00        -0.49982E+08
 
   -0.49911E+08         0.21347E+05         0.00000E+00
    0.21347E+05        -0.49998E+08         0.00000E+00
    0.00000E+00         0.00000E+00        -0.49982E+08
 
   -0.49912E+08         0.23325E+05         0.00000E+00
    0.23325E+05        -0.49998E+08         0.00000E+00
    0.00000E+00         0.00000E+00        -0.49982E+08
 
   -0.49913E+08         0.25285E+05         0.00000E+00
    0.25285E+05        -0.49997E+08         0.00000E+00
    0.00000E+00         0.00000E+00        -0.49982E+08
 
   -0.49914E+08         0.27227E+05         0.00000E+00
    0.27227E+05        -0.49997E+08         0.00000E+00
    0.00000E+00         0.00000E+00        -0.49982E+08
 
   -0.49915E+08         0.29148E+05         0.00000E+00
    0.29148E+05        -0.49996E+08         0.00000E+00
    0.00000E+00         0.00000E+00        -0.49982E+08
 
   -0.49916E+08         0.31047E+05         0.00000E+00
    0.31047E+05        -0.49996E+08         0.00000E+00
    0.00000E+00         0.00000E+00        -0.49982E+08
 
   -0.49917E+08         0.32921E+05         0.00000E+00
    0.32921E+05        -0.49995E+08         0.00000E+00
    0.00000E+00         0.00000E+00        -0.49982E+08
 
   -0.49918E+08         0.34770E+05         0.00000E+00
    0.34770E+05        -0.49994E+08         0.00000E+00
    0.00000E+00         0.00000E+00        -0.49983E+08
 
   -0.49920E+08         0.36591E+05         0.00000E+00
    0.36591E+05        -0.49994E+08         0.00000E+00
    0.00000E+00         0.00000E+00        -0.49983E+08
 
   -0.49921E+08         0.38383E+05         0.00000E+00
    0.38383E+05        -0.49993E+08         0.00000E+00
    0.00000E+00         0.00000E+00        -0.49983E+08
 
   -0.49922E+08         0.40145E+05         0.00000E+00
    0.40145E+05        -0.49992E+08         0.00000E+00
    0.00000E+00         0.00000E+00        -0.49983E+08
 
   -0.49924E+08         0.41874E+05         0.00000E+00
    0.41874E+05        -0.49992E+08         0.00000E+00
    0.00000E+00         0.00000E+00        -0.49983E+08
 
   -0.49925E+08         0.43569E+05         0.00000E+00
    0.43569E+05        -0.49991E+08         0.00000E+00
    0.00000E+00         0.00000E+00        -0.49983E+08
 
   -0.49927E+08         0.45229E+05         0.00000E+00
    0.45229E+05        -0.49990E+08         0.00000E+00
    0.00000E+00         0.00000E+00        -0.49983E+08
 
   -0.49929E+08         0.46851E+05         0.00000E+00
    0.46851E+05        -0.49989E+08         0.00000E+00
    0.00000E+00         0.00000E+00        -0.49984E+08
 
   -0.49931E+08         0.48436E+05         0.00000E+00
    0.48436E+05        -0.49988E+08         0.00000E+00
    0.00000E+00         0.00000E+00        -0.49984E+08
 
   -0.49932E+08         0.49980E+05         0.00000E+00
    0.49980E+05        -0.49987E+08         0.00000E+00
    0.00000E+00         0.00000E+00        -0.49984E+08
 
   -0.49934E+08         0.51483E+05         0.00000E+00
    0.51483E+05        -0.49986E+08         0.00000E+00
    0.00000E+00         0.00000E+00        -0.49984E+08
 
   -0.49936E+08         0.52944E+05         0.00000E+00
    0.52944E+05        -0.49986E+08         0.00000E+00
    0.00000E+00         0.00000E+00        -0.49984E+08
 
   -0.49938E+08         0.54361E+05         0.00000E+00
    0.54361E+05        -0.49985E+08         0.00000E+00
    0.00000E+00         0.00000E+00        -0.49985E+08
 
   -0.49940E+08         0.55732E+05         0.00000E+00
    0.55732E+05        -0.49984E+08         0.00000E+00
    0.00000E+00         0.00000E+00        -0.49985E+08
 
   -0.49942E+08         0.57056E+05         0.00000E+00
    0.57056E+05        -0.49983E+08         0.00000E+00
    0.00000E+00         0.00000E+00        -0.49985E+08
 
   -0.49945E+08         0.58332E+05         0.00000E+00
    0.58332E+05        -0.49981E+08         0.00000E+00
    0.00000E+00         0.00000E+00        -0.49985E+08
 
   -0.49947E+08         0.59560E+05         0.00000E+00
    0.59560E+05        -0.49980E+08         0.00000E+00
    0.00000E+00         0.00000E+00        -0.49985E+08
 
   -0.49949E+08         0.60737E+05         0.00000E+00
    0.60737E+05        -0.49979E+08         0.00000E+00
    0.00000E+00         0.00000E+00        -0.49986E+08
 
   -0.49951E+08         0.61862E+05         0.00000E+00
    0.61862E+05        -0.49978E+08         0.00000E+00
    0.00000E+00         0.00000E+00        -0.49986E+08
 
   -0.49954E+08         0.62934E+05         0.00000E+00
    0.62934E+05        -0.49977E+08         0.00000E+00
    0.00000E+00         0.00000E+00        -0.49986E+08
 
   -0.49956E+08         0.63953E+05         0.00000E+00
    0.63953E+05        -0.49976E+08         0.00000E+00
    0.00000E+00         0.00000E+00        -0.49986E+08
 
   -0.49959E+08         0.64917E+05         0.00000E+00
    0.64917E+05        -0.49975E+08         0.00000E+00
    0.00000E+00         0.00000E+00        -0.49987E+08
 
   -0.49961E+08         0.65824E+05         0.00000E+00
    0.65824E+05        -0.49974E+08         0.00000E+00
    0.00000E+00         0.00000E+00        -0.49987E+08
 
   -0.49964E+08         0.66675E+05         0.00000E+00
    0.66675E+05        -0.49972E+08         0.00000E+00
    0.00000E+00         0.00000E+00        -0.49987E+08
 
   -0.49966E+08         0.67468E+05         0.00000E+00
    0.67468E+05        -0.49971E+08         0.00000E+00
    0.00000E+00         0.00000E+00        -0.49987E+08
 
   -0.49969E+08         0.68201E+05         0.00000E+00
    0.68201E+05        -0.49970E+08         0.00000E+00
    0.00000E+00         0.00000E+00        -0.49988E+08
 
   -0.49972E+08         0.68875E+05         0.00000E+00
    0.68875E+05        -0.49969E+08         0.00000E+00
    0.00000E+00         0.00000E+00        -0.49988E+08
 
   -0.49974E+08         0.69488E+05         0.00000E+00
    0.69488E+05        -0.49967E+08         0.00000E+00
    0.00000E+00         0.00000E+00        -0.49988E+08
 
   -0.49977E+08         0.70039E+05         0.00000E+00
    0.70039E+05        -0.49966E+08         0.00000E+00
    0.00000E+00         0.00000E+00        -0.49989E+08
 
   -0.49980E+08         0.70527E+05         0.00000E+00
    0.70527E+05        -0.49965E+08         0.00000E+00
    0.00000E+00         0.00000E+00        -0.49989E+08
 
   -0.49983E+08         0.70952E+05         0.00000E+00
    0.70952E+05        -0.49964E+08         0.00000E+00
    0.00000E+00         0.00000E+00        -0.49989E+08
 
   -0.49986E+08         0.71313E+05         0.00000E+00
    0.71313E+05        -0.49962E+08         0.00000E+00
    0.00000E+00         0.00000E+00        -0.49990E+08
 
   -0.49989E+08         0.71609E+05         0.00000E+00
    0.71609E+05        -0.49961E+08         0.00000E+00
    0.00000E+00         0.00000E+00        -0.49990E+08
 
   -0.49897E+08         0.11182E+04         0.00000E+00
    0.11182E+04        -0.50000E+08         0.00000E+00
    0.00000E+00         0.00000E+00        -0.49979E+08
 
   -0.49897E+08         0.33648E+04         0.00000E+00
    0.33648E+04        -0.50000E+08         0.00000E+00
    0.00000E+00         0.00000E+00        -0.49979E+08
 
   -0.49897E+08         0.56129E+04         0.00000E+00
    0.56129E+04        -0.50000E+08         0.00000E+00
    0.00000E+00         0.00000E+00        -0.49979E+08
 
   -0.49897E+08         0.78606E+04         0.00000E+00
    0.78606E+04        -0.50000E+08         0.00000E+00
    0.00000E+00         0.00000E+00        -0.49979E+08
 
   -0.49897E+08         0.10106E+05         0.00000E+00
    0.10106E+05        -0.50000E+08         0.00000E+00
    0.00000E+00         0.00000E+00        -0.49979E+08
 
   -0.49898E+08         0.12346E+05         0.00000E+00
    0.12346E+05        -0.49999E+08         0.00000E+00
    0.00000E+00         0.00000E+00        -0.49979E+08
 
   -0.49898E+08         0.14580E+05         0.00000E+00
    0.14580E+05        -0.49999E+08         0.00000E+00
    0.00000E+00         0.00000E+00        -0.49979E+08
 
   -0.49899E+08         0.16806E+05         0.00000E+00
    0.16806E+05        -0.49999E+08         0.00000E+00
    0.00000E+00         0.00000E+00        -0.49980E+08
 
   -0.49899E+08         0.19020E+05         0.00000E+00
    0.19020E+05        -0.49999E+08         0.00000E+00
    0.00000E+00         0.00000E+00        -0.49980E+08
 
   -0.49900E+08         0.21222E+05         0.00000E+00
    0.21222E+05        -0.49998E+08         0.00000E+00
    0.00000E+00         0.00000E+00        -0.49980E+08
 
   -0.49901E+08         0.23408E+05         0.00000E+00
    0.23408E+05        -0.49998E+08         0.00000E+00
    0.00000E+00         0.00000E+00        -0.49980E+08
 
   -0.49902E+08         0.25578E+05         0.00000E+00
    0.25578E+05        -0.49997E+08         0.00000E+00
    0.00000E+00         0.00000E+00        -0.49980E+08
 
   -0.49903E+08         0.27729E+05         0.00000E+00
    0.27729E+05        -0.49997E+08         0.00000E+00
    0.00000E+00         0.00000E+00        -0.49980E+08
 
   -0.49904E+08         0.29859E+05         0.00000E+00
    0.29859E+05        -0.49996E+08         0.00000E+00
    0.00000E+00         0.00000E+00        -0.49980E+08
 
   -0.49905E+08         0.31967E+05         0.00000E+00
    0.31967E+05        -0.49996E+08         0.00000E+00
    0.00000E+00         0.00000E+00        -0.49980E+08
 
   -0.49906E+08         0.34049E+05         0.00000E+00
    0.34049E+05        -0.49995E+08         0.00000E+00
    0.00000E+00         0.00000E+00        -0.49980E+08
 
   -0.49907E+08         0.36105E+05         0.00000E+00
    0.36105E+05        -0.49994E+08         0.00000E+00
    0.00000E+00         0.00000E+00        -0.49980E+08
 
   -0.49909E+08         0.38133E+05         0.00000E+00
    0.38133E+05        -0.49994E+08         0.00000E+00
    0.00000E+00         0.00000E+00        -0.49980E+08
 
   -0.49910E+08         0.40130E+05         0.00000E+00
    0.40130E+05        -0.49993E+08         0.00000E+00
    0.00000E+00         0.00000E+00        -0.49981E+08
 
   -0.49912E+08         0.42095E+05         0.00000E+00
    0.42095E+05        -0.49992E+08         0.00000E+00
    0.00000E+00         0.00000E+00        -0.49981E+08
 
   -0.49913E+08         0.44026E+05         0.00000E+00
    0.44026E+05        -0.49991E+08         0.00000E+00
    0.00000E+00         0.00000E+00        -0.49981E+08
 
   -0.49915E+08         0.45922E+05         0.00000E+00
    0.45922E+05        -0.49991E+08         0.00000E+00
    0.00000E+00         0.00000E+00        -0.49981E+08
 
   -0.49917E+08         0.47779E+05         0.00000E+00
    0.47779E+05        -0.49990E+08         0.00000E+00
    0.00000E+00         0.00000E+00        -0.49981E+08
 
   -0.49918E+08         0.49598E+05         0.00000E+00
    0.49598E+05        -0.49989E+08         0.00000E+00
    0.00000E+00         0.00000E+00        -0.49981E+08
 
   -0.49920E+08         0.51376E+05         0.00000E+00
    0.51376E+05        -0.49988E+08         0.00000E+00
    0.00000E+00         0.00000E+00        -0.49982E+08
 
   -0.49922E+08         0.53112E+05         0.00000E+00
    0.53112E+05        -0.49987E+08         0.00000E+00
    0.00000E+00         0.00000E+00        -0.49982E+08
 
   -0.49924E+08         0.54804E+05         0.00000E+00
    0.54804E+05        -0.49986E+08         0.00000E+00
    0.00000E+00         0.00000E+00        -0.49982E+08
 
   -0.49926E+08         0.56450E+05         0.00000E+00
    0.56450E+05        -0.49985E+08         0.00000E+00
    0.00000E+00         0.00000E+00        -0.49982E+08
 
   -0.49929E+08         0.58050E+05         0.00000E+00
    0.58050E+05        -0.49984E+08         0.00000E+00
    0.00000E+00         0.00000E+00        -0.49982E+08
 
   -0.49931E+08         0.59601E+05         0.00000E+00
    0.59601E+05        -0.49983E+08         0.00000E+00
    0.00000E+00         0.00000E+00        -0.49983E+08
 
   -0.49933E+08         0.61102E+05         0.00000E+00
    0.61102E+05        -0.49981E+08         0.00000E+00
    0.00000E+00         0.00000E+00        -0.49983E+08
 
   -0.49936E+08         0.62552E+05         0.00000E+00
    0.62552E+05        -0.49980E+08         0.00000E+00
    0.00000E+00         0.00000E+00        -0.49983E+08
 
   -0.49938E+08         0.63949E+05         0.00000E+00
    0.63949E+05        -0.49979E+08         0.00000E+00
    0.00000E+00         0.00000E+00        -0.49983E+08
 
   -0.49940E+08         0.65292E+05         0.00000E+00
    0.65292E+05        -0.49978E+08         0.00000E+00
    0.00000E+00         0.00000E+00        -0.49984E+08
 
   -0.49943E+08         0.66580E+05         0.00000E+00
    0.66580E+05        -0.49977E+08         0.00000E+00
    0.00000E+00         0.00000E+00        -0.49984E+08
 
   -0.49946E+08         0.67812E+05         0.00000E+00
    0.67812E+05        -0.49975E+08         0.00000E+00
    0.00000E+00         0.00000E+00        -0.49984E+08
 
   -0.49948E+08         0.68986E+05         0.00000E+00
    0.68986E+05        -0.49974E+08         0.00000E+00
    0.00000E+00         0.00000E+00        -0.49984E+08
 
   -0.49951E+08         0.70101E+05         0.00000E+00
    0.70101E+05        -0.49973E+08         0.00000E+00
    0.00000E+00         0.00000E+00        -0.49985E+08
 
   -0.49954E+08         0.71156E+05         0.00000E+00
    0.71156E+05        -0.49972E+08         0.00000E+00
    0.00000E+00         0.00000E+00        -0.49985E+08
 
   -0.49957E+08         0.72149E+05         0.00000E+00
    0.72149E+05        -0.49970E+08         0.00000E+00
    0.00000E+00         0.00000E+00        -0.49985E+08
 
   -0.49959E+08         0.73081E+05         0.00000E+00
    0.73081E+05        -0.49969E+08         0.00000E+00
    0.00000E+00         0.00000E+00        -0.49986E+08
 
   -0.49962E+08         0.73949E+05         0.00000E+00
    0.73949E+05        -0.49968E+08         0.00000E+00
    0.00000E+00         0.00000E+00        -0.49986E+08
 
   -0.49965E+08         0.74752E+05         0.00000E+00
    0.74752E+05        -0.49966E+08         0.00000E+00
    0.00000E+00         0.00000E+00        -0.49986E+08
 
   -0.49968E+08         0.75491E+05         0.00000E+00
    0.75491E+05        -0.49965E+08         0.00000E+00
    0.00000E+00         0.00000E+00        -0.49987E+08
 
   -0.49971E+08         0.76163E+05         0.00000E+00
    0.76163E+05        -0.49963E+08         0.00000E+00
    0.00000E+00         0.00000E+00        -0.49987E+08
 
   -0.49974E+08         0.76767E+05         0.00000E+00
    0.76767E+05        -0.49962E+08         0.00000E+00
    0.00000E+00         0.00000E+00        -0.49987E+08
 
   -0.49978E+08         0.77303E+05         0.00000E+00
    0.77303E+05        -0.49961E+08         0.00000E+00
    0.00000E+00         0.00000E+00        -0.49988E+08
 
   -0.49981E+08         0.77770E+05         0.00000E+00
    0.77770E+05        -0.49959E+08         0.00000E+00
    0.00000E+00         0.00000E+00        -0.49988E+08
 
   -0.49984E+08         0.78168E+05         0.00000E+00
    0.78168E+05        -0.49958E+08         0.00000E+00
    0.00000E+00         0.00000E+00        -0.49988E+08
 
   -0.49987E+08         0.78494E+05         0.00000E+00
    0.78494E+05        -0.49956E+08         0.00000E+00
    0.00000E+00         0.00000E+00        -0.49989E+08
 
   -0.49885E+08         0.12279E+04         0.00000E+00
    0.12279E+04        -0.50000E+08         0.00000E+00
    0.00000E+00         0.00000E+00        -0.49977E+08
 
   -0.49885E+08         0.36966E+04         0.00000E+00
    0.36966E+04        -0.50000E+08         0.00000E+00
    0.00000E+00         0.00000E+00        -0.49977E+08
 
   -0.49885E+08         0.61677E+04         0.00000E+00
    0.61677E+04        -0.50000E+08         0.00000E+00
    0.00000E+00         0.00000E+00        -0.49977E+08
 
   -0.49885E+08         0.86388E+04         0.00000E+00
    0.86388E+04        -0.50000E+08         0.00000E+00
    0.00000E+00         0.00000E+00        -0.49977E+08
 
   -0.49886E+08         0.11108E+05         0.00000E+00
    0.11108E+05        -0.50000E+08         0.00000E+00
    0.00000E+00         0.00000E+00        -0.49977E+08
 
   -0.49886E+08         0.13572E+05         0.00000E+00
    0.13572E+05        -0.49999E+08         0.00000E+00
    0.00000E+00         0.00000E+00        -0.49977E+08
 
   -0.49887E+08         0.16028E+05         0.00000E+00
    0.16028E+05        -0.49999E+08         0.00000E+00
    0.00000E+00         0.00000E+00        -0.49977E+08
 
   -0.49887E+08         0.18476E+05         0.00000E+00
    0.18476E+05        -0.49999E+08         0.00000E+00
    0.00000E+00         0.00000E+00        -0.49977E+08
 
   -0.49888E+08         0.20912E+05         0.00000E+00
    0.20912E+05        -0.49998E+08         0.00000E+00
    0.00000E+00         0.00000E+00        -0.49977E+08
 
   -0.49889E+08         0.23333E+05         0.00000E+00
    0.23333E+05        -0.49998E+08         0.00000E+00
    0.00000E+00         0.00000E+00        -0.49977E+08
 
   -0.49890E+08         0.25738E+05         0.00000E+00
    0.25738E+05        -0.49997E+08         0.00000E+00
    0.00000E+00         0.00000E+00        -0.49977E+08
 
   -0.49890E+08         0.28124E+05         0.00000E+00
    0.28124E+05        -0.49997E+08         0.00000E+00
    0.00000E+00         0.00000E+00        -0.49977E+08
 
   -0.49892E+08         0.30489E+05         0.00000E+00
    0.30489E+05        -0.49996E+08         0.00000E+00
    0.00000E+00         0.00000E+00        -0.49978E+08
 
   -0.49893E+08         0.32832E+05         0.00000E+00
    0.32832E+05        -0.49996E+08         0.00000E+00
    0.00000E+00         0.00000E+00        -0.49978E+08
 
   -0.49894E+08         0.35148E+05         0.00000E+00
    0.35148E+05        -0.49995E+08         0.00000E+00
    0.00000E+00         0.00000E+00        -0.49978E+08
 
   -0.49895E+08         0.37437E+05         0.00000E+00
    0.37437E+05        -0.49994E+08         0.00000E+00
    0.00000E+00         0.00000E+00        -0.49978E+08
 
   -0.49897E+08         0.39697E+05         0.00000E+00
    0.39697E+05        -0.49994E+08         0.00000E+00
    0.00000E+00         0.00000E+00        -0.49978E+08
 
   -0.49898E+08         0.41924E+05         0.00000E+00
    0.41924E+05        -0.49993E+08         0.00000E+00
    0.00000E+00         0.00000E+00        -0.49978E+08
 
   -0.49900E+08         0.44118E+05         0.00000E+00
    0.44118E+05        -0.49992E+08         0.00000E+00
    0.00000E+00         0.00000E+00        -0.49978E+08
 
   -0.49901E+08         0.46276E+05         0.00000E+00
    0.46276E+05        -0.49991E+08         0.00000E+00
    0.00000E+00         0.00000E+00        -0.49979E+08
 
   -0.49903E+08         0.48396E+05         0.00000E+00
    0.48396E+05        -0.49990E+08         0.00000E+00
    0.00000E+00         0.00000E+00        -0.49979E+08
 
   -0.49905E+08         0.50477E+05         0.00000E+00
    0.50477E+05        -0.49989E+08         0.00000E+00
    0.00000E+00         0.00000E+00        -0.49979E+08
 
   -0.49907E+08         0.52516E+05         0.00000E+00
    0.52516E+05        -0.49988E+08         0.00000E+00
    0.00000E+00         0.00000E+00        -0.49979E+08
 
   -0.49909E+08         0.54512E+05         0.00000E+00
    0.54512E+05        -0.49987E+08         0.00000E+00
    0.00000E+00         0.00000E+00        -0.49979E+08
 
   -0.49911E+08         0.56462E+05         0.00000E+00
    0.56462E+05        -0.49986E+08         0.00000E+00
    0.00000E+00         0.00000E+00        -0.49979E+08
 
   -0.49913E+08         0.58366E+05         0.00000E+00
    0.58366E+05        -0.49985E+08         0.00000E+00
    0.00000E+00         0.00000E+00        -0.49980E+08
 
   -0.49916E+08         0.60221E+05         0.00000E+00
    0.60221E+05        -0.49984E+08         0.00000E+00
    0.00000E+00         0.00000E+00        -0.49980E+08
 
   -0.49918E+08         0.62025E+05         0.00000E+00
    0.62025E+05        -0.49983E+08         0.00000E+00
    0.00000E+00         0.00000E+00        -0.49980E+08
 
   -0.49920E+08         0.63778E+05         0.00000E+00
    0.63778E+05        -0.49982E+08         0.00000E+00
    0.00000E+00         0.00000E+00        -0.49980E+08
 
   -0.49923E+08         0.65477E+05         0.00000E+00
    0.65477E+05        -0.49980E+08         0.00000E+00
    0.00000E+00         0.00000E+00        -0.49981E+08
 
   -0.49925E+08         0.67122E+05         0.00000E+00
    0.67122E+05        -0.49979E+08         0.00000E+00
    0.00000E+00         0.00000E+00        -0.49981E+08
 
   -0.49928E+08         0.68710E+05         0.00000E+00
    0.68710E+05        -0.49978E+08         0.00000E+00
    0.00000E+00         0.00000E+00        -0.49981E+08
 
   -0.49931E+08         0.70240E+05         0.00000E+00
    0.70240E+05        -0.49977E+08         0.00000E+00
    0.00000E+00         0.00000E+00        -0.49981E+08
 
   -0.49934E+08         0.71711E+05         0.00000E+00
    0.71711E+05        -0.49975E+08         0.00000E+00
    0.00000E+00         0.00000E+00        -0.49982E+08
 
   -0.49936E+08         0.73121E+05         0.00000E+00
    0.73121E+05        -0.49974E+08         0.00000E+00
    0.00000E+00         0.00000E+00        -0.49982E+08
 
   -0.49939E+08         0.74469E+05         0.00000E+00
    0.74469E+05        -0.49972E+08         0.00000E+00
    0.00000E+00         0.00000E+00        -0.49982E+08
 
   -0.49942E+08         0.75754E+05         0.00000E+00
    0.75754E+05        -0.49971E+08         0.00000E+00
    0.00000E+00         0.00000E+00        -0.49983E+08
 
   -0.49945E+08         0.76975E+05         0.00000E+00
    0.76975E+05        -0.49970E+08         0.00000E+00
    0.00000E+00         0.00000E+00        -0.49983E+08
 
   -0.49948E+08         0.78130E+05         0.00000E+00
    0.78130E+05        -0.49968E+08         0.00000E+00
    0.00000E+00         0.00000E+00        -0.49983E+08
 
   -0.49952E+08         0.79218E+05         0.00000E+00
    0.79218E+05        -0.49967E+08         0.00000E+00
    0.00000E+00         0.00000E+00        -0.49984E+08
 
   -0.49955E+08         0.80238E+05         0.00000E+00
    0.80238E+05        -0.49965E+08         0.00000E+00
    0.00000E+00         0.00000E+00        -0.49984E+08
 
   -0.49958E+08         0.81188E+05         0.00000E+00
    0.81188E+05        -0.49964E+08         0.00000E+00
    0.00000E+00         0.00000E+00        -0.49984E+08
 
   -0.49961E+08         0.82069E+05         0.00000E+00
    0.82069E+05        -0.49962E+08         0.00000E+00
    0.00000E+00         0.00000E+00        -0.49985E+08
 
   -0.49965E+08         0.82878E+05         0.00000E+00
    0.82878E+05        -0.49961E+08         0.00000E+00
    0.00000E+00         0.00000E+00        -0.49985E+08
 
   -0.49968E+08         0.83615E+05         0.00000E+00
    0.83615E+05        -0.49959E+08         0.00000E+00
    0.00000E+00         0.00000E+00        -0.49985E+08
 
   -0.49971E+08         0.84278E+05         0.00000E+00
    0.84278E+05        -0.49957E+08         0.00000E+00
    0.00000E+00         0.00000E+00        -0.49986E+08
 
   -0.49975E+08         0.84867E+05         0.00000E+00
    0.84867E+05        -0.49956E+08         0.00000E+00
    0.00000E+00         0.00000E+00        -0.49986E+08
 
   -0.49979E+08         0.85381E+05         0.00000E+00
    0.85381E+05        -0.49954E+08         0.00000E+00
    0.00000E+00         0.00000E+00        -0.49987E+08
 
   -0.49982E+08         0.85818E+05         0.00000E+00
    0.85818E+05        -0.49953E+08         0.00000E+00
    0.00000E+00         0.00000E+00        -0.49987E+08
 
   -0.49986E+08         0.86179E+05         0.00000E+00
    0.86179E+05        -0.49951E+08         0.00000E+00
    0.00000E+00         0.00000E+00        -0.49987E+08
 
   -0.49872E+08         0.13524E+04         0.00000E+00
    0.13524E+04        -0.50000E+08         0.00000E+00
    0.00000E+00         0.00000E+00        -0.49974E+08
 
   -0.49872E+08         0.40732E+04         0.00000E+00
    0.40732E+04        -0.50000E+08         0.00000E+00
    0.00000E+00         0.00000E+00        -0.49974E+08
 
   -0.49872E+08         0.67973E+04         0.00000E+00
    0.67973E+04        -0.50000E+08         0.00000E+00
    0.00000E+00         0.00000E+00        -0.49974E+08
 
   -0.49872E+08         0.95217E+04         0.00000E+00
    0.95217E+04        -0.50000E+08         0.00000E+00
    0.00000E+00         0.00000E+00        -0.49974E+08
 
   -0.49873E+08         0.12244E+05         0.00000E+00
    0.12244E+05        -0.49999E+08         0.00000E+00
    0.00000E+00         0.00000E+00        -0.49974E+08
 
   -0.49873E+08         0.14961E+05         0.00000E+00
    0.14961E+05        -0.49999E+08         0.00000E+00
    0.00000E+00         0.00000E+00        -0.49974E+08
 
   -0.49874E+08         0.17670E+05         0.00000E+00
    0.17670E+05        -0.49999E+08         0.00000E+00
    0.00000E+00         0.00000E+00        -0.49975E+08
 
   -0.49874E+08         0.20369E+05         0.00000E+00
    0.20369E+05        -0.49999E+08         0.00000E+00
    0.00000E+00         0.00000E+00        -0.49975E+08
 
   -0.49875E+08         0.23054E+05         0.00000E+00
    0.23054E+05        -0.49998E+08         0.00000E+00
    0.00000E+00         0.00000E+00        -0.49975E+08
 
   -0.49876E+08         0.25724E+05         0.00000E+00
    0.25724E+05        -0.49998E+08         0.00000E+00
    0.00000E+00         0.00000E+00        -0.49975E+08
 
   -0.49877E+08         0.28375E+05         0.00000E+00
    0.28375E+05        -0.49997E+08         0.00000E+00
    0.00000E+00         0.00000E+00        -0.49975E+08
 
   -0.49878E+08         0.31005E+05         0.00000E+00
    0.31005E+05        -0.49996E+08         0.00000E+00
    0.00000E+00         0.00000E+00        -0.49975E+08
 
   -0.49879E+08         0.33611E+05         0.00000E+00
    0.33611E+05        -0.49996E+08         0.00000E+00
    0.00000E+00         0.00000E+00        -0.49975E+08
 
   -0.49880E+08         0.36191E+05         0.00000E+00
    0.36191E+05        -0.49995E+08         0.00000E+00
    0.00000E+00         0.00000E+00        -0.49975E+08
 
   -0.49882E+08         0.38742E+05         0.00000E+00
    0.38742E+05        -0.49994E+08         0.00000E+00
    0.00000E+00         0.00000E+00        -0.49975E+08
 
   -0.49883E+08         0.41262E+05         0.00000E+00
    0.41262E+05        -0.49994E+08         0.00000E+00
    0.00000E+00         0.00000E+00        -0.49975E+08
 
   -0.49885E+08         0.43749E+05         0.00000E+00
    0.43749E+05        -0.49993E+08         0.00000E+00
    0.00000E+00         0.00000E+00        -0.49976E+08
 
   -0.49887E+08         0.46200E+05         0.00000E+00
    0.46200E+05        -0.49992E+08         0.00000E+00
    0.00000E+00         0.00000E+00        -0.49976E+08
 
   -0.49888E+08         0.48614E+05         0.00000E+00
    0.48614E+05        -0.49991E+08         0.00000E+00
    0.00000E+00         0.00000E+00        -0.49976E+08
 
   -0.49890E+08         0.50987E+05         0.00000E+00
    0.50987E+05        -0.49990E+08         0.00000E+00
    0.00000E+00         0.00000E+00        -0.49976E+08
 
   -0.49892E+08         0.53317E+05         0.00000E+00
    0.53317E+05        -0.49989E+08         0.00000E+00
    0.00000E+00         0.00000E+00        -0.49976E+08
 
   -0.49894E+08         0.55603E+05         0.00000E+00
    0.55603E+05        -0.49988E+08         0.00000E+00
    0.00000E+00         0.00000E+00        -0.49976E+08
 
   -0.49896E+08         0.57843E+05         0.00000E+00
    0.57843E+05        -0.49987E+08         0.00000E+00
    0.00000E+00         0.00000E+00        -0.49977E+08
 
   -0.49899E+08         0.60034E+05         0.00000E+00
    0.60034E+05        -0.49986E+08         0.00000E+00
    0.00000E+00         0.00000E+00        -0.49977E+08
 
   -0.49901E+08         0.62175E+05         0.00000E+00
    0.62175E+05        -0.49984E+08         0.00000E+00
    0.00000E+00         0.00000E+00        -0.49977E+08
 
   -0.49904E+08         0.64264E+05         0.00000E+00
    0.64264E+05        -0.49983E+08         0.00000E+00
    0.00000E+00         0.00000E+00        -0.49977E+08
 
   -0.49906E+08         0.66299E+05         0.00000E+00
    0.66299E+05        -0.49982E+08         0.00000E+00
    0.00000E+00         0.00000E+00        -0.49978E+08
 
   -0.49909E+08         0.68277E+05         0.00000E+00
    0.68277E+05        -0.49981E+08         0.00000E+00
    0.00000E+00         0.00000E+00        -0.49978E+08
 
   -0.49911E+08         0.70199E+05         0.00000E+00
    0.70199E+05        -0.49979E+08         0.00000E+00
    0.00000E+00         0.00000E+00        -0.49978E+08
 
   -0.49914E+08         0.72061E+05         0.00000E+00
    0.72061E+05        -0.49978E+08         0.00000E+00
    0.00000E+00         0.00000E+00        -0.49978E+08
 
   -0.49917E+08         0.73862E+05         0.00000E+00
    0.73862E+05        -0.49977E+08         0.00000E+00
    0.00000E+00         0.00000E+00        -0.49979E+08
 
   -0.49920E+08         0.75601E+05         0.00000E+00
    0.75601E+05        -0.49975E+08         0.00000E+00
    0.00000E+00         0.00000E+00        -0.49979E+08
 
   -0.49923E+08         0.77277E+05         0.00000E+00
    0.77277E+05        -0.49974E+08         0.00000E+00
    0.00000E+00         0.00000E+00        -0.49979E+08
 
   -0.49926E+08         0.78887E+05         0.00000E+00
    0.78887E+05        -0.49972E+08         0.00000E+00
    0.00000E+00         0.00000E+00        -0.49980E+08
 
   -0.49929E+08         0.80430E+05         0.00000E+00
    0.80430E+05        -0.49971E+08         0.00000E+00
    0.00000E+00         0.00000E+00        -0.49980E+08
 
   -0.49932E+08         0.81905E+05         0.00000E+00
    0.81905E+05        -0.49969E+08         0.00000E+00
    0.00000E+00         0.00000E+00        -0.49980E+08
 
   -0.49936E+08         0.83311E+05         0.00000E+00
    0.83311E+05        -0.49967E+08         0.00000E+00
    0.00000E+00         0.00000E+00        -0.49981E+08
 
   -0.49939E+08         0.84646E+05         0.00000E+00
    0.84646E+05        -0.49966E+08         0.00000E+00
    0.00000E+00         0.00000E+00        -0.49981E+08
 
   -0.49943E+08         0.85910E+05         0.00000E+00
    0.85910E+05        -0.49964E+08         0.00000E+00
    0.00000E+00         0.00000E+00        -0.49981E+08
 
   -0.49946E+08         0.87100E+05         0.00000E+00
    0.87100E+05        -0.49963E+08         0.00000E+00
    0.00000E+00         0.00000E+00        -0.49982E+08
 
   -0.49950E+08         0.88216E+05         0.00000E+00
    0.88216E+05        -0.49961E+08         0.00000E+00
    0.00000E+00         0.00000E+00        -0.49982E+08
 
   -0.49953E+08         0.89257E+05         0.00000E+00
    0.89257E+05        -0.49959E+08         0.00000E+00
    0.00000E+00         0.00000E+00        -0.49982E+08
 
   -0.49957E+08         0.90221E+05         0.00000E+00
    0.90221E+05        -0.49957E+08         0.00000E+00
    0.00000E+00         0.00000E+00        -0.49983E+08
 
   -0.49961E+08         0.91107E+05         0.00000E+00
    0.91107E+05        -0.49956E+08         0.00000E+00
    0.00000E+00         0.00000E+00        -0.49983E+08
 
   -0.49964E+08         0.91914E+05         0.00000E+00
    0.91914E+05        -0.49954E+08         0.00000E+00
    0.00000E+00         0.00000E+00        -0.49984E+08
 
   -0.49968E+08         0.92642E+05         0.00000E+00
    0.92642E+05        -0.49952E+08         0.00000E+00
    0.00000E+00         0.00000E+00        -0.49984E+08
 
   -0.49972E+08         0.93289E+05         0.00000E+00
    0.93289E+05        -0.49950E+08         0.00000E+00
    0.00000E+00         0.00000E+00        -0.49985E+08
 
   -0.49976E+08         0.93854E+05         0.00000E+00
    0.93854E+05        -0.49949E+08         0.00000E+00
    0.00000E+00         0.00000E+00        -0.49985E+08
 
   -0.49980E+08         0.94336E+05         0.00000E+00
    0.94336E+05        -0.49947E+08         0.00000E+00
    0.00000E+00         0.00000E+00        -0.49985E+08
 
   -0.49984E+08         0.94735E+05         0.00000E+00
    0.94735E+05        -0.49945E+08         0.00000E+00
    0.00000E+00         0.00000E+00        -0.49986E+08
 
   -0.49858E+08         0.14944E+04         0.00000E+00
    0.14944E+04        -0.50000E+08         0.00000E+00
    0.00000E+00         0.00000E+00        -0.49972E+08
 
   -0.49858E+08         0.45023E+04         0.00000E+00
    0.45023E+04        -0.50000E+08         0.00000E+00
    0.00000E+00         0.00000E+00        -0.49972E+08
 
   -0.49858E+08         0.75142E+04         0.00000E+00
    0.75142E+04        -0.50000E+08         0.00000E+00
    0.00000E+00         0.00000E+00        -0.49972E+08
 
   -0.49858E+08         0.10527E+05         0.00000E+00
    0.10527E+05        -0.50000E+08         0.00000E+00
    0.00000E+00         0.00000E+00        -0.49972E+08
 
   -0.49858E+08         0.13537E+05         0.00000E+00
    0.13537E+05        -0.49999E+08         0.00000E+00
    0.00000E+00         0.00000E+00        -0.49972E+08
 
   -0.49859E+08         0.16541E+05         0.00000E+00
    0.16541E+05        -0.49999E+08         0.00000E+00
    0.00000E+00         0.00000E+00        -0.49972E+08
 
   -0.49860E+08         0.19536E+05         0.00000E+00
    0.19536E+05        -0.49999E+08         0.00000E+00
    0.00000E+00         0.00000E+00        -0.49972E+08
 
   -0.49860E+08         0.22520E+05         0.00000E+00
    0.22520E+05        -0.49998E+08         0.00000E+00
    0.00000E+00         0.00000E+00        -0.49972E+08
 
   -0.49861E+08         0.25488E+05         0.00000E+00
    0.25488E+05        -0.49998E+08         0.00000E+00
    0.00000E+00         0.00000E+00        -0.49972E+08
 
   -0.49862E+08         0.28437E+05         0.00000E+00
    0.28437E+05        -0.49997E+08         0.00000E+00
    0.00000E+00         0.00000E+00        -0.49972E+08
 
   -0.49863E+08         0.31366E+05         0.00000E+00
    0.31366E+05        -0.49997E+08         0.00000E+00
    0.00000E+00         0.00000E+00        -0.49972E+08
 
   -0.49864E+08         0.34270E+05         0.00000E+00
    0.34270E+05        -0.49996E+08         0.00000E+00
    0.00000E+00         0.00000E+00        -0.49972E+08
 
   -0.49866E+08         0.37147E+05         0.00000E+00
    0.37147E+05        -0.49995E+08         0.00000E+00
    0.00000E+00         0.00000E+00        -0.49972E+08
 
   -0.49867E+08         0.39994E+05         0.00000E+00
    0.39994E+05        -0.49994E+08         0.00000E+00
    0.00000E+00         0.00000E+00        -0.49972E+08
 
   -0.49868E+08         0.42809E+05         0.00000E+00
    0.42809E+05        -0.49994E+08         0.00000E+00
    0.00000E+00         0.00000E+00        -0.49972E+08
 
   -0.49870E+08         0.45588E+05         0.00000E+00
    0.45588E+05        -0.49993E+08         0.00000E+00
    0.00000E+00         0.00000E+00        -0.49973E+08
 
   -0.49872E+08         0.48328E+05         0.00000E+00
    0.48328E+05        -0.49992E+08         0.00000E+00
    0.00000E+00         0.00000E+00        -0.49973E+08
 
   -0.49874E+08         0.51029E+05         0.00000E+00
    0.51029E+05        -0.49991E+08         0.00000E+00
    0.00000E+00         0.00000E+00        -0.49973E+08
 
   -0.49876E+08         0.53686E+05         0.00000E+00
    0.53686E+05        -0.49990E+08         0.00000E+00
    0.00000E+00         0.00000E+00        -0.49973E+08
 
   -0.49878E+08         0.56298E+05         0.00000E+00
    0.56298E+05        -0.49989E+08         0.00000E+00
    0.00000E+00         0.00000E+00        -0.49973E+08
 
   -0.49880E+08         0.58861E+05         0.00000E+00
    0.58861E+05        -0.49987E+08         0.00000E+00
    0.00000E+00         0.00000E+00        -0.49974E+08
 
   -0.49882E+08         0.61375E+05         0.00000E+00
    0.61375E+05        -0.49986E+08         0.00000E+00
    0.00000E+00         0.00000E+00        -0.49974E+08
 
   -0.49885E+08         0.63836E+05         0.00000E+00
    0.63836E+05        -0.49985E+08         0.00000E+00
    0.00000E+00         0.00000E+00        -0.49974E+08
 
   -0.49887E+08         0.66243E+05         0.00000E+00
    0.66243E+05        -0.49984E+08         0.00000E+00
    0.00000E+00         0.00000E+00        -0.49974E+08
 
   -0.49890E+08         0.68593E+05         0.00000E+00
    0.68593E+05        -0.49982E+08         0.00000E+00
    0.00000E+00         0.00000E+00        -0.49974E+08
 
   -0.49893E+08         0.70885E+05         0.00000E+00
    0.70885E+05        -0.49981E+08         0.00000E+00
    0.00000E+00         0.00000E+00        -0.49975E+08
 
   -0.49896E+08         0.73117E+05         0.00000E+00
    0.73117E+05        -0.49980E+08         0.00000E+00
    0.00000E+00         0.00000E+00        -0.49975E+08
 
   -0.49898E+08         0.75286E+05         0.00000E+00
    0.75286E+05        -0.49978E+08         0.00000E+00
    0.00000E+00         0.00000E+00        -0.49975E+08
 
   -0.49901E+08         0.77391E+05         0.00000E+00
    0.77391E+05        -0.49977E+08         0.00000E+00
    0.00000E+00         0.00000E+00        -0.49976E+08
 
   -0.49905E+08         0.79430E+05         0.00000E+00
    0.79430E+05        -0.49975E+08         0.00000E+00
    0.00000E+00         0.00000E+00        -0.49976E+08
 
   -0.49908E+08         0.81402E+05         0.00000E+00
    0.81402E+05        -0.49974E+08         0.00000E+00
    0.00000E+00         0.00000E+00        -0.49976E+08
 
   -0.49911E+08         0.83305E+05         0.00000E+00
    0.83305E+05        -0.49972E+08         0.00000E+00
    0.00000E+00         0.00000E+00        -0.49977E+08
 
   -0.49914E+08         0.85138E+05         0.00000E+00
    0.85138E+05        -0.49970E+08         0.00000E+00
    0.00000E+00         0.00000E+00        -0.49977E+08
 
   -0.49918E+08         0.86898E+05         0.00000E+00
    0.86898E+05        -0.49969E+08         0.00000E+00
    0.00000E+00         0.00000E+00        -0.49977E+08
 
   -0.49921E+08         0.88586E+05         0.00000E+00
    0.88586E+05        -0.49967E+08         0.00000E+00
    0.00000E+00         0.00000E+00        -0.49978E+08
 
   -0.49925E+08         0.90198E+05         0.00000E+00
    0.90198E+05        -0.49965E+08         0.00000E+00
    0.00000E+00         0.00000E+00        -0.49978E+08
 
   -0.49929E+08         0.91734E+05         0.00000E+00
    0.91734E+05        -0.49963E+08         0.00000E+00
    0.00000E+00         0.00000E+00        -0.49978E+08
 
   -0.49932E+08         0.93193E+05         0.00000E+00
    0.93193E+05        -0.49962E+08         0.00000E+00
    0.00000E+00         0.00000E+00        -0.49979E+08
 
   -0.49936E+08         0.94573E+05         0.00000E+00
    0.94573E+05        -0.49960E+08         0.00000E+00
    0.00000E+00         0.00000E+00        -0.49979E+08
 
   -0.49940E+08         0.95873E+05         0.00000E+00
    0.95873E+05        -0.49958E+08         0.00000E+00
    0.00000E+00         0.00000E+00        -0.49980E+08
 
   -0.49944E+08         0.97092E+05         0.00000E+00
    0.97092E+05        -0.49956E+08         0.00000E+00
    0.00000E+00         0.00000E+00        -0.49980E+08
 
   -0.49948E+08         0.98229E+05         0.00000E+00
    0.98229E+05        -0.49954E+08         0.00000E+00
    0.00000E+00         0.00000E+00        -0.49980E+08
 
   -0.49952E+08         0.99283E+05         0.00000E+00
    0.99283E+05        -0.49952E+08         0.00000E+00
    0.00000E+00         0.00000E+00        -0.49981E+08
 
   -0.49956E+08         0.10025E+06         0.00000E+00
    0.10025E+06        -0.49950E+08         0.00000E+00
    0.00000E+00         0.00000E+00        -0.49981E+08
 
   -0.49960E+08         0.10114E+06         0.00000E+00
    0.10114E+06        -0.49948E+08         0.00000E+00
    0.00000E+00         0.00000E+00        -0.49982E+08
 
   -0.49965E+08         0.10193E+06         0.00000E+00
    0.10193E+06        -0.49946E+08         0.00000E+00
    0.00000E+00         0.00000E+00        -0.49982E+08
 
   -0.49969E+08         0.10264E+06         0.00000E+00
    0.10264E+06        -0.49945E+08         0.00000E+00
    0.00000E+00         0.00000E+00        -0.49983E+08
 
   -0.49973E+08         0.10326E+06         0.00000E+00
    0.10326E+06        -0.49943E+08         0.00000E+00
    0.00000E+00         0.00000E+00        -0.49983E+08
 
   -0.49978E+08         0.10380E+06         0.00000E+00
    0.10380E+06        -0.49941E+08         0.00000E+00
    0.00000E+00         0.00000E+00        -0.49984E+08
 
   -0.49982E+08         0.10424E+06         0.00000E+00
    0.10424E+06        -0.49939E+08         0.00000E+00
    0.00000E+00         0.00000E+00        -0.49984E+08
 
   -0.49842E+08         0.16570E+04         0.00000E+00
    0.16570E+04        -0.50000E+08         0.00000E+00
    0.00000E+00         0.00000E+00        -0.49968E+08
 
   -0.49842E+08         0.49933E+04         0.00000E+00
    0.49933E+04        -0.50000E+08         0.00000E+00
    0.00000E+00         0.00000E+00        -0.49968E+08
 
   -0.49842E+08         0.83341E+04         0.00000E+00
    0.83341E+04        -0.50000E+08         0.00000E+00
    0.00000E+00         0.00000E+00        -0.49968E+08
 
   -0.49842E+08         0.11676E+05         0.00000E+00
    0.11676E+05        -0.50000E+08         0.00000E+00
    0.00000E+00         0.00000E+00        -0.49968E+08
 
   -0.49843E+08         0.15014E+05         0.00000E+00
    0.15014E+05        -0.49999E+08         0.00000E+00
    0.00000E+00         0.00000E+00        -0.49968E+08
 
   -0.49843E+08         0.18345E+05         0.00000E+00
    0.18345E+05        -0.49999E+08         0.00000E+00
    0.00000E+00         0.00000E+00        -0.49968E+08
 
   -0.49844E+08         0.21665E+05         0.00000E+00
    0.21665E+05        -0.49999E+08         0.00000E+00
    0.00000E+00         0.00000E+00        -0.49968E+08
 
   -0.49845E+08         0.24971E+05         0.00000E+00
    0.24971E+05        -0.49998E+08         0.00000E+00
    0.00000E+00         0.00000E+00        -0.49969E+08
 
   -0.49845E+08         0.28260E+05         0.00000E+00
    0.28260E+05        -0.49998E+08         0.00000E+00
    0.00000E+00         0.00000E+00        -0.49969E+08
 
   -0.49847E+08         0.31526E+05         0.00000E+00
    0.31526E+05        -0.49997E+08         0.00000E+00
    0.00000E+00         0.00000E+00        -0.49969E+08
 
   -0.49848E+08         0.34768E+05         0.00000E+00
    0.34768E+05        -0.49996E+08         0.00000E+00
    0.00000E+00         0.00000E+00        -0.49969E+08
 
   -0.49849E+08         0.37981E+05         0.00000E+00
    0.37981E+05        -0.49995E+08         0.00000E+00
    0.00000E+00         0.00000E+00        -0.49969E+08
 
   -0.49850E+08         0.41163E+05         0.00000E+00
    0.41163E+05        -0.49995E+08         0.00000E+00
    0.00000E+00         0.00000E+00        -0.49969E+08
 
   -0.49852E+08         0.44310E+05         0.00000E+00
    0.44310E+05        -0.49994E+08         0.00000E+00
    0.00000E+00         0.00000E+00        -0.49969E+08
 
   -0.49854E+08         0.47419E+05         0.00000E+00
    0.47419E+05        -0.49993E+08         0.00000E+00
    0.00000E+00         0.00000E+00        -0.49969E+08
 
   -0.49856E+08         0.50487E+05         0.00000E+00
    0.50487E+05        -0.49992E+08         0.00000E+00
    0.00000E+00         0.00000E+00        -0.49969E+08
 
   -0.49858E+08         0.53511E+05         0.00000E+00
    0.53511E+05        -0.49991E+08         0.00000E+00
    0.00000E+00         0.00000E+00        -0.49970E+08
 
   -0.49860E+08         0.56489E+05         0.00000E+00
    0.56489E+05        -0.49990E+08         0.00000E+00
    0.00000E+00         0.00000E+00        -0.49970E+08
 
   -0.49862E+08         0.59417E+05         0.00000E+00
    0.59417E+05        -0.49988E+08         0.00000E+00
    0.00000E+00         0.00000E+00        -0.49970E+08
 
   -0.49864E+08         0.62293E+05         0.00000E+00
    0.62293E+05        -0.49987E+08         0.00000E+00
    0.00000E+00         0.00000E+00        -0.49970E+08
 
   -0.49867E+08         0.65114E+05         0.00000E+00
    0.65114E+05        -0.49986E+08         0.00000E+00
    0.00000E+00         0.00000E+00        -0.49971E+08
 
   -0.49869E+08         0.67878E+05         0.00000E+00
    0.67878E+05        -0.49984E+08         0.00000E+00
    0.00000E+00         0.00000E+00        -0.49971E+08
 
   -0.49872E+08         0.70583E+05         0.00000E+00
    0.70583E+05        -0.49983E+08         0.00000E+00
    0.00000E+00         0.00000E+00        -0.49971E+08
 
   -0.49875E+08         0.73226E+05         0.00000E+00
    0.73226E+05        -0.49982E+08         0.00000E+00
    0.00000E+00         0.00000E+00        -0.49971E+08
 
   -0.49878E+08         0.75806E+05         0.00000E+00
    0.75806E+05        -0.49980E+08         0.00000E+00
    0.00000E+00         0.00000E+00        -0.49972E+08
 
   -0.49881E+08         0.78319E+05         0.00000E+00
    0.78319E+05        -0.49979E+08         0.00000E+00
    0.00000E+00         0.00000E+00        -0.49972E+08
 
   -0.49884E+08         0.80765E+05         0.00000E+00
    0.80765E+05        -0.49977E+08         0.00000E+00
    0.00000E+00         0.00000E+00        -0.49972E+08
 
   -0.49887E+08         0.83141E+05         0.00000E+00
    0.83141E+05        -0.49975E+08         0.00000E+00
    0.00000E+00         0.00000E+00        -0.49973E+08
 
   -0.49891E+08         0.85445E+05         0.00000E+00
    0.85445E+05        -0.49974E+08         0.00000E+00
    0.00000E+00         0.00000E+00        -0.49973E+08
 
   -0.49894E+08         0.87676E+05         0.00000E+00
    0.87676E+05        -0.49972E+08         0.00000E+00
    0.00000E+00         0.00000E+00        -0.49973E+08
 
   -0.49898E+08         0.89831E+05         0.00000E+00
    0.89831E+05        -0.49970E+08         0.00000E+00
    0.00000E+00         0.00000E+00        -0.49974E+08
 
   -0.49901E+08         0.91911E+05         0.00000E+00
    0.91911E+05        -0.49968E+08         0.00000E+00
    0.00000E+00         0.00000E+00        -0.49974E+08
 
   -0.49905E+08         0.93912E+05         0.00000E+00
    0.93912E+05        -0.49966E+08         0.00000E+00
    0.00000E+00         0.00000E+00        -0.49974E+08
 
   -0.49909E+08         0.95833E+05         0.00000E+00
    0.95833E+05        -0.49965E+08         0.00000E+00
    0.00000E+00         0.00000E+00        -0.49975E+08
 
   -0.49913E+08         0.97674E+05         0.00000E+00
    0.97674E+05        -0.49963E+08         0.00000E+00
    0.00000E+00         0.00000E+00        -0.49975E+08
 
   -0.49917E+08         0.99433E+05         0.00000E+00
    0.99433E+05        -0.49961E+08         0.00000E+00
    0.00000E+00         0.00000E+00        -0.49975E+08
 
   -0.49921E+08         0.10111E+06         0.00000E+00
    0.10111E+06        -0.49959E+08         0.00000E+00
    0.00000E+00         0.00000E+00        -0.49976E+08
 
   -0.49925E+08         0.10270E+06         0.00000E+00
    0.10270E+06        -0.49957E+08         0.00000E+00
    0.00000E+00         0.00000E+00        -0.49976E+08
 
   -0.49929E+08         0.10420E+06         0.00000E+00
    0.10420E+06        -0.49955E+08         0.00000E+00
    0.00000E+00         0.00000E+00        -0.49977E+08
 
   -0.49933E+08         0.10562E+06         0.00000E+00
    0.10562E+06        -0.49953E+08         0.00000E+00
    0.00000E+00         0.00000E+00        -0.49977E+08
 
   -0.49938E+08         0.10695E+06         0.00000E+00
    0.10695E+06        -0.49951E+08         0.00000E+00
    0.00000E+00         0.00000E+00        -0.49978E+08
 
   -0.49942E+08         0.10819E+06         0.00000E+00
    0.10819E+06        -0.49949E+08         0.00000E+00
    0.00000E+00         0.00000E+00        -0.49978E+08
 
   -0.49947E+08         0.10934E+06         0.00000E+00
    0.10934E+06        -0.49947E+08         0.00000E+00
    0.00000E+00         0.00000E+00        -0.49979E+08
 
   -0.49951E+08         0.11039E+06         0.00000E+00
    0.11039E+06        -0.49944E+08         0.00000E+00
    0.00000E+00         0.00000E+00        -0.49979E+08
 
   -0.49956E+08         0.11136E+06         0.00000E+00
    0.11136E+06        -0.49942E+08         0.00000E+00
    0.00000E+00         0.00000E+00        -0.49980E+08
 
   -0.49961E+08         0.11223E+06         0.00000E+00
    0.11223E+06        -0.49940E+08         0.00000E+00
    0.00000E+00         0.00000E+00        -0.49980E+08
 
   -0.49965E+08         0.11301E+06         0.00000E+00
    0.11301E+06        -0.49938E+08         0.00000E+00
    0.00000E+00         0.00000E+00        -0.49981E+08
 
   -0.49970E+08         0.11369E+06         0.00000E+00
    0.11369E+06        -0.49936E+08         0.00000E+00
    0.00000E+00         0.00000E+00        -0.49981E+08
 
   -0.49975E+08         0.11427E+06         0.00000E+00
    0.11427E+06        -0.49934E+08         0.00000E+00
    0.00000E+00         0.00000E+00        -0.49982E+08
 
   -0.49980E+08         0.11476E+06         0.00000E+00
    0.11476E+06        -0.49931E+08         0.00000E+00
    0.00000E+00         0.00000E+00        -0.49982E+08
 
   -0.49824E+08         0.18445E+04         0.00000E+00
    0.18445E+04        -0.50000E+08         0.00000E+00
    0.00000E+00         0.00000E+00        -0.49965E+08
 
   -0.49824E+08         0.55582E+04         0.00000E+00
    0.55582E+04        -0.50000E+08         0.00000E+00
    0.00000E+00         0.00000E+00        -0.49965E+08
 
   -0.49824E+08         0.92764E+04         0.00000E+00
    0.92764E+04        -0.50000E+08         0.00000E+00
    0.00000E+00         0.00000E+00        -0.49965E+08
 
   -0.49825E+08         0.12995E+05         0.00000E+00
    0.12995E+05        -0.50000E+08         0.00000E+00
    0.00000E+00         0.00000E+00        -0.49965E+08
 
   -0.49825E+08         0.16708E+05         0.00000E+00
    0.16708E+05        -0.49999E+08         0.00000E+00
    0.00000E+00         0.00000E+00        -0.49965E+08
 
   -0.49826E+08         0.20413E+05         0.00000E+00
    0.20413E+05        -0.49999E+08         0.00000E+00
    0.00000E+00         0.00000E+00        -0.49965E+08
 
   -0.49826E+08         0.24104E+05         0.00000E+00
    0.24104E+05        -0.49998E+08         0.00000E+00
    0.00000E+00         0.00000E+00        -0.49965E+08
 
   -0.49827E+08         0.27777E+05         0.00000E+00
    0.27777E+05        -0.49998E+08         0.00000E+00
    0.00000E+00         0.00000E+00        -0.49965E+08
 
   -0.49828E+08         0.31429E+05         0.00000E+00
    0.31429E+05        -0.49997E+08         0.00000E+00
    0.00000E+00         0.00000E+00        -0.49965E+08
 
   -0.49829E+08         0.35054E+05         0.00000E+00
    0.35054E+05        -0.49996E+08         0.00000E+00
    0.00000E+00         0.00000E+00        -0.49965E+08
 
   -0.49831E+08         0.38650E+05         0.00000E+00
    0.38650E+05        -0.49996E+08         0.00000E+00
    0.00000E+00         0.00000E+00        -0.49965E+08
 
   -0.49832E+08         0.42212E+05         0.00000E+00
    0.42212E+05        -0.49995E+08         0.00000E+00
    0.00000E+00         0.00000E+00        -0.49965E+08
 
   -0.49834E+08         0.45736E+05         0.00000E+00
    0.45736E+05        -0.49994E+08         0.00000E+00
    0.00000E+00         0.00000E+00        -0.49966E+08
 
   -0.49836E+08         0.49220E+05         0.00000E+00
    0.49220E+05        -0.49993E+08         0.00000E+00
    0.00000E+00         0.00000E+00        -0.49966E+08
 
   -0.49838E+08         0.52658E+05         0.00000E+00
    0.52658E+05        -0.49992E+08         0.00000E+00
    0.00000E+00         0.00000E+00        -0.49966E+08
 
   -0.49840E+08         0.56049E+05         0.00000E+00
    0.56049E+05        -0.49991E+08         0.00000E+00
    0.00000E+00         0.00000E+00        -0.49966E+08
 
   -0.49842E+08         0.59389E+05         0.00000E+00
    0.59389E+05        -0.49989E+08         0.00000E+00
    0.00000E+00         0.00000E+00        -0.49966E+08
 
   -0.49844E+08         0.62674E+05         0.00000E+00
    0.62674E+05        -0.49988E+08         0.00000E+00
    0.00000E+00         0.00000E+00        -0.49966E+08
 
   -0.49847E+08         0.65902E+05         0.00000E+00
    0.65902E+05        -0.49987E+08         0.00000E+00
    0.00000E+00         0.00000E+00        -0.49967E+08
 
   -0.49849E+08         0.69069E+05         0.00000E+00
    0.69069E+05        -0.49985E+08         0.00000E+00
    0.00000E+00         0.00000E+00        -0.49967E+08
 
   -0.49852E+08         0.72174E+05         0.00000E+00
    0.72174E+05        -0.49984E+08         0.00000E+00
    0.00000E+00         0.00000E+00        -0.49967E+08
 
   -0.49855E+08         0.75214E+05         0.00000E+00
    0.75214E+05        -0.49982E+08         0.00000E+00
    0.00000E+00         0.00000E+00        -0.49967E+08
 
   -0.49858E+08         0.78185E+05         0.00000E+00
    0.78185E+05        -0.49981E+08         0.00000E+00
    0.00000E+00         0.00000E+00        -0.49968E+08
 
   -0.49861E+08         0.81086E+05         0.00000E+00
    0.81086E+05        -0.49979E+08         0.00000E+00
    0.00000E+00         0.00000E+00        -0.49968E+08
 
   -0.49864E+08         0.83914E+05         0.00000E+00
    0.83914E+05        -0.49977E+08         0.00000E+00
    0.00000E+00         0.00000E+00        -0.49968E+08
 
   -0.49868E+08         0.86668E+05         0.00000E+00
    0.86668E+05        -0.49976E+08         0.00000E+00
    0.00000E+00         0.00000E+00        -0.49969E+08
 
   -0.49871E+08         0.89345E+05         0.00000E+00
    0.89345E+05        -0.49974E+08         0.00000E+00
    0.00000E+00         0.00000E+00        -0.49969E+08
 
   -0.49875E+08         0.91943E+05         0.00000E+00
    0.91943E+05        -0.49972E+08         0.00000E+00
    0.00000E+00         0.00000E+00        -0.49969E+08
 
   -0.49879E+08         0.94461E+05         0.00000E+00
    0.94461E+05        -0.49970E+08         0.00000E+00
    0.00000E+00         0.00000E+00        -0.49970E+08
 
   -0.49883E+08         0.96897E+05         0.00000E+00
    0.96897E+05        -0.49968E+08         0.00000E+00
    0.00000E+00         0.00000E+00        -0.49970E+08
 
   -0.49887E+08         0.99249E+05         0.00000E+00
    0.99249E+05        -0.49966E+08         0.00000E+00
    0.00000E+00         0.00000E+00        -0.49971E+08
 
   -0.49891E+08         0.10152E+06         0.00000E+00
    0.10152E+06        -0.49964E+08         0.00000E+00
    0.00000E+00         0.00000E+00        -0.49971E+08
 
   -0.49895E+08         0.10370E+06         0.00000E+00
    0.10370E+06        -0.49962E+08         0.00000E+00
    0.00000E+00         0.00000E+00        -0.49971E+08
 
   -0.49899E+08         0.10579E+06         0.00000E+00
    0.10579E+06        -0.49960E+08         0.00000E+00
    0.00000E+00         0.00000E+00        -0.49972E+08
 
   -0.49903E+08         0.10779E+06         0.00000E+00
    0.10779E+06        -0.49958E+08         0.00000E+00
    0.00000E+00         0.00000E+00        -0.49972E+08
 
   -0.49908E+08         0.10970E+06         0.00000E+00
    0.10970E+06        -0.49956E+08         0.00000E+00
    0.00000E+00         0.00000E+00        -0.49973E+08
 
   -0.49912E+08         0.11152E+06         0.00000E+00
    0.11152E+06        -0.49954E+08         0.00000E+00
    0.00000E+00         0.00000E+00        -0.49973E+08
 
   -0.49917E+08         0.11325E+06         0.00000E+00
    0.11325E+06        -0.49951E+08         0.00000E+00
    0.00000E+00         0.00000E+00        -0.49974E+08
 
   -0.49921E+08         0.11488E+06         0.00000E+00
    0.11488E+06        -0.49949E+08         0.00000E+00
    0.00000E+00         0.00000E+00        -0.49974E+08
 
   -0.49926E+08         0.11642E+06         0.00000E+00
    0.11642E+06        -0.49947E+08         0.00000E+00
    0.00000E+00         0.00000E+00        -0.49975E+08
 
   -0.49931E+08         0.11787E+06         0.00000E+00
    0.11787E+06        -0.49945E+08         0.00000E+00
    0.00000E+00         0.00000E+00        -0.49975E+08
 
   -0.49936E+08         0.11921E+06         0.00000E+00
    0.11921E+06        -0.49942E+08         0.00000E+00
    0.00000E+00         0.00000E+00        -0.49976E+08
 
   -0.49941E+08         0.12046E+06         0.00000E+00
    0.12046E+06        -0.49940E+08         0.00000E+00
    0.00000E+00         0.00000E+00        -0.49976E+08
 
   -0.49946E+08         0.12161E+06         0.00000E+00
    0.12161E+06        -0.49938E+08         0.00000E+00
    0.00000E+00         0.00000E+00        -0.49977E+08
 
   -0.49951E+08         0.12266E+06         0.00000E+00
    0.12266E+06        -0.49935E+08         0.00000E+00
    0.00000E+00         0.00000E+00        -0.49977E+08
 
   -0.49956E+08         0.12361E+06         0.00000E+00
    0.12361E+06        -0.49933E+08         0.00000E+00
    0.00000E+00         0.00000E+00        -0.49978E+08
 
   -0.49962E+08         0.12446E+06         0.00000E+00
    0.12446E+06        -0.49931E+08         0.00000E+00
    0.00000E+00         0.00000E+00        -0.49978E+08
 
   -0.49967E+08         0.12520E+06         0.00000E+00
    0.12520E+06        -0.49928E+08         0.00000E+00
    0.00000E+00         0.00000E+00        -0.49979E+08
 
   -0.49972E+08         0.12584E+06         0.00000E+00
    0.12584E+06        -0.49926E+08         0.00000E+00
    0.00000E+00         0.00000E+00        -0.49980E+08
 
   -0.49978E+08         0.12638E+06         0.00000E+00
    0.12638E+06        -0.49923E+08         0.00000E+00
    0.00000E+00         0.00000E+00        -0.49980E+08
 
   -0.49805E+08         0.20619E+04         0.00000E+00
    0.20619E+04        -0.50000E+08         0.00000E+00
    0.00000E+00         0.00000E+00        -0.49961E+08
 
   -0.49805E+08         0.62115E+04         0.00000E+00
    0.62115E+04        -0.50000E+08         0.00000E+00
    0.00000E+00         0.00000E+00        -0.49961E+08
 
   -0.49805E+08         0.10365E+05         0.00000E+00
    0.10365E+05        -0.50000E+08         0.00000E+00
    0.00000E+00         0.00000E+00        -0.49961E+08
 
   -0.49805E+08         0.14516E+05         0.00000E+00
    0.14516E+05        -0.49999E+08         0.00000E+00
    0.00000E+00         0.00000E+00        -0.49961E+08
 
   -0.49805E+08         0.18661E+05         0.00000E+00
    0.18661E+05        -0.49999E+08         0.00000E+00
    0.00000E+00         0.00000E+00        -0.49961E+08
 
   -0.49806E+08         0.22793E+05         0.00000E+00
    0.22793E+05        -0.49999E+08         0.00000E+00
    0.00000E+00         0.00000E+00        -0.49961E+08
 
   -0.49807E+08         0.26908E+05         0.00000E+00
    0.26908E+05        -0.49998E+08         0.00000E+00
    0.00000E+00         0.00000E+00        -0.49961E+08
 
   -0.49808E+08         0.31000E+05         0.00000E+00
    0.31000E+05        -0.49997E+08         0.00000E+00
    0.00000E+00         0.00000E+00        -0.49961E+08
 
   -0.49809E+08         0.35065E+05         0.00000E+00
    0.35065E+05        -0.49997E+08         0.00000E+00
    0.00000E+00         0.00000E+00        -0.49961E+08
 
   -0.49810E+08         0.39098E+05         0.00000E+00
    0.39098E+05        -0.49996E+08         0.00000E+00
    0.00000E+00         0.00000E+00        -0.49961E+08
 
   -0.49812E+08         0.43094E+05         0.00000E+00
    0.43094E+05        -0.49995E+08         0.00000E+00
    0.00000E+00         0.00000E+00        -0.49961E+08
 
   -0.49814E+08         0.47050E+05         0.00000E+00
    0.47050E+05        -0.49994E+08         0.00000E+00
    0.00000E+00         0.00000E+00        -0.49961E+08
 
   -0.49815E+08         0.50960E+05         0.00000E+00
    0.50960E+05        -0.49993E+08         0.00000E+00
    0.00000E+00         0.00000E+00        -0.49962E+08
 
   -0.49817E+08         0.54820E+05         0.00000E+00
    0.54820E+05        -0.49992E+08         0.00000E+00
    0.00000E+00         0.00000E+00        -0.49962E+08
 
   -0.49820E+08         0.58628E+05         0.00000E+00
    0.58628E+05        -0.49990E+08         0.00000E+00
    0.00000E+00         0.00000E+00        -0.49962E+08
 
   -0.49822E+08         0.62378E+05         0.00000E+00
    0.62378E+05        -0.49989E+08         0.00000E+00
    0.00000E+00         0.00000E+00        -0.49962E+08
 
   -0.49824E+08         0.66068E+05         0.00000E+00
    0.66068E+05        -0.49988E+08         0.00000E+00
    0.00000E+00         0.00000E+00        -0.49962E+08
 
   -0.49827E+08         0.69694E+05         0.00000E+00
    0.69694E+05        -0.49986E+08         0.00000E+00
    0.00000E+00         0.00000E+00        -0.49963E+08
 
   -0.49830E+08         0.73253E+05         0.00000E+00
    0.73253E+05        -0.49985E+08         0.00000E+00
    0.00000E+00         0.00000E+00        -0.49963E+08
 
   -0.49833E+08         0.76742E+05         0.00000E+00
    0.76742E+05        -0.49983E+08         0.00000E+00
    0.00000E+00         0.00000E+00        -0.49963E+08
 
   -0.49836E+08         0.80157E+05         0.00000E+00
    0.80157E+05        -0.49982E+08         0.00000E+00
    0.00000E+00         0.00000E+00        -0.49964E+08
 
   -0.49839E+08         0.83497E+05         0.00000E+00
    0.83497E+05        -0.49980E+08         0.00000E+00
    0.00000E+00         0.00000E+00        -0.49964E+08
 
   -0.49843E+08         0.86758E+05         0.00000E+00
    0.86758E+05        -0.49978E+08         0.00000E+00
    0.00000E+00         0.00000E+00        -0.49964E+08
 
   -0.49846E+08         0.89938E+05         0.00000E+00
    0.89938E+05        -0.49976E+08         0.00000E+00
    0.00000E+00         0.00000E+00        -0.49964E+08
 
   -0.49850E+08         0.93035E+05         0.00000E+00
    0.93035E+05        -0.49974E+08         0.00000E+00
    0.00000E+00         0.00000E+00        -0.49965E+08
 
   -0.49854E+08         0.96047E+05         0.00000E+00
    0.96047E+05        -0.49972E+08         0.00000E+00
    0.00000E+00         0.00000E+00        -0.49965E+08
 
   -0.49858E+08         0.98972E+05         0.00000E+00
    0.98972E+05        -0.49970E+08         0.00000E+00
    0.00000E+00         0.00000E+00        -0.49966E+08
 
   -0.49862E+08         0.10181E+06         0.00000E+00
    0.10181E+06        -0.49968E+08         0.00000E+00
    0.00000E+00         0.00000E+00        -0.49966E+08
 
   -0.49866E+08         0.10455E+06         0.00000E+00
    0.10455E+06        -0.49966E+08         0.00000E+00
    0.00000E+00         0.00000E+00        -0.49966E+08
 
   -0.49870E+08         0.10720E+06         0.00000E+00
    0.10720E+06        -0.49964E+08         0.00000E+00
    0.00000E+00         0.00000E+00        -0.49967E+08
 
   -0.49874E+08         0.10976E+06         0.00000E+00
    0.10976E+06        -0.49962E+08         0.00000E+00
    0.00000E+00         0.00000E+00        -0.49967E+08
 
   -0.49879E+08         0.11223E+06         0.00000E+00
    0.11223E+06        -0.49959E+08         0.00000E+00
    0.00000E+00         0.00000E+00        -0.49968E+08
 
   -0.49884E+08         0.11459E+06         0.00000E+00
    0.11459E+06        -0.49957E+08         0.00000E+00
    0.00000E+00         0.00000E+00        -0.49968E+08
 
   -0.49888E+08         0.11686E+06         0.00000E+00
    0.11686E+06        -0.49955E+08         0.00000E+00
    0.00000E+00         0.00000E+00        -0.49969E+08
 
   -0.49893E+08         0.11903E+06         0.00000E+00
    0.11903E+06        -0.49953E+08         0.00000E+00
    0.00000E+00         0.00000E+00        -0.49969E+08
 
   -0.49898E+08         0.12110E+06         0.00000E+00
    0.12110E+06        -0.49950E+08         0.00000E+00
    0.00000E+00         0.00000E+00        -0.49970E+08
 
   -0.49903E+08         0.12307E+06         0.00000E+00
    0.12307E+06        -0.49948E+08         0.00000E+00
    0.00000E+00         0.00000E+00        -0.49970E+08
 
   -0.49908E+08         0.12494E+06         0.00000E+00
    0.12494E+06        -0.49945E+08         0.00000E+00
    0.00000E+00         0.00000E+00        -0.49971E+08
 
   -0.49913E+08         0.12671E+06         0.00000E+00
    0.12671E+06        -0.49943E+08         0.00000E+00
    0.00000E+00         0.00000E+00        -0.49971E+08
 
   -0.49918E+08         0.12837E+06         0.00000E+00
    0.12837E+06        -0.49940E+08         0.00000E+00
    0.00000E+00         0.00000E+00        -0.49972E+08
 
   -0.49924E+08         0.12993E+06         0.00000E+00
    0.12993E+06        -0.49938E+08         0.00000E+00
    0.00000E+00         0.00000E+00        -0.49972E+08
 
   -0.49929E+08         0.13139E+06         0.00000E+00
    0.13139E+06        -0.49935E+08         0.00000E+00
    0.00000E+00         0.00000E+00        -0.49973E+08
 
   -0.49935E+08         0.13274E+06         0.00000E+00
    0.13274E+06        -0.49933E+08         0.00000E+00
    0.00000E+00         0.00000E+00        -0.49973E+08
 
   -0.49940E+08         0.13398E+06         0.00000E+00
    0.13398E+06        -0.49930E+08         0.00000E+00
    0.00000E+00         0.00000E+00        -0.49974E+08
 
   -0.49946E+08         0.13512E+06         0.00000E+00
    0.13512E+06        -0.49927E+08         0.00000E+00
    0.00000E+00         0.00000E+00        -0.49975E+08
 
   -0.49952E+08         0.13615E+06         0.00000E+00
    0.13615E+06        -0.49925E+08         0.00000E+00
    0.00000E+00         0.00000E+00        -0.49975E+08
 
   -0.49957E+08         0.13707E+06         0.00000E+00
    0.13707E+06        -0.49922E+08         0.00000E+00
    0.00000E+00         0.00000E+00        -0.49976E+08
 
   -0.49963E+08         0.13788E+06         0.00000E+00
    0.13788E+06        -0.49920E+08         0.00000E+00
    0.00000E+00         0.00000E+00        -0.49977E+08
 
   -0.49969E+08         0.13858E+06         0.00000E+00
    0.13858E+06        -0.49917E+08         0.00000E+00
    0.00000E+00         0.00000E+00        -0.49977E+08
 
   -0.49975E+08         0.13918E+06         0.00000E+00
    0.13918E+06        -0.49914E+08         0.00000E+00
    0.00000E+00         0.00000E+00        -0.49978E+08
 
   -0.49783E+08         0.23156E+04         0.00000E+00
    0.23156E+04        -0.50000E+08         0.00000E+00
    0.00000E+00         0.00000E+00        -0.49957E+08
 
   -0.49783E+08         0.69712E+04         0.00000E+00
    0.69712E+04        -0.50000E+08         0.00000E+00
    0.00000E+00         0.00000E+00        -0.49957E+08
 
   -0.49783E+08         0.11629E+05         0.00000E+00
    0.11629E+05        -0.50000E+08         0.00000E+00
    0.00000E+00         0.00000E+00        -0.49956E+08
 
   -0.49783E+08         0.16281E+05         0.00000E+00
    0.16281E+05        -0.49999E+08         0.00000E+00
    0.00000E+00         0.00000E+00        -0.49956E+08
 
   -0.49784E+08         0.20922E+05         0.00000E+00
    0.20922E+05        -0.49999E+08         0.00000E+00
    0.00000E+00         0.00000E+00        -0.49956E+08
 
   -0.49784E+08         0.25546E+05         0.00000E+00
    0.25546E+05        -0.49998E+08         0.00000E+00
    0.00000E+00         0.00000E+00        -0.49957E+08
 
   -0.49785E+08         0.30147E+05         0.00000E+00
    0.30147E+05        -0.49998E+08         0.00000E+00
    0.00000E+00         0.00000E+00        -0.49957E+08
 
   -0.49786E+08         0.34718E+05         0.00000E+00
    0.34718E+05        -0.49997E+08         0.00000E+00
    0.00000E+00         0.00000E+00        -0.49957E+08
 
   -0.49788E+08         0.39254E+05         0.00000E+00
    0.39254E+05        -0.49996E+08         0.00000E+00
    0.00000E+00         0.00000E+00        -0.49957E+08
 
   -0.49789E+08         0.43749E+05         0.00000E+00
    0.43749E+05        -0.49995E+08         0.00000E+00
    0.00000E+00         0.00000E+00        -0.49957E+08
 
   -0.49791E+08         0.48199E+05         0.00000E+00
    0.48199E+05        -0.49994E+08         0.00000E+00
    0.00000E+00         0.00000E+00        -0.49957E+08
 
   -0.49793E+08         0.52599E+05         0.00000E+00
    0.52599E+05        -0.49993E+08         0.00000E+00
    0.00000E+00         0.00000E+00        -0.49957E+08
 
   -0.49795E+08         0.56942E+05         0.00000E+00
    0.56942E+05        -0.49992E+08         0.00000E+00
    0.00000E+00         0.00000E+00        -0.49957E+08
 
   -0.49797E+08         0.61226E+05         0.00000E+00
    0.61226E+05        -0.49990E+08         0.00000E+00
    0.00000E+00         0.00000E+00        -0.49958E+08
 
   -0.49800E+08         0.65446E+05         0.00000E+00
    0.65446E+05        -0.49989E+08         0.00000E+00
    0.00000E+00         0.00000E+00        -0.49958E+08
 
   -0.49802E+08         0.69596E+05         0.00000E+00
    0.69596E+05        -0.49988E+08         0.00000E+00
    0.00000E+00         0.00000E+00        -0.49958E+08
 
   -0.49805E+08         0.73675E+05         0.00000E+00
    0.73675E+05        -0.49986E+08         0.00000E+00
    0.00000E+00         0.00000E+00        -0.49958E+08
 
   -0.49808E+08         0.77677E+05         0.00000E+00
    0.77677E+05        -0.49984E+08         0.00000E+00
    0.00000E+00         0.00000E+00        -0.49959E+08
 
   -0.49811E+08         0.81600E+05         0.00000E+00
    0.81600E+05        -0.49983E+08         0.00000E+00
    0.00000E+00         0.00000E+00        -0.49959E+08
 
   -0.49815E+08         0.85440E+05         0.00000E+00
    0.85440E+05        -0.49981E+08         0.00000E+00
    0.00000E+00         0.00000E+00        -0.49959E+08
 
   -0.49818E+08         0.89194E+05         0.00000E+00
    0.89194E+05        -0.49979E+08         0.00000E+00
    0.00000E+00         0.00000E+00        -0.49959E+08
 
   -0.49822E+08         0.92860E+05         0.00000E+00
    0.92860E+05        -0.49977E+08         0.00000E+00
    0.00000E+00         0.00000E+00        -0.49960E+08
 
   -0.49826E+08         0.96434E+05         0.00000E+00
    0.96434E+05        -0.49975E+08         0.00000E+00
    0.00000E+00         0.00000E+00        -0.49960E+08
 
   -0.49830E+08         0.99915E+05         0.00000E+00
    0.99915E+05        -0.49973E+08         0.00000E+00
    0.00000E+00         0.00000E+00        -0.49961E+08
 
   -0.49834E+08         0.10330E+06         0.00000E+00
    0.10330E+06        -0.49971E+08         0.00000E+00
    0.00000E+00         0.00000E+00        -0.49961E+08
 
   -0.49838E+08         0.10659E+06         0.00000E+00
    0.10659E+06        -0.49968E+08         0.00000E+00
    0.00000E+00         0.00000E+00        -0.49961E+08
 
   -0.49843E+08         0.10977E+06         0.00000E+00
    0.10977E+06        -0.49966E+08         0.00000E+00
    0.00000E+00         0.00000E+00        -0.49962E+08
 
   -0.49847E+08         0.11286E+06         0.00000E+00
    0.11286E+06        -0.49964E+08         0.00000E+00
    0.00000E+00         0.00000E+00        -0.49962E+08
 
   -0.49852E+08         0.11584E+06         0.00000E+00
    0.11584E+06        -0.49961E+08         0.00000E+00
    0.00000E+00         0.00000E+00        -0.49963E+08
 
   -0.49857E+08         0.11872E+06         0.00000E+00
    0.11872E+06        -0.49959E+08         0.00000E+00
    0.00000E+00         0.00000E+00        -0.49963E+08
 
   -0.49861E+08         0.12149E+06         0.00000E+00
    0.12149E+06        -0.49957E+08         0.00000E+00
    0.00000E+00         0.00000E+00        -0.49964E+08
 
   -0.49866E+08         0.12416E+06         0.00000E+00
    0.12416E+06        -0.49954E+08         0.00000E+00
    0.00000E+00         0.00000E+00        -0.49964E+08
 
   -0.49872E+08         0.12672E+06         0.00000E+00
    0.12672E+06        -0.49952E+08         0.00000E+00
    0.00000E+00         0.00000E+00        -0.49965E+08
 
   -0.49877E+08         0.12917E+06         0.00000E+00
    0.12917E+06        -0.49949E+08         0.00000E+00
    0.00000E+00         0.00000E+00        -0.49965E+08
 
   -0.49882E+08         0.13151E+06         0.00000E+00
    0.13151E+06        -0.49946E+08         0.00000E+00
    0.00000E+00         0.00000E+00        -0.49966E+08
 
   -0.49887E+08         0.13374E+06         0.00000E+00
    0.13374E+06        -0.49944E+08         0.00000E+00
    0.00000E+00         0.00000E+00        -0.49966E+08
 
   -0.49893E+08         0.13586E+06         0.00000E+00
    0.13586E+06        -0.49941E+08         0.00000E+00
    0.00000E+00         0.00000E+00        -0.49967E+08
 
   -0.49899E+08         0.13788E+06         0.00000E+00
    0.13788E+06        -0.49938E+08         0.00000E+00
    0.00000E+00         0.00000E+00        -0.49967E+08
 
   -0.49904E+08         0.13977E+06         0.00000E+00
    0.13977E+06        -0.49936E+08         0.00000E+00
    0.00000E+00         0.00000E+00        -0.49968E+08
 
   -0.49910E+08         0.14156E+06         0.00000E+00
    0.14156E+06        -0.49933E+08         0.00000E+00
    0.00000E+00         0.00000E+00        -0.49969E+08
 
   -0.49916E+08         0.14324E+06         0.00000E+00
    0.14324E+06        -0.49930E+08         0.00000E+00
    0.00000E+00         0.00000E+00        -0.49969E+08
 
   -0.49922E+08         0.14480E+06         0.00000E+00
    0.14480E+06        -0.49927E+08         0.00000E+00
    0.00000E+00         0.00000E+00        -0.49970E+08
 
   -0.49928E+08         0.14625E+06         0.00000E+00
    0.14625E+06        -0.49924E+08         0.00000E+00
    0.00000E+00         0.00000E+00        -0.49970E+08
 
   -0.49934E+08         0.14759E+06         0.00000E+00
    0.14759E+06        -0.49922E+08         0.00000E+00
    0.00000E+00         0.00000E+00        -0.49971E+08
 
   -0.49940E+08         0.14881E+06         0.00000E+00
    0.14881E+06        -0.49919E+08         0.00000E+00
    0.00000E+00         0.00000E+00        -0.49972E+08
 
   -0.49947E+08         0.14992E+06         0.00000E+00
    0.14992E+06        -0.49916E+08         0.00000E+00
    0.00000E+00         0.00000E+00        -0.49973E+08
 
   -0.49953E+08         0.15092E+06         0.00000E+00
    0.15092E+06        -0.49913E+08         0.00000E+00
    0.00000E+00         0.00000E+00        -0.49973E+08
 
   -0.49959E+08         0.15180E+06         0.00000E+00
    0.15180E+06        -0.49910E+08         0.00000E+00
    0.00000E+00         0.00000E+00        -0.49974E+08
 
   -0.49966E+08         0.15256E+06         0.00000E+00
    0.15256E+06        -0.49907E+08         0.00000E+00
    0.00000E+00         0.00000E+00        -0.49975E+08
 
   -0.49972E+08         0.15321E+06         0.00000E+00
    0.15321E+06        -0.49904E+08         0.00000E+00
    0.00000E+00         0.00000E+00        -0.49975E+08
 
   -0.49758E+08         0.26134E+04         0.00000E+00
    0.26134E+04        -0.50000E+08         0.00000E+00
    0.00000E+00         0.00000E+00        -0.49952E+08
 
   -0.49758E+08         0.78594E+04         0.00000E+00
    0.78594E+04        -0.50000E+08         0.00000E+00
    0.00000E+00         0.00000E+00        -0.49952E+08
 
   -0.49758E+08         0.13103E+05         0.00000E+00
    0.13103E+05        -0.50000E+08         0.00000E+00
    0.00000E+00         0.00000E+00        -0.49952E+08
 
   -0.49758E+08         0.18337E+05         0.00000E+00
    0.18337E+05        -0.49999E+08         0.00000E+00
    0.00000E+00         0.00000E+00        -0.49952E+08
 
   -0.49759E+08         0.23552E+05         0.00000E+00
    0.23552E+05        -0.49999E+08         0.00000E+00
    0.00000E+00         0.00000E+00        -0.49952E+08
 
   -0.49760E+08         0.28743E+05         0.00000E+00
    0.28743E+05        -0.49998E+08         0.00000E+00
    0.00000E+00         0.00000E+00        -0.49952E+08
 
   -0.49761E+08         0.33902E+05         0.00000E+00
    0.33902E+05        -0.49997E+08         0.00000E+00
    0.00000E+00         0.00000E+00        -0.49952E+08
 
   -0.49762E+08         0.39021E+05         0.00000E+00
    0.39021E+05        -0.49997E+08         0.00000E+00
    0.00000E+00         0.00000E+00        -0.49952E+08
 
   -0.49764E+08         0.44095E+05         0.00000E+00
    0.44095E+05        -0.49996E+08         0.00000E+00
    0.00000E+00         0.00000E+00        -0.49952E+08
 
   -0.49765E+08         0.49117E+05         0.00000E+00
    0.49117E+05        -0.49994E+08         0.00000E+00
    0.00000E+00         0.00000E+00        -0.49952E+08
 
   -0.49767E+08         0.54081E+05         0.00000E+00
    0.54081E+05        -0.49993E+08         0.00000E+00
    0.00000E+00         0.00000E+00        -0.49952E+08
 
   -0.49770E+08         0.58982E+05         0.00000E+00
    0.58982E+05        -0.49992E+08         0.00000E+00
    0.00000E+00         0.00000E+00        -0.49952E+08
 
   -0.49772E+08         0.63814E+05         0.00000E+00
    0.63814E+05        -0.49990E+08         0.00000E+00
    0.00000E+00         0.00000E+00        -0.49953E+08
 
   -0.49775E+08         0.68571E+05         0.00000E+00
    0.68571E+05        -0.49989E+08         0.00000E+00
    0.00000E+00         0.00000E+00        -0.49953E+08
 
   -0.49778E+08         0.73250E+05         0.00000E+00
    0.73250E+05        -0.49987E+08         0.00000E+00
    0.00000E+00         0.00000E+00        -0.49953E+08
 
   -0.49781E+08         0.77846E+05         0.00000E+00
    0.77846E+05        -0.49986E+08         0.00000E+00
    0.00000E+00         0.00000E+00        -0.49953E+08
 
   -0.49784E+08         0.82354E+05         0.00000E+00
    0.82354E+05        -0.49984E+08         0.00000E+00
    0.00000E+00         0.00000E+00        -0.49954E+08
 
   -0.49787E+08         0.86771E+05         0.00000E+00
    0.86771E+05        -0.49982E+08         0.00000E+00
    0.00000E+00         0.00000E+00        -0.49954E+08
 
   -0.49791E+08         0.91092E+05         0.00000E+00
    0.91092E+05        -0.49980E+08         0.00000E+00
    0.00000E+00         0.00000E+00        -0.49954E+08
 
   -0.49795E+08         0.95315E+05         0.00000E+00
    0.95315E+05        -0.49978E+08         0.00000E+00
    0.00000E+00         0.00000E+00        -0.49955E+08
 
   -0.49799E+08         0.99437E+05         0.00000E+00
    0.99437E+05        -0.49976E+08         0.00000E+00
    0.00000E+00         0.00000E+00        -0.49955E+08
 
   -0.49803E+08         0.10345E+06         0.00000E+00
    0.10345E+06        -0.49973E+08         0.00000E+00
    0.00000E+00         0.00000E+00        -0.49955E+08
 
   -0.49807E+08         0.10736E+06         0.00000E+00
    0.10736E+06        -0.49971E+08         0.00000E+00
    0.00000E+00         0.00000E+00        -0.49956E+08
 
   -0.49812E+08         0.11116E+06         0.00000E+00
    0.11116E+06        -0.49969E+08         0.00000E+00
    0.00000E+00         0.00000E+00        -0.49956E+08
 
   -0.49816E+08         0.11485E+06         0.00000E+00
    0.11485E+06        -0.49966E+08         0.00000E+00
    0.00000E+00         0.00000E+00        -0.49957E+08
 
   -0.49821E+08         0.11843E+06         0.00000E+00
    0.11843E+06        -0.49964E+08         0.00000E+00
    0.00000E+00         0.00000E+00        -0.49957E+08
 
   -0.49826E+08         0.12189E+06         0.00000E+00
    0.12189E+06        -0.49961E+08         0.00000E+00
    0.00000E+00         0.00000E+00        -0.49958E+08
 
   -0.49831E+08         0.12524E+06         0.00000E+00
    0.12524E+06        -0.49959E+08         0.00000E+00
    0.00000E+00         0.00000E+00        -0.49958E+08
 
   -0.49836E+08         0.12847E+06         0.00000E+00
    0.12847E+06        -0.49956E+08         0.00000E+00
    0.00000E+00         0.00000E+00        -0.49959E+08
 
   -0.49842E+08         0.13158E+06         0.00000E+00
    0.13158E+06        -0.49953E+08         0.00000E+00
    0.00000E+00         0.00000E+00        -0.49959E+08
 
   -0.49847E+08         0.13457E+06         0.00000E+00
    0.13457E+06        -0.49951E+08         0.00000E+00
    0.00000E+00         0.00000E+00        -0.49960E+08
 
   -0.49853E+08         0.13744E+06         0.00000E+00
    0.13744E+06        -0.49948E+08         0.00000E+00
    0.00000E+00         0.00000E+00        -0.49960E+08
 
   -0.49859E+08         0.14019E+06         0.00000E+00
    0.14019E+06        -0.49945E+08         0.00000E+00
    0.00000E+00         0.00000E+00        -0.49961E+08
 
   -0.49864E+08         0.14282E+06         0.00000E+00
    0.14282E+06        -0.49942E+08         0.00000E+00
    0.00000E+00         0.00000E+00        -0.49961E+08
 
   -0.49870E+08         0.14534E+06         0.00000E+00
    0.14534E+06        -0.49939E+08         0.00000E+00
    0.00000E+00         0.00000E+00        -0.49962E+08
 
   -0.49876E+08         0.14772E+06         0.00000E+00
    0.14772E+06        -0.49936E+08         0.00000E+00
    0.00000E+00         0.00000E+00        -0.49963E+08
 
   -0.49882E+08         0.14999E+06         0.00000E+00
    0.14999E+06        -0.49934E+08         0.00000E+00
    0.00000E+00         0.00000E+00        -0.49963E+08
 
   -0.49889E+08         0.15214E+06         0.00000E+00
    0.15214E+06        -0.49931E+08         0.00000E+00
    0.00000E+00         0.00000E+00        -0.49964E+08
 
   -0.49895E+08         0.15417E+06         0.00000E+00
    0.15417E+06        -0.49928E+08         0.00000E+00
    0.00000E+00         0.00000E+00        -0.49964E+08
 
   -0.49901E+08         0.15607E+06         0.00000E+00
    0.15607E+06        -0.49924E+08         0.00000E+00
    0.00000E+00         0.00000E+00        -0.49965E+08
 
   -0.49908E+08         0.15786E+06         0.00000E+00
    0.15786E+06        -0.49921E+08         0.00000E+00
    0.00000E+00         0.00000E+00        -0.49966E+08
 
   -0.49914E+08         0.15953E+06         0.00000E+00
    0.15953E+06        -0.49918E+08         0.00000E+00
    0.00000E+00         0.00000E+00        -0.49967E+08
 
   -0.49921E+08         0.16107E+06         0.00000E+00
    0.16107E+06        -0.49915E+08         0.00000E+00
    0.00000E+00         0.00000E+00        -0.49967E+08
 
   -0.49928E+08         0.16250E+06         0.00000E+00
    0.16250E+06        -0.49912E+08         0.00000E+00
    0.00000E+00         0.00000E+00        -0.49968E+08
 
   -0.49934E+08         0.16380E+06         0.00000E+00
    0.16380E+06        -0.49909E+08         0.00000E+00
    0.00000E+00         0.00000E+00        -0.49969E+08
 
   -0.49941E+08         0.16499E+06         0.00000E+00
    0.16499E+06        -0.49906E+08         0.00000E+00
    0.00000E+00         0.00000E+00        -0.49969E+08
 
   -0.49948E+08         0.16606E+06         0.00000E+00
    0.16606E+06        -0.49903E+08         0.00000E+00
    0.00000E+00         0.00000E+00        -0.49970E+08
 
   -0.49955E+08         0.16701E+06         0.00000E+00
    0.16701E+06        -0.49900E+08         0.00000E+00
    0.00000E+00         0.00000E+00        -0.49971E+08
 
   -0.49962E+08         0.16783E+06         0.00000E+00
    0.16783E+06        -0.49896E+08         0.00000E+00
    0.00000E+00         0.00000E+00        -0.49972E+08
 
   -0.49969E+08         0.16854E+06         0.00000E+00
    0.16854E+06        -0.49893E+08         0.00000E+00
    0.00000E+00         0.00000E+00        -0.49973E+08
 
   -0.49730E+08         0.29649E+04         0.00000E+00
    0.29649E+04        -0.50000E+08         0.00000E+00
    0.00000E+00         0.00000E+00        -0.49946E+08
 
   -0.49730E+08         0.89026E+04         0.00000E+00
    0.89026E+04        -0.50000E+08         0.00000E+00
    0.00000E+00         0.00000E+00        -0.49946E+08
 
   -0.49730E+08         0.14831E+05         0.00000E+00
    0.14831E+05        -0.50000E+08         0.00000E+00
    0.00000E+00         0.00000E+00        -0.49946E+08
 
   -0.49731E+08         0.20741E+05         0.00000E+00
    0.20741E+05        -0.49999E+08         0.00000E+00
    0.00000E+00         0.00000E+00        -0.49946E+08
 
   -0.49731E+08         0.26623E+05         0.00000E+00
    0.26623E+05        -0.49999E+08         0.00000E+00
    0.00000E+00         0.00000E+00        -0.49946E+08
 
   -0.49732E+08         0.32469E+05         0.00000E+00
    0.32469E+05        -0.49998E+08         0.00000E+00
    0.00000E+00         0.00000E+00        -0.49946E+08
 
   -0.49734E+08         0.38270E+05         0.00000E+00
    0.38270E+05        -0.49997E+08         0.00000E+00
    0.00000E+00         0.00000E+00        -0.49946E+08
 
   -0.49735E+08         0.44019E+05         0.00000E+00
    0.44019E+05        -0.49996E+08         0.00000E+00
    0.00000E+00         0.00000E+00        -0.49946E+08
 
   -0.49737E+08         0.49707E+05         0.00000E+00
    0.49707E+05        -0.49995E+08         0.00000E+00
    0.00000E+00         0.00000E+00        -0.49946E+08
 
   -0.49739E+08         0.55328E+05         0.00000E+00
    0.55328E+05        -0.49994E+08         0.00000E+00
    0.00000E+00         0.00000E+00        -0.49947E+08
 
   -0.49741E+08         0.60876E+05         0.00000E+00
    0.60876E+05        -0.49992E+08         0.00000E+00
    0.00000E+00         0.00000E+00        -0.49947E+08
 
   -0.49744E+08         0.66342E+05         0.00000E+00
    0.66342E+05        -0.49991E+08         0.00000E+00
    0.00000E+00         0.00000E+00        -0.49947E+08
 
   -0.49747E+08         0.71722E+05         0.00000E+00
    0.71722E+05        -0.49989E+08         0.00000E+00
    0.00000E+00         0.00000E+00        -0.49947E+08
 
   -0.49750E+08         0.77010E+05         0.00000E+00
    0.77010E+05        -0.49987E+08         0.00000E+00
    0.00000E+00         0.00000E+00        -0.49947E+08
 
   -0.49753E+08         0.82201E+05         0.00000E+00
    0.82201E+05        -0.49985E+08         0.00000E+00
    0.00000E+00         0.00000E+00        -0.49948E+08
 
   -0.49757E+08         0.87289E+05         0.00000E+00
    0.87289E+05        -0.49983E+08         0.00000E+00
    0.00000E+00         0.00000E+00        -0.49948E+08
 
   -0.49761E+08         0.92271E+05         0.00000E+00
    0.92271E+05        -0.49981E+08         0.00000E+00
    0.00000E+00         0.00000E+00        -0.49948E+08
 
   -0.49764E+08         0.97142E+05         0.00000E+00
    0.97142E+05        -0.49979E+08         0.00000E+00
    0.00000E+00         0.00000E+00        -0.49949E+08
 
   -0.49769E+08         0.10190E+06         0.00000E+00
    0.10190E+06        -0.49977E+08         0.00000E+00
    0.00000E+00         0.00000E+00        -0.49949E+08
 
   -0.49773E+08         0.10654E+06         0.00000E+00
    0.10654E+06        -0.49974E+08         0.00000E+00
    0.00000E+00         0.00000E+00        -0.49950E+08
 
   -0.49778E+08         0.11105E+06         0.00000E+00
    0.11105E+06        -0.49972E+08         0.00000E+00
    0.00000E+00         0.00000E+00        -0.49950E+08
 
   -0.49782E+08         0.11545E+06         0.00000E+00
    0.11545E+06        -0.49970E+08         0.00000E+00
    0.00000E+00         0.00000E+00        -0.49950E+08
 
   -0.49787E+08         0.11971E+06         0.00000E+00
    0.11971E+06        -0.49967E+08         0.00000E+00
    0.00000E+00         0.00000E+00        -0.49951E+08
 
   -0.49792E+08         0.12385E+06         0.00000E+00
    0.12385E+06        -0.49964E+08         0.00000E+00
    0.00000E+00         0.00000E+00        -0.49951E+08
 
   -0.49798E+08         0.12786E+06         0.00000E+00
    0.12786E+06        -0.49962E+08         0.00000E+00
    0.00000E+00         0.00000E+00        -0.49952E+08
 
   -0.49803E+08         0.13174E+06         0.00000E+00
    0.13174E+06        -0.49959E+08         0.00000E+00
    0.00000E+00         0.00000E+00        -0.49952E+08
 
   -0.49809E+08         0.13548E+06         0.00000E+00
    0.13548E+06        -0.49956E+08         0.00000E+00
    0.00000E+00         0.00000E+00        -0.49953E+08
 
   -0.49814E+08         0.13910E+06         0.00000E+00
    0.13910E+06        -0.49953E+08         0.00000E+00
    0.00000E+00         0.00000E+00        -0.49953E+08
 
   -0.49820E+08         0.14257E+06         0.00000E+00
    0.14257E+06        -0.49950E+08         0.00000E+00
    0.00000E+00         0.00000E+00        -0.49954E+08
 
   -0.49826E+08         0.14592E+06         0.00000E+00
    0.14592E+06        -0.49947E+08         0.00000E+00
    0.00000E+00         0.00000E+00        -0.49955E+08
 
   -0.49832E+08         0.14913E+06         0.00000E+00
    0.14913E+06        -0.49944E+08         0.00000E+00
    0.00000E+00         0.00000E+00        -0.49955E+08
 
   -0.49838E+08         0.15220E+06         0.00000E+00
    0.15220E+06        -0.49941E+08         0.00000E+00
    0.00000E+00         0.00000E+00        -0.49956E+08
 
   -0.49845E+08         0.15514E+06         0.00000E+00
    0.15514E+06        -0.49938E+08         0.00000E+00
    0.00000E+00         0.00000E+00        -0.49956E+08
 
   -0.49851E+08         0.15794E+06         0.00000E+00
    0.15794E+06        -0.49935E+08         0.00000E+00
    0.00000E+00         0.00000E+00        -0.49957E+08
 
   -0.49858E+08         0.16061E+06         0.00000E+00
    0.16061E+06        -0.49931E+08         0.00000E+00
    0.00000E+00         0.00000E+00        -0.49958E+08
 
   -0.49864E+08         0.16315E+06         0.00000E+00
    0.16315E+06        -0.49928E+08         0.00000E+00
    0.00000E+00         0.00000E+00        -0.49958E+08
 
   -0.49871E+08         0.16556E+06         0.00000E+00
    0.16556E+06        -0.49925E+08         0.00000E+00
    0.00000E+00         0.00000E+00        -0.49959E+08
 
   -0.49878E+08         0.16783E+06         0.00000E+00
    0.16783E+06        -0.49922E+08         0.00000E+00
    0.00000E+00         0.00000E+00        -0.49960E+08
 
   -0.49885E+08         0.16998E+06         0.00000E+00
    0.16998E+06        -0.49918E+08         0.00000E+00
    0.00000E+00         0.00000E+00        -0.49961E+08
 
   -0.49892E+08         0.17199E+06         0.00000E+00
    0.17199E+06        -0.49915E+08         0.00000E+00
    0.00000E+00         0.00000E+00        -0.49961E+08
 
   -0.49899E+08         0.17388E+06         0.00000E+00
    0.17388E+06        -0.49912E+08         0.00000E+00
    0.00000E+00         0.00000E+00        -0.49962E+08
 
   -0.49906E+08         0.17564E+06         0.00000E+00
    0.17564E+06        -0.49908E+08         0.00000E+00
    0.00000E+00         0.00000E+00        -0.49963E+08
 
   -0.49913E+08         0.17727E+06         0.00000E+00
    0.17727E+06        -0.49905E+08         0.00000E+00
    0.00000E+00         0.00000E+00        -0.49964E+08
 
   -0.49921E+08         0.17877E+06         0.00000E+00
    0.17877E+06        -0.49902E+08         0.00000E+00
    0.00000E+00         0.00000E+00        -0.49964E+08
 
   -0.49928E+08         0.18015E+06         0.00000E+00
    0.18015E+06        -0.49898E+08         0.00000E+00
    0.00000E+00         0.00000E+00        -0.49965E+08
 
   -0.49935E+08         0.18141E+06         0.00000E+00
    0.18141E+06        -0.49895E+08         0.00000E+00
    0.00000E+00         0.00000E+00        -0.49966E+08
 
   -0.49943E+08         0.18254E+06         0.00000E+00
    0.18254E+06        -0.49891E+08         0.00000E+00
    0.00000E+00         0.00000E+00        -0.49967E+08
 
   -0.49951E+08         0.18355E+06         0.00000E+00
    0.18355E+06        -0.49888E+08         0.00000E+00
    0.00000E+00         0.00000E+00        -0.49968E+08
 
   -0.49958E+08         0.18444E+06         0.00000E+00
    0.18444E+06        -0.49884E+08         0.00000E+00
    0.00000E+00         0.00000E+00        -0.49969E+08
 
   -0.49966E+08         0.18521E+06         0.00000E+00
    0.18521E+06        -0.49881E+08         0.00000E+00
    0.00000E+00         0.00000E+00        -0.49969E+08
 
   -0.49699E+08         0.33817E+04         0.00000E+00
    0.33817E+04        -0.50000E+08         0.00000E+00
    0.00000E+00         0.00000E+00        -0.49940E+08
 
   -0.49698E+08         0.10133E+05         0.00000E+00
    0.10133E+05        -0.50000E+08         0.00000E+00
    0.00000E+00         0.00000E+00        -0.49940E+08
 
   -0.49699E+08         0.16863E+05         0.00000E+00
    0.16863E+05        -0.50000E+08         0.00000E+00
    0.00000E+00         0.00000E+00        -0.49940E+08
 
   -0.49699E+08         0.23562E+05         0.00000E+00
    0.23562E+05        -0.49999E+08         0.00000E+00
    0.00000E+00         0.00000E+00        -0.49940E+08
 
   -0.49700E+08         0.30218E+05         0.00000E+00
    0.30218E+05        -0.49998E+08         0.00000E+00
    0.00000E+00         0.00000E+00        -0.49940E+08
 
   -0.49701E+08         0.36823E+05         0.00000E+00
    0.36823E+05        -0.49997E+08         0.00000E+00
    0.00000E+00         0.00000E+00        -0.49940E+08
 
   -0.49703E+08         0.43365E+05         0.00000E+00
    0.43365E+05        -0.49996E+08         0.00000E+00
    0.00000E+00         0.00000E+00        -0.49940E+08
 
   -0.49705E+08         0.49836E+05         0.00000E+00
    0.49836E+05        -0.49995E+08         0.00000E+00
    0.00000E+00         0.00000E+00        -0.49940E+08
 
   -0.49707E+08         0.56228E+05         0.00000E+00
    0.56228E+05        -0.49994E+08         0.00000E+00
    0.00000E+00         0.00000E+00        -0.49940E+08
 
   -0.49709E+08         0.62531E+05         0.00000E+00
    0.62531E+05        -0.49992E+08         0.00000E+00
    0.00000E+00         0.00000E+00        -0.49940E+08
 
   -0.49712E+08         0.68739E+05         0.00000E+00
    0.68739E+05        -0.49991E+08         0.00000E+00
    0.00000E+00         0.00000E+00        -0.49941E+08
 
   -0.49715E+08         0.74844E+05         0.00000E+00
    0.74844E+05        -0.49989E+08         0.00000E+00
    0.00000E+00         0.00000E+00        -0.49941E+08
 
   -0.49719E+08         0.80839E+05         0.00000E+00
    0.80839E+05        -0.49987E+08         0.00000E+00
    0.00000E+00         0.00000E+00        -0.49941E+08
 
   -0.49722E+08         0.86719E+05         0.00000E+00
    0.86719E+05        -0.49985E+08         0.00000E+00
    0.00000E+00         0.00000E+00        -0.49941E+08
 
   -0.49726E+08         0.92478E+05         0.00000E+00
    0.92478E+05        -0.49983E+08         0.00000E+00
    0.00000E+00         0.00000E+00        -0.49942E+08
 
   -0.49730E+08         0.98110E+05         0.00000E+00
    0.98110E+05        -0.49981E+08         0.00000E+00
    0.00000E+00         0.00000E+00        -0.49942E+08
 
   -0.49735E+08         0.10361E+06         0.00000E+00
    0.10361E+06        -0.49978E+08         0.00000E+00
    0.00000E+00         0.00000E+00        -0.49943E+08
 
   -0.49739E+08         0.10898E+06         0.00000E+00
    0.10898E+06        -0.49976E+08         0.00000E+00
    0.00000E+00         0.00000E+00        -0.49943E+08
 
   -0.49744E+08         0.11420E+06         0.00000E+00
    0.11420E+06        -0.49973E+08         0.00000E+00
    0.00000E+00         0.00000E+00        -0.49943E+08
 
   -0.49749E+08         0.11929E+06         0.00000E+00
    0.11929E+06        -0.49971E+08         0.00000E+00
    0.00000E+00         0.00000E+00        -0.49944E+08
 
   -0.49754E+08         0.12423E+06         0.00000E+00
    0.12423E+06        -0.49968E+08         0.00000E+00
    0.00000E+00         0.00000E+00        -0.49944E+08
 
   -0.49760E+08         0.12902E+06         0.00000E+00
    0.12902E+06        -0.49965E+08         0.00000E+00
    0.00000E+00         0.00000E+00        -0.49945E+08
 
   -0.49765E+08         0.13366E+06         0.00000E+00
    0.13366E+06        -0.49962E+08         0.00000E+00
    0.00000E+00         0.00000E+00        -0.49945E+08
 
   -0.49771E+08         0.13815E+06         0.00000E+00
    0.13815E+06        -0.49959E+08         0.00000E+00
    0.00000E+00         0.00000E+00        -0.49946E+08
 
   -0.49777E+08         0.14249E+06         0.00000E+00
    0.14249E+06        -0.49956E+08         0.00000E+00
    0.00000E+00         0.00000E+00        -0.49947E+08
 
   -0.49783E+08         0.14668E+06         0.00000E+00
    0.14668E+06        -0.49953E+08         0.00000E+00
    0.00000E+00         0.00000E+00        -0.49947E+08
 
   -0.49789E+08         0.15071E+06         0.00000E+00
    0.15071E+06        -0.49950E+08         0.00000E+00
    0.00000E+00         0.00000E+00        -0.49948E+08
 
   -0.49796E+08         0.15459E+06         0.00000E+00
    0.15459E+06        -0.49946E+08         0.00000E+00
    0.00000E+00         0.00000E+00        -0.49948E+08
 
   -0.49802E+08         0.15831E+06         0.00000E+00
    0.15831E+06        -0.49943E+08         0.00000E+00
    0.00000E+00         0.00000E+00        -0.49949E+08
 
   -0.49809E+08         0.16188E+06         0.00000E+00
    0.16188E+06        -0.49940E+08         0.00000E+00
    0.00000E+00         0.00000E+00        -0.49950E+08
 
   -0.49816E+08         0.16530E+06         0.00000E+00
    0.16530E+06        -0.49936E+08         0.00000E+00
    0.00000E+00         0.00000E+00        -0.49950E+08
 
   -0.49823E+08         0.16856E+06         0.00000E+00
    0.16856E+06        -0.49933E+08         0.00000E+00
    0.00000E+00         0.00000E+00        -0.49951E+08
 
   -0.49830E+08         0.17168E+06         0.00000E+00
    0.17168E+06        -0.49929E+08         0.00000E+00
    0.00000E+00         0.00000E+00        -0.49952E+08
 
   -0.49837E+08         0.17464E+06         0.00000E+00
    0.17464E+06        -0.49926E+08         0.00000E+00
    0.00000E+00         0.00000E+00        -0.49953E+08
 
   -0.49844E+08         0.17746E+06         0.00000E+00
    0.17746E+06        -0.49922E+08         0.00000E+00
    0.00000E+00         0.00000E+00        -0.49953E+08
 
   -0.49852E+08         0.18013E+06         0.00000E+00
    0.18013E+06        -0.49919E+08         0.00000E+00
    0.00000E+00         0.00000E+00        -0.49954E+08
 
   -0.49859E+08         0.18265E+06         0.00000E+00
    0.18265E+06        -0.49915E+08         0.00000E+00
    0.00000E+00         0.00000E+00        -0.49955E+08
 
   -0.49866E+08         0.18504E+06         0.00000E+00
    0.18504E+06        -0.49912E+08         0.00000E+00
    0.00000E+00         0.00000E+00        -0.49956E+08
 
   -0.49874E+08         0.18728E+06         0.00000E+00
    0.18728E+06        -0.49908E+08         0.00000E+00
    0.00000E+00         0.00000E+00        -0.49956E+08
 
   -0.49882E+08         0.18938E+06         0.00000E+00
    0.18938E+06        -0.49905E+08         0.00000E+00
    0.00000E+00         0.00000E+00        -0.49957E+08
 
   -0.49889E+08         0.19135E+06         0.00000E+00
    0.19135E+06        -0.49901E+08         0.00000E+00
    0.00000E+00         0.00000E+00        -0.49958E+08
 
   -0.49897E+08         0.19318E+06         0.00000E+00
    0.19318E+06        -0.49897E+08         0.00000E+00
    0.00000E+00         0.00000E+00        -0.49959E+08
 
   -0.49905E+08         0.19488E+06         0.00000E+00
    0.19488E+06        -0.49894E+08         0.00000E+00
    0.00000E+00         0.00000E+00        -0.49960E+08
 
   -0.49913E+08         0.19645E+06         0.00000E+00
    0.19645E+06        -0.49890E+08         0.00000E+00
    0.00000E+00         0.00000E+00        -0.49961E+08
 
   -0.49921E+08         0.19789E+06         0.00000E+00
    0.19789E+06        -0.49886E+08         0.00000E+00
    0.00000E+00         0.00000E+00        -0.49961E+08
 
   -0.49929E+08         0.19920E+06         0.00000E+00
    0.19920E+06        -0.49883E+08         0.00000E+00
    0.00000E+00         0.00000E+00        -0.49962E+08
 
   -0.49937E+08         0.20039E+06         0.00000E+00
    0.20039E+06        -0.49879E+08         0.00000E+00
    0.00000E+00         0.00000E+00        -0.49963E+08
 
   -0.49946E+08         0.20145E+06         0.00000E+00
    0.20145E+06        -0.49875E+08         0.00000E+00
    0.00000E+00         0.00000E+00        -0.49964E+08
 
   -0.49954E+08         0.20239E+06         0.00000E+00
    0.20239E+06        -0.49871E+08         0.00000E+00
    0.00000E+00         0.00000E+00        -0.49965E+08
 
   -0.49962E+08         0.20322E+06         0.00000E+00
    0.20322E+06        -0.49868E+08         0.00000E+00
    0.00000E+00         0.00000E+00        -0.49966E+08
 
   -0.49662E+08         0.38773E+04         0.00000E+00
    0.38773E+04        -0.50000E+08         0.00000E+00
    0.00000E+00         0.00000E+00        -0.49932E+08
 
   -0.49662E+08         0.11586E+05         0.00000E+00
    0.11586E+05        -0.50000E+08         0.00000E+00
    0.00000E+00         0.00000E+00        -0.49932E+08
 
   -0.49663E+08         0.19258E+05         0.00000E+00
    0.19258E+05        -0.49999E+08         0.00000E+00
    0.00000E+00         0.00000E+00        -0.49932E+08
 
   -0.49664E+08         0.26879E+05         0.00000E+00
    0.26879E+05        -0.49999E+08         0.00000E+00
    0.00000E+00         0.00000E+00        -0.49932E+08
 
   -0.49665E+08         0.34436E+05         0.00000E+00
    0.34436E+05        -0.49998E+08         0.00000E+00
    0.00000E+00         0.00000E+00        -0.49933E+08
 
   -0.49666E+08         0.41920E+05         0.00000E+00
    0.41920E+05        -0.49997E+08         0.00000E+00
    0.00000E+00         0.00000E+00        -0.49933E+08
 
   -0.49668E+08         0.49317E+05         0.00000E+00
    0.49317E+05        -0.49996E+08         0.00000E+00
    0.00000E+00         0.00000E+00        -0.49933E+08
 
   -0.49671E+08         0.56618E+05         0.00000E+00
    0.56618E+05        -0.49994E+08         0.00000E+00
    0.00000E+00         0.00000E+00        -0.49933E+08
 
   -0.49673E+08         0.63812E+05         0.00000E+00
    0.63812E+05        -0.49993E+08         0.00000E+00
    0.00000E+00         0.00000E+00        -0.49933E+08
 
   -0.49676E+08         0.70891E+05         0.00000E+00
    0.70891E+05        -0.49991E+08         0.00000E+00
    0.00000E+00         0.00000E+00        -0.49933E+08
 
   -0.49680E+08         0.77847E+05         0.00000E+00
    0.77847E+05        -0.49989E+08         0.00000E+00
    0.00000E+00         0.00000E+00        -0.49934E+08
 
   -0.49683E+08         0.84670E+05         0.00000E+00
    0.84670E+05        -0.49987E+08         0.00000E+00
    0.00000E+00         0.00000E+00        -0.49934E+08
 
   -0.49687E+08         0.91354E+05         0.00000E+00
    0.91354E+05        -0.49985E+08         0.00000E+00
    0.00000E+00         0.00000E+00        -0.49934E+08
 
   -0.49692E+08         0.97893E+05         0.00000E+00
    0.97893E+05        -0.49983E+08         0.00000E+00
    0.00000E+00         0.00000E+00        -0.49935E+08
 
   -0.49696E+08         0.10428E+06         0.00000E+00
    0.10428E+06        -0.49980E+08         0.00000E+00
    0.00000E+00         0.00000E+00        -0.49935E+08
 
   -0.49701E+08         0.11051E+06         0.00000E+00
    0.11051E+06        -0.49978E+08         0.00000E+00
    0.00000E+00         0.00000E+00        -0.49936E+08
 
   -0.49706E+08         0.11658E+06         0.00000E+00
    0.11658E+06        -0.49975E+08         0.00000E+00
    0.00000E+00         0.00000E+00        -0.49936E+08
 
   -0.49711E+08         0.12248E+06         0.00000E+00
    0.12248E+06        -0.49972E+08         0.00000E+00
    0.00000E+00         0.00000E+00        -0.49937E+08
 
   -0.49717E+08         0.12822E+06         0.00000E+00
    0.12822E+06        -0.49969E+08         0.00000E+00
    0.00000E+00         0.00000E+00        -0.49937E+08
 
   -0.49723E+08         0.13378E+06         0.00000E+00
    0.13378E+06        -0.49966E+08         0.00000E+00
    0.00000E+00         0.00000E+00        -0.49938E+08
 
   -0.49729E+08         0.13916E+06         0.00000E+00
    0.13916E+06        -0.49963E+08         0.00000E+00
    0.00000E+00         0.00000E+00        -0.49938E+08
 
   -0.49735E+08         0.14437E+06         0.00000E+00
    0.14437E+06        -0.49960E+08         0.00000E+00
    0.00000E+00         0.00000E+00        -0.49939E+08
 
   -0.49742E+08         0.14941E+06         0.00000E+00
    0.14941E+06        -0.49956E+08         0.00000E+00
    0.00000E+00         0.00000E+00        -0.49940E+08
 
   -0.49748E+08         0.15426E+06         0.00000E+00
    0.15426E+06        -0.49953E+08         0.00000E+00
    0.00000E+00         0.00000E+00        -0.49940E+08
 
   -0.49755E+08         0.15893E+06         0.00000E+00
    0.15893E+06        -0.49950E+08         0.00000E+00
    0.00000E+00         0.00000E+00        -0.49941E+08
 
   -0.49762E+08         0.16342E+06         0.00000E+00
    0.16342E+06        -0.49946E+08         0.00000E+00
    0.00000E+00         0.00000E+00        -0.49942E+08
 
   -0.49769E+08         0.16774E+06         0.00000E+00
    0.16774E+06        -0.49943E+08         0.00000E+00
    0.00000E+00         0.00000E+00        -0.49942E+08
 
   -0.49776E+08         0.17187E+06         0.00000E+00
    0.17187E+06        -0.49939E+08         0.00000E+00
    0.00000E+00         0.00000E+00        -0.49943E+08
 
   -0.49784E+08         0.17583E+06         0.00000E+00
    0.17583E+06        -0.49935E+08         0.00000E+00
    0.00000E+00         0.00000E+00        -0.49944E+08
 
   -0.49791E+08         0.17961E+06         0.00000E+00
    0.17961E+06        -0.49932E+08         0.00000E+00
    0.00000E+00         0.00000E+00        -0.49945E+08
 
   -0.49799E+08         0.18322E+06         0.00000E+00
    0.18322E+06        -0.49928E+08         0.00000E+00
    0.00000E+00         0.00000E+00        -0.49945E+08
 
   -0.49806E+08         0.18666E+06         0.00000E+00
    0.18666E+06        -0.49924E+08         0.00000E+00
    0.00000E+00         0.00000E+00        -0.49946E+08
 
   -0.49814E+08         0.18993E+06         0.00000E+00
    0.18993E+06        -0.49920E+08         0.00000E+00
    0.00000E+00         0.00000E+00        -0.49947E+08
 
   -0.49822E+08         0.19303E+06         0.00000E+00
    0.19303E+06        -0.49916E+08         0.00000E+00
    0.00000E+00         0.00000E+00        -0.49948E+08
 
   -0.49830E+08         0.19596E+06         0.00000E+00
    0.19596E+06        -0.49912E+08         0.00000E+00
    0.00000E+00         0.00000E+00        -0.49949E+08
 
   -0.49838E+08         0.19874E+06         0.00000E+00
    0.19874E+06        -0.49909E+08         0.00000E+00
    0.00000E+00         0.00000E+00        -0.49949E+08
 
   -0.49846E+08         0.20135E+06         0.00000E+00
    0.20135E+06        -0.49905E+08         0.00000E+00
    0.00000E+00         0.00000E+00        -0.49950E+08
 
   -0.49855E+08         0.20382E+06         0.00000E+00
    0.20382E+06        -0.49901E+08         0.00000E+00
    0.00000E+00         0.00000E+00        -0.49951E+08
 
   -0.49863E+08         0.20613E+06         0.00000E+00
    0.20613E+06        -0.49897E+08         0.00000E+00
    0.00000E+00         0.00000E+00        -0.49952E+08
 
   -0.49871E+08         0.20829E+06         0.00000E+00
    0.20829E+06        -0.49893E+08         0.00000E+00
    0.00000E+00         0.00000E+00        -0.49953E+08
 
   -0.49880E+08         0.21031E+06         0.00000E+00
    0.21031E+06        -0.49889E+08         0.00000E+00
    0.00000E+00         0.00000E+00        -0.49954E+08
 
   -0.49888E+08         0.21219E+06         0.00000E+00
    0.21219E+06        -0.49885E+08         0.00000E+00
    0.00000E+00         0.00000E+00        -0.49955E+08
 
   -0.49897E+08         0.21393E+06         0.00000E+00
    0.21393E+06        -0.49881E+08         0.00000E+00
    0.00000E+00         0.00000E+00        -0.49956E+08
 
   -0.49906E+08         0.21554E+06         0.00000E+00
    0.21554E+06        -0.49877E+08         0.00000E+00
    0.00000E+00         0.00000E+00        -0.49957E+08
 
   -0.49914E+08         0.21702E+06         0.00000E+00
    0.21702E+06        -0.49873E+08         0.00000E+00
    0.00000E+00         0.00000E+00        -0.49957E+08
 
   -0.49923E+08         0.21837E+06         0.00000E+00
    0.21837E+06        -0.49869E+08         0.00000E+00
    0.00000E+00         0.00000E+00        -0.49958E+08
 
   -0.49932E+08         0.21959E+06         0.00000E+00
    0.21959E+06        -0.49865E+08         0.00000E+00
    0.00000E+00         0.00000E+00        -0.49959E+08
 
   -0.49940E+08         0.22069E+06         0.00000E+00
    0.22069E+06        -0.49861E+08         0.00000E+00
    0.00000E+00         0.00000E+00        -0.49960E+08
 
   -0.49949E+08         0.22168E+06         0.00000E+00
    0.22168E+06        -0.49857E+08         0.00000E+00
    0.00000E+00         0.00000E+00        -0.49961E+08
 
   -0.49958E+08         0.22255E+06         0.00000E+00
    0.22255E+06        -0.49853E+08         0.00000E+00
    0.00000E+00         0.00000E+00        -0.49962E+08
 
   -0.49621E+08         0.44678E+04         0.00000E+00
    0.44678E+04        -0.50000E+08         0.00000E+00
    0.00000E+00         0.00000E+00        -0.49924E+08
 
   -0.49621E+08         0.13307E+05         0.00000E+00
    0.13307E+05        -0.50000E+08         0.00000E+00
    0.00000E+00         0.00000E+00        -0.49924E+08
 
   -0.49622E+08         0.22083E+05         0.00000E+00
    0.22083E+05        -0.49999E+08         0.00000E+00
    0.00000E+00         0.00000E+00        -0.49924E+08
 
   -0.49623E+08         0.30781E+05         0.00000E+00
    0.30781E+05        -0.49999E+08         0.00000E+00
    0.00000E+00         0.00000E+00        -0.49924E+08
 
   -0.49625E+08         0.39388E+05         0.00000E+00
    0.39388E+05        -0.49998E+08         0.00000E+00
    0.00000E+00         0.00000E+00        -0.49924E+08
 
   -0.49627E+08         0.47888E+05         0.00000E+00
    0.47888E+05        -0.49996E+08         0.00000E+00
    0.00000E+00         0.00000E+00        -0.49925E+08
 
   -0.49629E+08         0.56271E+05         0.00000E+00
    0.56271E+05        -0.49995E+08         0.00000E+00
    0.00000E+00         0.00000E+00        -0.49925E+08
 
   -0.49632E+08         0.64523E+05         0.00000E+00
    0.64523E+05        -0.49993E+08         0.00000E+00
    0.00000E+00         0.00000E+00        -0.49925E+08
 
   -0.49635E+08         0.72634E+05         0.00000E+00
    0.72634E+05        -0.49992E+08         0.00000E+00
    0.00000E+00         0.00000E+00        -0.49925E+08
 
   -0.49639E+08         0.80593E+05         0.00000E+00
    0.80593E+05        -0.49990E+08         0.00000E+00
    0.00000E+00         0.00000E+00        -0.49926E+08
 
   -0.49643E+08         0.88392E+05         0.00000E+00
    0.88392E+05        -0.49987E+08         0.00000E+00
    0.00000E+00         0.00000E+00        -0.49926E+08
 
   -0.49648E+08         0.96022E+05         0.00000E+00
    0.96022E+05        -0.49985E+08         0.00000E+00
    0.00000E+00         0.00000E+00        -0.49927E+08
 
   -0.49652E+08         0.10347E+06         0.00000E+00
    0.10347E+06        -0.49983E+08         0.00000E+00
    0.00000E+00         0.00000E+00        -0.49927E+08
 
   -0.49658E+08         0.11074E+06         0.00000E+00
    0.11074E+06        -0.49980E+08         0.00000E+00
    0.00000E+00         0.00000E+00        -0.49927E+08
 
   -0.49663E+08         0.11782E+06         0.00000E+00
    0.11782E+06        -0.49977E+08         0.00000E+00
    0.00000E+00         0.00000E+00        -0.49928E+08
 
   -0.49669E+08         0.12471E+06         0.00000E+00
    0.12471E+06        -0.49974E+08         0.00000E+00
    0.00000E+00         0.00000E+00        -0.49929E+08
 
   -0.49675E+08         0.13139E+06         0.00000E+00
    0.13139E+06        -0.49971E+08         0.00000E+00
    0.00000E+00         0.00000E+00        -0.49929E+08
 
   -0.49681E+08         0.13787E+06         0.00000E+00
    0.13787E+06        -0.49968E+08         0.00000E+00
    0.00000E+00         0.00000E+00        -0.49930E+08
 
   -0.49688E+08         0.14415E+06         0.00000E+00
    0.14415E+06        -0.49964E+08         0.00000E+00
    0.00000E+00         0.00000E+00        -0.49930E+08
 
   -0.49694E+08         0.15021E+06         0.00000E+00
    0.15021E+06        -0.49961E+08         0.00000E+00
    0.00000E+00         0.00000E+00        -0.49931E+08
 
   -0.49701E+08         0.15606E+06         0.00000E+00
    0.15606E+06        -0.49957E+08         0.00000E+00
    0.00000E+00         0.00000E+00        -0.49932E+08
 
   -0.49708E+08         0.16171E+06         0.00000E+00
    0.16171E+06        -0.49954E+08         0.00000E+00
    0.00000E+00         0.00000E+00        -0.49932E+08
 
   -0.49716E+08         0.16713E+06         0.00000E+00
    0.16713E+06        -0.49950E+08         0.00000E+00
    0.00000E+00         0.00000E+00        -0.49933E+08
 
   -0.49723E+08         0.17235E+06         0.00000E+00
    0.17235E+06        -0.49946E+08         0.00000E+00
    0.00000E+00         0.00000E+00        -0.49934E+08
 
   -0.49731E+08         0.17736E+06         0.00000E+00
    0.17736E+06        -0.49942E+08         0.00000E+00
    0.00000E+00         0.00000E+00        -0.49935E+08
 
   -0.49739E+08         0.18215E+06         0.00000E+00
    0.18215E+06        -0.49938E+08         0.00000E+00
    0.00000E+00         0.00000E+00        -0.49936E+08
 
   -0.49747E+08         0.18673E+06         0.00000E+00
    0.18673E+06        -0.49934E+08         0.00000E+00
    0.00000E+00         0.00000E+00        -0.49936E+08
 
   -0.49755E+08         0.19111E+06         0.00000E+00
    0.19111E+06        -0.49930E+08         0.00000E+00
    0.00000E+00         0.00000E+00        -0.49937E+08
 
   -0.49764E+08         0.19528E+06         0.00000E+00
    0.19528E+06        -0.49926E+08         0.00000E+00
    0.00000E+00         0.00000E+00        -0.49938E+08
 
   -0.49772E+08         0.19925E+06         0.00000E+00
    0.19925E+06        -0.49922E+08         0.00000E+00
    0.00000E+00         0.00000E+00        -0.49939E+08
 
   -0.49781E+08         0.20302E+06         0.00000E+00
    0.20302E+06        -0.49918E+08         0.00000E+00
    0.00000E+00         0.00000E+00        -0.49940E+08
 
   -0.49789E+08         0.20660E+06         0.00000E+00
    0.20660E+06        -0.49914E+08         0.00000E+00
    0.00000E+00         0.00000E+00        -0.49941E+08
 
   -0.49798E+08         0.20999E+06         0.00000E+00
    0.20999E+06        -0.49910E+08         0.00000E+00
    0.00000E+00         0.00000E+00        -0.49942E+08
 
   -0.49807E+08         0.21319E+06         0.00000E+00
    0.21319E+06        -0.49906E+08         0.00000E+00
    0.00000E+00         0.00000E+00        -0.49942E+08
 
   -0.49816E+08         0.21621E+06         0.00000E+00
    0.21621E+06        -0.49901E+08         0.00000E+00
    0.00000E+00         0.00000E+00        -0.49943E+08
 
   -0.49825E+08         0.21905E+06         0.00000E+00
    0.21905E+06        -0.49897E+08         0.00000E+00
    0.00000E+00         0.00000E+00        -0.49944E+08
 
   -0.49834E+08         0.22172E+06         0.00000E+00
    0.22172E+06        -0.49893E+08         0.00000E+00
    0.00000E+00         0.00000E+00        -0.49945E+08
 
   -0.49843E+08         0.22422E+06         0.00000E+00
    0.22422E+06        -0.49889E+08         0.00000E+00
    0.00000E+00         0.00000E+00        -0.49946E+08
 
   -0.49852E+08         0.22656E+06         0.00000E+00
    0.22656E+06        -0.49884E+08         0.00000E+00
    0.00000E+00         0.00000E+00        -0.49947E+08
 
   -0.49861E+08         0.22874E+06         0.00000E+00
    0.22874E+06        -0.49880E+08         0.00000E+00
    0.00000E+00         0.00000E+00        -0.49948E+08
 
   -0.49870E+08         0.23078E+06         0.00000E+00
    0.23078E+06        -0.49876E+08         0.00000E+00
    0.00000E+00         0.00000E+00        -0.49949E+08
 
   -0.49879E+08         0.23266E+06         0.00000E+00
    0.23266E+06        -0.49872E+08         0.00000E+00
    0.00000E+00         0.00000E+00        -0.49950E+08
 
   -0.49889E+08         0.23441E+06         0.00000E+00
    0.23441E+06        -0.49867E+08         0.00000E+00
    0.00000E+00         0.00000E+00        -0.49951E+08
 
   -0.49898E+08         0.23602E+06         0.00000E+00
    0.23602E+06        -0.49863E+08         0.00000E+00
    0.00000E+00         0.00000E+00        -0.49952E+08
 
   -0.49907E+08         0.23750E+06         0.00000E+00
    0.23750E+06        -0.49859E+08         0.00000E+00
    0.00000E+00         0.00000E+00        -0.49953E+08
 
   -0.49916E+08         0.23886E+06         0.00000E+00
    0.23886E+06        -0.49855E+08         0.00000E+00
    0.00000E+00         0.00000E+00        -0.49954E+08
 
   -0.49926E+08         0.24010E+06         0.00000E+00
    0.24010E+06        -0.49850E+08         0.00000E+00
    0.00000E+00         0.00000E+00        -0.49955E+08
 
   -0.49935E+08         0.24122E+06         0.00000E+00
    0.24122E+06        -0.49846E+08         0.00000E+00
    0.00000E+00         0.00000E+00        -0.49956E+08
 
   -0.49945E+08         0.24223E+06         0.00000E+00
    0.24223E+06        -0.49842E+08         0.00000E+00
    0.00000E+00         0.00000E+00        -0.49957E+08
 
   -0.49954E+08         0.24313E+06         0.00000E+00
    0.24313E+06        -0.49838E+08         0.00000E+00
    0.00000E+00         0.00000E+00        -0.49958E+08
 
   -0.49573E+08         0.51712E+04         0.00000E+00
    0.51712E+04        -0.50000E+08         0.00000E+00
    0.00000E+00         0.00000E+00        -0.49915E+08
 
   -0.49574E+08         0.15341E+05         0.00000E+00
    0.15341E+05        -0.50000E+08         0.00000E+00
    0.00000E+00         0.00000E+00        -0.49915E+08
 
   -0.49575E+08         0.25413E+05         0.00000E+00
    0.25413E+05        -0.49999E+08         0.00000E+00
    0.00000E+00         0.00000E+00        -0.49915E+08
 
   -0.49577E+08         0.35369E+05         0.00000E+00
    0.35369E+05        -0.49998E+08         0.00000E+00
    0.00000E+00         0.00000E+00        -0.49915E+08
 
   -0.49579E+08         0.45193E+05         0.00000E+00
    0.45193E+05        -0.49997E+08         0.00000E+00
    0.00000E+00         0.00000E+00        -0.49915E+08
 
   -0.49582E+08         0.54870E+05         0.00000E+00
    0.54870E+05        -0.49996E+08         0.00000E+00
    0.00000E+00         0.00000E+00        -0.49915E+08
 
   -0.49585E+08         0.64385E+05         0.00000E+00
    0.64385E+05        -0.49994E+08         0.00000E+00
    0.00000E+00         0.00000E+00        -0.49916E+08
 
   -0.49589E+08         0.73724E+05         0.00000E+00
    0.73724E+05        -0.49992E+08         0.00000E+00
    0.00000E+00         0.00000E+00        -0.49916E+08
 
   -0.49593E+08         0.82877E+05         0.00000E+00
    0.82877E+05        -0.49990E+08         0.00000E+00
    0.00000E+00         0.00000E+00        -0.49917E+08
 
   -0.49597E+08         0.91832E+05         0.00000E+00
    0.91832E+05        -0.49988E+08         0.00000E+00
    0.00000E+00         0.00000E+00        -0.49917E+08
 
   -0.49602E+08         0.10058E+06         0.00000E+00
    0.10058E+06        -0.49985E+08         0.00000E+00
    0.00000E+00         0.00000E+00        -0.49918E+08
 
   -0.49608E+08         0.10911E+06         0.00000E+00
    0.10911E+06        -0.49983E+08         0.00000E+00
    0.00000E+00         0.00000E+00        -0.49918E+08
 
   -0.49614E+08         0.11741E+06         0.00000E+00
    0.11741E+06        -0.49980E+08         0.00000E+00
    0.00000E+00         0.00000E+00        -0.49919E+08
 
   -0.49620E+08         0.12549E+06         0.00000E+00
    0.12549E+06        -0.49977E+08         0.00000E+00
    0.00000E+00         0.00000E+00        -0.49919E+08
 
   -0.49626E+08         0.13332E+06         0.00000E+00
    0.13332E+06        -0.49973E+08         0.00000E+00
    0.00000E+00         0.00000E+00        -0.49920E+08
 
   -0.49633E+08         0.14092E+06         0.00000E+00
    0.14092E+06        -0.49970E+08         0.00000E+00
    0.00000E+00         0.00000E+00        -0.49921E+08
 
   -0.49640E+08         0.14826E+06         0.00000E+00
    0.14826E+06        -0.49967E+08         0.00000E+00
    0.00000E+00         0.00000E+00        -0.49921E+08
 
   -0.49648E+08         0.15536E+06         0.00000E+00
    0.15536E+06        -0.49963E+08         0.00000E+00
    0.00000E+00         0.00000E+00        -0.49922E+08
 
   -0.49655E+08         0.16221E+06         0.00000E+00
    0.16221E+06        -0.49959E+08         0.00000E+00
    0.00000E+00         0.00000E+00        -0.49923E+08
 
   -0.49663E+08         0.16880E+06         0.00000E+00
    0.16880E+06        -0.49955E+08         0.00000E+00
    0.00000E+00         0.00000E+00        -0.49924E+08
 
   -0.49671E+08         0.17513E+06         0.00000E+00
    0.17513E+06        -0.49951E+08         0.00000E+00
    0.00000E+00         0.00000E+00        -0.49925E+08
 
   -0.49680E+08         0.18121E+06         0.00000E+00
    0.18121E+06        -0.49947E+08         0.00000E+00
    0.00000E+00         0.00000E+00        -0.49925E+08
 
   -0.49688E+08         0.18704E+06         0.00000E+00
    0.18704E+06        -0.49943E+08         0.00000E+00
    0.00000E+00         0.00000E+00        -0.49926E+08
 
   -0.49697E+08         0.19261E+06         0.00000E+00
    0.19261E+06        -0.49939E+08         0.00000E+00
    0.00000E+00         0.00000E+00        -0.49927E+08
 
   -0.49706E+08         0.19794E+06         0.00000E+00
    0.19794E+06        -0.49934E+08         0.00000E+00
    0.00000E+00         0.00000E+00        -0.49928E+08
 
   -0.49715E+08         0.20301E+06         0.00000E+00
    0.20301E+06        -0.49930E+08         0.00000E+00
    0.00000E+00         0.00000E+00        -0.49929E+08
 
   -0.49724E+08         0.20784E+06         0.00000E+00
    0.20784E+06        -0.49926E+08         0.00000E+00
    0.00000E+00         0.00000E+00        -0.49930E+08
 
   -0.49734E+08         0.21243E+06         0.00000E+00
    0.21243E+06        -0.49921E+08         0.00000E+00
    0.00000E+00         0.00000E+00        -0.49931E+08
 
   -0.49743E+08         0.21678E+06         0.00000E+00
    0.21678E+06        -0.49917E+08         0.00000E+00
    0.00000E+00         0.00000E+00        -0.49932E+08
 
   -0.49752E+08         0.22091E+06         0.00000E+00
    0.22091E+06        -0.49912E+08         0.00000E+00
    0.00000E+00         0.00000E+00        -0.49933E+08
 
   -0.49762E+08         0.22480E+06         0.00000E+00
    0.22480E+06        -0.49908E+08         0.00000E+00
    0.00000E+00         0.00000E+00        -0.49934E+08
 
   -0.49772E+08         0.22847E+06         0.00000E+00
    0.22847E+06        -0.49903E+08         0.00000E+00
    0.00000E+00         0.00000E+00        -0.49935E+08
 
   -0.49781E+08         0.23193E+06         0.00000E+00
    0.23193E+06        -0.49898E+08         0.00000E+00
    0.00000E+00         0.00000E+00        -0.49936E+08
 
   -0.49791E+08         0.23519E+06         0.00000E+00
    0.23519E+06        -0.49894E+08         0.00000E+00
    0.00000E+00         0.00000E+00        -0.49937E+08
 
   -0.49801E+08         0.23824E+06         0.00000E+00
    0.23824E+06        -0.49889E+08         0.00000E+00
    0.00000E+00         0.00000E+00        -0.49938E+08
 
   -0.49811E+08         0.24109E+06         0.00000E+00
    0.24109E+06        -0.49885E+08         0.00000E+00
    0.00000E+00         0.00000E+00        -0.49939E+08
 
   -0.49821E+08         0.24376E+06         0.00000E+00
    0.24376E+06        -0.49880E+08         0.00000E+00
    0.00000E+00         0.00000E+00        -0.49940E+08
 
   -0.49831E+08         0.24625E+06         0.00000E+00
    0.24625E+06        -0.49875E+08         0.00000E+00
    0.00000E+00         0.00000E+00        -0.49941E+08
 
   -0.49841E+08         0.24856E+06         0.00000E+00
    0.24856E+06        -0.49871E+08         0.00000E+00
    0.00000E+00         0.00000E+00        -0.49942E+08
 
   -0.49850E+08         0.25071E+06         0.00000E+00
    0.25071E+06        -0.49866E+08         0.00000E+00
    0.00000E+00         0.00000E+00        -0.49943E+08
 
   -0.49860E+08         0.25271E+06         0.00000E+00
    0.25271E+06        -0.49862E+08         0.00000E+00
    0.00000E+00         0.00000E+00        -0.49944E+08
 
   -0.49870E+08         0.25455E+06         0.00000E+00
    0.25455E+06        -0.49857E+08         0.00000E+00
    0.00000E+00         0.00000E+00        -0.49946E+08
 
   -0.49880E+08         0.25626E+06         0.00000E+00
    0.25626E+06        -0.49853E+08         0.00000E+00
    0.00000E+00         0.00000E+00        -0.49947E+08
 
   -0.49890E+08         0.25783E+06         0.00000E+00
    0.25783E+06        -0.49848E+08         0.00000E+00
    0.00000E+00         0.00000E+00        -0.49948E+08
 
   -0.49900E+08         0.25927E+06         0.00000E+00
    0.25927E+06        -0.49844E+08         0.00000E+00
    0.00000E+00         0.00000E+00        -0.49949E+08
 
   -0.49910E+08         0.26059E+06         0.00000E+00
    0.26059E+06        -0.49839E+08         0.00000E+00
    0.00000E+00         0.00000E+00        -0.49950E+08
 
   -0.49920E+08         0.26181E+06         0.00000E+00
    0.26181E+06        -0.49835E+08         0.00000E+00
    0.00000E+00         0.00000E+00        -0.49951E+08
 
   -0.49930E+08         0.26291E+06         0.00000E+00
    0.26291E+06        -0.49830E+08         0.00000E+00
    0.00000E+00         0.00000E+00        -0.49952E+08
 
   -0.49940E+08         0.26392E+06         0.00000E+00
    0.26392E+06        -0.49826E+08         0.00000E+00
    0.00000E+00         0.00000E+00        -0.49953E+08
 
   -0.49950E+08         0.26484E+06         0.00000E+00
    0.26484E+06        -0.49822E+08         0.00000E+00
    0.00000E+00         0.00000E+00        -0.49954E+08
 
   -0.49518E+08         0.60077E+04         0.00000E+00
    0.60077E+04        -0.50000E+08         0.00000E+00
    0.00000E+00         0.00000E+00        -0.49904E+08
 
   -0.49520E+08         0.17743E+05         0.00000E+00
    0.17743E+05        -0.50000E+08         0.00000E+00
    0.00000E+00         0.00000E+00        -0.49904E+08
 
   -0.49521E+08         0.29329E+05         0.00000E+00
    0.29329E+05        -0.49999E+08         0.00000E+00
    0.00000E+00         0.00000E+00        -0.49904E+08
 
   -0.49524E+08         0.40748E+05         0.00000E+00
    0.40748E+05        -0.49998E+08         0.00000E+00
    0.00000E+00         0.00000E+00        -0.49904E+08
 
   -0.49527E+08         0.51981E+05         0.00000E+00
    0.51981E+05        -0.49997E+08         0.00000E+00
    0.00000E+00         0.00000E+00        -0.49905E+08
 
   -0.49530E+08         0.63011E+05         0.00000E+00
    0.63011E+05        -0.49995E+08         0.00000E+00
    0.00000E+00         0.00000E+00        -0.49905E+08
 
   -0.49535E+08         0.73821E+05         0.00000E+00
    0.73821E+05        -0.49993E+08         0.00000E+00
    0.00000E+00         0.00000E+00        -0.49906E+08
 
   -0.49539E+08         0.84399E+05         0.00000E+00
    0.84399E+05        -0.49991E+08         0.00000E+00
    0.00000E+00         0.00000E+00        -0.49906E+08
 
   -0.49545E+08         0.94731E+05         0.00000E+00
    0.94731E+05        -0.49989E+08         0.00000E+00
    0.00000E+00         0.00000E+00        -0.49907E+08
 
   -0.49550E+08         0.10481E+06         0.00000E+00
    0.10481E+06        -0.49986E+08         0.00000E+00
    0.00000E+00         0.00000E+00        -0.49907E+08
 
   -0.49557E+08         0.11461E+06         0.00000E+00
    0.11461E+06        -0.49983E+08         0.00000E+00
    0.00000E+00         0.00000E+00        -0.49908E+08
 
   -0.49563E+08         0.12414E+06         0.00000E+00
    0.12414E+06        -0.49980E+08         0.00000E+00
    0.00000E+00         0.00000E+00        -0.49909E+08
 
   -0.49570E+08         0.13339E+06         0.00000E+00
    0.13339E+06        -0.49977E+08         0.00000E+00
    0.00000E+00         0.00000E+00        -0.49909E+08
 
   -0.49578E+08         0.14234E+06         0.00000E+00
    0.14234E+06        -0.49973E+08         0.00000E+00
    0.00000E+00         0.00000E+00        -0.49910E+08
 
   -0.49586E+08         0.15100E+06         0.00000E+00
    0.15100E+06        -0.49969E+08         0.00000E+00
    0.00000E+00         0.00000E+00        -0.49911E+08
 
   -0.49594E+08         0.15935E+06         0.00000E+00
    0.15935E+06        -0.49966E+08         0.00000E+00
    0.00000E+00         0.00000E+00        -0.49912E+08
 
   -0.49602E+08         0.16741E+06         0.00000E+00
    0.16741E+06        -0.49962E+08         0.00000E+00
    0.00000E+00         0.00000E+00        -0.49913E+08
 
   -0.49611E+08         0.17515E+06         0.00000E+00
    0.17515E+06        -0.49957E+08         0.00000E+00
    0.00000E+00         0.00000E+00        -0.49914E+08
 
   -0.49620E+08         0.18259E+06         0.00000E+00
    0.18259E+06        -0.49953E+08         0.00000E+00
    0.00000E+00         0.00000E+00        -0.49915E+08
 
   -0.49630E+08         0.18972E+06         0.00000E+00
    0.18972E+06        -0.49949E+08         0.00000E+00
    0.00000E+00         0.00000E+00        -0.49916E+08
 
   -0.49639E+08         0.19654E+06         0.00000E+00
    0.19654E+06        -0.49944E+08         0.00000E+00
    0.00000E+00         0.00000E+00        -0.49917E+08
 
   -0.49649E+08         0.20306E+06         0.00000E+00
    0.20306E+06        -0.49940E+08         0.00000E+00
    0.00000E+00         0.00000E+00        -0.49918E+08
 
   -0.49659E+08         0.20928E+06         0.00000E+00
    0.20928E+06        -0.49935E+08         0.00000E+00
    0.00000E+00         0.00000E+00        -0.49919E+08
 
   -0.49669E+08         0.21519E+06         0.00000E+00
    0.21519E+06        -0.49930E+08         0.00000E+00
    0.00000E+00         0.00000E+00        -0.49920E+08
 
   -0.49679E+08         0.22081E+06         0.00000E+00
    0.22081E+06        -0.49926E+08         0.00000E+00
    0.00000E+00         0.00000E+00        -0.49921E+08
 
   -0.49690E+08         0.22614E+06         0.00000E+00
    0.22614E+06        -0.49921E+08         0.00000E+00
    0.00000E+00         0.00000E+00        -0.49922E+08
 
   -0.49700E+08         0.23118E+06         0.00000E+00
    0.23118E+06        -0.49916E+08         0.00000E+00
    0.00000E+00         0.00000E+00        -0.49923E+08
 
   -0.49711E+08         0.23594E+06         0.00000E+00
    0.23594E+06        -0.49911E+08         0.00000E+00
    0.00000E+00         0.00000E+00        -0.49924E+08
 
   -0.49721E+08         0.24043E+06         0.00000E+00
    0.24043E+06        -0.49906E+08         0.00000E+00
    0.00000E+00         0.00000E+00        -0.49925E+08
 
   -0.49732E+08         0.24465E+06         0.00000E+00
    0.24465E+06        -0.49901E+08         0.00000E+00
    0.00000E+00         0.00000E+00        -0.49927E+08
 
   -0.49743E+08         0.24861E+06         0.00000E+00
    0.24861E+06        -0.49896E+08         0.00000E+00
    0.00000E+00         0.00000E+00        -0.49928E+08
 
   -0.49754E+08         0.25233E+06         0.00000E+00
    0.25233E+06        -0.49891E+08         0.00000E+00
    0.00000E+00         0.00000E+00        -0.49929E+08
 
   -0.49765E+08         0.25580E+06         0.00000E+00
    0.25580E+06        -0.49886E+08         0.00000E+00
    0.00000E+00         0.00000E+00        -0.49930E+08
 
   -0.49775E+08         0.25904E+06         0.00000E+00
    0.25904E+06        -0.49881E+08         0.00000E+00
    0.00000E+00         0.00000E+00        -0.49931E+08
 
   -0.49786E+08         0.26205E+06         0.00000E+00
    0.26205E+06        -0.49876E+08         0.00000E+00
    0.00000E+00         0.00000E+00        -0.49932E+08
 
   -0.49797E+08         0.26486E+06         0.00000E+00
    0.26486E+06        -0.49871E+08         0.00000E+00
    0.00000E+00         0.00000E+00        -0.49934E+08
 
   -0.49808E+08         0.26746E+06         0.00000E+00
    0.26746E+06        -0.49866E+08         0.00000E+00
    0.00000E+00         0.00000E+00        -0.49935E+08
 
   -0.49819E+08         0.26986E+06         0.00000E+00
    0.26986E+06        -0.49861E+08         0.00000E+00
    0.00000E+00         0.00000E+00        -0.49936E+08
 
   -0.49830E+08         0.27208E+06         0.00000E+00
    0.27208E+06        -0.49857E+08         0.00000E+00
    0.00000E+00         0.00000E+00        -0.49937E+08
 
   -0.49840E+08         0.27413E+06         0.00000E+00
    0.27413E+06        -0.49852E+08         0.00000E+00
    0.00000E+00         0.00000E+00        -0.49938E+08
 
   -0.49851E+08         0.27602E+06         0.00000E+00
    0.27602E+06        -0.49847E+08         0.00000E+00
    0.00000E+00         0.00000E+00        -0.49940E+08
 
   -0.49862E+08         0.27776E+06         0.00000E+00
    0.27776E+06        -0.49842E+08         0.00000E+00
    0.00000E+00         0.00000E+00        -0.49941E+08
 
   -0.49872E+08         0.27936E+06         0.00000E+00
    0.27936E+06        -0.49837E+08         0.00000E+00
    0.00000E+00         0.00000E+00        -0.49942E+08
 
   -0.49883E+08         0.28082E+06         0.00000E+00
    0.28082E+06        -0.49833E+08         0.00000E+00
    0.00000E+00         0.00000E+00        -0.49943E+08
 
   -0.49893E+08         0.28217E+06         0.00000E+00
    0.28217E+06        -0.49828E+08         0.00000E+00
    0.00000E+00         0.00000E+00        -0.49944E+08
 
   -0.49904E+08         0.28341E+06         0.00000E+00
    0.28341E+06        -0.49823E+08         0.00000E+00
    0.00000E+00         0.00000E+00        -0.49945E+08
 
   -0.49914E+08         0.28455E+06         0.00000E+00
    0.28455E+06        -0.49819E+08         0.00000E+00
    0.00000E+00         0.00000E+00        -0.49947E+08
 
   -0.49925E+08         0.28560E+06         0.00000E+00
    0.28560E+06        -0.49814E+08         0.00000E+00
    0.00000E+00         0.00000E+00        -0.49948E+08
 
   -0.49935E+08         0.28657E+06         0.00000E+00
    0.28657E+06        -0.49809E+08         0.00000E+00
    0.00000E+00         0.00000E+00        -0.49949E+08
 
   -0.49945E+08         0.28747E+06         0.00000E+00
    0.28747E+06        -0.49805E+08         0.00000E+00
    0.00000E+00         0.00000E+00        -0.49950E+08
 
   -0.49455E+08         0.69985E+04         0.00000E+00
    0.69985E+04        -0.50000E+08         0.00000E+00
    0.00000E+00         0.00000E+00        -0.49891E+08
 
   -0.49457E+08         0.20563E+05         0.00000E+00
    0.20563E+05        -0.50000E+08         0.00000E+00
    0.00000E+00         0.00000E+00        -0.49891E+08
 
   -0.49460E+08         0.33913E+05         0.00000E+00
    0.33913E+05        -0.49999E+08         0.00000E+00
    0.00000E+00         0.00000E+00        -0.49892E+08
 
   -0.49463E+08         0.47024E+05         0.00000E+00
    0.47024E+05        -0.49998E+08         0.00000E+00
    0.00000E+00         0.00000E+00        -0.49892E+08
 
   -0.49467E+08         0.59877E+05         0.00000E+00
    0.59877E+05        -0.49996E+08         0.00000E+00
    0.00000E+00         0.00000E+00        -0.49893E+08
 
   -0.49472E+08         0.72454E+05         0.00000E+00
    0.72454E+05        -0.49994E+08         0.00000E+00
    0.00000E+00         0.00000E+00        -0.49893E+08
 
   -0.49478E+08         0.84739E+05         0.00000E+00
    0.84739E+05        -0.49992E+08         0.00000E+00
    0.00000E+00         0.00000E+00        -0.49894E+08
 
   -0.49484E+08         0.96715E+05         0.00000E+00
    0.96715E+05        -0.49990E+08         0.00000E+00
    0.00000E+00         0.00000E+00        -0.49895E+08
 
   -0.49490E+08         0.10837E+06         0.00000E+00
    0.10837E+06        -0.49987E+08         0.00000E+00
    0.00000E+00         0.00000E+00        -0.49895E+08
 
   -0.49498E+08         0.11969E+06         0.00000E+00
    0.11969E+06        -0.49984E+08         0.00000E+00
    0.00000E+00         0.00000E+00        -0.49896E+08
 
   -0.49505E+08         0.13067E+06         0.00000E+00
    0.13067E+06        -0.49980E+08         0.00000E+00
    0.00000E+00         0.00000E+00        -0.49897E+08
 
   -0.49514E+08         0.14130E+06         0.00000E+00
    0.14130E+06        -0.49977E+08         0.00000E+00
    0.00000E+00         0.00000E+00        -0.49898E+08
 
   -0.49522E+08         0.15158E+06         0.00000E+00
    0.15158E+06        -0.49973E+08         0.00000E+00
    0.00000E+00         0.00000E+00        -0.49899E+08
 
   -0.49532E+08         0.16148E+06         0.00000E+00
    0.16148E+06        -0.49969E+08         0.00000E+00
    0.00000E+00         0.00000E+00        -0.49900E+08
 
   -0.49541E+08         0.17102E+06         0.00000E+00
    0.17102E+06        -0.49965E+08         0.00000E+00
    0.00000E+00         0.00000E+00        -0.49901E+08
 
   -0.49551E+08         0.18019E+06         0.00000E+00
    0.18019E+06        -0.49961E+08         0.00000E+00
    0.00000E+00         0.00000E+00        -0.49902E+08
 
   -0.49561E+08         0.18898E+06         0.00000E+00
    0.18898E+06        -0.49956E+08         0.00000E+00
    0.00000E+00         0.00000E+00        -0.49903E+08
 
   -0.49572E+08         0.19740E+06         0.00000E+00
    0.19740E+06        -0.49952E+08         0.00000E+00
    0.00000E+00         0.00000E+00        -0.49905E+08
 
   -0.49582E+08         0.20545E+06         0.00000E+00
    0.20545E+06        -0.49947E+08         0.00000E+00
    0.00000E+00         0.00000E+00        -0.49906E+08
 
   -0.49593E+08         0.21313E+06         0.00000E+00
    0.21313E+06        -0.49942E+08         0.00000E+00
    0.00000E+00         0.00000E+00        -0.49907E+08
 
   -0.49605E+08         0.22043E+06         0.00000E+00
    0.22043E+06        -0.49937E+08         0.00000E+00
    0.00000E+00         0.00000E+00        -0.49908E+08
 
   -0.49616E+08         0.22737E+06         0.00000E+00
    0.22737E+06        -0.49932E+08         0.00000E+00
    0.00000E+00         0.00000E+00        -0.49910E+08
 
   -0.49628E+08         0.23396E+06         0.00000E+00
    0.23396E+06        -0.49927E+08         0.00000E+00
    0.00000E+00         0.00000E+00        -0.49911E+08
 
   -0.49639E+08         0.24018E+06         0.00000E+00
    0.24018E+06        -0.49921E+08         0.00000E+00
    0.00000E+00         0.00000E+00        -0.49912E+08
 
   -0.49651E+08         0.24606E+06         0.00000E+00
    0.24606E+06        -0.49916E+08         0.00000E+00
    0.00000E+00         0.00000E+00        -0.49913E+08
 
   -0.49663E+08         0.25160E+06         0.00000E+00
    0.25160E+06        -0.49911E+08         0.00000E+00
    0.00000E+00         0.00000E+00        -0.49915E+08
 
   -0.49675E+08         0.25680E+06         0.00000E+00
    0.25680E+06        -0.49905E+08         0.00000E+00
    0.00000E+00         0.00000E+00        -0.49916E+08
 
   -0.49687E+08         0.26168E+06         0.00000E+00
    0.26168E+06        -0.49900E+08         0.00000E+00
    0.00000E+00         0.00000E+00        -0.49917E+08
 
   -0.49700E+08         0.26624E+06         0.00000E+00
    0.26624E+06        -0.49895E+08         0.00000E+00
    0.00000E+00         0.00000E+00        -0.49919E+08
 
   -0.49712E+08         0.27050E+06         0.00000E+00
    0.27050E+06        -0.49889E+08         0.00000E+00
    0.00000E+00         0.00000E+00        -0.49920E+08
 
   -0.49724E+08         0.27446E+06         0.00000E+00
    0.27446E+06        -0.49884E+08         0.00000E+00
    0.00000E+00         0.00000E+00        -0.49922E+08
 
   -0.49736E+08         0.27814E+06         0.00000E+00
    0.27814E+06        -0.49879E+08         0.00000E+00
    0.00000E+00         0.00000E+00        -0.49923E+08
 
   -0.49748E+08         0.28155E+06         0.00000E+00
    0.28155E+06        -0.49873E+08         0.00000E+00
    0.00000E+00         0.00000E+00        -0.49924E+08
 
   -0.49760E+08         0.28470E+06         0.00000E+00
    0.28470E+06        -0.49868E+08         0.00000E+00
    0.00000E+00         0.00000E+00        -0.49926E+08
 
   -0.49772E+08         0.28760E+06         0.00000E+00
    0.28760E+06        -0.49863E+08         0.00000E+00
    0.00000E+00         0.00000E+00        -0.49927E+08
 
   -0.49784E+08         0.29027E+06         0.00000E+00
    0.29027E+06        -0.49857E+08         0.00000E+00
    0.00000E+00         0.00000E+00        -0.49928E+08
 
   -0.49796E+08         0.29272E+06         0.00000E+00
    0.29272E+06        -0.49852E+08         0.00000E+00
    0.00000E+00         0.00000E+00        -0.49930E+08
 
   -0.49808E+08         0.29495E+06         0.00000E+00
    0.29495E+06        -0.49847E+08         0.00000E+00
    0.00000E+00         0.00000E+00        -0.49931E+08
 
   -0.49819E+08         0.29700E+06         0.00000E+00
    0.29700E+06        -0.49842E+08         0.00000E+00
    0.00000E+00         0.00000E+00        -0.49932E+08
 
   -0.49831E+08         0.29887E+06         0.00000E+00
    0.29887E+06        -0.49837E+08         0.00000E+00
    0.00000E+00         0.00000E+00        -0.49934E+08
 
   -0.49842E+08         0.30057E+06         0.00000E+00
    0.30057E+06        -0.49832E+08         0.00000E+00
    0.00000E+00         0.00000E+00        -0.49935E+08
 
   -0.49854E+08         0.30212E+06         0.00000E+00
    0.30212E+06        -0.49827E+08         0.00000E+00
    0.00000E+00         0.00000E+00        -0.49936E+08
 
   -0.49865E+08         0.30353E+06         0.00000E+00
    0.30353E+06        -0.49822E+08         0.00000E+00
    0.00000E+00         0.00000E+00        -0.49937E+08
 
   -0.49876E+08         0.30482E+06         0.00000E+00
    0.30482E+06        -0.49817E+08         0.00000E+00
    0.00000E+00         0.00000E+00        -0.49939E+08
 
   -0.49887E+08         0.30600E+06         0.00000E+00
    0.30600E+06        -0.49812E+08         0.00000E+00
    0.00000E+00         0.00000E+00        -0.49940E+08
 
   -0.49898E+08         0.30708E+06         0.00000E+00
    0.30708E+06        -0.49807E+08         0.00000E+00
    0.00000E+00         0.00000E+00        -0.49941E+08
 
   -0.49909E+08         0.30808E+06         0.00000E+00
    0.30808E+06        -0.49802E+08         0.00000E+00
    0.00000E+00         0.00000E+00        -0.49942E+08
 
   -0.49920E+08         0.30902E+06         0.00000E+00
    0.30902E+06        -0.49798E+08         0.00000E+00
    0.00000E+00         0.00000E+00        -0.49944E+08
 
   -0.49931E+08         0.30990E+06         0.00000E+00
    0.30990E+06        -0.49793E+08         0.00000E+00
    0.00000E+00         0.00000E+00        -0.49945E+08
 
   -0.49941E+08         0.31074E+06         0.00000E+00
    0.31074E+06        -0.49788E+08         0.00000E+00
    0.00000E+00         0.00000E+00        -0.49946E+08
 
   -0.49381E+08         0.81646E+04         0.00000E+00
    0.81646E+04        -0.50000E+08         0.00000E+00
    0.00000E+00         0.00000E+00        -0.49876E+08
 
   -0.49384E+08         0.23855E+05         0.00000E+00
    0.23855E+05        -0.50000E+08         0.00000E+00
    0.00000E+00         0.00000E+00        -0.49877E+08
 
   -0.49389E+08         0.39239E+05         0.00000E+00
    0.39239E+05        -0.49999E+08         0.00000E+00
    0.00000E+00         0.00000E+00        -0.49877E+08
 
   -0.49393E+08         0.54292E+05         0.00000E+00
    0.54292E+05        -0.49997E+08         0.00000E+00
    0.00000E+00         0.00000E+00        -0.49878E+08
 
   -0.49399E+08         0.68994E+05         0.00000E+00
    0.68994E+05        -0.49996E+08         0.00000E+00
    0.00000E+00         0.00000E+00        -0.49879E+08
 
   -0.49406E+08         0.83326E+05         0.00000E+00
    0.83326E+05        -0.49993E+08         0.00000E+00
    0.00000E+00         0.00000E+00        -0.49880E+08
 
   -0.49413E+08         0.97270E+05         0.00000E+00
    0.97270E+05        -0.49991E+08         0.00000E+00
    0.00000E+00         0.00000E+00        -0.49881E+08
 
   -0.49421E+08         0.11081E+06         0.00000E+00
    0.11081E+06        -0.49988E+08         0.00000E+00
    0.00000E+00         0.00000E+00        -0.49882E+08
 
   -0.49429E+08         0.12394E+06         0.00000E+00
    0.12394E+06        -0.49985E+08         0.00000E+00
    0.00000E+00         0.00000E+00        -0.49883E+08
 
   -0.49439E+08         0.13664E+06         0.00000E+00
    0.13664E+06        -0.49981E+08         0.00000E+00
    0.00000E+00         0.00000E+00        -0.49884E+08
 
   -0.49448E+08         0.14891E+06         0.00000E+00
    0.14891E+06        -0.49978E+08         0.00000E+00
    0.00000E+00         0.00000E+00        -0.49885E+08
 
   -0.49459E+08         0.16073E+06         0.00000E+00
    0.16073E+06        -0.49974E+08         0.00000E+00
    0.00000E+00         0.00000E+00        -0.49886E+08
 
   -0.49469E+08         0.17211E+06         0.00000E+00
    0.17211E+06        -0.49969E+08         0.00000E+00
    0.00000E+00         0.00000E+00        -0.49888E+08
 
   -0.49481E+08         0.18304E+06         0.00000E+00
    0.18304E+06        -0.49965E+08         0.00000E+00
    0.00000E+00         0.00000E+00        -0.49889E+08
 
   -0.49492E+08         0.19351E+06         0.00000E+00
    0.19351E+06        -0.49960E+08         0.00000E+00
    0.00000E+00         0.00000E+00        -0.49890E+08
 
   -0.49504E+08         0.20352E+06         0.00000E+00
    0.20352E+06        -0.49955E+08         0.00000E+00
    0.00000E+00         0.00000E+00        -0.49892E+08
 
   -0.49516E+08         0.21309E+06         0.00000E+00
    0.21309E+06        -0.49950E+08         0.00000E+00
    0.00000E+00         0.00000E+00        -0.49893E+08
 
   -0.49529E+08         0.22219E+06         0.00000E+00
    0.22219E+06        -0.49945E+08         0.00000E+00
    0.00000E+00         0.00000E+00        -0.49895E+08
 
   -0.49542E+08         0.23085E+06         0.00000E+00
    0.23085E+06        -0.49940E+08         0.00000E+00
    0.00000E+00         0.00000E+00        -0.49896E+08
 
   -0.49555E+08         0.23906E+06         0.00000E+00
    0.23906E+06        -0.49935E+08         0.00000E+00
    0.00000E+00         0.00000E+00        -0.49898E+08
 
   -0.49568E+08         0.24684E+06         0.00000E+00
    0.24684E+06        -0.49929E+08         0.00000E+00
    0.00000E+00         0.00000E+00        -0.49899E+08
 
   -0.49581E+08         0.25417E+06         0.00000E+00
    0.25417E+06        -0.49924E+08         0.00000E+00
    0.00000E+00         0.00000E+00        -0.49901E+08
 
   -0.49595E+08         0.26109E+06         0.00000E+00
    0.26109E+06        -0.49918E+08         0.00000E+00
    0.00000E+00         0.00000E+00        -0.49903E+08
 
   -0.49609E+08         0.26758E+06         0.00000E+00
    0.26758E+06        -0.49912E+08         0.00000E+00
    0.00000E+00         0.00000E+00        -0.49904E+08
 
   -0.49622E+08         0.27367E+06         0.00000E+00
    0.27367E+06        -0.49906E+08         0.00000E+00
    0.00000E+00         0.00000E+00        -0.49906E+08
 
   -0.49636E+08         0.27936E+06         0.00000E+00
    0.27936E+06        -0.49901E+08         0.00000E+00
    0.00000E+00         0.00000E+00        -0.49907E+08
 
   -0.49650E+08         0.28466E+06         0.00000E+00
    0.28466E+06        -0.49895E+08         0.00000E+00
    0.00000E+00         0.00000E+00        -0.49909E+08
 
   -0.49664E+08         0.28958E+06         0.00000E+00
    0.28958E+06        -0.49889E+08         0.00000E+00
    0.00000E+00         0.00000E+00        -0.49911E+08
 
   -0.49677E+08         0.29415E+06         0.00000E+00
    0.29415E+06        -0.49883E+08         0.00000E+00
    0.00000E+00         0.00000E+00        -0.49912E+08
 
   -0.49691E+08         0.29837E+06         0.00000E+00
    0.29837E+06        -0.49878E+08         0.00000E+00
    0.00000E+00         0.00000E+00        -0.49914E+08
 
   -0.49705E+08         0.30225E+06         0.00000E+00
    0.30225E+06        -0.49872E+08         0.00000E+00
    0.00000E+00         0.00000E+00        -0.49915E+08
 
   -0.49718E+08         0.30581E+06         0.00000E+00
    0.30581E+06        -0.49866E+08         0.00000E+00
    0.00000E+00         0.00000E+00        -0.49917E+08
 
   -0.49732E+08         0.30906E+06         0.00000E+00
    0.30906E+06        -0.49860E+08         0.00000E+00
    0.00000E+00         0.00000E+00        -0.49918E+08
 
   -0.49745E+08         0.31203E+06         0.00000E+00
    0.31203E+06        -0.49855E+08         0.00000E+00
    0.00000E+00         0.00000E+00        -0.49920E+08
 
   -0.49759E+08         0.31472E+06         0.00000E+00
    0.31472E+06        -0.49849E+08         0.00000E+00
    0.00000E+00         0.00000E+00        -0.49922E+08
 
   -0.49772E+08         0.31716E+06         0.00000E+00
    0.31716E+06        -0.49844E+08         0.00000E+00
    0.00000E+00         0.00000E+00        -0.49923E+08
 
   -0.49785E+08         0.31936E+06         0.00000E+00
    0.31936E+06        -0.49838E+08         0.00000E+00
    0.00000E+00         0.00000E+00        -0.49925E+08
 
   -0.49797E+08         0.32133E+06         0.00000E+00
    0.32133E+06        -0.49833E+08         0.00000E+00
    0.00000E+00         0.00000E+00        -0.49926E+08
 
   -0.49810E+08         0.32311E+06         0.00000E+00
    0.32311E+06        -0.49827E+08         0.00000E+00
    0.00000E+00         0.00000E+00        -0.49927E+08
 
   -0.49823E+08         0.32469E+06         0.00000E+00
    0.32469E+06        -0.49822E+08         0.00000E+00
    0.00000E+00         0.00000E+00        -0.49929E+08
 
   -0.49835E+08         0.32610E+06         0.00000E+00
    0.32610E+06        -0.49817E+08         0.00000E+00
    0.00000E+00         0.00000E+00        -0.49930E+08
 
   -0.49847E+08         0.32737E+06         0.00000E+00
    0.32737E+06        -0.49812E+08         0.00000E+00
    0.00000E+00         0.00000E+00        -0.49932E+08
 
   -0.49859E+08         0.32850E+06         0.00000E+00
    0.32850E+06        -0.49807E+08         0.00000E+00
    0.00000E+00         0.00000E+00        -0.49933E+08
 
   -0.49871E+08         0.32952E+06         0.00000E+00
    0.32952E+06        -0.49802E+08         0.00000E+00
    0.00000E+00         0.00000E+00        -0.49934E+08
 
   -0.49882E+08         0.33045E+06         0.00000E+00
    0.33045E+06        -0.49797E+08         0.00000E+00
    0.00000E+00         0.00000E+00        -0.49936E+08
 
   -0.49893E+08         0.33129E+06         0.00000E+00
    0.33129E+06        -0.49792E+08         0.00000E+00
    0.00000E+00         0.00000E+00        -0.49937E+08
 
   -0.49905E+08         0.33208E+06         0.00000E+00
    0.33208E+06        -0.49787E+08         0.00000E+00
    0.00000E+00         0.00000E+00        -0.49938E+08
 
   -0.49916E+08         0.33283E+06         0.00000E+00
    0.33283E+06        -0.49782E+08         0.00000E+00
    0.00000E+00         0.00000E+00        -0.49940E+08
 
   -0.49927E+08         0.33356E+06         0.00000E+00
    0.33356E+06        -0.49777E+08         0.00000E+00
    0.00000E+00         0.00000E+00        -0.49941E+08
 
   -0.49937E+08         0.33428E+06         0.00000E+00
    0.33428E+06        -0.49773E+08         0.00000E+00
    0.00000E+00         0.00000E+00        -0.49942E+08
 
   -0.49296E+08         0.95249E+04         0.00000E+00
    0.95249E+04        -0.50000E+08         0.00000E+00
    0.00000E+00         0.00000E+00        -0.49859E+08
 
   -0.49301E+08         0.27660E+05         0.00000E+00
    0.27660E+05        -0.50000E+08         0.00000E+00
    0.00000E+00         0.00000E+00        -0.49860E+08
 
   -0.49307E+08         0.45368E+05         0.00000E+00
    0.45368E+05        -0.49999E+08         0.00000E+00
    0.00000E+00         0.00000E+00        -0.49861E+08
 
   -0.49314E+08         0.62626E+05         0.00000E+00
    0.62626E+05        -0.49997E+08         0.00000E+00
    0.00000E+00         0.00000E+00        -0.49862E+08
 
   -0.49322E+08         0.79412E+05         0.00000E+00
    0.79412E+05        -0.49995E+08         0.00000E+00
    0.00000E+00         0.00000E+00        -0.49863E+08
 
   -0.49330E+08         0.95709E+05         0.00000E+00
    0.95709E+05        -0.49993E+08         0.00000E+00
    0.00000E+00         0.00000E+00        -0.49865E+08
 
   -0.49340E+08         0.11150E+06         0.00000E+00
    0.11150E+06        -0.49990E+08         0.00000E+00
    0.00000E+00         0.00000E+00        -0.49866E+08
 
   -0.49350E+08         0.12677E+06         0.00000E+00
    0.12677E+06        -0.49986E+08         0.00000E+00
    0.00000E+00         0.00000E+00        -0.49867E+08
 
   -0.49361E+08         0.14151E+06         0.00000E+00
    0.14151E+06        -0.49983E+08         0.00000E+00
    0.00000E+00         0.00000E+00        -0.49869E+08
 
   -0.49373E+08         0.15571E+06         0.00000E+00
    0.15571E+06        -0.49979E+08         0.00000E+00
    0.00000E+00         0.00000E+00        -0.49870E+08
 
   -0.49385E+08         0.16937E+06         0.00000E+00
    0.16937E+06        -0.49975E+08         0.00000E+00
    0.00000E+00         0.00000E+00        -0.49872E+08
 
   -0.49398E+08         0.18247E+06         0.00000E+00
    0.18247E+06        -0.49970E+08         0.00000E+00
    0.00000E+00         0.00000E+00        -0.49874E+08
 
   -0.49411E+08         0.19502E+06         0.00000E+00
    0.19502E+06        -0.49966E+08         0.00000E+00
    0.00000E+00         0.00000E+00        -0.49875E+08
 
   -0.49424E+08         0.20702E+06         0.00000E+00
    0.20702E+06        -0.49961E+08         0.00000E+00
    0.00000E+00         0.00000E+00        -0.49877E+08
 
   -0.49439E+08         0.21846E+06         0.00000E+00
    0.21846E+06        -0.49956E+08         0.00000E+00
    0.00000E+00         0.00000E+00        -0.49879E+08
 
   -0.49453E+08         0.22934E+06         0.00000E+00
    0.22934E+06        -0.49950E+08         0.00000E+00
    0.00000E+00         0.00000E+00        -0.49881E+08
 
   -0.49468E+08         0.23968E+06         0.00000E+00
    0.23968E+06        -0.49945E+08         0.00000E+00
    0.00000E+00         0.00000E+00        -0.49883E+08
 
   -0.49483E+08         0.24947E+06         0.00000E+00
    0.24947E+06        -0.49939E+08         0.00000E+00
    0.00000E+00         0.00000E+00        -0.49884E+08
 
   -0.49498E+08         0.25872E+06         0.00000E+00
    0.25872E+06        -0.49933E+08         0.00000E+00
    0.00000E+00         0.00000E+00        -0.49886E+08
 
   -0.49514E+08         0.26745E+06         0.00000E+00
    0.26745E+06        -0.49928E+08         0.00000E+00
    0.00000E+00         0.00000E+00        -0.49888E+08
 
   -0.49529E+08         0.27565E+06         0.00000E+00
    0.27565E+06        -0.49922E+08         0.00000E+00
    0.00000E+00         0.00000E+00        -0.49890E+08
 
   -0.49545E+08         0.28334E+06         0.00000E+00
    0.28334E+06        -0.49916E+08         0.00000E+00
    0.00000E+00         0.00000E+00        -0.49892E+08
 
   -0.49561E+08         0.29054E+06         0.00000E+00
    0.29054E+06        -0.49909E+08         0.00000E+00
    0.00000E+00         0.00000E+00        -0.49894E+08
 
   -0.49577E+08         0.29724E+06         0.00000E+00
    0.29724E+06        -0.49903E+08         0.00000E+00
    0.00000E+00         0.00000E+00        -0.49896E+08
 
   -0.49593E+08         0.30347E+06         0.00000E+00
    0.30347E+06        -0.49897E+08         0.00000E+00
    0.00000E+00         0.00000E+00        -0.49898E+08
 
   -0.49608E+08         0.30924E+06         0.00000E+00
    0.30924E+06        -0.49891E+08         0.00000E+00
    0.00000E+00         0.00000E+00        -0.49900E+08
 
   -0.49624E+08         0.31457E+06         0.00000E+00
    0.31457E+06        -0.49885E+08         0.00000E+00
    0.00000E+00         0.00000E+00        -0.49902E+08
 
   -0.49640E+08         0.31946E+06         0.00000E+00
    0.31946E+06        -0.49879E+08         0.00000E+00
    0.00000E+00         0.00000E+00        -0.49904E+08
 
   -0.49656E+08         0.32395E+06         0.00000E+00
    0.32395E+06        -0.49873E+08         0.00000E+00
    0.00000E+00         0.00000E+00        -0.49906E+08
 
   -0.49671E+08         0.32803E+06         0.00000E+00
    0.32803E+06        -0.49866E+08         0.00000E+00
    0.00000E+00         0.00000E+00        -0.49908E+08
 
   -0.49687E+08         0.33174E+06         0.00000E+00
    0.33174E+06        -0.49860E+08         0.00000E+00
    0.00000E+00         0.00000E+00        -0.49909E+08
 
   -0.49702E+08         0.33509E+06         0.00000E+00
    0.33509E+06        -0.49854E+08         0.00000E+00
    0.00000E+00         0.00000E+00        -0.49911E+08
 
   -0.49717E+08         0.33809E+06         0.00000E+00
    0.33809E+06        -0.49848E+08         0.00000E+00
    0.00000E+00         0.00000E+00        -0.49913E+08
 
   -0.49732E+08         0.34078E+06         0.00000E+00
    0.34078E+06        -0.49842E+08         0.00000E+00
    0.00000E+00         0.00000E+00        -0.49915E+08
 
   -0.49747E+08         0.34316E+06         0.00000E+00
    0.34316E+06        -0.49837E+08         0.00000E+00
    0.00000E+00         0.00000E+00        -0.49917E+08
 
   -0.49761E+08         0.34526E+06         0.00000E+00
    0.34526E+06        -0.49831E+08         0.00000E+00
    0.00000E+00         0.00000E+00        -0.49918E+08
 
   -0.49775E+08         0.34710E+06         0.00000E+00
    0.34710E+06        -0.49825E+08         0.00000E+00
    0.00000E+00         0.00000E+00        -0.49920E+08
 
   -0.49789E+08         0.34871E+06         0.00000E+00
    0.34871E+06        -0.49820E+08         0.00000E+00
    0.00000E+00         0.00000E+00        -0.49922E+08
 
   -0.49803E+08         0.35009E+06         0.00000E+00
    0.35009E+06        -0.49814E+08         0.00000E+00
    0.00000E+00         0.00000E+00        -0.49923E+08
 
   -0.49816E+08         0.35129E+06         0.00000E+00
    0.35129E+06        -0.49809E+08         0.00000E+00
    0.00000E+00         0.00000E+00        -0.49925E+08
 
   -0.49829E+08         0.35231E+06         0.00000E+00
    0.35231E+06        -0.49803E+08         0.00000E+00
    0.00000E+00         0.00000E+00        -0.49926E+08
 
   -0.49842E+08         0.35318E+06         0.00000E+00
    0.35318E+06        -0.49798E+08         0.00000E+00
    0.00000E+00         0.00000E+00        -0.49928E+08
 
   -0.49854E+08         0.35393E+06         0.00000E+00
    0.35393E+06        -0.49793E+08         0.00000E+00
    0.00000E+00         0.00000E+00        -0.49929E+08
 
   -0.49867E+08         0.35457E+06         0.00000E+00
    0.35457E+06        -0.49788E+08         0.00000E+00
    0.00000E+00         0.00000E+00        -0.49931E+08
 
   -0.49878E+08         0.35514E+06         0.00000E+00
    0.35514E+06        -0.49783E+08         0.00000E+00
    0.00000E+00         0.00000E+00        -0.49932E+08
 
   -0.49890E+08         0.35565E+06         0.00000E+00
    0.35565E+06        -0.49778E+08         0.00000E+00
    0.00000E+00         0.00000E+00        -0.49934E+08
 
   -0.49901E+08         0.35613E+06         0.00000E+00
    0.35613E+06        -0.49773E+08         0.00000E+00
    0.00000E+00         0.00000E+00        -0.49935E+08
 
   -0.49913E+08         0.35660E+06         0.00000E+00
    0.35660E+06        -0.49768E+08         0.00000E+00
    0.00000E+00         0.00000E+00        -0.49936E+08
 
   -0.49923E+08         0.35708E+06         0.00000E+00
    0.35708E+06        -0.49764E+08         0.00000E+00
    0.00000E+00         0.00000E+00        -0.49937E+08
 
   -0.49934E+08         0.35760E+06         0.00000E+00
    0.35760E+06        -0.49759E+08         0.00000E+00
    0.00000E+00         0.00000E+00        -0.49939E+08
 
   -0.49197E+08         0.11093E+05         0.00000E+00
    0.11093E+05        -0.50000E+08         0.00000E+00
    0.00000E+00         0.00000E+00        -0.49839E+08
 
   -0.49205E+08         0.32000E+05         0.00000E+00
    0.32000E+05        -0.50000E+08         0.00000E+00
    0.00000E+00         0.00000E+00        -0.49841E+08
 
   -0.49213E+08         0.52327E+05         0.00000E+00
    0.52327E+05        -0.49998E+08         0.00000E+00
    0.00000E+00         0.00000E+00        -0.49842E+08
 
   -0.49223E+08         0.72051E+05         0.00000E+00
    0.72051E+05        -0.49997E+08         0.00000E+00
    0.00000E+00         0.00000E+00        -0.49844E+08
 
   -0.49233E+08         0.91152E+05         0.00000E+00
    0.91152E+05        -0.49994E+08         0.00000E+00
    0.00000E+00         0.00000E+00        -0.49846E+08
 
   -0.49245E+08         0.10961E+06         0.00000E+00
    0.10961E+06        -0.49992E+08         0.00000E+00
    0.00000E+00         0.00000E+00        -0.49847E+08
 
   -0.49257E+08         0.12742E+06         0.00000E+00
    0.12742E+06        -0.49988E+08         0.00000E+00
    0.00000E+00         0.00000E+00        -0.49849E+08
 
   -0.49271E+08         0.14457E+06         0.00000E+00
    0.14457E+06        -0.49985E+08         0.00000E+00
    0.00000E+00         0.00000E+00        -0.49851E+08
 
   -0.49285E+08         0.16105E+06         0.00000E+00
    0.16105E+06        -0.49981E+08         0.00000E+00
    0.00000E+00         0.00000E+00        -0.49853E+08
 
   -0.49299E+08         0.17685E+06         0.00000E+00
    0.17685E+06        -0.49977E+08         0.00000E+00
    0.00000E+00         0.00000E+00        -0.49855E+08
 
   -0.49314E+08         0.19197E+06         0.00000E+00
    0.19197E+06        -0.49972E+08         0.00000E+00
    0.00000E+00         0.00000E+00        -0.49857E+08
 
   -0.49330E+08         0.20641E+06         0.00000E+00
    0.20641E+06        -0.49967E+08         0.00000E+00
    0.00000E+00         0.00000E+00        -0.49859E+08
 
   -0.49347E+08         0.22017E+06         0.00000E+00
    0.22017E+06        -0.49962E+08         0.00000E+00
    0.00000E+00         0.00000E+00        -0.49862E+08
 
   -0.49363E+08         0.23326E+06         0.00000E+00
    0.23326E+06        -0.49957E+08         0.00000E+00
    0.00000E+00         0.00000E+00        -0.49864E+08
 
   -0.49380E+08         0.24567E+06         0.00000E+00
    0.24567E+06        -0.49951E+08         0.00000E+00
    0.00000E+00         0.00000E+00        -0.49866E+08
 
   -0.49398E+08         0.25743E+06         0.00000E+00
    0.25743E+06        -0.49945E+08         0.00000E+00
    0.00000E+00         0.00000E+00        -0.49869E+08
 
   -0.49416E+08         0.26852E+06         0.00000E+00
    0.26852E+06        -0.49940E+08         0.00000E+00
    0.00000E+00         0.00000E+00        -0.49871E+08
 
   -0.49434E+08         0.27897E+06         0.00000E+00
    0.27897E+06        -0.49933E+08         0.00000E+00
    0.00000E+00         0.00000E+00        -0.49873E+08
 
   -0.49452E+08         0.28879E+06         0.00000E+00
    0.28879E+06        -0.49927E+08         0.00000E+00
    0.00000E+00         0.00000E+00        -0.49876E+08
 
   -0.49470E+08         0.29798E+06         0.00000E+00
    0.29798E+06        -0.49921E+08         0.00000E+00
    0.00000E+00         0.00000E+00        -0.49878E+08
 
   -0.49489E+08         0.30656E+06         0.00000E+00
    0.30656E+06        -0.49915E+08         0.00000E+00
    0.00000E+00         0.00000E+00        -0.49881E+08
 
   -0.49507E+08         0.31455E+06         0.00000E+00
    0.31455E+06        -0.49908E+08         0.00000E+00
    0.00000E+00         0.00000E+00        -0.49883E+08
 
   -0.49526E+08         0.32195E+06         0.00000E+00
    0.32195E+06        -0.49902E+08         0.00000E+00
    0.00000E+00         0.00000E+00        -0.49885E+08
 
   -0.49544E+08         0.32880E+06         0.00000E+00
    0.32880E+06        -0.49895E+08         0.00000E+00
    0.00000E+00         0.00000E+00        -0.49888E+08
 
   -0.49562E+08         0.33510E+06         0.00000E+00
    0.33510E+06        -0.49889E+08         0.00000E+00
    0.00000E+00         0.00000E+00        -0.49890E+08
 
   -0.49581E+08         0.34087E+06         0.00000E+00
    0.34087E+06        -0.49883E+08         0.00000E+00
    0.00000E+00         0.00000E+00        -0.49893E+08
 
   -0.49599E+08         0.34614E+06         0.00000E+00
    0.34614E+06        -0.49876E+08         0.00000E+00
    0.00000E+00         0.00000E+00        -0.49895E+08
 
   -0.49617E+08         0.35091E+06         0.00000E+00
    0.35091E+06        -0.49870E+08         0.00000E+00
    0.00000E+00         0.00000E+00        -0.49897E+08
 
   -0.49635E+08         0.35522E+06         0.00000E+00
    0.35522E+06        -0.49863E+08         0.00000E+00
    0.00000E+00         0.00000E+00        -0.49900E+08
 
   -0.49652E+08         0.35908E+06         0.00000E+00
    0.35908E+06        -0.49857E+08         0.00000E+00
    0.00000E+00         0.00000E+00        -0.49902E+08
 
   -0.49670E+08         0.36252E+06         0.00000E+00
    0.36252E+06        -0.49851E+08         0.00000E+00
    0.00000E+00         0.00000E+00        -0.49904E+08
 
   -0.49687E+08         0.36556E+06         0.00000E+00
    0.36556E+06        -0.49844E+08         0.00000E+00
    0.00000E+00         0.00000E+00        -0.49906E+08
 
   -0.49704E+08         0.36821E+06         0.00000E+00
    0.36821E+06        -0.49838E+08         0.00000E+00
    0.00000E+00         0.00000E+00        -0.49908E+08
 
   -0.49720E+08         0.37051E+06         0.00000E+00
    0.37051E+06        -0.49832E+08         0.00000E+00
    0.00000E+00         0.00000E+00        -0.49910E+08
 
   -0.49736E+08         0.37248E+06         0.00000E+00
    0.37248E+06        -0.49826E+08         0.00000E+00
    0.00000E+00         0.00000E+00        -0.49913E+08
 
   -0.49752E+08         0.37414E+06         0.00000E+00
    0.37414E+06        -0.49820E+08         0.00000E+00
    0.00000E+00         0.00000E+00        -0.49915E+08
 
   -0.49768E+08         0.37552E+06         0.00000E+00
    0.37552E+06        -0.49815E+08         0.00000E+00
    0.00000E+00         0.00000E+00        -0.49916E+08
 
   -0.49783E+08         0.37664E+06         0.00000E+00
    0.37664E+06        -0.49809E+08         0.00000E+00
    0.00000E+00         0.00000E+00        -0.49918E+08
 
   -0.49797E+08         0.37754E+06         0.00000E+00
    0.37754E+06        -0.49803E+08         0.00000E+00
    0.00000E+00         0.00000E+00        -0.49920E+08
 
   -0.49812E+08         0.37823E+06         0.00000E+00
    0.37823E+06        -0.49798E+08         0.00000E+00
    0.00000E+00         0.00000E+00        -0.49922E+08
 
   -0.49826E+08         0.37874E+06         0.00000E+00
    0.37874E+06        -0.49793E+08         0.00000E+00
    0.00000E+00         0.00000E+00        -0.49924E+08
 
   -0.49839E+08         0.37911E+06         0.00000E+00
    0.37911E+06        -0.49787E+08         0.00000E+00
    0.00000E+00         0.00000E+00        -0.49925E+08
 
   -0.49852E+08         0.37936E+06         0.00000E+00
    0.37936E+06        -0.49782E+08         0.00000E+00
    0.00000E+00         0.00000E+00        -0.49927E+08
 
   -0.49865E+08         0.37951E+06         0.00000E+00
    0.37951E+06        -0.49777E+08         0.00000E+00
    0.00000E+00         0.00000E+00        -0.49928E+08
 
   -0.49877E+08         0.37961E+06         0.00000E+00
    0.37961E+06        -0.49772E+08         0.00000E+00
    0.00000E+00         0.00000E+00        -0.49930E+08
 
   -0.49889E+08         0.37967E+06         0.00000E+00
    0.37967E+06        -0.49768E+08         0.00000E+00
    0.00000E+00         0.00000E+00        -0.49931E+08
 
   -0.49900E+08         0.37972E+06         0.00000E+00
    0.37972E+06        -0.49763E+08         0.00000E+00
    0.00000E+00         0.00000E+00        -0.49933E+08
 
   -0.49911E+08         0.37980E+06         0.00000E+00
    0.37980E+06        -0.49758E+08         0.00000E+00
    0.00000E+00         0.00000E+00        -0.49934E+08
 
   -0.49922E+08         0.37994E+06         0.00000E+00
    0.37994E+06        -0.49754E+08         0.00000E+00
    0.00000E+00         0.00000E+00        -0.49935E+08
 
   -0.49932E+08         0.38017E+06         0.00000E+00
    0.38017E+06        -0.49749E+08         0.00000E+00
    0.00000E+00         0.00000E+00        -0.49936E+08
 
   -0.49083E+08         0.12872E+05         0.00000E+00
    0.12872E+05        -0.50000E+08         0.00000E+00
    0.00000E+00         0.00000E+00        -0.49817E+08
 
   -0.49094E+08         0.36871E+05         0.00000E+00
    0.36871E+05        -0.49999E+08         0.00000E+00
    0.00000E+00         0.00000E+00        -0.49819E+08
 
   -0.49106E+08         0.60092E+05         0.00000E+00
    0.60092E+05        -0.49998E+08         0.00000E+00
    0.00000E+00         0.00000E+00        -0.49821E+08
 
   -0.49119E+08         0.82519E+05         0.00000E+00
    0.82519E+05        -0.49996E+08         0.00000E+00
    0.00000E+00         0.00000E+00        -0.49823E+08
 
   -0.49134E+08         0.10414E+06         0.00000E+00
    0.10414E+06        -0.49994E+08         0.00000E+00
    0.00000E+00         0.00000E+00        -0.49825E+08
 
   -0.49149E+08         0.12493E+06         0.00000E+00
    0.12493E+06        -0.49991E+08         0.00000E+00
    0.00000E+00         0.00000E+00        -0.49828E+08
 
   -0.49165E+08         0.14490E+06         0.00000E+00
    0.14490E+06        -0.49987E+08         0.00000E+00
    0.00000E+00         0.00000E+00        -0.49830E+08
 
   -0.49182E+08         0.16403E+06         0.00000E+00
    0.16403E+06        -0.49983E+08         0.00000E+00
    0.00000E+00         0.00000E+00        -0.49833E+08
 
   -0.49200E+08         0.18232E+06         0.00000E+00
    0.18232E+06        -0.49979E+08         0.00000E+00
    0.00000E+00         0.00000E+00        -0.49836E+08
 
   -0.49218E+08         0.19978E+06         0.00000E+00
    0.19978E+06        -0.49975E+08         0.00000E+00
    0.00000E+00         0.00000E+00        -0.49839E+08
 
   -0.49237E+08         0.21640E+06         0.00000E+00
    0.21640E+06        -0.49970E+08         0.00000E+00
    0.00000E+00         0.00000E+00        -0.49841E+08
 
   -0.49256E+08         0.23220E+06         0.00000E+00
    0.23220E+06        -0.49965E+08         0.00000E+00
    0.00000E+00         0.00000E+00        -0.49844E+08
 
   -0.49277E+08         0.24717E+06         0.00000E+00
    0.24717E+06        -0.49959E+08         0.00000E+00
    0.00000E+00         0.00000E+00        -0.49847E+08
 
   -0.49297E+08         0.26134E+06         0.00000E+00
    0.26134E+06        -0.49953E+08         0.00000E+00
    0.00000E+00         0.00000E+00        -0.49850E+08
 
   -0.49318E+08         0.27470E+06         0.00000E+00
    0.27470E+06        -0.49948E+08         0.00000E+00
    0.00000E+00         0.00000E+00        -0.49853E+08
 
   -0.49339E+08         0.28728E+06         0.00000E+00
    0.28728E+06        -0.49942E+08         0.00000E+00
    0.00000E+00         0.00000E+00        -0.49856E+08
 
   -0.49360E+08         0.29908E+06         0.00000E+00
    0.29908E+06        -0.49935E+08         0.00000E+00
    0.00000E+00         0.00000E+00        -0.49859E+08
 
   -0.49382E+08         0.31013E+06         0.00000E+00
    0.31013E+06        -0.49929E+08         0.00000E+00
    0.00000E+00         0.00000E+00        -0.49862E+08
 
   -0.49403E+08         0.32044E+06         0.00000E+00
    0.32044E+06        -0.49923E+08         0.00000E+00
    0.00000E+00         0.00000E+00        -0.49865E+08
 
   -0.49425E+08         0.33003E+06         0.00000E+00
    0.33003E+06        -0.49916E+08         0.00000E+00
    0.00000E+00         0.00000E+00        -0.49868E+08
 
   -0.49446E+08         0.33891E+06         0.00000E+00
    0.33891E+06        -0.49910E+08         0.00000E+00
    0.00000E+00         0.00000E+00        -0.49871E+08
 
   -0.49468E+08         0.34712E+06         0.00000E+00
    0.34712E+06        -0.49903E+08         0.00000E+00
    0.00000E+00         0.00000E+00        -0.49874E+08
 
   -0.49490E+08         0.35466E+06         0.00000E+00
    0.35466E+06        -0.49897E+08         0.00000E+00
    0.00000E+00         0.00000E+00        -0.49877E+08
 
   -0.49511E+08         0.36156E+06         0.00000E+00
    0.36156E+06        -0.49890E+08         0.00000E+00
    0.00000E+00         0.00000E+00        -0.49880E+08
 
   -0.49532E+08         0.36785E+06         0.00000E+00
    0.36785E+06        -0.49883E+08         0.00000E+00
    0.00000E+00         0.00000E+00        -0.49883E+08
 
   -0.49553E+08         0.37354E+06         0.00000E+00
    0.37354E+06        -0.49877E+08         0.00000E+00
    0.00000E+00         0.00000E+00        -0.49886E+08
 
   -0.49574E+08         0.37866E+06         0.00000E+00
    0.37866E+06        -0.49870E+08         0.00000E+00
    0.00000E+00         0.00000E+00        -0.49889E+08
 
   -0.49595E+08         0.38323E+06         0.00000E+00
    0.38323E+06        -0.49864E+08         0.00000E+00
    0.00000E+00         0.00000E+00        -0.49892E+08
 
   -0.49615E+08         0.38728E+06         0.00000E+00
    0.38728E+06        -0.49857E+08         0.00000E+00
    0.00000E+00         0.00000E+00        -0.49894E+08
 
   -0.49635E+08         0.39084E+06         0.00000E+00
    0.39084E+06        -0.49851E+08         0.00000E+00
    0.00000E+00         0.00000E+00        -0.49897E+08
 
   -0.49654E+08         0.39392E+06         0.00000E+00
    0.39392E+06        -0.49844E+08         0.00000E+00
    0.00000E+00         0.00000E+00        -0.49900E+08
 
   -0.49674E+08         0.39656E+06         0.00000E+00
    0.39656E+06        -0.49838E+08         0.00000E+00
    0.00000E+00         0.00000E+00        -0.49902E+08
 
   -0.49692E+08         0.39878E+06         0.00000E+00
    0.39878E+06        -0.49832E+08         0.00000E+00
    0.00000E+00         0.00000E+00        -0.49905E+08
 
   -0.49711E+08         0.40061E+06         0.00000E+00
    0.40061E+06        -0.49826E+08         0.00000E+00
    0.00000E+00         0.00000E+00        -0.49907E+08
 
   -0.49728E+08         0.40207E+06         0.00000E+00
    0.40207E+06        -0.49820E+08         0.00000E+00
    0.00000E+00         0.00000E+00        -0.49910E+08
 
   -0.49746E+08         0.40320E+06         0.00000E+00
    0.40320E+06        -0.49814E+08         0.00000E+00
    0.00000E+00         0.00000E+00        -0.49912E+08
 
   -0.49763E+08         0.40403E+06         0.00000E+00
    0.40403E+06        -0.49808E+08         0.00000E+00
    0.00000E+00         0.00000E+00        -0.49914E+08
 
   -0.49779E+08         0.40458E+06         0.00000E+00
    0.40458E+06        -0.49803E+08         0.00000E+00
    0.00000E+00         0.00000E+00        -0.49916E+08
 
   -0.49795E+08         0.40488E+06         0.00000E+00
    0.40488E+06        -0.49797E+08         0.00000E+00
    0.00000E+00         0.00000E+00        -0.49918E+08
 
   -0.49810E+08         0.40496E+06         0.00000E+00
    0.40496E+06        -0.49792E+08         0.00000E+00
    0.00000E+00         0.00000E+00        -0.49920E+08
 
   -0.49825E+08         0.40487E+06         0.00000E+00
    0.40487E+06        -0.49787E+08         0.00000E+00
    0.00000E+00         0.00000E+00        -0.49922E+08
 
   -0.49839E+08         0.40462E+06         0.00000E+00
    0.40462E+06        -0.49782E+08         0.00000E+00
    0.00000E+00         0.00000E+00        -0.49924E+08
 
   -0.49852E+08         0.40425E+06         0.00000E+00
    0.40425E+06        -0.49777E+08         0.00000E+00
    0.00000E+00         0.00000E+00        -0.49926E+08
 
   -0.49865E+08         0.40381E+06         0.00000E+00
    0.40381E+06        -0.49772E+08         0.00000E+00
    0.00000E+00         0.00000E+00        -0.49927E+08
 
   -0.49878E+08         0.40331E+06         0.00000E+00
    0.40331E+06        -0.49767E+08         0.00000E+00
    0.00000E+00         0.00000E+00        -0.49929E+08
 
   -0.49890E+08         0.40279E+06         0.00000E+00
    0.40279E+06        -0.49763E+08         0.00000E+00
    0.00000E+00         0.00000E+00        -0.49930E+08
 
   -0.49901E+08         0.40230E+06         0.00000E+00
    0.40230E+06        -0.49758E+08         0.00000E+00
    0.00000E+00         0.00000E+00        -0.49932E+08
 
   -0.49912E+08         0.40187E+06         0.00000E+00
    0.40187E+06        -0.49754E+08         0.00000E+00
    0.00000E+00         0.00000E+00        -0.49933E+08
 
   -0.49922E+08         0.40153E+06         0.00000E+00
    0.40153E+06        -0.49750E+08         0.00000E+00
    0.00000E+00         0.00000E+00        -0.49934E+08
 
   -0.49931E+08         0.40133E+06         0.00000E+00
    0.40133E+06        -0.49746E+08         0.00000E+00
    0.00000E+00         0.00000E+00        -0.49935E+08
 
   -0.48953E+08         0.14850E+05         0.00000E+00
    0.14850E+05        -0.50000E+08         0.00000E+00
    0.00000E+00         0.00000E+00        -0.49791E+08
 
   -0.48968E+08         0.42214E+05         0.00000E+00
    0.42214E+05        -0.49999E+08         0.00000E+00
    0.00000E+00         0.00000E+00        -0.49794E+08
 
   -0.48985E+08         0.68557E+05         0.00000E+00
    0.68557E+05        -0.49998E+08         0.00000E+00
    0.00000E+00         0.00000E+00        -0.49797E+08
 
   -0.49002E+08         0.93869E+05         0.00000E+00
    0.93869E+05        -0.49996E+08         0.00000E+00
    0.00000E+00         0.00000E+00        -0.49800E+08
 
   -0.49021E+08         0.11814E+06         0.00000E+00
    0.11814E+06        -0.49993E+08         0.00000E+00
    0.00000E+00         0.00000E+00        -0.49803E+08
 
   -0.49041E+08         0.14137E+06         0.00000E+00
    0.14137E+06        -0.49990E+08         0.00000E+00
    0.00000E+00         0.00000E+00        -0.49806E+08
 
   -0.49062E+08         0.16357E+06         0.00000E+00
    0.16357E+06        -0.49986E+08         0.00000E+00
    0.00000E+00         0.00000E+00        -0.49810E+08
 
   -0.49083E+08         0.18472E+06         0.00000E+00
    0.18472E+06        -0.49982E+08         0.00000E+00
    0.00000E+00         0.00000E+00        -0.49813E+08
 
   -0.49106E+08         0.20484E+06         0.00000E+00
    0.20484E+06        -0.49978E+08         0.00000E+00
    0.00000E+00         0.00000E+00        -0.49817E+08
 
   -0.49129E+08         0.22395E+06         0.00000E+00
    0.22395E+06        -0.49973E+08         0.00000E+00
    0.00000E+00         0.00000E+00        -0.49820E+08
 
   -0.49152E+08         0.24204E+06         0.00000E+00
    0.24204E+06        -0.49968E+08         0.00000E+00
    0.00000E+00         0.00000E+00        -0.49824E+08
 
   -0.49176E+08         0.25914E+06         0.00000E+00
    0.25914E+06        -0.49963E+08         0.00000E+00
    0.00000E+00         0.00000E+00        -0.49828E+08
 
   -0.49201E+08         0.27527E+06         0.00000E+00
    0.27527E+06        -0.49957E+08         0.00000E+00
    0.00000E+00         0.00000E+00        -0.49832E+08
 
   -0.49226E+08         0.29044E+06         0.00000E+00
    0.29044E+06        -0.49952E+08         0.00000E+00
    0.00000E+00         0.00000E+00        -0.49835E+08
 
   -0.49251E+08         0.30466E+06         0.00000E+00
    0.30466E+06        -0.49946E+08         0.00000E+00
    0.00000E+00         0.00000E+00        -0.49839E+08
 
   -0.49276E+08         0.31798E+06         0.00000E+00
    0.31798E+06        -0.49940E+08         0.00000E+00
    0.00000E+00         0.00000E+00        -0.49843E+08
 
   -0.49301E+08         0.33039E+06         0.00000E+00
    0.33039E+06        -0.49933E+08         0.00000E+00
    0.00000E+00         0.00000E+00        -0.49847E+08
 
   -0.49327E+08         0.34194E+06         0.00000E+00
    0.34194E+06        -0.49927E+08         0.00000E+00
    0.00000E+00         0.00000E+00        -0.49851E+08
 
   -0.49352E+08         0.35265E+06         0.00000E+00
    0.35265E+06        -0.49921E+08         0.00000E+00
    0.00000E+00         0.00000E+00        -0.49855E+08
 
   -0.49378E+08         0.36253E+06         0.00000E+00
    0.36253E+06        -0.49914E+08         0.00000E+00
    0.00000E+00         0.00000E+00        -0.49858E+08
 
   -0.49403E+08         0.37162E+06         0.00000E+00
    0.37162E+06        -0.49908E+08         0.00000E+00
    0.00000E+00         0.00000E+00        -0.49862E+08
 
   -0.49428E+08         0.37995E+06         0.00000E+00
    0.37995E+06        -0.49901E+08         0.00000E+00
    0.00000E+00         0.00000E+00        -0.49866E+08
 
   -0.49453E+08         0.38753E+06         0.00000E+00
    0.38753E+06        -0.49895E+08         0.00000E+00
    0.00000E+00         0.00000E+00        -0.49870E+08
 
   -0.49478E+08         0.39440E+06         0.00000E+00
    0.39440E+06        -0.49888E+08         0.00000E+00
    0.00000E+00         0.00000E+00        -0.49873E+08
 
   -0.49503E+08         0.40059E+06         0.00000E+00
    0.40059E+06        -0.49882E+08         0.00000E+00
    0.00000E+00         0.00000E+00        -0.49877E+08
 
   -0.49527E+08         0.40612E+06         0.00000E+00
    0.40612E+06        -0.49875E+08         0.00000E+00
    0.00000E+00         0.00000E+00        -0.49880E+08
 
   -0.49550E+08         0.41102E+06         0.00000E+00
    0.41102E+06        -0.49869E+08         0.00000E+00
    0.00000E+00         0.00000E+00        -0.49884E+08
 
   -0.49574E+08         0.41533E+06         0.00000E+00
    0.41533E+06        -0.49863E+08         0.00000E+00
    0.00000E+00         0.00000E+00        -0.49887E+08
 
   -0.49597E+08         0.41906E+06         0.00000E+00
    0.41906E+06        -0.49856E+08         0.00000E+00
    0.00000E+00         0.00000E+00        -0.49891E+08
 
   -0.49619E+08         0.42225E+06         0.00000E+00
    0.42225E+06        -0.49850E+08         0.00000E+00
    0.00000E+00         0.00000E+00        -0.49894E+08
 
   -0.49641E+08         0.42492E+06         0.00000E+00
    0.42492E+06        -0.49844E+08         0.00000E+00
    0.00000E+00         0.00000E+00        -0.49897E+08
 
   -0.49662E+08         0.42711E+06         0.00000E+00
    0.42711E+06        -0.49838E+08         0.00000E+00
    0.00000E+00         0.00000E+00        -0.49900E+08
 
   -0.49683E+08         0.42885E+06         0.00000E+00
    0.42885E+06        -0.49832E+08         0.00000E+00
    0.00000E+00         0.00000E+00        -0.49903E+08
 
   -0.49704E+08         0.43015E+06         0.00000E+00
    0.43015E+06        -0.49826E+08         0.00000E+00
    0.00000E+00         0.00000E+00        -0.49906E+08
 
   -0.49723E+08         0.43107E+06         0.00000E+00
    0.43107E+06        -0.49821E+08         0.00000E+00
    0.00000E+00         0.00000E+00        -0.49909E+08
 
   -0.49742E+08         0.43162E+06         0.00000E+00
    0.43162E+06        -0.49815E+08         0.00000E+00
    0.00000E+00         0.00000E+00        -0.49911E+08
 
   -0.49761E+08         0.43183E+06         0.00000E+00
    0.43183E+06        -0.49809E+08         0.00000E+00
    0.00000E+00         0.00000E+00        -0.49914E+08
 
   -0.49778E+08         0.43175E+06         0.00000E+00
    0.43175E+06        -0.49804E+08         0.00000E+00
    0.00000E+00         0.00000E+00        -0.49916E+08
 
   -0.49795E+08         0.43140E+06         0.00000E+00
    0.43140E+06        -0.49799E+08         0.00000E+00
    0.00000E+00         0.00000E+00        -0.49919E+08
 
   -0.49812E+08         0.43082E+06         0.00000E+00
    0.43082E+06        -0.49794E+08         0.00000E+00
    0.00000E+00         0.00000E+00        -0.49921E+08
 
   -0.49827E+08         0.43003E+06         0.00000E+00
    0.43003E+06        -0.49789E+08         0.00000E+00
    0.00000E+00         0.00000E+00        -0.49923E+08
 
   -0.49842E+08         0.42909E+06         0.00000E+00
    0.42909E+06        -0.49784E+08         0.00000E+00
    0.00000E+00         0.00000E+00        -0.49925E+08
 
   -0.49856E+08         0.42802E+06         0.00000E+00
    0.42802E+06        -0.49779E+08         0.00000E+00
    0.00000E+00         0.00000E+00        -0.49927E+08
 
   -0.49869E+08         0.42687E+06         0.00000E+00
    0.42687E+06        -0.49775E+08         0.00000E+00
    0.00000E+00         0.00000E+00        -0.49929E+08
 
   -0.49882E+08         0.42567E+06         0.00000E+00
    0.42567E+06        -0.49770E+08         0.00000E+00
    0.00000E+00         0.00000E+00        -0.49930E+08
 
   -0.49894E+08         0.42446E+06         0.00000E+00
    0.42446E+06        -0.49766E+08         0.00000E+00
    0.00000E+00         0.00000E+00        -0.49932E+08
 
   -0.49905E+08         0.42330E+06         0.00000E+00
    0.42330E+06        -0.49762E+08         0.00000E+00
    0.00000E+00         0.00000E+00        -0.49933E+08
 
   -0.49915E+08         0.42221E+06         0.00000E+00
    0.42221E+06        -0.49758E+08         0.00000E+00
    0.00000E+00         0.00000E+00        -0.49935E+08
 
   -0.49924E+08         0.42125E+06         0.00000E+00
    0.42125E+06        -0.49754E+08         0.00000E+00
    0.00000E+00         0.00000E+00        -0.49936E+08
 
   -0.49933E+08         0.42047E+06         0.00000E+00
    0.42047E+06        -0.49751E+08         0.00000E+00
    0.00000E+00         0.00000E+00        -0.49937E+08
 
   -0.48804E+08         0.16991E+05         0.00000E+00
    0.16991E+05        -0.50000E+08         0.00000E+00
    0.00000E+00         0.00000E+00        -0.49761E+08
 
   -0.48825E+08         0.47903E+05         0.00000E+00
    0.47903E+05        -0.49999E+08         0.00000E+00
    0.00000E+00         0.00000E+00        -0.49765E+08
 
   -0.48848E+08         0.77497E+05         0.00000E+00
    0.77497E+05        -0.49998E+08         0.00000E+00
    0.00000E+00         0.00000E+00        -0.49769E+08
 
   -0.48871E+08         0.10577E+06         0.00000E+00
    0.10577E+06        -0.49996E+08         0.00000E+00
    0.00000E+00         0.00000E+00        -0.49773E+08
 
   -0.48896E+08         0.13274E+06         0.00000E+00
    0.13274E+06        -0.49993E+08         0.00000E+00
    0.00000E+00         0.00000E+00        -0.49778E+08
 
   -0.48922E+08         0.15841E+06         0.00000E+00
    0.15841E+06        -0.49990E+08         0.00000E+00
    0.00000E+00         0.00000E+00        -0.49782E+08
 
   -0.48948E+08         0.18279E+06         0.00000E+00
    0.18279E+06        -0.49986E+08         0.00000E+00
    0.00000E+00         0.00000E+00        -0.49787E+08
 
   -0.48976E+08         0.20590E+06         0.00000E+00
    0.20590E+06        -0.49982E+08         0.00000E+00
    0.00000E+00         0.00000E+00        -0.49792E+08
 
   -0.49004E+08         0.22776E+06         0.00000E+00
    0.22776E+06        -0.49978E+08         0.00000E+00
    0.00000E+00         0.00000E+00        -0.49796E+08
 
   -0.49032E+08         0.24839E+06         0.00000E+00
    0.24839E+06        -0.49973E+08         0.00000E+00
    0.00000E+00         0.00000E+00        -0.49801E+08
 
   -0.49061E+08         0.26782E+06         0.00000E+00
    0.26782E+06        -0.49968E+08         0.00000E+00
    0.00000E+00         0.00000E+00        -0.49806E+08
 
   -0.49091E+08         0.28609E+06         0.00000E+00
    0.28609E+06        -0.49963E+08         0.00000E+00
    0.00000E+00         0.00000E+00        -0.49811E+08
 
   -0.49120E+08         0.30320E+06         0.00000E+00
    0.30320E+06        -0.49957E+08         0.00000E+00
    0.00000E+00         0.00000E+00        -0.49816E+08
 
   -0.49150E+08         0.31921E+06         0.00000E+00
    0.31921E+06        -0.49952E+08         0.00000E+00
    0.00000E+00         0.00000E+00        -0.49820E+08
 
   -0.49180E+08         0.33414E+06         0.00000E+00
    0.33414E+06        -0.49946E+08         0.00000E+00
    0.00000E+00         0.00000E+00        -0.49825E+08
 
   -0.49210E+08         0.34802E+06         0.00000E+00
    0.34802E+06        -0.49940E+08         0.00000E+00
    0.00000E+00         0.00000E+00        -0.49830E+08
 
   -0.49240E+08         0.36089E+06         0.00000E+00
    0.36089E+06        -0.49935E+08         0.00000E+00
    0.00000E+00         0.00000E+00        -0.49835E+08
 
   -0.49270E+08         0.37279E+06         0.00000E+00
    0.37279E+06        -0.49929E+08         0.00000E+00
    0.00000E+00         0.00000E+00        -0.49840E+08
 
   -0.49300E+08         0.38374E+06         0.00000E+00
    0.38374E+06        -0.49923E+08         0.00000E+00
    0.00000E+00         0.00000E+00        -0.49845E+08
 
   -0.49330E+08         0.39378E+06         0.00000E+00
    0.39378E+06        -0.49917E+08         0.00000E+00
    0.00000E+00         0.00000E+00        -0.49849E+08
 
   -0.49359E+08         0.40295E+06         0.00000E+00
    0.40295E+06        -0.49911E+08         0.00000E+00
    0.00000E+00         0.00000E+00        -0.49854E+08
 
   -0.49389E+08         0.41128E+06         0.00000E+00
    0.41128E+06        -0.49905E+08         0.00000E+00
    0.00000E+00         0.00000E+00        -0.49859E+08
 
   -0.49417E+08         0.41881E+06         0.00000E+00
    0.41881E+06        -0.49899E+08         0.00000E+00
    0.00000E+00         0.00000E+00        -0.49863E+08
 
   -0.49446E+08         0.42556E+06         0.00000E+00
    0.42556E+06        -0.49893E+08         0.00000E+00
    0.00000E+00         0.00000E+00        -0.49868E+08
 
   -0.49474E+08         0.43159E+06         0.00000E+00
    0.43159E+06        -0.49887E+08         0.00000E+00
    0.00000E+00         0.00000E+00        -0.49872E+08
 
   -0.49501E+08         0.43690E+06         0.00000E+00
    0.43690E+06        -0.49881E+08         0.00000E+00
    0.00000E+00         0.00000E+00        -0.49876E+08
 
   -0.49528E+08         0.44155E+06         0.00000E+00
    0.44155E+06        -0.49875E+08         0.00000E+00
    0.00000E+00         0.00000E+00        -0.49881E+08
 
   -0.49554E+08         0.44555E+06         0.00000E+00
    0.44555E+06        -0.49870E+08         0.00000E+00
    0.00000E+00         0.00000E+00        -0.49885E+08
 
   -0.49580E+08         0.44895E+06         0.00000E+00
    0.44895E+06        -0.49864E+08         0.00000E+00
    0.00000E+00         0.00000E+00        -0.49889E+08
 
   -0.49605E+08         0.45177E+06         0.00000E+00
    0.45177E+06        -0.49858E+08         0.00000E+00
    0.00000E+00         0.00000E+00        -0.49893E+08
 
   -0.49630E+08         0.45405E+06         0.00000E+00
    0.45405E+06        -0.49853E+08         0.00000E+00
    0.00000E+00         0.00000E+00        -0.49897E+08
 
   -0.49654E+08         0.45580E+06         0.00000E+00
    0.45580E+06        -0.49847E+08         0.00000E+00
    0.00000E+00         0.00000E+00        -0.49900E+08
 
   -0.49677E+08         0.45708E+06         0.00000E+00
    0.45708E+06        -0.49842E+08         0.00000E+00
    0.00000E+00         0.00000E+00        -0.49904E+08
 
   -0.49699E+08         0.45789E+06         0.00000E+00
    0.45789E+06        -0.49837E+08         0.00000E+00
    0.00000E+00         0.00000E+00        -0.49907E+08
 
   -0.49721E+08         0.45829E+06         0.00000E+00
    0.45829E+06        -0.49831E+08         0.00000E+00
    0.00000E+00         0.00000E+00        -0.49910E+08
 
   -0.49742E+08         0.45828E+06         0.00000E+00
    0.45828E+06        -0.49826E+08         0.00000E+00
    0.00000E+00         0.00000E+00        -0.49914E+08
 
   -0.49762E+08         0.45792E+06         0.00000E+00
    0.45792E+06        -0.49821E+08         0.00000E+00
    0.00000E+00         0.00000E+00        -0.49917E+08
 
   -0.49781E+08         0.45723E+06         0.00000E+00
    0.45723E+06        -0.49816E+08         0.00000E+00
    0.00000E+00         0.00000E+00        -0.49919E+08
 
   -0.49799E+08         0.45624E+06         0.00000E+00
    0.45624E+06        -0.49812E+08         0.00000E+00
    0.00000E+00         0.00000E+00        -0.49922E+08
 
   -0.49817E+08         0.45499E+06         0.00000E+00
    0.45499E+06        -0.49807E+08         0.00000E+00
    0.00000E+00         0.00000E+00        -0.49925E+08
 
   -0.49833E+08         0.45351E+06         0.00000E+00
    0.45351E+06        -0.49802E+08         0.00000E+00
    0.00000E+00         0.00000E+00        -0.49927E+08
 
   -0.49849E+08         0.45185E+06         0.00000E+00
    0.45185E+06        -0.49798E+08         0.00000E+00
    0.00000E+00         0.00000E+00        -0.49929E+08
 
   -0.49863E+08         0.45004E+06         0.00000E+00
    0.45004E+06        -0.49794E+08         0.00000E+00
    0.00000E+00         0.00000E+00        -0.49931E+08
 
   -0.49877E+08         0.44813E+06         0.00000E+00
    0.44813E+06        -0.49790E+08         0.00000E+00
    0.00000E+00         0.00000E+00        -0.49933E+08
 
   -0.49890E+08         0.44615E+06         0.00000E+00
    0.44615E+06        -0.49786E+08         0.00000E+00
    0.00000E+00         0.00000E+00        -0.49935E+08
 
   -0.49901E+08         0.44416E+06         0.00000E+00
    0.44416E+06        -0.49782E+08         0.00000E+00
    0.00000E+00         0.00000E+00        -0.49937E+08
 
   -0.49912E+08         0.44219E+06         0.00000E+00
    0.44219E+06        -0.49778E+08         0.00000E+00
    0.00000E+00         0.00000E+00        -0.49938E+08
 
   -0.49922E+08         0.44031E+06         0.00000E+00
    0.44031E+06        -0.49775E+08         0.00000E+00
    0.00000E+00         0.00000E+00        -0.49939E+08
 
   -0.49931E+08         0.43857E+06         0.00000E+00
    0.43857E+06        -0.49771E+08         0.00000E+00
    0.00000E+00         0.00000E+00        -0.49940E+08
 
   -0.49938E+08         0.43701E+06         0.00000E+00
    0.43701E+06        -0.49768E+08         0.00000E+00
    0.00000E+00         0.00000E+00        -0.49941E+08
 
   -0.48637E+08         0.19226E+05         0.00000E+00
    0.19226E+05        -0.50000E+08         0.00000E+00
    0.00000E+00         0.00000E+00        -0.49727E+08
 
   -0.48666E+08         0.53717E+05         0.00000E+00
    0.53717E+05        -0.49999E+08         0.00000E+00
    0.00000E+00         0.00000E+00        -0.49733E+08
 
   -0.48695E+08         0.86532E+05         0.00000E+00
    0.86532E+05        -0.49998E+08         0.00000E+00
    0.00000E+00         0.00000E+00        -0.49739E+08
 
   -0.48726E+08         0.11769E+06         0.00000E+00
    0.11769E+06        -0.49996E+08         0.00000E+00
    0.00000E+00         0.00000E+00        -0.49744E+08
 
   -0.48758E+08         0.14722E+06         0.00000E+00
    0.14722E+06        -0.49993E+08         0.00000E+00
    0.00000E+00         0.00000E+00        -0.49750E+08
 
   -0.48791E+08         0.17515E+06         0.00000E+00
    0.17515E+06        -0.49990E+08         0.00000E+00
    0.00000E+00         0.00000E+00        -0.49756E+08
 
   -0.48825E+08         0.20152E+06         0.00000E+00
    0.20152E+06        -0.49987E+08         0.00000E+00
    0.00000E+00         0.00000E+00        -0.49762E+08
 
   -0.48859E+08         0.22635E+06         0.00000E+00
    0.22635E+06        -0.49983E+08         0.00000E+00
    0.00000E+00         0.00000E+00        -0.49768E+08
 
   -0.48894E+08         0.24969E+06         0.00000E+00
    0.24969E+06        -0.49979E+08         0.00000E+00
    0.00000E+00         0.00000E+00        -0.49775E+08
 
   -0.48929E+08         0.27159E+06         0.00000E+00
    0.27159E+06        -0.49974E+08         0.00000E+00
    0.00000E+00         0.00000E+00        -0.49781E+08
 
   -0.48964E+08         0.29207E+06         0.00000E+00
    0.29207E+06        -0.49970E+08         0.00000E+00
    0.00000E+00         0.00000E+00        -0.49787E+08
 
   -0.49000E+08         0.31121E+06         0.00000E+00
    0.31121E+06        -0.49965E+08         0.00000E+00
    0.00000E+00         0.00000E+00        -0.49793E+08
 
   -0.49036E+08         0.32903E+06         0.00000E+00
    0.32903E+06        -0.49961E+08         0.00000E+00
    0.00000E+00         0.00000E+00        -0.49799E+08
 
   -0.49072E+08         0.34559E+06         0.00000E+00
    0.34559E+06        -0.49956E+08         0.00000E+00
    0.00000E+00         0.00000E+00        -0.49805E+08
 
   -0.49107E+08         0.36094E+06         0.00000E+00
    0.36094E+06        -0.49951E+08         0.00000E+00
    0.00000E+00         0.00000E+00        -0.49812E+08
 
   -0.49143E+08         0.37512E+06         0.00000E+00
    0.37512E+06        -0.49946E+08         0.00000E+00
    0.00000E+00         0.00000E+00        -0.49818E+08
 
   -0.49178E+08         0.38819E+06         0.00000E+00
    0.38819E+06        -0.49941E+08         0.00000E+00
    0.00000E+00         0.00000E+00        -0.49824E+08
 
   -0.49213E+08         0.40020E+06         0.00000E+00
    0.40020E+06        -0.49936E+08         0.00000E+00
    0.00000E+00         0.00000E+00        -0.49830E+08
 
   -0.49248E+08         0.41118E+06         0.00000E+00
    0.41118E+06        -0.49931E+08         0.00000E+00
    0.00000E+00         0.00000E+00        -0.49836E+08
 
   -0.49282E+08         0.42120E+06         0.00000E+00
    0.42120E+06        -0.49926E+08         0.00000E+00
    0.00000E+00         0.00000E+00        -0.49842E+08
 
   -0.49316E+08         0.43029E+06         0.00000E+00
    0.43029E+06        -0.49921E+08         0.00000E+00
    0.00000E+00         0.00000E+00        -0.49847E+08
 
   -0.49349E+08         0.43850E+06         0.00000E+00
    0.43850E+06        -0.49917E+08         0.00000E+00
    0.00000E+00         0.00000E+00        -0.49853E+08
 
   -0.49382E+08         0.44587E+06         0.00000E+00
    0.44587E+06        -0.49912E+08         0.00000E+00
    0.00000E+00         0.00000E+00        -0.49859E+08
 
   -0.49414E+08         0.45245E+06         0.00000E+00
    0.45245E+06        -0.49907E+08         0.00000E+00
    0.00000E+00         0.00000E+00        -0.49864E+08
 
   -0.49446E+08         0.45826E+06         0.00000E+00
    0.45826E+06        -0.49902E+08         0.00000E+00
    0.00000E+00         0.00000E+00        -0.49870E+08
 
   -0.49477E+08         0.46336E+06         0.00000E+00
    0.46336E+06        -0.49898E+08         0.00000E+00
    0.00000E+00         0.00000E+00        -0.49875E+08
 
   -0.49507E+08         0.46777E+06         0.00000E+00
    0.46777E+06        -0.49893E+08         0.00000E+00
    0.00000E+00         0.00000E+00        -0.49880E+08
 
   -0.49536E+08         0.47152E+06         0.00000E+00
    0.47152E+06        -0.49889E+08         0.00000E+00
    0.00000E+00         0.00000E+00        -0.49885E+08
 
   -0.49565E+08         0.47466E+06         0.00000E+00
    0.47466E+06        -0.49884E+08         0.00000E+00
    0.00000E+00         0.00000E+00        -0.49890E+08
 
   -0.49593E+08         0.47722E+06         0.00000E+00
    0.47722E+06        -0.49880E+08         0.00000E+00
    0.00000E+00         0.00000E+00        -0.49895E+08
 
   -0.49620E+08         0.47921E+06         0.00000E+00
    0.47921E+06        -0.49875E+08         0.00000E+00
    0.00000E+00         0.00000E+00        -0.49899E+08
 
   -0.49647E+08         0.48067E+06         0.00000E+00
    0.48067E+06        -0.49871E+08         0.00000E+00
    0.00000E+00         0.00000E+00        -0.49903E+08
 
   -0.49672E+08         0.48163E+06         0.00000E+00
    0.48163E+06        -0.49866E+08         0.00000E+00
    0.00000E+00         0.00000E+00        -0.49908E+08
 
   -0.49697E+08         0.48212E+06         0.00000E+00
    0.48212E+06        -0.49862E+08         0.00000E+00
    0.00000E+00         0.00000E+00        -0.49912E+08
 
   -0.49721E+08         0.48216E+06         0.00000E+00
    0.48216E+06        -0.49858E+08         0.00000E+00
    0.00000E+00         0.00000E+00        -0.49916E+08
 
   -0.49743E+08         0.48178E+06         0.00000E+00
    0.48178E+06        -0.49853E+08         0.00000E+00
    0.00000E+00         0.00000E+00        -0.49919E+08
 
   -0.49765E+08         0.48100E+06         0.00000E+00
    0.48100E+06        -0.49849E+08         0.00000E+00
    0.00000E+00         0.00000E+00        -0.49923E+08
 
   -0.49786E+08         0.47986E+06         0.00000E+00
    0.47986E+06        -0.49845E+08         0.00000E+00
    0.00000E+00         0.00000E+00        -0.49926E+08
 
   -0.49806E+08         0.47839E+06         0.00000E+00
    0.47839E+06        -0.49841E+08         0.00000E+00
    0.00000E+00         0.00000E+00        -0.49929E+08
 
   -0.49825E+08         0.47661E+06         0.00000E+00
    0.47661E+06        -0.49837E+08         0.00000E+00
    0.00000E+00         0.00000E+00        -0.49932E+08
 
   -0.49842E+08         0.47455E+06         0.00000E+00
    0.47455E+06        -0.49833E+08         0.00000E+00
    0.00000E+00         0.00000E+00        -0.49935E+08
 
   -0.49859E+08         0.47226E+06         0.00000E+00
    0.47226E+06        -0.49829E+08         0.00000E+00
    0.00000E+00         0.00000E+00        -0.49938E+08
 
   -0.49874E+08         0.46978E+06         0.00000E+00
    0.46978E+06        -0.49825E+08         0.00000E+00
    0.00000E+00         0.00000E+00        -0.49940E+08
 
   -0.49889E+08         0.46713E+06         0.00000E+00
    0.46713E+06        -0.49821E+08         0.00000E+00
    0.00000E+00         0.00000E+00        -0.49942E+08
 
   -0.49902E+08         0.46437E+06         0.00000E+00
    0.46437E+06        -0.49818E+08         0.00000E+00
    0.00000E+00         0.00000E+00        -0.49944E+08
 
   -0.49913E+08         0.46154E+06         0.00000E+00
    0.46154E+06        -0.49815E+08         0.00000E+00
    0.00000E+00         0.00000E+00        -0.49946E+08
 
   -0.49924E+08         0.45870E+06         0.00000E+00
    0.45870E+06        -0.49811E+08         0.00000E+00
    0.00000E+00         0.00000E+00        -0.49947E+08
 
   -0.49933E+08         0.45590E+06         0.00000E+00
    0.45590E+06        -0.49808E+08         0.00000E+00
    0.00000E+00         0.00000E+00        -0.49948E+08
 
   -0.49941E+08         0.45320E+06         0.00000E+00
    0.45320E+06        -0.49806E+08         0.00000E+00
    0.00000E+00         0.00000E+00        -0.49949E+08
 
   -0.49948E+08         0.45067E+06         0.00000E+00
    0.45067E+06        -0.49803E+08         0.00000E+00
    0.00000E+00         0.00000E+00        -0.49950E+08
 
   -0.48451E+08         0.21445E+05         0.00000E+00
    0.21445E+05        -0.50000E+08         0.00000E+00
    0.00000E+00         0.00000E+00        -0.49690E+08
 
   -0.48489E+08         0.59310E+05         0.00000E+00
    0.59310E+05        -0.49999E+08         0.00000E+00
    0.00000E+00         0.00000E+00        -0.49698E+08
 
   -0.48528E+08         0.95080E+05         0.00000E+00
    0.95080E+05        -0.49998E+08         0.00000E+00
    0.00000E+00         0.00000E+00        -0.49705E+08
 
   -0.48568E+08         0.12880E+06         0.00000E+00
    0.12880E+06        -0.49996E+08         0.00000E+00
    0.00000E+00         0.00000E+00        -0.49713E+08
 
   -0.48609E+08         0.16052E+06         0.00000E+00
    0.16052E+06        -0.49994E+08         0.00000E+00
    0.00000E+00         0.00000E+00        -0.49721E+08
 
   -0.48651E+08         0.19031E+06         0.00000E+00
    0.19031E+06        -0.49991E+08         0.00000E+00
    0.00000E+00         0.00000E+00        -0.49728E+08
 
   -0.48693E+08         0.21821E+06         0.00000E+00
    0.21821E+06        -0.49988E+08         0.00000E+00
    0.00000E+00         0.00000E+00        -0.49736E+08
 
   -0.48736E+08         0.24430E+06         0.00000E+00
    0.24430E+06        -0.49985E+08         0.00000E+00
    0.00000E+00         0.00000E+00        -0.49744E+08
 
   -0.48778E+08         0.26863E+06         0.00000E+00
    0.26863E+06        -0.49982E+08         0.00000E+00
    0.00000E+00         0.00000E+00        -0.49752E+08
 
   -0.48821E+08         0.29129E+06         0.00000E+00
    0.29129E+06        -0.49978E+08         0.00000E+00
    0.00000E+00         0.00000E+00        -0.49760E+08
 
   -0.48864E+08         0.31233E+06         0.00000E+00
    0.31233E+06        -0.49975E+08         0.00000E+00
    0.00000E+00         0.00000E+00        -0.49768E+08
 
   -0.48907E+08         0.33184E+06         0.00000E+00
    0.33184E+06        -0.49972E+08         0.00000E+00
    0.00000E+00         0.00000E+00        -0.49776E+08
 
   -0.48949E+08         0.34988E+06         0.00000E+00
    0.34988E+06        -0.49968E+08         0.00000E+00
    0.00000E+00         0.00000E+00        -0.49783E+08
 
   -0.48991E+08         0.36652E+06         0.00000E+00
    0.36652E+06        -0.49965E+08         0.00000E+00
    0.00000E+00         0.00000E+00        -0.49791E+08
 
   -0.49033E+08         0.38184E+06         0.00000E+00
    0.38184E+06        -0.49961E+08         0.00000E+00
    0.00000E+00         0.00000E+00        -0.49799E+08
 
   -0.49075E+08         0.39592E+06         0.00000E+00
    0.39592E+06        -0.49958E+08         0.00000E+00
    0.00000E+00         0.00000E+00        -0.49807E+08
 
   -0.49116E+08         0.40881E+06         0.00000E+00
    0.40881E+06        -0.49955E+08         0.00000E+00
    0.00000E+00         0.00000E+00        -0.49814E+08
 
   -0.49156E+08         0.42059E+06         0.00000E+00
    0.42059E+06        -0.49952E+08         0.00000E+00
    0.00000E+00         0.00000E+00        -0.49822E+08
 
   -0.49196E+08         0.43132E+06         0.00000E+00
    0.43132E+06        -0.49949E+08         0.00000E+00
    0.00000E+00         0.00000E+00        -0.49829E+08
 
   -0.49235E+08         0.44106E+06         0.00000E+00
    0.44106E+06        -0.49946E+08         0.00000E+00
    0.00000E+00         0.00000E+00        -0.49836E+08
 
   -0.49273E+08         0.44987E+06         0.00000E+00
    0.44987E+06        -0.49943E+08         0.00000E+00
    0.00000E+00         0.00000E+00        -0.49843E+08
 
   -0.49311E+08         0.45782E+06         0.00000E+00
    0.45782E+06        -0.49940E+08         0.00000E+00
    0.00000E+00         0.00000E+00        -0.49850E+08
 
   -0.49347E+08         0.46494E+06         0.00000E+00
    0.46494E+06        -0.49938E+08         0.00000E+00
    0.00000E+00         0.00000E+00        -0.49857E+08
 
   -0.49383E+08         0.47130E+06         0.00000E+00
    0.47130E+06        -0.49935E+08         0.00000E+00
    0.00000E+00         0.00000E+00        -0.49864E+08
 
   -0.49419E+08         0.47693E+06         0.00000E+00
    0.47693E+06        -0.49932E+08         0.00000E+00
    0.00000E+00         0.00000E+00        -0.49870E+08
 
   -0.49453E+08         0.48188E+06         0.00000E+00
    0.48188E+06        -0.49930E+08         0.00000E+00
    0.00000E+00         0.00000E+00        -0.49877E+08
 
   -0.49487E+08         0.48617E+06         0.00000E+00
    0.48617E+06        -0.49927E+08         0.00000E+00
    0.00000E+00         0.00000E+00        -0.49883E+08
 
   -0.49519E+08         0.48986E+06         0.00000E+00
    0.48986E+06        -0.49925E+08         0.00000E+00
    0.00000E+00         0.00000E+00        -0.49889E+08
 
   -0.49551E+08         0.49296E+06         0.00000E+00
    0.49296E+06        -0.49922E+08         0.00000E+00
    0.00000E+00         0.00000E+00        -0.49895E+08
 
   -0.49582E+08         0.49551E+06         0.00000E+00
    0.49551E+06        -0.49919E+08         0.00000E+00
    0.00000E+00         0.00000E+00        -0.49900E+08
 
   -0.49612E+08         0.49752E+06         0.00000E+00
    0.49752E+06        -0.49917E+08         0.00000E+00
    0.00000E+00         0.00000E+00        -0.49906E+08
 
   -0.49641E+08         0.49903E+06         0.00000E+00
    0.49903E+06        -0.49914E+08         0.00000E+00
    0.00000E+00         0.00000E+00        -0.49911E+08
 
   -0.49668E+08         0.50004E+06         0.00000E+00
    0.50004E+06        -0.49911E+08         0.00000E+00
    0.00000E+00         0.00000E+00        -0.49916E+08
 
   -0.49695E+08         0.50058E+06         0.00000E+00
    0.50058E+06        -0.49908E+08         0.00000E+00
    0.00000E+00         0.00000E+00        -0.49921E+08
 
   -0.49721E+08         0.50066E+06         0.00000E+00
    0.50066E+06        -0.49905E+08         0.00000E+00
    0.00000E+00         0.00000E+00        -0.49925E+08
 
   -0.49746E+08         0.50030E+06         0.00000E+00
    0.50030E+06        -0.49902E+08         0.00000E+00
    0.00000E+00         0.00000E+00        -0.49930E+08
 
   -0.49770E+08         0.49951E+06         0.00000E+00
    0.49951E+06        -0.49899E+08         0.00000E+00
    0.00000E+00         0.00000E+00        -0.49934E+08
 
   -0.49793E+08         0.49832E+06         0.00000E+00
    0.49832E+06        -0.49896E+08         0.00000E+00
    0.00000E+00         0.00000E+00        -0.49938E+08
 
   -0.49814E+08         0.49673E+06         0.00000E+00
    0.49673E+06        -0.49893E+08         0.00000E+00
    0.00000E+00         0.00000E+00        -0.49941E+08
 
   -0.49835E+08         0.49477E+06         0.00000E+00
    0.49477E+06        -0.49889E+08         0.00000E+00
    0.00000E+00         0.00000E+00        -0.49945E+08
 
   -0.49854E+08         0.49246E+06         0.00000E+00
    0.49246E+06        -0.49886E+08         0.00000E+00
    0.00000E+00         0.00000E+00        -0.49948E+08
 
   -0.49872E+08         0.48983E+06         0.00000E+00
    0.48983E+06        -0.49883E+08         0.00000E+00
    0.00000E+00         0.00000E+00        -0.49951E+08
 
   -0.49888E+08         0.48690E+06         0.00000E+00
    0.48690E+06        -0.49880E+08         0.00000E+00
    0.00000E+00         0.00000E+00        -0.49954E+08
 
   -0.49903E+08         0.48371E+06         0.00000E+00
    0.48371E+06        -0.49877E+08         0.00000E+00
    0.00000E+00         0.00000E+00        -0.49956E+08
 
   -0.49917E+08         0.48029E+06         0.00000E+00
    0.48029E+06        -0.49874E+08         0.00000E+00
    0.00000E+00         0.00000E+00        -0.49958E+08
 
   -0.49929E+08         0.47670E+06         0.00000E+00
    0.47670E+06        -0.49871E+08         0.00000E+00
    0.00000E+00         0.00000E+00        -0.49960E+08
 
   -0.49940E+08         0.47298E+06         0.00000E+00
    0.47298E+06        -0.49868E+08         0.00000E+00
    0.00000E+00         0.00000E+00        -0.49962E+08
 
   -0.49949E+08         0.46918E+06         0.00000E+00
    0.46918E+06        -0.49865E+08         0.00000E+00
    0.00000E+00         0.00000E+00        -0.49963E+08
 
   -0.49957E+08         0.46538E+06         0.00000E+00
    0.46538E+06        -0.49863E+08         0.00000E+00
    0.00000E+00         0.00000E+00        -0.49964E+08
 
   -0.49962E+08         0.46163E+06         0.00000E+00
    0.46163E+06        -0.49861E+08         0.00000E+00
    0.00000E+00         0.00000E+00        -0.49965E+08
 
   -0.48249E+08         0.23490E+05         0.00000E+00
    0.23490E+05        -0.50000E+08         0.00000E+00
    0.00000E+00         0.00000E+00        -0.49650E+08
 
   -0.48298E+08         0.64197E+05         0.00000E+00
    0.64197E+05        -0.49999E+08         0.00000E+00
    0.00000E+00         0.00000E+00        -0.49660E+08
 
   -0.48349E+08         0.10232E+06         0.00000E+00
    0.10232E+06        -0.49998E+08         0.00000E+00
    0.00000E+00         0.00000E+00        -0.49669E+08
 
   -0.48400E+08         0.13794E+06         0.00000E+00
    0.13794E+06        -0.49997E+08         0.00000E+00
    0.00000E+00         0.00000E+00        -0.49679E+08
 
   -0.48452E+08         0.17115E+06         0.00000E+00
    0.17115E+06        -0.49995E+08         0.00000E+00
    0.00000E+00         0.00000E+00        -0.49689E+08
 
   -0.48504E+08         0.20203E+06         0.00000E+00
    0.20203E+06        -0.49993E+08         0.00000E+00
    0.00000E+00         0.00000E+00        -0.49699E+08
 
   -0.48556E+08         0.23069E+06         0.00000E+00
    0.23069E+06        -0.49991E+08         0.00000E+00
    0.00000E+00         0.00000E+00        -0.49710E+08
 
   -0.48608E+08         0.25723E+06         0.00000E+00
    0.25723E+06        -0.49990E+08         0.00000E+00
    0.00000E+00         0.00000E+00        -0.49720E+08
 
   -0.48660E+08         0.28174E+06         0.00000E+00
    0.28174E+06        -0.49988E+08         0.00000E+00
    0.00000E+00         0.00000E+00        -0.49730E+08
 
   -0.48712E+08         0.30433E+06         0.00000E+00
    0.30433E+06        -0.49986E+08         0.00000E+00
    0.00000E+00         0.00000E+00        -0.49740E+08
 
   -0.48763E+08         0.32512E+06         0.00000E+00
    0.32512E+06        -0.49984E+08         0.00000E+00
    0.00000E+00         0.00000E+00        -0.49749E+08
 
   -0.48814E+08         0.34421E+06         0.00000E+00
    0.34421E+06        -0.49983E+08         0.00000E+00
    0.00000E+00         0.00000E+00        -0.49759E+08
 
   -0.48864E+08         0.36170E+06         0.00000E+00
    0.36170E+06        -0.49982E+08         0.00000E+00
    0.00000E+00         0.00000E+00        -0.49769E+08
 
   -0.48913E+08         0.37770E+06         0.00000E+00
    0.37770E+06        -0.49981E+08         0.00000E+00
    0.00000E+00         0.00000E+00        -0.49779E+08
 
   -0.48961E+08         0.39232E+06         0.00000E+00
    0.39232E+06        -0.49980E+08         0.00000E+00
    0.00000E+00         0.00000E+00        -0.49788E+08
 
   -0.49009E+08         0.40565E+06         0.00000E+00
    0.40565E+06        -0.49979E+08         0.00000E+00
    0.00000E+00         0.00000E+00        -0.49798E+08
 
   -0.49056E+08         0.41780E+06         0.00000E+00
    0.41780E+06        -0.49979E+08         0.00000E+00
    0.00000E+00         0.00000E+00        -0.49807E+08
 
   -0.49101E+08         0.42886E+06         0.00000E+00
    0.42886E+06        -0.49979E+08         0.00000E+00
    0.00000E+00         0.00000E+00        -0.49816E+08
 
   -0.49146E+08         0.43892E+06         0.00000E+00
    0.43892E+06        -0.49979E+08         0.00000E+00
    0.00000E+00         0.00000E+00        -0.49825E+08
 
   -0.49190E+08         0.44805E+06         0.00000E+00
    0.44805E+06        -0.49979E+08         0.00000E+00
    0.00000E+00         0.00000E+00        -0.49834E+08
 
   -0.49232E+08         0.45634E+06         0.00000E+00
    0.45634E+06        -0.49980E+08         0.00000E+00
    0.00000E+00         0.00000E+00        -0.49842E+08
 
   -0.49274E+08         0.46386E+06         0.00000E+00
    0.46386E+06        -0.49980E+08         0.00000E+00
    0.00000E+00         0.00000E+00        -0.49851E+08
 
   -0.49314E+08         0.47067E+06         0.00000E+00
    0.47067E+06        -0.49981E+08         0.00000E+00
    0.00000E+00         0.00000E+00        -0.49859E+08
 
   -0.49354E+08         0.47683E+06         0.00000E+00
    0.47683E+06        -0.49982E+08         0.00000E+00
    0.00000E+00         0.00000E+00        -0.49867E+08
 
   -0.49392E+08         0.48239E+06         0.00000E+00
    0.48239E+06        -0.49982E+08         0.00000E+00
    0.00000E+00         0.00000E+00        -0.49875E+08
 
   -0.49430E+08         0.48739E+06         0.00000E+00
    0.48739E+06        -0.49983E+08         0.00000E+00
    0.00000E+00         0.00000E+00        -0.49883E+08
 
   -0.49466E+08         0.49187E+06         0.00000E+00
    0.49187E+06        -0.49984E+08         0.00000E+00
    0.00000E+00         0.00000E+00        -0.49890E+08
 
   -0.49501E+08         0.49586E+06         0.00000E+00
    0.49586E+06        -0.49984E+08         0.00000E+00
    0.00000E+00         0.00000E+00        -0.49897E+08
 
   -0.49536E+08         0.49938E+06         0.00000E+00
    0.49938E+06        -0.49985E+08         0.00000E+00
    0.00000E+00         0.00000E+00        -0.49904E+08
 
   -0.49569E+08         0.50244E+06         0.00000E+00
    0.50244E+06        -0.49985E+08         0.00000E+00
    0.00000E+00         0.00000E+00        -0.49911E+08
 
   -0.49601E+08         0.50506E+06         0.00000E+00
    0.50506E+06        -0.49985E+08         0.00000E+00
    0.00000E+00         0.00000E+00        -0.49917E+08
 
   -0.49632E+08         0.50725E+06         0.00000E+00
    0.50725E+06        -0.49985E+08         0.00000E+00
    0.00000E+00         0.00000E+00        -0.49923E+08
 
   -0.49663E+08         0.50900E+06         0.00000E+00
    0.50900E+06        -0.49984E+08         0.00000E+00
    0.00000E+00         0.00000E+00        -0.49929E+08
 
   -0.49692E+08         0.51031E+06         0.00000E+00
    0.51031E+06        -0.49983E+08         0.00000E+00
    0.00000E+00         0.00000E+00        -0.49935E+08
 
   -0.49720E+08         0.51119E+06         0.00000E+00
    0.51119E+06        -0.49982E+08         0.00000E+00
    0.00000E+00         0.00000E+00        -0.49941E+08
 
   -0.49747E+08         0.51161E+06         0.00000E+00
    0.51161E+06        -0.49981E+08         0.00000E+00
    0.00000E+00         0.00000E+00        -0.49946E+08
 
   -0.49773E+08         0.51158E+06         0.00000E+00
    0.51158E+06        -0.49980E+08         0.00000E+00
    0.00000E+00         0.00000E+00        -0.49951E+08
 
   -0.49798E+08         0.51109E+06         0.00000E+00
    0.51109E+06        -0.49978E+08         0.00000E+00
    0.00000E+00         0.00000E+00        -0.49955E+08
 
   -0.49822E+08         0.51013E+06         0.00000E+00
    0.51013E+06        -0.49976E+08         0.00000E+00
    0.00000E+00         0.00000E+00        -0.49960E+08
 
   -0.49844E+08         0.50869E+06         0.00000E+00
    0.50869E+06        -0.49974E+08         0.00000E+00
    0.00000E+00         0.00000E+00        -0.49964E+08
 
   -0.49865E+08         0.50678E+06         0.00000E+00
    0.50678E+06        -0.49971E+08         0.00000E+00
    0.00000E+00         0.00000E+00        -0.49967E+08
 
   -0.49885E+08         0.50440E+06         0.00000E+00
    0.50440E+06        -0.49969E+08         0.00000E+00
    0.00000E+00         0.00000E+00        -0.49971E+08
 
   -0.49904E+08         0.50156E+06         0.00000E+00
    0.50156E+06        -0.49966E+08         0.00000E+00
    0.00000E+00         0.00000E+00        -0.49974E+08
 
   -0.49920E+08         0.49827E+06         0.00000E+00
    0.49827E+06        -0.49963E+08         0.00000E+00
    0.00000E+00         0.00000E+00        -0.49977E+08
 
   -0.49936E+08         0.49455E+06         0.00000E+00
    0.49455E+06        -0.49960E+08         0.00000E+00
    0.00000E+00         0.00000E+00        -0.49979E+08
 
   -0.49949E+08         0.49044E+06         0.00000E+00
    0.49044E+06        -0.49958E+08         0.00000E+00
    0.00000E+00         0.00000E+00        -0.49981E+08
 
   -0.49961E+08         0.48598E+06         0.00000E+00
    0.48598E+06        -0.49955E+08         0.00000E+00
    0.00000E+00         0.00000E+00        -0.49983E+08
 
   -0.49971E+08         0.48122E+06         0.00000E+00
    0.48122E+06        -0.49952E+08         0.00000E+00
    0.00000E+00         0.00000E+00        -0.49985E+08
 
   -0.49979E+08         0.47621E+06         0.00000E+00
    0.47621E+06        -0.49950E+08         0.00000E+00
    0.00000E+00         0.00000E+00        -0.49986E+08
 
   -0.49984E+08         0.47103E+06         0.00000E+00
    0.47103E+06        -0.49948E+08         0.00000E+00
    0.00000E+00         0.00000E+00        -0.49986E+08
 
   -0.48033E+08         0.25156E+05         0.00000E+00
    0.25156E+05        -0.50000E+08         0.00000E+00
    0.00000E+00         0.00000E+00        -0.49607E+08
 
   -0.48097E+08         0.67740E+05         0.00000E+00
    0.67740E+05        -0.50000E+08         0.00000E+00
    0.00000E+00         0.00000E+00        -0.49619E+08
 
   -0.48162E+08         0.10718E+06         0.00000E+00
    0.10718E+06        -0.49999E+08         0.00000E+00
    0.00000E+00         0.00000E+00        -0.49632E+08
 
   -0.48226E+08         0.14359E+06         0.00000E+00
    0.14359E+06        -0.49998E+08         0.00000E+00
    0.00000E+00         0.00000E+00        -0.49645E+08
 
   -0.48291E+08         0.17711E+06         0.00000E+00
    0.17711E+06        -0.49998E+08         0.00000E+00
    0.00000E+00         0.00000E+00        -0.49658E+08
 
   -0.48356E+08         0.20788E+06         0.00000E+00
    0.20788E+06        -0.49997E+08         0.00000E+00
    0.00000E+00         0.00000E+00        -0.49671E+08
 
   -0.48419E+08         0.23604E+06         0.00000E+00
    0.23604E+06        -0.49997E+08         0.00000E+00
    0.00000E+00         0.00000E+00        -0.49683E+08
 
   -0.48483E+08         0.26175E+06         0.00000E+00
    0.26175E+06        -0.49997E+08         0.00000E+00
    0.00000E+00         0.00000E+00        -0.49696E+08
 
   -0.48545E+08         0.28516E+06         0.00000E+00
    0.28516E+06        -0.49997E+08         0.00000E+00
    0.00000E+00         0.00000E+00        -0.49708E+08
 
   -0.48606E+08         0.30642E+06         0.00000E+00
    0.30642E+06        -0.49998E+08         0.00000E+00
    0.00000E+00         0.00000E+00        -0.49721E+08
 
   -0.48667E+08         0.32570E+06         0.00000E+00
    0.32570E+06        -0.49999E+08         0.00000E+00
    0.00000E+00         0.00000E+00        -0.49733E+08
 
   -0.48726E+08         0.34315E+06         0.00000E+00
    0.34315E+06        -0.50001E+08         0.00000E+00
    0.00000E+00         0.00000E+00        -0.49745E+08
 
   -0.48784E+08         0.35892E+06         0.00000E+00
    0.35892E+06        -0.50003E+08         0.00000E+00
    0.00000E+00         0.00000E+00        -0.49757E+08
 
   -0.48840E+08         0.37318E+06         0.00000E+00
    0.37318E+06        -0.50006E+08         0.00000E+00
    0.00000E+00         0.00000E+00        -0.49769E+08
 
   -0.48895E+08         0.38607E+06         0.00000E+00
    0.38607E+06        -0.50009E+08         0.00000E+00
    0.00000E+00         0.00000E+00        -0.49781E+08
 
   -0.48949E+08         0.39774E+06         0.00000E+00
    0.39774E+06        -0.50013E+08         0.00000E+00
    0.00000E+00         0.00000E+00        -0.49792E+08
 
   -0.49001E+08         0.40832E+06         0.00000E+00
    0.40832E+06        -0.50017E+08         0.00000E+00
    0.00000E+00         0.00000E+00        -0.49804E+08
 
   -0.49051E+08         0.41794E+06         0.00000E+00
    0.41794E+06        -0.50022E+08         0.00000E+00
    0.00000E+00         0.00000E+00        -0.49815E+08
 
   -0.49100E+08         0.42673E+06         0.00000E+00
    0.42673E+06        -0.50026E+08         0.00000E+00
    0.00000E+00         0.00000E+00        -0.49825E+08
 
   -0.49148E+08         0.43480E+06         0.00000E+00
    0.43480E+06        -0.50032E+08         0.00000E+00
    0.00000E+00         0.00000E+00        -0.49836E+08
 
   -0.49194E+08         0.44225E+06         0.00000E+00
    0.44225E+06        -0.50037E+08         0.00000E+00
    0.00000E+00         0.00000E+00        -0.49846E+08
 
   -0.49239E+08         0.44917E+06         0.00000E+00
    0.44917E+06        -0.50043E+08         0.00000E+00
    0.00000E+00         0.00000E+00        -0.49856E+08
 
   -0.49282E+08         0.45564E+06         0.00000E+00
    0.45564E+06        -0.50048E+08         0.00000E+00
    0.00000E+00         0.00000E+00        -0.49866E+08
 
   -0.49324E+08         0.46172E+06         0.00000E+00
    0.46172E+06        -0.50054E+08         0.00000E+00
    0.00000E+00         0.00000E+00        -0.49876E+08
 
   -0.49365E+08         0.46748E+06         0.00000E+00
    0.46748E+06        -0.50060E+08         0.00000E+00
    0.00000E+00         0.00000E+00        -0.49885E+08
 
   -0.49404E+08         0.47294E+06         0.00000E+00
    0.47294E+06        -0.50066E+08         0.00000E+00
    0.00000E+00         0.00000E+00        -0.49894E+08
 
   -0.49443E+08         0.47814E+06         0.00000E+00
    0.47814E+06        -0.50071E+08         0.00000E+00
    0.00000E+00         0.00000E+00        -0.49903E+08
 
   -0.49480E+08         0.48311E+06         0.00000E+00
    0.48311E+06        -0.50076E+08         0.00000E+00
    0.00000E+00         0.00000E+00        -0.49911E+08
 
   -0.49516E+08         0.48784E+06         0.00000E+00
    0.48784E+06        -0.50081E+08         0.00000E+00
    0.00000E+00         0.00000E+00        -0.49919E+08
 
   -0.49551E+08         0.49234E+06         0.00000E+00
    0.49234E+06        -0.50085E+08         0.00000E+00
    0.00000E+00         0.00000E+00        -0.49927E+08
 
   -0.49585E+08         0.49658E+06         0.00000E+00
    0.49658E+06        -0.50089E+08         0.00000E+00
    0.00000E+00         0.00000E+00        -0.49935E+08
 
   -0.49618E+08         0.50056E+06         0.00000E+00
    0.50056E+06        -0.50093E+08         0.00000E+00
    0.00000E+00         0.00000E+00        -0.49942E+08
 
   -0.49650E+08         0.50423E+06         0.00000E+00
    0.50423E+06        -0.50096E+08         0.00000E+00
    0.00000E+00         0.00000E+00        -0.49949E+08
 
   -0.49682E+08         0.50756E+06         0.00000E+00
    0.50756E+06        -0.50098E+08         0.00000E+00
    0.00000E+00         0.00000E+00        -0.49956E+08
 
   -0.49712E+08         0.51052E+06         0.00000E+00
    0.51052E+06        -0.50100E+08         0.00000E+00
    0.00000E+00         0.00000E+00        -0.49962E+08
 
   -0.49741E+08         0.51304E+06         0.00000E+00
    0.51304E+06        -0.50101E+08         0.00000E+00
    0.00000E+00         0.00000E+00        -0.49968E+08
 
   -0.49770E+08         0.51509E+06         0.00000E+00
    0.51509E+06        -0.50102E+08         0.00000E+00
    0.00000E+00         0.00000E+00        -0.49974E+08
 
   -0.49797E+08         0.51661E+06         0.00000E+00
    0.51661E+06        -0.50102E+08         0.00000E+00
    0.00000E+00         0.00000E+00        -0.49980E+08
 
   -0.49823E+08         0.51756E+06         0.00000E+00
    0.51756E+06        -0.50101E+08         0.00000E+00
    0.00000E+00         0.00000E+00        -0.49985E+08
 
   -0.49849E+08         0.51789E+06         0.00000E+00
    0.51789E+06        -0.50100E+08         0.00000E+00
    0.00000E+00         0.00000E+00        -0.49990E+08
 
   -0.49873E+08         0.51755E+06         0.00000E+00
    0.51755E+06        -0.50099E+08         0.00000E+00
    0.00000E+00         0.00000E+00        -0.49994E+08
 
   -0.49895E+08         0.51651E+06         0.00000E+00
    0.51651E+06        -0.50096E+08         0.00000E+00
    0.00000E+00         0.00000E+00        -0.49998E+08
 
   -0.49917E+08         0.51473E+06         0.00000E+00
    0.51473E+06        -0.50094E+08         0.00000E+00
    0.00000E+00         0.00000E+00        -0.50002E+08
 
   -0.49936E+08         0.51220E+06         0.00000E+00
    0.51220E+06        -0.50091E+08         0.00000E+00
    0.00000E+00         0.00000E+00        -0.50006E+08
 
   -0.49954E+08         0.50891E+06         0.00000E+00
    0.50891E+06        -0.50088E+08         0.00000E+00
    0.00000E+00         0.00000E+00        -0.50009E+08
 
   -0.49971E+08         0.50485E+06         0.00000E+00
    0.50485E+06        -0.50085E+08         0.00000E+00
    0.00000E+00         0.00000E+00        -0.50011E+08
 
   -0.49985E+08         0.50004E+06         0.00000E+00
    0.50004E+06        -0.50082E+08         0.00000E+00
    0.00000E+00         0.00000E+00        -0.50013E+08
 
   -0.49997E+08         0.49452E+06         0.00000E+00
    0.49452E+06        -0.50078E+08         0.00000E+00
    0.00000E+00         0.00000E+00        -0.50015E+08
 
   -0.50007E+08         0.48832E+06         0.00000E+00
    0.48832E+06        -0.50075E+08         0.00000E+00
    0.00000E+00         0.00000E+00        -0.50017E+08
 
   -0.50015E+08         0.48152E+06         0.00000E+00
    0.48152E+06        -0.50073E+08         0.00000E+00
    0.00000E+00         0.00000E+00        -0.50017E+08
 
   -0.47809E+08         0.26206E+05         0.00000E+00
    0.26206E+05        -0.50000E+08         0.00000E+00
    0.00000E+00         0.00000E+00        -0.49562E+08
 
   -0.47891E+08         0.69180E+05         0.00000E+00
    0.69180E+05        -0.50000E+08         0.00000E+00
    0.00000E+00         0.00000E+00        -0.49578E+08
 
   -0.47973E+08         0.10834E+06         0.00000E+00
    0.10834E+06        -0.50000E+08         0.00000E+00
    0.00000E+00         0.00000E+00        -0.49595E+08
 
   -0.48054E+08         0.14385E+06         0.00000E+00
    0.14385E+06        -0.50000E+08         0.00000E+00
    0.00000E+00         0.00000E+00        -0.49611E+08
 
   -0.48134E+08         0.17591E+06         0.00000E+00
    0.17591E+06        -0.50001E+08         0.00000E+00
    0.00000E+00         0.00000E+00        -0.49627E+08
 
   -0.48213E+08         0.20473E+06         0.00000E+00
    0.20473E+06        -0.50002E+08         0.00000E+00
    0.00000E+00         0.00000E+00        -0.49643E+08
 
   -0.48290E+08         0.23050E+06         0.00000E+00
    0.23050E+06        -0.50004E+08         0.00000E+00
    0.00000E+00         0.00000E+00        -0.49659E+08
 
   -0.48366E+08         0.25346E+06         0.00000E+00
    0.25346E+06        -0.50007E+08         0.00000E+00
    0.00000E+00         0.00000E+00        -0.49675E+08
 
   -0.48440E+08         0.27383E+06         0.00000E+00
    0.27383E+06        -0.50011E+08         0.00000E+00
    0.00000E+00         0.00000E+00        -0.49690E+08
 
   -0.48513E+08         0.29183E+06         0.00000E+00
    0.29183E+06        -0.50016E+08         0.00000E+00
    0.00000E+00         0.00000E+00        -0.49706E+08
 
   -0.48583E+08         0.30771E+06         0.00000E+00
    0.30771E+06        -0.50021E+08         0.00000E+00
    0.00000E+00         0.00000E+00        -0.49721E+08
 
   -0.48651E+08         0.32169E+06         0.00000E+00
    0.32169E+06        -0.50028E+08         0.00000E+00
    0.00000E+00         0.00000E+00        -0.49736E+08
 
   -0.48717E+08         0.33400E+06         0.00000E+00
    0.33400E+06        -0.50035E+08         0.00000E+00
    0.00000E+00         0.00000E+00        -0.49750E+08
 
   -0.48780E+08         0.34487E+06         0.00000E+00
    0.34487E+06        -0.50043E+08         0.00000E+00
    0.00000E+00         0.00000E+00        -0.49765E+08
 
   -0.48841E+08         0.35452E+06         0.00000E+00
    0.35452E+06        -0.50053E+08         0.00000E+00
    0.00000E+00         0.00000E+00        -0.49779E+08
 
   -0.48900E+08         0.36315E+06         0.00000E+00
    0.36315E+06        -0.50063E+08         0.00000E+00
    0.00000E+00         0.00000E+00        -0.49792E+08
 
   -0.48956E+08         0.37096E+06         0.00000E+00
    0.37096E+06        -0.50073E+08         0.00000E+00
    0.00000E+00         0.00000E+00        -0.49806E+08
 
   -0.49010E+08         0.37814E+06         0.00000E+00
    0.37814E+06        -0.50085E+08         0.00000E+00
    0.00000E+00         0.00000E+00        -0.49819E+08
 
   -0.49063E+08         0.38485E+06         0.00000E+00
    0.38485E+06        -0.50097E+08         0.00000E+00
    0.00000E+00         0.00000E+00        -0.49832E+08
 
   -0.49112E+08         0.39124E+06         0.00000E+00
    0.39124E+06        -0.50109E+08         0.00000E+00
    0.00000E+00         0.00000E+00        -0.49844E+08
 
   -0.49160E+08         0.39745E+06         0.00000E+00
    0.39745E+06        -0.50122E+08         0.00000E+00
    0.00000E+00         0.00000E+00        -0.49856E+08
 
   -0.49206E+08         0.40359E+06         0.00000E+00
    0.40359E+06        -0.50135E+08         0.00000E+00
    0.00000E+00         0.00000E+00        -0.49868E+08
 
   -0.49251E+08         0.40976E+06         0.00000E+00
    0.40976E+06        -0.50148E+08         0.00000E+00
    0.00000E+00         0.00000E+00        -0.49880E+08
 
   -0.49293E+08         0.41604E+06         0.00000E+00
    0.41604E+06        -0.50161E+08         0.00000E+00
    0.00000E+00         0.00000E+00        -0.49891E+08
 
   -0.49334E+08         0.42248E+06         0.00000E+00
    0.42248E+06        -0.50174E+08         0.00000E+00
    0.00000E+00         0.00000E+00        -0.49902E+08
 
   -0.49374E+08         0.42912E+06         0.00000E+00
    0.42912E+06        -0.50187E+08         0.00000E+00
    0.00000E+00         0.00000E+00        -0.49912E+08
 
   -0.49413E+08         0.43597E+06         0.00000E+00
    0.43597E+06        -0.50199E+08         0.00000E+00
    0.00000E+00         0.00000E+00        -0.49922E+08
 
   -0.49450E+08         0.44304E+06         0.00000E+00
    0.44304E+06        -0.50211E+08         0.00000E+00
    0.00000E+00         0.00000E+00        -0.49932E+08
 
   -0.49486E+08         0.45031E+06         0.00000E+00
    0.45031E+06        -0.50222E+08         0.00000E+00
    0.00000E+00         0.00000E+00        -0.49942E+08
 
   -0.49522E+08         0.45772E+06         0.00000E+00
    0.45772E+06        -0.50233E+08         0.00000E+00
    0.00000E+00         0.00000E+00        -0.49951E+08
 
   -0.49556E+08         0.46524E+06         0.00000E+00
    0.46524E+06        -0.50242E+08         0.00000E+00
    0.00000E+00         0.00000E+00        -0.49960E+08
 
   -0.49590E+08         0.47279E+06         0.00000E+00
    0.47279E+06        -0.50251E+08         0.00000E+00
    0.00000E+00         0.00000E+00        -0.49968E+08
 
   -0.49623E+08         0.48029E+06         0.00000E+00
    0.48029E+06        -0.50259E+08         0.00000E+00
    0.00000E+00         0.00000E+00        -0.49976E+08
 
   -0.49656E+08         0.48765E+06         0.00000E+00
    0.48765E+06        -0.50265E+08         0.00000E+00
    0.00000E+00         0.00000E+00        -0.49984E+08
 
   -0.49688E+08         0.49476E+06         0.00000E+00
    0.49476E+06        -0.50271E+08         0.00000E+00
    0.00000E+00         0.00000E+00        -0.49992E+08
 
   -0.49720E+08         0.50151E+06         0.00000E+00
    0.50151E+06        -0.50275E+08         0.00000E+00
    0.00000E+00         0.00000E+00        -0.49999E+08
 
   -0.49751E+08         0.50778E+06         0.00000E+00
    0.50778E+06        -0.50279E+08         0.00000E+00
    0.00000E+00         0.00000E+00        -0.50006E+08
 
   -0.49781E+08         0.51346E+06         0.00000E+00
    0.51346E+06        -0.50281E+08         0.00000E+00
    0.00000E+00         0.00000E+00        -0.50012E+08
 
   -0.49811E+08         0.51842E+06         0.00000E+00
    0.51842E+06        -0.50282E+08         0.00000E+00
    0.00000E+00         0.00000E+00        -0.50018E+08
 
   -0.49840E+08         0.52255E+06         0.00000E+00
    0.52255E+06        -0.50282E+08         0.00000E+00
    0.00000E+00         0.00000E+00        -0.50024E+08
 
   -0.49868E+08         0.52573E+06         0.00000E+00
    0.52573E+06        -0.50281E+08         0.00000E+00
    0.00000E+00         0.00000E+00        -0.50030E+08
 
   -0.49895E+08         0.52785E+06         0.00000E+00
    0.52785E+06        -0.50279E+08         0.00000E+00
    0.00000E+00         0.00000E+00        -0.50035E+08
 
   -0.49921E+08         0.52881E+06         0.00000E+00
    0.52881E+06        -0.50276E+08         0.00000E+00
    0.00000E+00         0.00000E+00        -0.50039E+08
 
   -0.49946E+08         0.52854E+06         0.00000E+00
    0.52854E+06        -0.50272E+08         0.00000E+00
    0.00000E+00         0.00000E+00        -0.50044E+08
 
   -0.49969E+08         0.52695E+06         0.00000E+00
    0.52695E+06        -0.50268E+08         0.00000E+00
    0.00000E+00         0.00000E+00        -0.50047E+08
 
   -0.49991E+08         0.52400E+06         0.00000E+00
    0.52400E+06        -0.50263E+08         0.00000E+00
    0.00000E+00         0.00000E+00        -0.50051E+08
 
   -0.50011E+08         0.51965E+06         0.00000E+00
    0.51965E+06        -0.50258E+08         0.00000E+00
    0.00000E+00         0.00000E+00        -0.50054E+08
 
   -0.50028E+08         0.51389E+06         0.00000E+00
    0.51389E+06        -0.50253E+08         0.00000E+00
    0.00000E+00         0.00000E+00        -0.50056E+08
 
   -0.50043E+08         0.50674E+06         0.00000E+00
    0.50674E+06        -0.50248E+08         0.00000E+00
    0.00000E+00         0.00000E+00        -0.50058E+08
 
   -0.50055E+08         0.49823E+06         0.00000E+00
    0.49823E+06        -0.50244E+08         0.00000E+00
    0.00000E+00         0.00000E+00        -0.50060E+08
 
   -0.47587E+08         0.26422E+05         0.00000E+00
    0.26422E+05        -0.50000E+08         0.00000E+00
    0.00000E+00         0.00000E+00        -0.49517E+08
 
   -0.47690E+08         0.67703E+05         0.00000E+00
    0.67703E+05        -0.50000E+08         0.00000E+00
    0.00000E+00         0.00000E+00        -0.49538E+08
 
   -0.47793E+08         0.10432E+06         0.00000E+00
    0.10432E+06        -0.50001E+08         0.00000E+00
    0.00000E+00         0.00000E+00        -0.49559E+08
 
   -0.47893E+08         0.13650E+06         0.00000E+00
    0.13650E+06        -0.50003E+08         0.00000E+00
    0.00000E+00         0.00000E+00        -0.49579E+08
 
   -0.47992E+08         0.16453E+06         0.00000E+00
    0.16453E+06        -0.50006E+08         0.00000E+00
    0.00000E+00         0.00000E+00        -0.49599E+08
 
   -0.48088E+08         0.18868E+06         0.00000E+00
    0.18868E+06        -0.50010E+08         0.00000E+00
    0.00000E+00         0.00000E+00        -0.49619E+08
 
   -0.48181E+08         0.20927E+06         0.00000E+00
    0.20927E+06        -0.50015E+08         0.00000E+00
    0.00000E+00         0.00000E+00        -0.49639E+08
 
   -0.48271E+08         0.22662E+06         0.00000E+00
    0.22662E+06        -0.50022E+08         0.00000E+00
    0.00000E+00         0.00000E+00        -0.49659E+08
 
   -0.48358E+08         0.24106E+06         0.00000E+00
    0.24106E+06        -0.50031E+08         0.00000E+00
    0.00000E+00         0.00000E+00        -0.49678E+08
 
   -0.48442E+08         0.25295E+06         0.00000E+00
    0.25295E+06        -0.50041E+08         0.00000E+00
    0.00000E+00         0.00000E+00        -0.49697E+08
 
   -0.48523E+08         0.26262E+06         0.00000E+00
    0.26262E+06        -0.50052E+08         0.00000E+00
    0.00000E+00         0.00000E+00        -0.49715E+08
 
   -0.48599E+08         0.27042E+06         0.00000E+00
    0.27042E+06        -0.50066E+08         0.00000E+00
    0.00000E+00         0.00000E+00        -0.49733E+08
 
   -0.48672E+08         0.27670E+06         0.00000E+00
    0.27670E+06        -0.50080E+08         0.00000E+00
    0.00000E+00         0.00000E+00        -0.49751E+08
 
   -0.48742E+08         0.28179E+06         0.00000E+00
    0.28179E+06        -0.50097E+08         0.00000E+00
    0.00000E+00         0.00000E+00        -0.49768E+08
 
   -0.48807E+08         0.28601E+06         0.00000E+00
    0.28601E+06        -0.50114E+08         0.00000E+00
    0.00000E+00         0.00000E+00        -0.49784E+08
 
   -0.48870E+08         0.28966E+06         0.00000E+00
    0.28966E+06        -0.50134E+08         0.00000E+00
    0.00000E+00         0.00000E+00        -0.49801E+08
 
   -0.48928E+08         0.29302E+06         0.00000E+00
    0.29302E+06        -0.50154E+08         0.00000E+00
    0.00000E+00         0.00000E+00        -0.49816E+08
 
   -0.48984E+08         0.29635E+06         0.00000E+00
    0.29635E+06        -0.50175E+08         0.00000E+00
    0.00000E+00         0.00000E+00        -0.49832E+08
 
   -0.49036E+08         0.29989E+06         0.00000E+00
    0.29989E+06        -0.50197E+08         0.00000E+00
    0.00000E+00         0.00000E+00        -0.49847E+08
 
   -0.49086E+08         0.30383E+06         0.00000E+00
    0.30383E+06        -0.50220E+08         0.00000E+00
    0.00000E+00         0.00000E+00        -0.49861E+08
 
   -0.49132E+08         0.30835E+06         0.00000E+00
    0.30835E+06        -0.50243E+08         0.00000E+00
    0.00000E+00         0.00000E+00        -0.49875E+08
 
   -0.49177E+08         0.31360E+06         0.00000E+00
    0.31360E+06        -0.50267E+08         0.00000E+00
    0.00000E+00         0.00000E+00        -0.49889E+08
 
   -0.49219E+08         0.31970E+06         0.00000E+00
    0.31970E+06        -0.50291E+08         0.00000E+00
    0.00000E+00         0.00000E+00        -0.49902E+08
 
   -0.49259E+08         0.32672E+06         0.00000E+00
    0.32672E+06        -0.50314E+08         0.00000E+00
    0.00000E+00         0.00000E+00        -0.49915E+08
 
   -0.49297E+08         0.33471E+06         0.00000E+00
    0.33471E+06        -0.50337E+08         0.00000E+00
    0.00000E+00         0.00000E+00        -0.49927E+08
 
   -0.49334E+08         0.34371E+06         0.00000E+00
    0.34371E+06        -0.50360E+08         0.00000E+00
    0.00000E+00         0.00000E+00        -0.49939E+08
 
   -0.49369E+08         0.35371E+06         0.00000E+00
    0.35371E+06        -0.50382E+08         0.00000E+00
    0.00000E+00         0.00000E+00        -0.49950E+08
 
   -0.49404E+08         0.36465E+06         0.00000E+00
    0.36465E+06        -0.50403E+08         0.00000E+00
    0.00000E+00         0.00000E+00        -0.49961E+08
 
   -0.49438E+08         0.37649E+06         0.00000E+00
    0.37649E+06        -0.50423E+08         0.00000E+00
    0.00000E+00         0.00000E+00        -0.49972E+08
 
   -0.49471E+08         0.38913E+06         0.00000E+00
    0.38913E+06        -0.50441E+08         0.00000E+00
    0.00000E+00         0.00000E+00        -0.49982E+08
 
   -0.49504E+08         0.40244E+06         0.00000E+00
    0.40244E+06        -0.50459E+08         0.00000E+00
    0.00000E+00         0.00000E+00        -0.49992E+08
 
   -0.49537E+08         0.41630E+06         0.00000E+00
    0.41630E+06        -0.50474E+08         0.00000E+00
    0.00000E+00         0.00000E+00        -0.50002E+08
 
   -0.49570E+08         0.43054E+06         0.00000E+00
    0.43054E+06        -0.50488E+08         0.00000E+00
    0.00000E+00         0.00000E+00        -0.50012E+08
 
   -0.49602E+08         0.44498E+06         0.00000E+00
    0.44498E+06        -0.50500E+08         0.00000E+00
    0.00000E+00         0.00000E+00        -0.50021E+08
 
   -0.49636E+08         0.45942E+06         0.00000E+00
    0.45942E+06        -0.50511E+08         0.00000E+00
    0.00000E+00         0.00000E+00        -0.50029E+08
 
   -0.49669E+08         0.47365E+06         0.00000E+00
    0.47365E+06        -0.50519E+08         0.00000E+00
    0.00000E+00         0.00000E+00        -0.50038E+08
 
   -0.49703E+08         0.48746E+06         0.00000E+00
    0.48746E+06        -0.50526E+08         0.00000E+00
    0.00000E+00         0.00000E+00        -0.50046E+08
 
   -0.49737E+08         0.50060E+06         0.00000E+00
    0.50060E+06        -0.50530E+08         0.00000E+00
    0.00000E+00         0.00000E+00        -0.50053E+08
 
   -0.49771E+08         0.51286E+06         0.00000E+00
    0.51286E+06        -0.50533E+08         0.00000E+00
    0.00000E+00         0.00000E+00        -0.50061E+08
 
   -0.49805E+08         0.52399E+06         0.00000E+00
    0.52399E+06        -0.50533E+08         0.00000E+00
    0.00000E+00         0.00000E+00        -0.50068E+08
 
   -0.49840E+08         0.53377E+06         0.00000E+00
    0.53377E+06        -0.50532E+08         0.00000E+00
    0.00000E+00         0.00000E+00        -0.50074E+08
 
   -0.49874E+08         0.54197E+06         0.00000E+00
    0.54197E+06        -0.50530E+08         0.00000E+00
    0.00000E+00         0.00000E+00        -0.50081E+08
 
   -0.49908E+08         0.54839E+06         0.00000E+00
    0.54839E+06        -0.50525E+08         0.00000E+00
    0.00000E+00         0.00000E+00        -0.50087E+08
 
   -0.49941E+08         0.55283E+06         0.00000E+00
    0.55283E+06        -0.50520E+08         0.00000E+00
    0.00000E+00         0.00000E+00        -0.50092E+08
 
   -0.49973E+08         0.55511E+06         0.00000E+00
    0.55511E+06        -0.50513E+08         0.00000E+00
    0.00000E+00         0.00000E+00        -0.50097E+08
 
   -0.50004E+08         0.55509E+06         0.00000E+00
    0.55509E+06        -0.50505E+08         0.00000E+00
    0.00000E+00         0.00000E+00        -0.50102E+08
 
   -0.50033E+08         0.55265E+06         0.00000E+00
    0.55265E+06        -0.50496E+08         0.00000E+00
    0.00000E+00         0.00000E+00        -0.50106E+08
 
   -0.50060E+08         0.54769E+06         0.00000E+00
    0.54769E+06        -0.50487E+08         0.00000E+00
    0.00000E+00         0.00000E+00        -0.50109E+08
 
   -0.50084E+08         0.54017E+06         0.00000E+00
    0.54017E+06        -0.50478E+08         0.00000E+00
    0.00000E+00         0.00000E+00        -0.50112E+08
 
   -0.50106E+08         0.53007E+06         0.00000E+00
    0.53007E+06        -0.50469E+08         0.00000E+00
    0.00000E+00         0.00000E+00        -0.50115E+08
 
   -0.47377E+08         0.25696E+05         0.00000E+00
    0.25696E+05        -0.50000E+08         0.00000E+00
    0.00000E+00         0.00000E+00        -0.49475E+08
 
   -0.47507E+08         0.62556E+05         0.00000E+00
    0.62556E+05        -0.50000E+08         0.00000E+00
    0.00000E+00         0.00000E+00        -0.49501E+08
 
   -0.47635E+08         0.93531E+05         0.00000E+00
    0.93531E+05        -0.50002E+08         0.00000E+00
    0.00000E+00         0.00000E+00        -0.49527E+08
 
   -0.47760E+08         0.11896E+06         0.00000E+00
    0.11896E+06        -0.50006E+08         0.00000E+00
    0.00000E+00         0.00000E+00        -0.49553E+08
 
   -0.47880E+08         0.13922E+06         0.00000E+00
    0.13922E+06        -0.50012E+08         0.00000E+00
    0.00000E+00         0.00000E+00        -0.49578E+08
 
   -0.47997E+08         0.15474E+06         0.00000E+00
    0.15474E+06        -0.50019E+08         0.00000E+00
    0.00000E+00         0.00000E+00        -0.49603E+08
 
   -0.48109E+08         0.16599E+06         0.00000E+00
    0.16599E+06        -0.50029E+08         0.00000E+00
    0.00000E+00         0.00000E+00        -0.49628E+08
 
   -0.48215E+08         0.17347E+06         0.00000E+00
    0.17347E+06        -0.50042E+08         0.00000E+00
    0.00000E+00         0.00000E+00        -0.49651E+08
 
   -0.48317E+08         0.17769E+06         0.00000E+00
    0.17769E+06        -0.50057E+08         0.00000E+00
    0.00000E+00         0.00000E+00        -0.49675E+08
 
   -0.48413E+08         0.17921E+06         0.00000E+00
    0.17921E+06        -0.50075E+08         0.00000E+00
    0.00000E+00         0.00000E+00        -0.49697E+08
 
   -0.48503E+08         0.17855E+06         0.00000E+00
    0.17855E+06        -0.50096E+08         0.00000E+00
    0.00000E+00         0.00000E+00        -0.49720E+08
 
   -0.48587E+08         0.17624E+06         0.00000E+00
    0.17624E+06        -0.50119E+08         0.00000E+00
    0.00000E+00         0.00000E+00        -0.49741E+08
 
   -0.48666E+08         0.17282E+06         0.00000E+00
    0.17282E+06        -0.50144E+08         0.00000E+00
    0.00000E+00         0.00000E+00        -0.49762E+08
 
   -0.48739E+08         0.16877E+06         0.00000E+00
    0.16877E+06        -0.50172E+08         0.00000E+00
    0.00000E+00         0.00000E+00        -0.49782E+08
 
   -0.48806E+08         0.16457E+06         0.00000E+00
    0.16457E+06        -0.50202E+08         0.00000E+00
    0.00000E+00         0.00000E+00        -0.49802E+08
 
   -0.48869E+08         0.16064E+06         0.00000E+00
    0.16064E+06        -0.50234E+08         0.00000E+00
    0.00000E+00         0.00000E+00        -0.49821E+08
 
   -0.48926E+08         0.15739E+06         0.00000E+00
    0.15739E+06        -0.50268E+08         0.00000E+00
    0.00000E+00         0.00000E+00        -0.49839E+08
 
   -0.48978E+08         0.15518E+06         0.00000E+00
    0.15518E+06        -0.50303E+08         0.00000E+00
    0.00000E+00         0.00000E+00        -0.49856E+08
 
   -0.49026E+08         0.15430E+06         0.00000E+00
    0.15430E+06        -0.50339E+08         0.00000E+00
    0.00000E+00         0.00000E+00        -0.49873E+08
 
   -0.49070E+08         0.15502E+06         0.00000E+00
    0.15502E+06        -0.50377E+08         0.00000E+00
    0.00000E+00         0.00000E+00        -0.49889E+08
 
   -0.49111E+08         0.15757E+06         0.00000E+00
    0.15757E+06        -0.50414E+08         0.00000E+00
    0.00000E+00         0.00000E+00        -0.49905E+08
 
   -0.49148E+08         0.16210E+06         0.00000E+00
    0.16210E+06        -0.50452E+08         0.00000E+00
    0.00000E+00         0.00000E+00        -0.49920E+08
 
   -0.49183E+08         0.16874E+06         0.00000E+00
    0.16874E+06        -0.50490E+08         0.00000E+00
    0.00000E+00         0.00000E+00        -0.49934E+08
 
   -0.49215E+08         0.17756E+06         0.00000E+00
    0.17756E+06        -0.50527E+08         0.00000E+00
    0.00000E+00         0.00000E+00        -0.49948E+08
 
   -0.49245E+08         0.18861E+06         0.00000E+00
    0.18861E+06        -0.50564E+08         0.00000E+00
    0.00000E+00         0.00000E+00        -0.49962E+08
 
   -0.49274E+08         0.20187E+06         0.00000E+00
    0.20187E+06        -0.50600E+08         0.00000E+00
    0.00000E+00         0.00000E+00        -0.49975E+08
 
   -0.49302E+08         0.21728E+06         0.00000E+00
    0.21728E+06        -0.50635E+08         0.00000E+00
    0.00000E+00         0.00000E+00        -0.49987E+08
 
   -0.49330E+08         0.23477E+06         0.00000E+00
    0.23477E+06        -0.50668E+08         0.00000E+00
    0.00000E+00         0.00000E+00        -0.49999E+08
 
   -0.49357E+08         0.25418E+06         0.00000E+00
    0.25418E+06        -0.50699E+08         0.00000E+00
    0.00000E+00         0.00000E+00        -0.50011E+08
 
   -0.49384E+08         0.27537E+06         0.00000E+00
    0.27537E+06        -0.50728E+08         0.00000E+00
    0.00000E+00         0.00000E+00        -0.50022E+08
 
   -0.49412E+08         0.29813E+06         0.00000E+00
    0.29813E+06        -0.50755E+08         0.00000E+00
    0.00000E+00         0.00000E+00        -0.50033E+08
 
   -0.49441E+08         0.32222E+06         0.00000E+00
    0.32222E+06        -0.50780E+08         0.00000E+00
    0.00000E+00         0.00000E+00        -0.50044E+08
 
   -0.49471E+08         0.34737E+06         0.00000E+00
    0.34737E+06        -0.50802E+08         0.00000E+00
    0.00000E+00         0.00000E+00        -0.50054E+08
 
   -0.49502E+08         0.37328E+06         0.00000E+00
    0.37328E+06        -0.50821E+08         0.00000E+00
    0.00000E+00         0.00000E+00        -0.50065E+08
 
   -0.49535E+08         0.39964E+06         0.00000E+00
    0.39964E+06        -0.50837E+08         0.00000E+00
    0.00000E+00         0.00000E+00        -0.50074E+08
 
   -0.49570E+08         0.42609E+06         0.00000E+00
    0.42609E+06        -0.50850E+08         0.00000E+00
    0.00000E+00         0.00000E+00        -0.50084E+08
 
   -0.49606E+08         0.45227E+06         0.00000E+00
    0.45227E+06        -0.50861E+08         0.00000E+00
    0.00000E+00         0.00000E+00        -0.50093E+08
 
   -0.49644E+08         0.47778E+06         0.00000E+00
    0.47778E+06        -0.50868E+08         0.00000E+00
    0.00000E+00         0.00000E+00        -0.50102E+08
 
   -0.49684E+08         0.50222E+06         0.00000E+00
    0.50222E+06        -0.50872E+08         0.00000E+00
    0.00000E+00         0.00000E+00        -0.50111E+08
 
   -0.49725E+08         0.52519E+06         0.00000E+00
    0.52519E+06        -0.50873E+08         0.00000E+00
    0.00000E+00         0.00000E+00        -0.50120E+08
 
   -0.49769E+08         0.54629E+06         0.00000E+00
    0.54629E+06        -0.50871E+08         0.00000E+00
    0.00000E+00         0.00000E+00        -0.50128E+08
 
   -0.49813E+08         0.56509E+06         0.00000E+00
    0.56509E+06        -0.50866E+08         0.00000E+00
    0.00000E+00         0.00000E+00        -0.50136E+08
 
   -0.49859E+08         0.58122E+06         0.00000E+00
    0.58122E+06        -0.50858E+08         0.00000E+00
    0.00000E+00         0.00000E+00        -0.50143E+08
 
   -0.49905E+08         0.59430E+06         0.00000E+00
    0.59430E+06        -0.50848E+08         0.00000E+00
    0.00000E+00         0.00000E+00        -0.50151E+08
 
   -0.49951E+08         0.60397E+06         0.00000E+00
    0.60397E+06        -0.50836E+08         0.00000E+00
    0.00000E+00         0.00000E+00        -0.50157E+08
 
   -0.49998E+08         0.60992E+06         0.00000E+00
    0.60992E+06        -0.50822E+08         0.00000E+00
    0.00000E+00         0.00000E+00        -0.50164E+08
 
   -0.50043E+08         0.61188E+06         0.00000E+00
    0.61188E+06        -0.50807E+08         0.00000E+00
    0.00000E+00         0.00000E+00        -0.50170E+08
 
   -0.50087E+08         0.60960E+06         0.00000E+00
    0.60960E+06        -0.50791E+08         0.00000E+00
    0.00000E+00         0.00000E+00        -0.50175E+08
 
   -0.50129E+08         0.60294E+06         0.00000E+00
    0.60294E+06        -0.50774E+08         0.00000E+00
    0.00000E+00         0.00000E+00        -0.50180E+08
 
   -0.50168E+08         0.59175E+06         0.00000E+00
    0.59175E+06        -0.50757E+08         0.00000E+00
    0.00000E+00         0.00000E+00        -0.50185E+08
 
   -0.47193E+08         0.24190E+05         0.00000E+00
    0.24190E+05        -0.49999E+08         0.00000E+00
    0.00000E+00         0.00000E+00        -0.49438E+08
 
   -0.47359E+08         0.53113E+05         0.00000E+00
    0.53113E+05        -0.50000E+08         0.00000E+00
    0.00000E+00         0.00000E+00        -0.49471E+08
 
   -0.47519E+08         0.74156E+05         0.00000E+00
    0.74156E+05        -0.50004E+08         0.00000E+00
    0.00000E+00         0.00000E+00        -0.49504E+08
 
   -0.47675E+08         0.87783E+05         0.00000E+00
    0.87783E+05        -0.50010E+08         0.00000E+00
    0.00000E+00         0.00000E+00        -0.49536E+08
 
   -0.47824E+08         0.94644E+05         0.00000E+00
    0.94644E+05        -0.50019E+08         0.00000E+00
    0.00000E+00         0.00000E+00        -0.49568E+08
 
   -0.47965E+08         0.95452E+05         0.00000E+00
    0.95452E+05        -0.50032E+08         0.00000E+00
    0.00000E+00         0.00000E+00        -0.49599E+08
 
   -0.48099E+08         0.90990E+05         0.00000E+00
    0.90990E+05        -0.50049E+08         0.00000E+00
    0.00000E+00         0.00000E+00        -0.49629E+08
 
   -0.48225E+08         0.82099E+05         0.00000E+00
    0.82099E+05        -0.50071E+08         0.00000E+00
    0.00000E+00         0.00000E+00        -0.49659E+08
 
   -0.48341E+08         0.69653E+05         0.00000E+00
    0.69653E+05        -0.50096E+08         0.00000E+00
    0.00000E+00         0.00000E+00        -0.49687E+08
 
   -0.48449E+08         0.54538E+05         0.00000E+00
    0.54538E+05        -0.50126E+08         0.00000E+00
    0.00000E+00         0.00000E+00        -0.49714E+08
 
   -0.48547E+08         0.37624E+05         0.00000E+00
    0.37624E+05        -0.50159E+08         0.00000E+00
    0.00000E+00         0.00000E+00        -0.49741E+08
 
   -0.48637E+08         0.19752E+05         0.00000E+00
    0.19752E+05        -0.50197E+08         0.00000E+00
    0.00000E+00         0.00000E+00        -0.49766E+08
 
   -0.48717E+08         0.17163E+04         0.00000E+00
    0.17163E+04        -0.50238E+08         0.00000E+00
    0.00000E+00         0.00000E+00        -0.49791E+08
 
   -0.48789E+08        -0.15747E+05         0.00000E+00
   -0.15747E+05        -0.50283E+08         0.00000E+00
    0.00000E+00         0.00000E+00        -0.49814E+08
 
   -0.48853E+08        -0.31967E+05         0.00000E+00
   -0.31967E+05        -0.50330E+08         0.00000E+00
    0.00000E+00         0.00000E+00        -0.49836E+08
 
   -0.48909E+08        -0.46350E+05         0.00000E+00
   -0.46350E+05        -0.50381E+08         0.00000E+00
    0.00000E+00         0.00000E+00        -0.49857E+08
 
   -0.48958E+08        -0.58377E+05         0.00000E+00
   -0.58377E+05        -0.50433E+08         0.00000E+00
    0.00000E+00         0.00000E+00        -0.49878E+08
 
   -0.49000E+08        -0.67607E+05         0.00000E+00
   -0.67607E+05        -0.50487E+08         0.00000E+00
    0.00000E+00         0.00000E+00        -0.49897E+08
 
   -0.49037E+08        -0.73677E+05         0.00000E+00
   -0.73677E+05        -0.50542E+08         0.00000E+00
    0.00000E+00         0.00000E+00        -0.49915E+08
 
   -0.49068E+08        -0.76301E+05         0.00000E+00
   -0.76301E+05        -0.50598E+08         0.00000E+00
    0.00000E+00         0.00000E+00        -0.49933E+08
 
   -0.49094E+08        -0.75261E+05         0.00000E+00
   -0.75261E+05        -0.50654E+08         0.00000E+00
    0.00000E+00         0.00000E+00        -0.49949E+08
 
   -0.49117E+08        -0.70406E+05         0.00000E+00
   -0.70406E+05        -0.50711E+08         0.00000E+00
    0.00000E+00         0.00000E+00        -0.49965E+08
 
   -0.49137E+08        -0.61649E+05         0.00000E+00
   -0.61649E+05        -0.50766E+08         0.00000E+00
    0.00000E+00         0.00000E+00        -0.49980E+08
 
   -0.49154E+08        -0.48958E+05         0.00000E+00
   -0.48958E+05        -0.50821E+08         0.00000E+00
    0.00000E+00         0.00000E+00        -0.49995E+08
 
   -0.49169E+08        -0.32358E+05         0.00000E+00
   -0.32358E+05        -0.50875E+08         0.00000E+00
    0.00000E+00         0.00000E+00        -0.50008E+08
 
   -0.49183E+08        -0.11920E+05         0.00000E+00
   -0.11920E+05        -0.50927E+08         0.00000E+00
    0.00000E+00         0.00000E+00        -0.50022E+08
 
   -0.49197E+08         0.12235E+05         0.00000E+00
    0.12235E+05        -0.50977E+08         0.00000E+00
    0.00000E+00         0.00000E+00        -0.50034E+08
 
   -0.49211E+08         0.39943E+05         0.00000E+00
    0.39943E+05        -0.51024E+08         0.00000E+00
    0.00000E+00         0.00000E+00        -0.50047E+08
 
   -0.49226E+08         0.70996E+05         0.00000E+00
    0.70996E+05        -0.51069E+08         0.00000E+00
    0.00000E+00         0.00000E+00        -0.50059E+08
 
   -0.49242E+08         0.10514E+06         0.00000E+00
    0.10514E+06        -0.51111E+08         0.00000E+00
    0.00000E+00         0.00000E+00        -0.50070E+08
 
   -0.49259E+08         0.14209E+06         0.00000E+00
    0.14209E+06        -0.51150E+08         0.00000E+00
    0.00000E+00         0.00000E+00        -0.50082E+08
 
   -0.49280E+08         0.18150E+06         0.00000E+00
    0.18150E+06        -0.51185E+08         0.00000E+00
    0.00000E+00         0.00000E+00        -0.50093E+08
 
   -0.49303E+08         0.22300E+06         0.00000E+00
    0.22300E+06        -0.51217E+08         0.00000E+00
    0.00000E+00         0.00000E+00        -0.50104E+08
 
   -0.49329E+08         0.26615E+06         0.00000E+00
    0.26615E+06        -0.51245E+08         0.00000E+00
    0.00000E+00         0.00000E+00        -0.50114E+08
 
   -0.49359E+08         0.31050E+06         0.00000E+00
    0.31050E+06        -0.51268E+08         0.00000E+00
    0.00000E+00         0.00000E+00        -0.50125E+08
 
   -0.49393E+08         0.35552E+06         0.00000E+00
    0.35552E+06        -0.51287E+08         0.00000E+00
    0.00000E+00         0.00000E+00        -0.50136E+08
 
   -0.49431E+08         0.40067E+06         0.00000E+00
    0.40067E+06        -0.51301E+08         0.00000E+00
    0.00000E+00         0.00000E+00        -0.50146E+08
 
   -0.49473E+08         0.44536E+06         0.00000E+00
    0.44536E+06        -0.51311E+08         0.00000E+00
    0.00000E+00         0.00000E+00        -0.50156E+08
 
   -0.49520E+08         0.48895E+06         0.00000E+00
    0.48895E+06        -0.51316E+08         0.00000E+00
    0.00000E+00         0.00000E+00        -0.50167E+08
 
   -0.49571E+08         0.53079E+06         0.00000E+00
    0.53079E+06        -0.51316E+08         0.00000E+00
    0.00000E+00         0.00000E+00        -0.50177E+08
 
   -0.49626E+08         0.57020E+06         0.00000E+00
    0.57020E+06        -0.51312E+08         0.00000E+00
    0.00000E+00         0.00000E+00        -0.50187E+08
 
   -0.49686E+08         0.60649E+06         0.00000E+00
    0.60649E+06        -0.51303E+08         0.00000E+00
    0.00000E+00         0.00000E+00        -0.50197E+08
 
   -0.49749E+08         0.63896E+06         0.00000E+00
    0.63896E+06        -0.51290E+08         0.00000E+00
    0.00000E+00         0.00000E+00        -0.50207E+08
 
   -0.49815E+08         0.66692E+06         0.00000E+00
    0.66692E+06        -0.51273E+08         0.00000E+00
    0.00000E+00         0.00000E+00        -0.50217E+08
 
   -0.49884E+08         0.68973E+06         0.00000E+00
    0.68973E+06        -0.51252E+08         0.00000E+00
    0.00000E+00         0.00000E+00        -0.50227E+08
 
   -0.49955E+08         0.70676E+06         0.00000E+00
    0.70676E+06        -0.51228E+08         0.00000E+00
    0.00000E+00         0.00000E+00        -0.50236E+08
 
   -0.50027E+08         0.71745E+06         0.00000E+00
    0.71745E+06        -0.51202E+08         0.00000E+00
    0.00000E+00         0.00000E+00        -0.50245E+08
 
   -0.50099E+08         0.72130E+06         0.00000E+00
    0.72130E+06        -0.51173E+08         0.00000E+00
    0.00000E+00         0.00000E+00        -0.50254E+08
 
   -0.50170E+08         0.71786E+06         0.00000E+00
    0.71786E+06        -0.51142E+08         0.00000E+00
    0.00000E+00         0.00000E+00        -0.50262E+08
 
   -0.50239E+08         0.70688E+06         0.00000E+00
    0.70688E+06        -0.51111E+08         0.00000E+00
    0.00000E+00         0.00000E+00        -0.50270E+08
 
   -0.47054E+08         0.22529E+05         0.00000E+00
    0.22529E+05        -0.49999E+08         0.00000E+00
    0.00000E+00         0.00000E+00        -0.49408E+08
 
   -0.47268E+08         0.38486E+05         0.00000E+00
    0.38486E+05        -0.50000E+08         0.00000E+00
    0.00000E+00         0.00000E+00        -0.49451E+08
 
   -0.47476E+08         0.42665E+05         0.00000E+00
    0.42665E+05        -0.50005E+08         0.00000E+00
    0.00000E+00         0.00000E+00        -0.49494E+08
 
   -0.47673E+08         0.36243E+05         0.00000E+00
    0.36243E+05        -0.50015E+08         0.00000E+00
    0.00000E+00         0.00000E+00        -0.49535E+08
 
   -0.47860E+08         0.20351E+05         0.00000E+00
    0.20351E+05        -0.50031E+08         0.00000E+00
    0.00000E+00         0.00000E+00        -0.49576E+08
 
   -0.48033E+08        -0.36111E+04         0.00000E+00
   -0.36111E+04        -0.50053E+08         0.00000E+00
    0.00000E+00         0.00000E+00        -0.49615E+08
 
   -0.48194E+08        -0.34093E+05         0.00000E+00
   -0.34093E+05        -0.50082E+08         0.00000E+00
    0.00000E+00         0.00000E+00        -0.49653E+08
 
   -0.48339E+08        -0.69498E+05         0.00000E+00
   -0.69498E+05        -0.50118E+08         0.00000E+00
    0.00000E+00         0.00000E+00        -0.49689E+08
 
   -0.48471E+08        -0.10825E+06         0.00000E+00
   -0.10825E+06        -0.50160E+08         0.00000E+00
    0.00000E+00         0.00000E+00        -0.49724E+08
 
   -0.48587E+08        -0.14883E+06         0.00000E+00
   -0.14883E+06        -0.50208E+08         0.00000E+00
    0.00000E+00         0.00000E+00        -0.49757E+08
 
   -0.48688E+08        -0.18981E+06         0.00000E+00
   -0.18981E+06        -0.50263E+08         0.00000E+00
    0.00000E+00         0.00000E+00        -0.49788E+08
 
   -0.48776E+08        -0.22988E+06         0.00000E+00
   -0.22988E+06        -0.50323E+08         0.00000E+00
    0.00000E+00         0.00000E+00        -0.49817E+08
 
   -0.48850E+08        -0.26788E+06         0.00000E+00
   -0.26788E+06        -0.50388E+08         0.00000E+00
    0.00000E+00         0.00000E+00        -0.49845E+08
 
   -0.48911E+08        -0.30282E+06         0.00000E+00
   -0.30282E+06        -0.50457E+08         0.00000E+00
    0.00000E+00         0.00000E+00        -0.49871E+08
 
   -0.48961E+08        -0.33383E+06         0.00000E+00
   -0.33383E+06        -0.50529E+08         0.00000E+00
    0.00000E+00         0.00000E+00        -0.49896E+08
 
   -0.49000E+08        -0.36023E+06         0.00000E+00
   -0.36023E+06        -0.50604E+08         0.00000E+00
    0.00000E+00         0.00000E+00        -0.49918E+08
 
   -0.49030E+08        -0.38148E+06         0.00000E+00
   -0.38148E+06        -0.50681E+08         0.00000E+00
    0.00000E+00         0.00000E+00        -0.49940E+08
 
   -0.49050E+08        -0.39719E+06         0.00000E+00
   -0.39719E+06        -0.50759E+08         0.00000E+00
    0.00000E+00         0.00000E+00        -0.49959E+08
 
   -0.49064E+08        -0.40707E+06         0.00000E+00
   -0.40707E+06        -0.50838E+08         0.00000E+00
    0.00000E+00         0.00000E+00        -0.49978E+08
 
   -0.49071E+08        -0.41094E+06         0.00000E+00
   -0.41094E+06        -0.50916E+08         0.00000E+00
    0.00000E+00         0.00000E+00        -0.49995E+08
 
   -0.49074E+08        -0.40871E+06         0.00000E+00
   -0.40871E+06        -0.50995E+08         0.00000E+00
    0.00000E+00         0.00000E+00        -0.50011E+08
 
   -0.49072E+08        -0.40038E+06         0.00000E+00
   -0.40038E+06        -0.51072E+08         0.00000E+00
    0.00000E+00         0.00000E+00        -0.50026E+08
 
   -0.49067E+08        -0.38600E+06         0.00000E+00
   -0.38600E+06        -0.51147E+08         0.00000E+00
    0.00000E+00         0.00000E+00        -0.50040E+08
 
   -0.49059E+08        -0.36565E+06         0.00000E+00
   -0.36565E+06        -0.51221E+08         0.00000E+00
    0.00000E+00         0.00000E+00        -0.50054E+08
 
   -0.49051E+08        -0.33949E+06         0.00000E+00
   -0.33949E+06        -0.51293E+08         0.00000E+00
    0.00000E+00         0.00000E+00        -0.50066E+08
 
   -0.49042E+08        -0.30769E+06         0.00000E+00
   -0.30769E+06        -0.51361E+08         0.00000E+00
    0.00000E+00         0.00000E+00        -0.50078E+08
 
   -0.49034E+08        -0.27046E+06         0.00000E+00
   -0.27046E+06        -0.51427E+08         0.00000E+00
    0.00000E+00         0.00000E+00        -0.50090E+08
 
   -0.49026E+08        -0.22803E+06         0.00000E+00
   -0.22803E+06        -0.51490E+08         0.00000E+00
    0.00000E+00         0.00000E+00        -0.50101E+08
 
   -0.49021E+08        -0.18068E+06         0.00000E+00
   -0.18068E+06        -0.51549E+08         0.00000E+00
    0.00000E+00         0.00000E+00        -0.50112E+08
 
   -0.49019E+08        -0.12870E+06         0.00000E+00
   -0.12870E+06        -0.51604E+08         0.00000E+00
    0.00000E+00         0.00000E+00        -0.50122E+08
 
   -0.49020E+08        -0.72424E+05         0.00000E+00
   -0.72424E+05        -0.51655E+08         0.00000E+00
    0.00000E+00         0.00000E+00        -0.50133E+08
 
   -0.49025E+08        -0.12237E+05         0.00000E+00
   -0.12237E+05        -0.51702E+08         0.00000E+00
    0.00000E+00         0.00000E+00        -0.50143E+08
 
   -0.49036E+08         0.51438E+05         0.00000E+00
    0.51438E+05        -0.51744E+08         0.00000E+00
    0.00000E+00         0.00000E+00        -0.50154E+08
 
   -0.49052E+08         0.11812E+06         0.00000E+00
    0.11812E+06        -0.51781E+08         0.00000E+00
    0.00000E+00         0.00000E+00        -0.50164E+08
 
   -0.49075E+08         0.18725E+06         0.00000E+00
    0.18725E+06        -0.51812E+08         0.00000E+00
    0.00000E+00         0.00000E+00        -0.50175E+08
 
   -0.49104E+08         0.25822E+06         0.00000E+00
    0.25822E+06        -0.51838E+08         0.00000E+00
    0.00000E+00         0.00000E+00        -0.50186E+08
 
   -0.49141E+08         0.33032E+06         0.00000E+00
    0.33032E+06        -0.51857E+08         0.00000E+00
    0.00000E+00         0.00000E+00        -0.50197E+08
 
   -0.49186E+08         0.40275E+06         0.00000E+00
    0.40275E+06        -0.51870E+08         0.00000E+00
    0.00000E+00         0.00000E+00        -0.50209E+08
 
   -0.49239E+08         0.47463E+06         0.00000E+00
    0.47463E+06        -0.51877E+08         0.00000E+00
    0.00000E+00         0.00000E+00        -0.50221E+08
 
   -0.49300E+08         0.54499E+06         0.00000E+00
    0.54499E+06        -0.51877E+08         0.00000E+00
    0.00000E+00         0.00000E+00        -0.50233E+08
 
   -0.49370E+08         0.61278E+06         0.00000E+00
    0.61278E+06        -0.51869E+08         0.00000E+00
    0.00000E+00         0.00000E+00        -0.50245E+08
 
   -0.49449E+08         0.67687E+06         0.00000E+00
    0.67687E+06        -0.51855E+08         0.00000E+00
    0.00000E+00         0.00000E+00        -0.50258E+08
 
   -0.49536E+08         0.73608E+06         0.00000E+00
    0.73608E+06        -0.51834E+08         0.00000E+00
    0.00000E+00         0.00000E+00        -0.50272E+08
 
   -0.49632E+08         0.78917E+06         0.00000E+00
    0.78917E+06        -0.51806E+08         0.00000E+00
    0.00000E+00         0.00000E+00        -0.50285E+08
 
   -0.49734E+08         0.83492E+06         0.00000E+00
    0.83492E+06        -0.51772E+08         0.00000E+00
    0.00000E+00         0.00000E+00        -0.50299E+08
 
   -0.49842E+08         0.87210E+06         0.00000E+00
    0.87210E+06        -0.51732E+08         0.00000E+00
    0.00000E+00         0.00000E+00        -0.50312E+08
 
   -0.49956E+08         0.89953E+06         0.00000E+00
    0.89953E+06        -0.51687E+08         0.00000E+00
    0.00000E+00         0.00000E+00        -0.50326E+08
 
   -0.50074E+08         0.91616E+06         0.00000E+00
    0.91616E+06        -0.51638E+08         0.00000E+00
    0.00000E+00         0.00000E+00        -0.50340E+08
 
   -0.50193E+08         0.92115E+06         0.00000E+00
    0.92115E+06        -0.51586E+08         0.00000E+00
    0.00000E+00         0.00000E+00        -0.50353E+08
 
   -0.50313E+08         0.91350E+06         0.00000E+00
    0.91350E+06        -0.51532E+08         0.00000E+00
    0.00000E+00         0.00000E+00        -0.50366E+08
 
   -0.46985E+08         0.21508E+05         0.00000E+00
    0.21508E+05        -0.49996E+08         0.00000E+00
    0.00000E+00         0.00000E+00        -0.49383E+08
 
   -0.47279E+08         0.14250E+05         0.00000E+00
    0.14250E+05        -0.49999E+08         0.00000E+00
    0.00000E+00         0.00000E+00        -0.49442E+08
 
   -0.47557E+08        -0.11835E+05         0.00000E+00
   -0.11835E+05        -0.50008E+08         0.00000E+00
    0.00000E+00         0.00000E+00        -0.49499E+08
 
   -0.47817E+08        -0.54775E+05         0.00000E+00
   -0.54775E+05        -0.50028E+08         0.00000E+00
    0.00000E+00         0.00000E+00        -0.49555E+08
 
   -0.48054E+08        -0.11117E+06         0.00000E+00
   -0.11117E+06        -0.50058E+08         0.00000E+00
    0.00000E+00         0.00000E+00        -0.49609E+08
 
   -0.48267E+08        -0.17764E+06         0.00000E+00
   -0.17764E+06        -0.50099E+08         0.00000E+00
    0.00000E+00         0.00000E+00        -0.49660E+08
 
   -0.48456E+08        -0.25095E+06         0.00000E+00
   -0.25095E+06        -0.50152E+08         0.00000E+00
    0.00000E+00         0.00000E+00        -0.49708E+08
 
   -0.48618E+08        -0.32803E+06         0.00000E+00
   -0.32803E+06        -0.50215E+08         0.00000E+00
    0.00000E+00         0.00000E+00        -0.49753E+08
 
   -0.48756E+08        -0.40602E+06         0.00000E+00
   -0.40602E+06        -0.50288E+08         0.00000E+00
    0.00000E+00         0.00000E+00        -0.49795E+08
 
   -0.48869E+08        -0.48236E+06         0.00000E+00
   -0.48236E+06        -0.50370E+08         0.00000E+00
    0.00000E+00         0.00000E+00        -0.49834E+08
 
   -0.48959E+08        -0.55487E+06         0.00000E+00
   -0.55487E+06        -0.50459E+08         0.00000E+00
    0.00000E+00         0.00000E+00        -0.49870E+08
 
   -0.49028E+08        -0.62177E+06         0.00000E+00
   -0.62177E+06        -0.50554E+08         0.00000E+00
    0.00000E+00         0.00000E+00        -0.49903E+08
 
   -0.49078E+08        -0.68168E+06         0.00000E+00
   -0.68168E+06        -0.50654E+08         0.00000E+00
    0.00000E+00         0.00000E+00        -0.49933E+08
 
   -0.49111E+08        -0.73359E+06         0.00000E+00
   -0.73359E+06        -0.50757E+08         0.00000E+00
    0.00000E+00         0.00000E+00        -0.49960E+08
 
   -0.49129E+08        -0.77685E+06         0.00000E+00
   -0.77685E+06        -0.50862E+08         0.00000E+00
    0.00000E+00         0.00000E+00        -0.49984E+08
 
   -0.49133E+08        -0.81106E+06         0.00000E+00
   -0.81106E+06        -0.50967E+08         0.00000E+00
    0.00000E+00         0.00000E+00        -0.50006E+08
 
   -0.49127E+08        -0.83606E+06         0.00000E+00
   -0.83606E+06        -0.51073E+08         0.00000E+00
    0.00000E+00         0.00000E+00        -0.50026E+08
 
   -0.49111E+08        -0.85186E+06         0.00000E+00
   -0.85186E+06        -0.51177E+08         0.00000E+00
    0.00000E+00         0.00000E+00        -0.50044E+08
 
   -0.49088E+08        -0.85861E+06         0.00000E+00
   -0.85861E+06        -0.51280E+08         0.00000E+00
    0.00000E+00         0.00000E+00        -0.50060E+08
 
   -0.49059E+08        -0.85654E+06         0.00000E+00
   -0.85654E+06        -0.51380E+08         0.00000E+00
    0.00000E+00         0.00000E+00        -0.50074E+08
 
   -0.49025E+08        -0.84594E+06         0.00000E+00
   -0.84594E+06        -0.51478E+08         0.00000E+00
    0.00000E+00         0.00000E+00        -0.50087E+08
 
   -0.48988E+08        -0.82715E+06         0.00000E+00
   -0.82715E+06        -0.51573E+08         0.00000E+00
    0.00000E+00         0.00000E+00        -0.50098E+08
 
   -0.48948E+08        -0.80050E+06         0.00000E+00
   -0.80050E+06        -0.51665E+08         0.00000E+00
    0.00000E+00         0.00000E+00        -0.50109E+08
 
   -0.48908E+08        -0.76632E+06         0.00000E+00
   -0.76632E+06        -0.51753E+08         0.00000E+00
    0.00000E+00         0.00000E+00        -0.50118E+08
 
   -0.48867E+08        -0.72494E+06         0.00000E+00
   -0.72494E+06        -0.51837E+08         0.00000E+00
    0.00000E+00         0.00000E+00        -0.50127E+08
 
   -0.48828E+08        -0.67667E+06         0.00000E+00
   -0.67667E+06        -0.51918E+08         0.00000E+00
    0.00000E+00         0.00000E+00        -0.50135E+08
 
   -0.48790E+08        -0.62177E+06         0.00000E+00
   -0.62177E+06        -0.51994E+08         0.00000E+00
    0.00000E+00         0.00000E+00        -0.50143E+08
 
   -0.48754E+08        -0.56051E+06         0.00000E+00
   -0.56051E+06        -0.52067E+08         0.00000E+00
    0.00000E+00         0.00000E+00        -0.50150E+08
 
   -0.48722E+08        -0.49313E+06         0.00000E+00
   -0.49313E+06        -0.52136E+08         0.00000E+00
    0.00000E+00         0.00000E+00        -0.50158E+08
 
   -0.48694E+08        -0.41985E+06         0.00000E+00
   -0.41985E+06        -0.52201E+08         0.00000E+00
    0.00000E+00         0.00000E+00        -0.50165E+08
 
   -0.48671E+08        -0.34092E+06         0.00000E+00
   -0.34092E+06        -0.52261E+08         0.00000E+00
    0.00000E+00         0.00000E+00        -0.50173E+08
 
   -0.48655E+08        -0.25656E+06         0.00000E+00
   -0.25656E+06        -0.52316E+08         0.00000E+00
    0.00000E+00         0.00000E+00        -0.50180E+08
 
   -0.48645E+08        -0.16705E+06         0.00000E+00
   -0.16705E+06        -0.52367E+08         0.00000E+00
    0.00000E+00         0.00000E+00        -0.50188E+08
 
   -0.48643E+08        -0.72713E+05         0.00000E+00
   -0.72713E+05        -0.52412E+08         0.00000E+00
    0.00000E+00         0.00000E+00        -0.50197E+08
 
   -0.48650E+08         0.26066E+05         0.00000E+00
    0.26066E+05        -0.52451E+08         0.00000E+00
    0.00000E+00         0.00000E+00        -0.50206E+08
 
   -0.48667E+08         0.12879E+06         0.00000E+00
    0.12879E+06        -0.52484E+08         0.00000E+00
    0.00000E+00         0.00000E+00        -0.50216E+08
 
   -0.48695E+08         0.23485E+06         0.00000E+00
    0.23485E+06        -0.52511E+08         0.00000E+00
    0.00000E+00         0.00000E+00        -0.50227E+08
 
   -0.48735E+08         0.34346E+06         0.00000E+00
    0.34346E+06        -0.52530E+08         0.00000E+00
    0.00000E+00         0.00000E+00        -0.50239E+08
 
   -0.48789E+08         0.45364E+06         0.00000E+00
    0.45364E+06        -0.52540E+08         0.00000E+00
    0.00000E+00         0.00000E+00        -0.50252E+08
 
   -0.48857E+08         0.56421E+06         0.00000E+00
    0.56421E+06        -0.52542E+08         0.00000E+00
    0.00000E+00         0.00000E+00        -0.50266E+08
 
   -0.48941E+08         0.67375E+06         0.00000E+00
    0.67375E+06        -0.52535E+08         0.00000E+00
    0.00000E+00         0.00000E+00        -0.50281E+08
 
   -0.49040E+08         0.78055E+06         0.00000E+00
    0.78055E+06        -0.52517E+08         0.00000E+00
    0.00000E+00         0.00000E+00        -0.50298E+08
 
   -0.49156E+08         0.88273E+06         0.00000E+00
    0.88273E+06        -0.52488E+08         0.00000E+00
    0.00000E+00         0.00000E+00        -0.50315E+08
 
   -0.49288E+08         0.97813E+06         0.00000E+00
    0.97813E+06        -0.52449E+08         0.00000E+00
    0.00000E+00         0.00000E+00        -0.50333E+08
 
   -0.49436E+08         0.10645E+07         0.00000E+00
    0.10645E+07        -0.52398E+08         0.00000E+00
    0.00000E+00         0.00000E+00        -0.50353E+08
 
   -0.49599E+08         0.11394E+07         0.00000E+00
    0.11394E+07        -0.52337E+08         0.00000E+00
    0.00000E+00         0.00000E+00        -0.50373E+08
 
   -0.49776E+08         0.12004E+07         0.00000E+00
    0.12004E+07        -0.52266E+08         0.00000E+00
    0.00000E+00         0.00000E+00        -0.50394E+08
 
   -0.49965E+08         0.12448E+07         0.00000E+00
    0.12448E+07        -0.52185E+08         0.00000E+00
    0.00000E+00         0.00000E+00        -0.50416E+08
 
   -0.50163E+08         0.12702E+07         0.00000E+00
    0.12702E+07        -0.52097E+08         0.00000E+00
    0.00000E+00         0.00000E+00        -0.50438E+08
 
   -0.50368E+08         0.12753E+07         0.00000E+00
    0.12753E+07        -0.52004E+08         0.00000E+00
    0.00000E+00         0.00000E+00        -0.50461E+08
 
   -0.47059E+08         0.18443E+05         0.00000E+00
    0.18443E+05        -0.49990E+08         0.00000E+00
    0.00000E+00         0.00000E+00        -0.49337E+08
 
   -0.47490E+08        -0.39972E+05         0.00000E+00
   -0.39972E+05        -0.49996E+08         0.00000E+00
    0.00000E+00         0.00000E+00        -0.49424E+08
 
   -0.47882E+08        -0.13208E+06         0.00000E+00
   -0.13208E+06        -0.50024E+08         0.00000E+00
    0.00000E+00         0.00000E+00        -0.49508E+08
 
   -0.48227E+08        -0.24682E+06         0.00000E+00
   -0.24682E+06        -0.50071E+08         0.00000E+00
    0.00000E+00         0.00000E+00        -0.49586E+08
 
   -0.48525E+08        -0.37685E+06         0.00000E+00
   -0.37685E+06        -0.50138E+08         0.00000E+00
    0.00000E+00         0.00000E+00        -0.49659E+08
 
   -0.48773E+08        -0.51518E+06         0.00000E+00
   -0.51518E+06        -0.50225E+08         0.00000E+00
    0.00000E+00         0.00000E+00        -0.49726E+08
 
   -0.48974E+08        -0.65514E+06         0.00000E+00
   -0.65514E+06        -0.50329E+08         0.00000E+00
    0.00000E+00         0.00000E+00        -0.49787E+08
 
   -0.49129E+08        -0.79092E+06         0.00000E+00
   -0.79092E+06        -0.50448E+08         0.00000E+00
    0.00000E+00         0.00000E+00        -0.49842E+08
 
   -0.49242E+08        -0.91791E+06         0.00000E+00
   -0.91791E+06        -0.50578E+08         0.00000E+00
    0.00000E+00         0.00000E+00        -0.49891E+08
 
   -0.49318E+08        -0.10328E+07         0.00000E+00
   -0.10328E+07        -0.50715E+08         0.00000E+00
    0.00000E+00         0.00000E+00        -0.49933E+08
 
   -0.49362E+08        -0.11333E+07         0.00000E+00
   -0.11333E+07        -0.50858E+08         0.00000E+00
    0.00000E+00         0.00000E+00        -0.49971E+08
 
   -0.49378E+08        -0.12184E+07         0.00000E+00
   -0.12184E+07        -0.51002E+08         0.00000E+00
    0.00000E+00         0.00000E+00        -0.50003E+08
 
   -0.49372E+08        -0.12876E+07         0.00000E+00
   -0.12876E+07        -0.51145E+08         0.00000E+00
    0.00000E+00         0.00000E+00        -0.50030E+08
 
   -0.49346E+08        -0.13411E+07         0.00000E+00
   -0.13411E+07        -0.51286E+08         0.00000E+00
    0.00000E+00         0.00000E+00        -0.50053E+08
 
   -0.49306E+08        -0.13796E+07         0.00000E+00
   -0.13796E+07        -0.51423E+08         0.00000E+00
    0.00000E+00         0.00000E+00        -0.50073E+08
 
   -0.49254E+08        -0.14038E+07         0.00000E+00
   -0.14038E+07        -0.51556E+08         0.00000E+00
    0.00000E+00         0.00000E+00        -0.50089E+08
 
   -0.49193E+08        -0.14148E+07         0.00000E+00
   -0.14148E+07        -0.51682E+08         0.00000E+00
    0.00000E+00         0.00000E+00        -0.50102E+08
 
   -0.49125E+08        -0.14135E+07         0.00000E+00
   -0.14135E+07        -0.51803E+08         0.00000E+00
    0.00000E+00         0.00000E+00        -0.50112E+08
 
   -0.49052E+08        -0.14010E+07         0.00000E+00
   -0.14010E+07        -0.51918E+08         0.00000E+00
    0.00000E+00         0.00000E+00        -0.50121E+08
 
   -0.48977E+08        -0.13782E+07         0.00000E+00
   -0.13782E+07        -0.52026E+08         0.00000E+00
    0.00000E+00         0.00000E+00        -0.50127E+08
 
   -0.48900E+08        -0.13462E+07         0.00000E+00
   -0.13462E+07        -0.52129E+08         0.00000E+00
    0.00000E+00         0.00000E+00        -0.50132E+08
 
   -0.48822E+08        -0.13056E+07         0.00000E+00
   -0.13056E+07        -0.52225E+08         0.00000E+00
    0.00000E+00         0.00000E+00        -0.50136E+08
 
   -0.48744E+08        -0.12571E+07         0.00000E+00
   -0.12571E+07        -0.52316E+08         0.00000E+00
    0.00000E+00         0.00000E+00        -0.50139E+08
 
   -0.48667E+08        -0.12014E+07         0.00000E+00
   -0.12014E+07        -0.52402E+08         0.00000E+00
    0.00000E+00         0.00000E+00        -0.50141E+08
 
   -0.48592E+08        -0.11389E+07         0.00000E+00
   -0.11389E+07        -0.52483E+08         0.00000E+00
    0.00000E+00         0.00000E+00        -0.50142E+08
 
   -0.48520E+08        -0.10700E+07         0.00000E+00
   -0.10700E+07        -0.52560E+08         0.00000E+00
    0.00000E+00         0.00000E+00        -0.50143E+08
 
   -0.48450E+08        -0.99481E+06         0.00000E+00
   -0.99481E+06        -0.52632E+08         0.00000E+00
    0.00000E+00         0.00000E+00        -0.50143E+08
 
   -0.48383E+08        -0.91362E+06         0.00000E+00
   -0.91362E+06        -0.52701E+08         0.00000E+00
    0.00000E+00         0.00000E+00        -0.50144E+08
 
   -0.48321E+08        -0.82643E+06         0.00000E+00
   -0.82643E+06        -0.52766E+08         0.00000E+00
    0.00000E+00         0.00000E+00        -0.50144E+08
 
   -0.48263E+08        -0.73322E+06         0.00000E+00
   -0.73322E+06        -0.52828E+08         0.00000E+00
    0.00000E+00         0.00000E+00        -0.50145E+08
 
   -0.48211E+08        -0.63387E+06         0.00000E+00
   -0.63387E+06        -0.52887E+08         0.00000E+00
    0.00000E+00         0.00000E+00        -0.50146E+08
 
   -0.48165E+08        -0.52823E+06         0.00000E+00
   -0.52823E+06        -0.52942E+08         0.00000E+00
    0.00000E+00         0.00000E+00        -0.50148E+08
 
   -0.48126E+08        -0.41609E+06         0.00000E+00
   -0.41609E+06        -0.52994E+08         0.00000E+00
    0.00000E+00         0.00000E+00        -0.50151E+08
 
   -0.48096E+08        -0.29724E+06         0.00000E+00
   -0.29724E+06        -0.53043E+08         0.00000E+00
    0.00000E+00         0.00000E+00        -0.50154E+08
 
   -0.48075E+08        -0.17145E+06         0.00000E+00
   -0.17145E+06        -0.53088E+08         0.00000E+00
    0.00000E+00         0.00000E+00        -0.50159E+08
 
   -0.48066E+08        -0.38589E+05         0.00000E+00
   -0.38589E+05        -0.53128E+08         0.00000E+00
    0.00000E+00         0.00000E+00        -0.50165E+08
 
   -0.48070E+08         0.10141E+06         0.00000E+00
    0.10141E+06        -0.53163E+08         0.00000E+00
    0.00000E+00         0.00000E+00        -0.50173E+08
 
   -0.48089E+08         0.24843E+06         0.00000E+00
    0.24843E+06        -0.53191E+08         0.00000E+00
    0.00000E+00         0.00000E+00        -0.50183E+08
 
   -0.48126E+08         0.40212E+06         0.00000E+00
    0.40212E+06        -0.53213E+08         0.00000E+00
    0.00000E+00         0.00000E+00        -0.50194E+08
 
   -0.48183E+08         0.56176E+06         0.00000E+00
    0.56176E+06        -0.53225E+08         0.00000E+00
    0.00000E+00         0.00000E+00        -0.50208E+08
 
   -0.48263E+08         0.72620E+06         0.00000E+00
    0.72620E+06        -0.53227E+08         0.00000E+00
    0.00000E+00         0.00000E+00        -0.50225E+08
 
   -0.48368E+08         0.89371E+06         0.00000E+00
    0.89371E+06        -0.53216E+08         0.00000E+00
    0.00000E+00         0.00000E+00        -0.50244E+08
 
   -0.48503E+08         0.10618E+07         0.00000E+00
    0.10618E+07        -0.53190E+08         0.00000E+00
    0.00000E+00         0.00000E+00        -0.50265E+08
 
   -0.48668E+08         0.12274E+07         0.00000E+00
    0.12274E+07        -0.53147E+08         0.00000E+00
    0.00000E+00         0.00000E+00        -0.50290E+08
 
   -0.48865E+08         0.13863E+07         0.00000E+00
    0.13863E+07        -0.53086E+08         0.00000E+00
    0.00000E+00         0.00000E+00        -0.50317E+08
 
   -0.49096E+08         0.15339E+07         0.00000E+00
    0.15339E+07        -0.53005E+08         0.00000E+00
    0.00000E+00         0.00000E+00        -0.50347E+08
 
   -0.49359E+08         0.16652E+07         0.00000E+00
    0.16652E+07        -0.52903E+08         0.00000E+00
    0.00000E+00         0.00000E+00        -0.50379E+08
 
   -0.49654E+08         0.17748E+07         0.00000E+00
    0.17748E+07        -0.52782E+08         0.00000E+00
    0.00000E+00         0.00000E+00        -0.50414E+08
 
   -0.49979E+08         0.18572E+07         0.00000E+00
    0.18572E+07        -0.52642E+08         0.00000E+00
    0.00000E+00         0.00000E+00        -0.50451E+08
 
   -0.50328E+08         0.19032E+07         0.00000E+00
    0.19032E+07        -0.52481E+08         0.00000E+00
    0.00000E+00         0.00000E+00        -0.50489E+08
 
   -0.47516E+08        -0.15199E+05         0.00000E+00
   -0.15199E+05        -0.49966E+08         0.00000E+00
    0.00000E+00         0.00000E+00        -0.49140E+08
 
   -0.48168E+08        -0.21708E+06         0.00000E+00
   -0.21708E+06        -0.50011E+08         0.00000E+00
    0.00000E+00         0.00000E+00        -0.49280E+08
 
   -0.48704E+08        -0.45110E+06         0.00000E+00
   -0.45110E+06        -0.50089E+08         0.00000E+00
    0.00000E+00         0.00000E+00        -0.49402E+08
 
   -0.49130E+08        -0.70626E+06         0.00000E+00
   -0.70626E+06        -0.50211E+08         0.00000E+00
    0.00000E+00         0.00000E+00        -0.49512E+08
 
   -0.49449E+08        -0.96329E+06         0.00000E+00
   -0.96329E+06        -0.50371E+08         0.00000E+00
    0.00000E+00         0.00000E+00        -0.49608E+08
 
   -0.49671E+08        -0.12058E+07         0.00000E+00
   -0.12058E+07        -0.50558E+08         0.00000E+00
    0.00000E+00         0.00000E+00        -0.49690E+08
 
   -0.49807E+08        -0.14227E+07         0.00000E+00
   -0.14227E+07        -0.50761E+08         0.00000E+00
    0.00000E+00         0.00000E+00        -0.49758E+08
 
   -0.49873E+08        -0.16083E+07         0.00000E+00
   -0.16083E+07        -0.50971E+08         0.00000E+00
    0.00000E+00         0.00000E+00        -0.49813E+08
 
   -0.49883E+08        -0.17602E+07         0.00000E+00
   -0.17602E+07        -0.51180E+08         0.00000E+00
    0.00000E+00         0.00000E+00        -0.49856E+08
 
   -0.49850E+08        -0.18791E+07         0.00000E+00
   -0.18791E+07        -0.51382E+08         0.00000E+00
    0.00000E+00         0.00000E+00        -0.49890E+08
 
   -0.49785E+08        -0.19669E+07         0.00000E+00
   -0.19669E+07        -0.51575E+08         0.00000E+00
    0.00000E+00         0.00000E+00        -0.49916E+08
 
   -0.49697E+08        -0.20266E+07         0.00000E+00
   -0.20266E+07        -0.51755E+08         0.00000E+00
    0.00000E+00         0.00000E+00        -0.49934E+08
 
   -0.49593E+08        -0.20614E+07         0.00000E+00
   -0.20614E+07        -0.51922E+08         0.00000E+00
    0.00000E+00         0.00000E+00        -0.49947E+08
 
   -0.49479E+08        -0.20745E+07         0.00000E+00
   -0.20745E+07        -0.52074E+08         0.00000E+00
    0.00000E+00         0.00000E+00        -0.49955E+08
 
   -0.49359E+08        -0.20691E+07         0.00000E+00
   -0.20691E+07        -0.52212E+08         0.00000E+00
    0.00000E+00         0.00000E+00        -0.49958E+08
 
   -0.49236E+08        -0.20481E+07         0.00000E+00
   -0.20481E+07        -0.52336E+08         0.00000E+00
    0.00000E+00         0.00000E+00        -0.49958E+08
 
   -0.49112E+08        -0.20139E+07         0.00000E+00
   -0.20139E+07        -0.52448E+08         0.00000E+00
    0.00000E+00         0.00000E+00        -0.49956E+08
 
   -0.48989E+08        -0.19688E+07         0.00000E+00
   -0.19688E+07        -0.52548E+08         0.00000E+00
    0.00000E+00         0.00000E+00        -0.49951E+08
 
   -0.48868E+08        -0.19147E+07         0.00000E+00
   -0.19147E+07        -0.52637E+08         0.00000E+00
    0.00000E+00         0.00000E+00        -0.49945E+08
 
   -0.48750E+08        -0.18530E+07         0.00000E+00
   -0.18530E+07        -0.52716E+08         0.00000E+00
    0.00000E+00         0.00000E+00        -0.49937E+08
 
   -0.48635E+08        -0.17850E+07         0.00000E+00
   -0.17850E+07        -0.52787E+08         0.00000E+00
    0.00000E+00         0.00000E+00        -0.49929E+08
 
   -0.48524E+08        -0.17118E+07         0.00000E+00
   -0.17118E+07        -0.52850E+08         0.00000E+00
    0.00000E+00         0.00000E+00        -0.49919E+08
 
   -0.48416E+08        -0.16341E+07         0.00000E+00
   -0.16341E+07        -0.52908E+08         0.00000E+00
    0.00000E+00         0.00000E+00        -0.49909E+08
 
   -0.48312E+08        -0.15525E+07         0.00000E+00
   -0.15525E+07        -0.52959E+08         0.00000E+00
    0.00000E+00         0.00000E+00        -0.49898E+08
 
   -0.48211E+08        -0.14673E+07         0.00000E+00
   -0.14673E+07        -0.53007E+08         0.00000E+00
    0.00000E+00         0.00000E+00        -0.49888E+08
 
   -0.48114E+08        -0.13787E+07         0.00000E+00
   -0.13787E+07        -0.53050E+08         0.00000E+00
    0.00000E+00         0.00000E+00        -0.49877E+08
 
   -0.48019E+08        -0.12868E+07         0.00000E+00
   -0.12868E+07        -0.53091E+08         0.00000E+00
    0.00000E+00         0.00000E+00        -0.49866E+08
 
   -0.47928E+08        -0.11913E+07         0.00000E+00
   -0.11913E+07        -0.53130E+08         0.00000E+00
    0.00000E+00         0.00000E+00        -0.49856E+08
 
   -0.47840E+08        -0.10920E+07         0.00000E+00
   -0.10920E+07        -0.53168E+08         0.00000E+00
    0.00000E+00         0.00000E+00        -0.49846E+08
 
   -0.47756E+08        -0.98851E+06         0.00000E+00
   -0.98851E+06        -0.53205E+08         0.00000E+00
    0.00000E+00         0.00000E+00        -0.49836E+08
 
   -0.47674E+08        -0.88015E+06         0.00000E+00
   -0.88015E+06        -0.53242E+08         0.00000E+00
    0.00000E+00         0.00000E+00        -0.49827E+08
 
   -0.47597E+08        -0.76622E+06         0.00000E+00
   -0.76622E+06        -0.53279E+08         0.00000E+00
    0.00000E+00         0.00000E+00        -0.49819E+08
 
   -0.47524E+08        -0.64585E+06         0.00000E+00
   -0.64585E+06        -0.53317E+08         0.00000E+00
    0.00000E+00         0.00000E+00        -0.49812E+08
 
   -0.47456E+08        -0.51801E+06         0.00000E+00
   -0.51801E+06        -0.53356E+08         0.00000E+00
    0.00000E+00         0.00000E+00        -0.49806E+08
 
   -0.47395E+08        -0.38155E+06         0.00000E+00
   -0.38155E+06        -0.53395E+08         0.00000E+00
    0.00000E+00         0.00000E+00        -0.49802E+08
 
   -0.47341E+08        -0.23515E+06         0.00000E+00
   -0.23515E+06        -0.53434E+08         0.00000E+00
    0.00000E+00         0.00000E+00        -0.49799E+08
 
   -0.47297E+08        -0.77423E+05         0.00000E+00
   -0.77423E+05        -0.53474E+08         0.00000E+00
    0.00000E+00         0.00000E+00        -0.49798E+08
 
   -0.47266E+08         0.93113E+05         0.00000E+00
    0.93113E+05        -0.53513E+08         0.00000E+00
    0.00000E+00         0.00000E+00        -0.49800E+08
 
   -0.47251E+08         0.27794E+06         0.00000E+00
    0.27794E+06        -0.53550E+08         0.00000E+00
    0.00000E+00         0.00000E+00        -0.49804E+08
 
   -0.47256E+08         0.47844E+06         0.00000E+00
    0.47844E+06        -0.53583E+08         0.00000E+00
    0.00000E+00         0.00000E+00        -0.49812E+08
 
   -0.47286E+08         0.69572E+06         0.00000E+00
    0.69572E+06        -0.53610E+08         0.00000E+00
    0.00000E+00         0.00000E+00        -0.49823E+08
 
   -0.47348E+08         0.93038E+06         0.00000E+00
    0.93038E+06        -0.53629E+08         0.00000E+00
    0.00000E+00         0.00000E+00        -0.49839E+08
 
   -0.47449E+08         0.11821E+07         0.00000E+00
    0.11821E+07        -0.53634E+08         0.00000E+00
    0.00000E+00         0.00000E+00        -0.49860E+08
 
   -0.47597E+08         0.14493E+07         0.00000E+00
    0.14493E+07        -0.53620E+08         0.00000E+00
    0.00000E+00         0.00000E+00        -0.49887E+08
 
   -0.47802E+08         0.17283E+07         0.00000E+00
    0.17283E+07        -0.53582E+08         0.00000E+00
    0.00000E+00         0.00000E+00        -0.49921E+08
 
   -0.48073E+08         0.20125E+07         0.00000E+00
    0.20125E+07        -0.53512E+08         0.00000E+00
    0.00000E+00         0.00000E+00        -0.49961E+08
 
   -0.48417E+08         0.22922E+07         0.00000E+00
    0.22922E+07        -0.53402E+08         0.00000E+00
    0.00000E+00         0.00000E+00        -0.50008E+08
 
   -0.48836E+08         0.25542E+07         0.00000E+00
    0.25542E+07        -0.53246E+08         0.00000E+00
    0.00000E+00         0.00000E+00        -0.50060E+08
 
   -0.49331E+08         0.27850E+07         0.00000E+00
    0.27850E+07        -0.53041E+08         0.00000E+00
    0.00000E+00         0.00000E+00        -0.50118E+08
 
   -0.49911E+08         0.29798E+07         0.00000E+00
    0.29798E+07        -0.52800E+08         0.00000E+00
    0.00000E+00         0.00000E+00        -0.50186E+08
 
   -0.49106E+08        -0.21004E+06         0.00000E+00
   -0.21004E+06        -0.49921E+08         0.00000E+00
    0.00000E+00         0.00000E+00        -0.48290E+08
 
   -0.49934E+08        -0.74570E+06         0.00000E+00
   -0.74570E+06        -0.50024E+08         0.00000E+00
    0.00000E+00         0.00000E+00        -0.48477E+08
 
   -0.50489E+08        -0.12903E+07         0.00000E+00
   -0.12903E+07        -0.50265E+08         0.00000E+00
    0.00000E+00         0.00000E+00        -0.48636E+08
 
   -0.50789E+08        -0.17669E+07         0.00000E+00
   -0.17669E+07        -0.50567E+08         0.00000E+00
    0.00000E+00         0.00000E+00        -0.48756E+08
 
   -0.50893E+08        -0.21493E+07         0.00000E+00
   -0.21493E+07        -0.50883E+08         0.00000E+00
    0.00000E+00         0.00000E+00        -0.48840E+08
 
   -0.50861E+08        -0.24359E+07         0.00000E+00
   -0.24359E+07        -0.51188E+08         0.00000E+00
    0.00000E+00         0.00000E+00        -0.48895E+08
 
   -0.50739E+08        -0.26363E+07         0.00000E+00
   -0.26363E+07        -0.51467E+08         0.00000E+00
    0.00000E+00         0.00000E+00        -0.48926E+08
 
   -0.50563E+08        -0.27634E+07         0.00000E+00
   -0.27634E+07        -0.51713E+08         0.00000E+00
    0.00000E+00         0.00000E+00        -0.48940E+08
 
   -0.50357E+08        -0.28308E+07         0.00000E+00
   -0.28308E+07        -0.51925E+08         0.00000E+00
    0.00000E+00         0.00000E+00        -0.48941E+08
 
   -0.50137E+08        -0.28509E+07         0.00000E+00
   -0.28509E+07        -0.52102E+08         0.00000E+00
    0.00000E+00         0.00000E+00        -0.48933E+08
 
   -0.49915E+08        -0.28343E+07         0.00000E+00
   -0.28343E+07        -0.52247E+08         0.00000E+00
    0.00000E+00         0.00000E+00        -0.48918E+08
 
   -0.49697E+08        -0.27899E+07         0.00000E+00
   -0.27899E+07        -0.52364E+08         0.00000E+00
    0.00000E+00         0.00000E+00        -0.48897E+08
 
   -0.49488E+08        -0.27248E+07         0.00000E+00
   -0.27248E+07        -0.52454E+08         0.00000E+00
    0.00000E+00         0.00000E+00        -0.48873E+08
 
   -0.49289E+08        -0.26448E+07         0.00000E+00
   -0.26448E+07        -0.52522E+08         0.00000E+00
    0.00000E+00         0.00000E+00        -0.48847E+08
 
   -0.49102E+08        -0.25544E+07         0.00000E+00
   -0.25544E+07        -0.52571E+08         0.00000E+00
    0.00000E+00         0.00000E+00        -0.48820E+08
 
   -0.48926E+08        -0.24570E+07         0.00000E+00
   -0.24570E+07        -0.52603E+08         0.00000E+00
    0.00000E+00         0.00000E+00        -0.48791E+08
 
   -0.48762E+08        -0.23553E+07         0.00000E+00
   -0.23553E+07        -0.52622E+08         0.00000E+00
    0.00000E+00         0.00000E+00        -0.48762E+08
 
   -0.48609E+08        -0.22513E+07         0.00000E+00
   -0.22513E+07        -0.52629E+08         0.00000E+00
    0.00000E+00         0.00000E+00        -0.48733E+08
 
   -0.48465E+08        -0.21466E+07         0.00000E+00
   -0.21466E+07        -0.52627E+08         0.00000E+00
    0.00000E+00         0.00000E+00        -0.48703E+08
 
   -0.48330E+08        -0.20420E+07         0.00000E+00
   -0.20420E+07        -0.52618E+08         0.00000E+00
    0.00000E+00         0.00000E+00        -0.48675E+08
 
   -0.48203E+08        -0.19384E+07         0.00000E+00
   -0.19384E+07        -0.52603E+08         0.00000E+00
    0.00000E+00         0.00000E+00        -0.48646E+08
 
   -0.48083E+08        -0.18362E+07         0.00000E+00
   -0.18362E+07        -0.52585E+08         0.00000E+00
    0.00000E+00         0.00000E+00        -0.48618E+08
 
   -0.47968E+08        -0.17356E+07         0.00000E+00
   -0.17356E+07        -0.52563E+08         0.00000E+00
    0.00000E+00         0.00000E+00        -0.48591E+08
 
   -0.47858E+08        -0.16367E+07         0.00000E+00
   -0.16367E+07        -0.52540E+08         0.00000E+00
    0.00000E+00         0.00000E+00        -0.48565E+08
 
   -0.47751E+08        -0.15394E+07         0.00000E+00
   -0.15394E+07        -0.52516E+08         0.00000E+00
    0.00000E+00         0.00000E+00        -0.48538E+08
 
   -0.47647E+08        -0.14434E+07         0.00000E+00
   -0.14434E+07        -0.52493E+08         0.00000E+00
    0.00000E+00         0.00000E+00        -0.48513E+08
 
   -0.47546E+08        -0.13483E+07         0.00000E+00
   -0.13483E+07        -0.52470E+08         0.00000E+00
    0.00000E+00         0.00000E+00        -0.48488E+08
 
   -0.47445E+08        -0.12536E+07         0.00000E+00
   -0.12536E+07        -0.52450E+08         0.00000E+00
    0.00000E+00         0.00000E+00        -0.48464E+08
 
   -0.47345E+08        -0.11587E+07         0.00000E+00
   -0.11587E+07        -0.52432E+08         0.00000E+00
    0.00000E+00         0.00000E+00        -0.48440E+08
 
   -0.47245E+08        -0.10628E+07         0.00000E+00
   -0.10628E+07        -0.52418E+08         0.00000E+00
    0.00000E+00         0.00000E+00        -0.48418E+08
 
   -0.47144E+08        -0.96504E+06         0.00000E+00
   -0.96504E+06        -0.52407E+08         0.00000E+00
    0.00000E+00         0.00000E+00        -0.48395E+08
 
   -0.47042E+08        -0.86428E+06         0.00000E+00
   -0.86428E+06        -0.52402E+08         0.00000E+00
    0.00000E+00         0.00000E+00        -0.48374E+08
 
   -0.46938E+08        -0.75923E+06         0.00000E+00
   -0.75923E+06        -0.52401E+08         0.00000E+00
    0.00000E+00         0.00000E+00        -0.48353E+08
 
   -0.46832E+08        -0.64834E+06         0.00000E+00
   -0.64834E+06        -0.52406E+08         0.00000E+00
    0.00000E+00         0.00000E+00        -0.48333E+08
 
   -0.46725E+08        -0.52977E+06         0.00000E+00
   -0.52977E+06        -0.52418E+08         0.00000E+00
    0.00000E+00         0.00000E+00        -0.48313E+08
 
   -0.46615E+08        -0.40134E+06         0.00000E+00
   -0.40134E+06        -0.52436E+08         0.00000E+00
    0.00000E+00         0.00000E+00        -0.48295E+08
 
   -0.46505E+08        -0.26043E+06         0.00000E+00
   -0.26043E+06        -0.52461E+08         0.00000E+00
    0.00000E+00         0.00000E+00        -0.48278E+08
 
   -0.46395E+08        -0.10393E+06         0.00000E+00
   -0.10393E+06        -0.52494E+08         0.00000E+00
    0.00000E+00         0.00000E+00        -0.48263E+08
 
   -0.46288E+08         0.71851E+05         0.00000E+00
    0.71851E+05        -0.52535E+08         0.00000E+00
    0.00000E+00         0.00000E+00        -0.48250E+08
 
   -0.46186E+08         0.27130E+06         0.00000E+00
    0.27130E+06        -0.52583E+08         0.00000E+00
    0.00000E+00         0.00000E+00        -0.48239E+08
 
   -0.46094E+08         0.49955E+06         0.00000E+00
    0.49955E+06        -0.52637E+08         0.00000E+00
    0.00000E+00         0.00000E+00        -0.48231E+08
 
   -0.46018E+08         0.76254E+06         0.00000E+00
    0.76254E+06        -0.52696E+08         0.00000E+00
    0.00000E+00         0.00000E+00        -0.48228E+08
 
   -0.45969E+08         0.10670E+07         0.00000E+00
    0.10670E+07        -0.52756E+08         0.00000E+00
    0.00000E+00         0.00000E+00        -0.48230E+08
 
   -0.45960E+08         0.14200E+07         0.00000E+00
    0.14200E+07        -0.52814E+08         0.00000E+00
    0.00000E+00         0.00000E+00        -0.48240E+08
 
   -0.46010E+08         0.18287E+07         0.00000E+00
    0.18287E+07        -0.52862E+08         0.00000E+00
    0.00000E+00         0.00000E+00        -0.48260E+08
 
   -0.46145E+08         0.22987E+07         0.00000E+00
    0.22987E+07        -0.52890E+08         0.00000E+00
    0.00000E+00         0.00000E+00        -0.48292E+08
 
   -0.46397E+08         0.28315E+07         0.00000E+00
    0.28315E+07        -0.52879E+08         0.00000E+00
    0.00000E+00         0.00000E+00        -0.48340E+08
 
   -0.46807E+08         0.34189E+07         0.00000E+00
    0.34189E+07        -0.52805E+08         0.00000E+00
    0.00000E+00         0.00000E+00        -0.48407E+08
 
   -0.47407E+08         0.40334E+07         0.00000E+00
    0.40334E+07        -0.52630E+08         0.00000E+00
    0.00000E+00         0.00000E+00        -0.48493E+08
 
   -0.48192E+08         0.46095E+07         0.00000E+00
    0.46095E+07        -0.52294E+08         0.00000E+00
    0.00000E+00         0.00000E+00        -0.48582E+08
 
   -0.53488E+08        -0.86969E+06         0.00000E+00
   -0.86969E+06        -0.49833E+08         0.00000E+00
    0.00000E+00         0.00000E+00        -0.45491E+08
 
   -0.53662E+08        -0.21039E+07         0.00000E+00
   -0.21039E+07        -0.50325E+08         0.00000E+00
    0.00000E+00         0.00000E+00        -0.45624E+08
 
   -0.53315E+08        -0.28577E+07         0.00000E+00
   -0.28577E+07        -0.50694E+08         0.00000E+00
    0.00000E+00         0.00000E+00        -0.45628E+08
 
   -0.52767E+08        -0.32810E+07         0.00000E+00
   -0.32810E+07        -0.50949E+08         0.00000E+00
    0.00000E+00         0.00000E+00        -0.45570E+08
 
   -0.52169E+08        -0.34821E+07         0.00000E+00
   -0.34821E+07        -0.51106E+08         0.00000E+00
    0.00000E+00         0.00000E+00        -0.45481E+08
 
   -0.51588E+08        -0.35367E+07         0.00000E+00
   -0.35367E+07        -0.51181E+08         0.00000E+00
    0.00000E+00         0.00000E+00        -0.45380E+08
 
   -0.51052E+08        -0.34967E+07         0.00000E+00
   -0.34967E+07        -0.51190E+08         0.00000E+00
    0.00000E+00         0.00000E+00        -0.45275E+08
 
   -0.50572E+08        -0.33973E+07         0.00000E+00
   -0.33973E+07        -0.51149E+08         0.00000E+00
    0.00000E+00         0.00000E+00        -0.45171E+08
 
   -0.50147E+08        -0.32623E+07         0.00000E+00
   -0.32623E+07        -0.51069E+08         0.00000E+00
    0.00000E+00         0.00000E+00        -0.45070E+08
 
   -0.49774E+08        -0.31076E+07         0.00000E+00
   -0.31076E+07        -0.50960E+08         0.00000E+00
    0.00000E+00         0.00000E+00        -0.44973E+08
 
   -0.49448E+08        -0.29440E+07         0.00000E+00
   -0.29440E+07        -0.50831E+08         0.00000E+00
    0.00000E+00         0.00000E+00        -0.44882E+08
 
   -0.49164E+08        -0.27783E+07         0.00000E+00
   -0.27783E+07        -0.50687E+08         0.00000E+00
    0.00000E+00         0.00000E+00        -0.44797E+08
 
   -0.48914E+08        -0.26150E+07         0.00000E+00
   -0.26150E+07        -0.50535E+08         0.00000E+00
    0.00000E+00         0.00000E+00        -0.44716E+08
 
   -0.48695E+08        -0.24570E+07         0.00000E+00
   -0.24570E+07        -0.50377E+08         0.00000E+00
    0.00000E+00         0.00000E+00        -0.44641E+08
 
   -0.48502E+08        -0.23058E+07         0.00000E+00
   -0.23058E+07        -0.50217E+08         0.00000E+00
    0.00000E+00         0.00000E+00        -0.44570E+08
 
   -0.48330E+08        -0.21623E+07         0.00000E+00
   -0.21623E+07        -0.50057E+08         0.00000E+00
    0.00000E+00         0.00000E+00        -0.44504E+08
 
   -0.48177E+08        -0.20270E+07         0.00000E+00
   -0.20270E+07        -0.49899E+08         0.00000E+00
    0.00000E+00         0.00000E+00        -0.44442E+08
 
   -0.48038E+08        -0.18997E+07         0.00000E+00
   -0.18997E+07        -0.49744E+08         0.00000E+00
    0.00000E+00         0.00000E+00        -0.44383E+08
 
   -0.47912E+08        -0.17802E+07         0.00000E+00
   -0.17802E+07        -0.49593E+08         0.00000E+00
    0.00000E+00         0.00000E+00        -0.44328E+08
 
   -0.47797E+08        -0.16683E+07         0.00000E+00
   -0.16683E+07        -0.49448E+08         0.00000E+00
    0.00000E+00         0.00000E+00        -0.44275E+08
 
   -0.47689E+08        -0.15634E+07         0.00000E+00
   -0.15634E+07        -0.49308E+08         0.00000E+00
    0.00000E+00         0.00000E+00        -0.44226E+08
 
   -0.47588E+08        -0.14649E+07         0.00000E+00
   -0.14649E+07        -0.49174E+08         0.00000E+00
    0.00000E+00         0.00000E+00        -0.44179E+08
 
   -0.47491E+08        -0.13725E+07         0.00000E+00
   -0.13725E+07        -0.49046E+08         0.00000E+00
    0.00000E+00         0.00000E+00        -0.44134E+08
 
   -0.47398E+08        -0.12854E+07         0.00000E+00
   -0.12854E+07        -0.48924E+08         0.00000E+00
    0.00000E+00         0.00000E+00        -0.44091E+08
 
   -0.47306E+08        -0.12032E+07         0.00000E+00
   -0.12032E+07        -0.48809E+08         0.00000E+00
    0.00000E+00         0.00000E+00        -0.44049E+08
 
   -0.47215E+08        -0.11252E+07         0.00000E+00
   -0.11252E+07        -0.48700E+08         0.00000E+00
    0.00000E+00         0.00000E+00        -0.44010E+08
 
   -0.47123E+08        -0.10507E+07         0.00000E+00
   -0.10507E+07        -0.48599E+08         0.00000E+00
    0.00000E+00         0.00000E+00        -0.43971E+08
 
   -0.47029E+08        -0.97928E+06         0.00000E+00
   -0.97928E+06        -0.48504E+08         0.00000E+00
    0.00000E+00         0.00000E+00        -0.43933E+08
 
   -0.46932E+08        -0.91011E+06         0.00000E+00
   -0.91011E+06        -0.48416E+08         0.00000E+00
    0.00000E+00         0.00000E+00        -0.43896E+08
 
   -0.46831E+08        -0.84248E+06         0.00000E+00
   -0.84248E+06        -0.48336E+08         0.00000E+00
    0.00000E+00         0.00000E+00        -0.43860E+08
 
   -0.46724E+08        -0.77557E+06         0.00000E+00
   -0.77557E+06        -0.48263E+08         0.00000E+00
    0.00000E+00         0.00000E+00        -0.43824E+08
 
   -0.46610E+08        -0.70843E+06         0.00000E+00
   -0.70843E+06        -0.48198E+08         0.00000E+00
    0.00000E+00         0.00000E+00        -0.43788E+08
 
   -0.46487E+08        -0.63998E+06         0.00000E+00
   -0.63998E+06        -0.48141E+08         0.00000E+00
    0.00000E+00         0.00000E+00        -0.43752E+08
 
   -0.46355E+08        -0.56891E+06         0.00000E+00
   -0.56891E+06        -0.48093E+08         0.00000E+00
    0.00000E+00         0.00000E+00        -0.43716E+08
 
   -0.46211E+08        -0.49366E+06         0.00000E+00
   -0.49366E+06        -0.48055E+08         0.00000E+00
    0.00000E+00         0.00000E+00        -0.43680E+08
 
   -0.46054E+08        -0.41228E+06         0.00000E+00
   -0.41228E+06        -0.48026E+08         0.00000E+00
    0.00000E+00         0.00000E+00        -0.43643E+08
 
   -0.45881E+08        -0.32235E+06         0.00000E+00
   -0.32235E+06        -0.48010E+08         0.00000E+00
    0.00000E+00         0.00000E+00        -0.43605E+08
 
   -0.45690E+08        -0.22078E+06         0.00000E+00
   -0.22078E+06        -0.48005E+08         0.00000E+00
    0.00000E+00         0.00000E+00        -0.43566E+08
 
   -0.45480E+08        -0.10365E+06         0.00000E+00
   -0.10365E+06        -0.48015E+08         0.00000E+00
    0.00000E+00         0.00000E+00        -0.43525E+08
 
   -0.45247E+08         0.34172E+05         0.00000E+00
    0.34172E+05        -0.48040E+08         0.00000E+00
    0.00000E+00         0.00000E+00        -0.43484E+08
 
   -0.44989E+08         0.19939E+06         0.00000E+00
    0.19939E+06        -0.48083E+08         0.00000E+00
    0.00000E+00         0.00000E+00        -0.43441E+08
 
   -0.44705E+08         0.40087E+06         0.00000E+00
    0.40087E+06        -0.48145E+08         0.00000E+00
    0.00000E+00         0.00000E+00        -0.43396E+08
 
   -0.44393E+08         0.65045E+06         0.00000E+00
    0.65045E+06        -0.48230E+08         0.00000E+00
    0.00000E+00         0.00000E+00        -0.43351E+08
 
   -0.44055E+08         0.96409E+06         0.00000E+00
    0.96409E+06        -0.48339E+08         0.00000E+00
    0.00000E+00         0.00000E+00        -0.43305E+08
 
   -0.43696E+08         0.13634E+07         0.00000E+00
    0.13634E+07        -0.48474E+08         0.00000E+00
    0.00000E+00         0.00000E+00        -0.43261E+08
 
   -0.43330E+08         0.18781E+07         0.00000E+00
    0.18781E+07        -0.48636E+08         0.00000E+00
    0.00000E+00         0.00000E+00        -0.43220E+08
 
   -0.42986E+08         0.25488E+07         0.00000E+00
    0.25488E+07        -0.48825E+08         0.00000E+00
    0.00000E+00         0.00000E+00        -0.43189E+08
 
   -0.42724E+08         0.34311E+07         0.00000E+00
    0.34311E+07        -0.49033E+08         0.00000E+00
    0.00000E+00         0.00000E+00        -0.43178E+08
 
   -0.42665E+08         0.46004E+07         0.00000E+00
    0.46004E+07        -0.49248E+08         0.00000E+00
    0.00000E+00         0.00000E+00        -0.43209E+08
 
   -0.43061E+08         0.61545E+07         0.00000E+00
    0.61545E+07        -0.49443E+08         0.00000E+00
    0.00000E+00         0.00000E+00        -0.43327E+08
 
   -0.60932E+08        -0.21560E+07         0.00000E+00
   -0.21560E+07        -0.50293E+08         0.00000E+00
    0.00000E+00         0.00000E+00        -0.39292E+08
 
   -0.57611E+08        -0.24967E+07         0.00000E+00
   -0.24967E+07        -0.49652E+08         0.00000E+00
    0.00000E+00         0.00000E+00        -0.38500E+08
 
   -0.55255E+08        -0.25364E+07         0.00000E+00
   -0.25364E+07        -0.48933E+08         0.00000E+00
    0.00000E+00         0.00000E+00        -0.37885E+08
 
   -0.53533E+08        -0.24390E+07         0.00000E+00
   -0.24390E+07        -0.48192E+08         0.00000E+00
    0.00000E+00         0.00000E+00        -0.37392E+08
 
   -0.52246E+08        -0.22839E+07         0.00000E+00
   -0.22839E+07        -0.47460E+08         0.00000E+00
    0.00000E+00         0.00000E+00        -0.36988E+08
 
   -0.51265E+08        -0.21100E+07         0.00000E+00
   -0.21100E+07        -0.46756E+08         0.00000E+00
    0.00000E+00         0.00000E+00        -0.36651E+08
 
   -0.50505E+08        -0.19362E+07         0.00000E+00
   -0.19362E+07        -0.46089E+08         0.00000E+00
    0.00000E+00         0.00000E+00        -0.36366E+08
 
   -0.49907E+08        -0.17711E+07         0.00000E+00
   -0.17711E+07        -0.45463E+08         0.00000E+00
    0.00000E+00         0.00000E+00        -0.36121E+08
 
   -0.49431E+08        -0.16186E+07         0.00000E+00
   -0.16186E+07        -0.44878E+08         0.00000E+00
    0.00000E+00         0.00000E+00        -0.35909E+08
 
   -0.49048E+08        -0.14795E+07         0.00000E+00
   -0.14795E+07        -0.44335E+08         0.00000E+00
    0.00000E+00         0.00000E+00        -0.35724E+08
 
   -0.48736E+08        -0.13537E+07         0.00000E+00
   -0.13537E+07        -0.43832E+08         0.00000E+00
    0.00000E+00         0.00000E+00        -0.35560E+08
 
   -0.48478E+08        -0.12403E+07         0.00000E+00
   -0.12403E+07        -0.43365E+08         0.00000E+00
    0.00000E+00         0.00000E+00        -0.35416E+08
 
   -0.48264E+08        -0.11383E+07         0.00000E+00
   -0.11383E+07        -0.42932E+08         0.00000E+00
    0.00000E+00         0.00000E+00        -0.35286E+08
 
   -0.48084E+08        -0.10465E+07         0.00000E+00
   -0.10465E+07        -0.42532E+08         0.00000E+00
    0.00000E+00         0.00000E+00        -0.35170E+08
 
   -0.47930E+08        -0.96375E+06         0.00000E+00
   -0.96375E+06        -0.42160E+08         0.00000E+00
    0.00000E+00         0.00000E+00        -0.35065E+08
 
   -0.47798E+08        -0.88913E+06         0.00000E+00
   -0.88913E+06        -0.41815E+08         0.00000E+00
    0.00000E+00         0.00000E+00        -0.34970E+08
 
   -0.47682E+08        -0.82170E+06         0.00000E+00
   -0.82170E+06        -0.41495E+08         0.00000E+00
    0.00000E+00         0.00000E+00        -0.34882E+08
 
   -0.47579E+08        -0.76063E+06         0.00000E+00
   -0.76063E+06        -0.41198E+08         0.00000E+00
    0.00000E+00         0.00000E+00        -0.34802E+08
 
   -0.47486E+08        -0.70519E+06         0.00000E+00
   -0.70519E+06        -0.40921E+08         0.00000E+00
    0.00000E+00         0.00000E+00        -0.34728E+08
 
   -0.47401E+08        -0.65475E+06         0.00000E+00
   -0.65475E+06        -0.40663E+08         0.00000E+00
    0.00000E+00         0.00000E+00        -0.34660E+08
 
   -0.47321E+08        -0.60873E+06         0.00000E+00
   -0.60873E+06        -0.40423E+08         0.00000E+00
    0.00000E+00         0.00000E+00        -0.34596E+08
 
   -0.47245E+08        -0.56662E+06         0.00000E+00
   -0.56662E+06        -0.40199E+08         0.00000E+00
    0.00000E+00         0.00000E+00        -0.34536E+08
 
   -0.47171E+08        -0.52797E+06         0.00000E+00
   -0.52797E+06        -0.39990E+08         0.00000E+00
    0.00000E+00         0.00000E+00        -0.34479E+08
 
   -0.47097E+08        -0.49238E+06         0.00000E+00
   -0.49238E+06        -0.39795E+08         0.00000E+00
    0.00000E+00         0.00000E+00        -0.34426E+08
 
   -0.47023E+08        -0.45947E+06         0.00000E+00
   -0.45947E+06        -0.39613E+08         0.00000E+00
    0.00000E+00         0.00000E+00        -0.34374E+08
 
   -0.46948E+08        -0.42890E+06         0.00000E+00
   -0.42890E+06        -0.39442E+08         0.00000E+00
    0.00000E+00         0.00000E+00        -0.34325E+08
 
   -0.46869E+08        -0.40037E+06         0.00000E+00
   -0.40037E+06        -0.39283E+08         0.00000E+00
    0.00000E+00         0.00000E+00        -0.34277E+08
 
   -0.46786E+08        -0.37355E+06         0.00000E+00
   -0.37355E+06        -0.39135E+08         0.00000E+00
    0.00000E+00         0.00000E+00        -0.34231E+08
 
   -0.46696E+08        -0.34814E+06         0.00000E+00
   -0.34814E+06        -0.38996E+08         0.00000E+00
    0.00000E+00         0.00000E+00        -0.34186E+08
 
   -0.46600E+08        -0.32385E+06         0.00000E+00
   -0.32385E+06        -0.38867E+08         0.00000E+00
    0.00000E+00         0.00000E+00        -0.34141E+08
 
   -0.46495E+08        -0.30034E+06         0.00000E+00
   -0.30034E+06        -0.38748E+08         0.00000E+00
    0.00000E+00         0.00000E+00        -0.34096E+08
 
   -0.46380E+08        -0.27727E+06         0.00000E+00
   -0.27727E+06        -0.38637E+08         0.00000E+00
    0.00000E+00         0.00000E+00        -0.34050E+08
 
   -0.46251E+08        -0.25422E+06         0.00000E+00
   -0.25422E+06        -0.38536E+08         0.00000E+00
    0.00000E+00         0.00000E+00        -0.34005E+08
 
   -0.46108E+08        -0.23071E+06         0.00000E+00
   -0.23071E+06        -0.38444E+08         0.00000E+00
    0.00000E+00         0.00000E+00        -0.33957E+08
 
   -0.45947E+08        -0.20618E+06         0.00000E+00
   -0.20618E+06        -0.38362E+08         0.00000E+00
    0.00000E+00         0.00000E+00        -0.33909E+08
 
   -0.45764E+08        -0.17989E+06         0.00000E+00
   -0.17989E+06        -0.38290E+08         0.00000E+00
    0.00000E+00         0.00000E+00        -0.33858E+08
 
   -0.45555E+08        -0.15092E+06         0.00000E+00
   -0.15092E+06        -0.38229E+08         0.00000E+00
    0.00000E+00         0.00000E+00        -0.33804E+08
 
   -0.45316E+08        -0.11805E+06         0.00000E+00
   -0.11805E+06        -0.38180E+08         0.00000E+00
    0.00000E+00         0.00000E+00        -0.33746E+08
 
   -0.45039E+08        -0.79661E+05         0.00000E+00
   -0.79661E+05        -0.38145E+08         0.00000E+00
    0.00000E+00         0.00000E+00        -0.33684E+08
 
   -0.44717E+08        -0.33551E+05         0.00000E+00
   -0.33551E+05        -0.38127E+08         0.00000E+00
    0.00000E+00         0.00000E+00        -0.33616E+08
 
   -0.44340E+08         0.23323E+05         0.00000E+00
    0.23323E+05        -0.38129E+08         0.00000E+00
    0.00000E+00         0.00000E+00        -0.33541E+08
 
   -0.43892E+08         0.95240E+05         0.00000E+00
    0.95240E+05        -0.38155E+08         0.00000E+00
    0.00000E+00         0.00000E+00        -0.33457E+08
 
   -0.43358E+08         0.18833E+06         0.00000E+00
    0.18833E+06        -0.38213E+08         0.00000E+00
    0.00000E+00         0.00000E+00        -0.33361E+08
 
   -0.42713E+08         0.31157E+06         0.00000E+00
    0.31157E+06        -0.38310E+08         0.00000E+00
    0.00000E+00         0.00000E+00        -0.33252E+08
 
   -0.41926E+08         0.47840E+06         0.00000E+00
    0.47840E+06        -0.38458E+08         0.00000E+00
    0.00000E+00         0.00000E+00        -0.33124E+08
 
   -0.40950E+08         0.70948E+06         0.00000E+00
    0.70948E+06        -0.38674E+08         0.00000E+00
    0.00000E+00         0.00000E+00        -0.32972E+08
 
   -0.39723E+08         0.10376E+07         0.00000E+00
    0.10376E+07        -0.38982E+08         0.00000E+00
    0.00000E+00         0.00000E+00        -0.32788E+08
 
   -0.38148E+08         0.15168E+07         0.00000E+00
    0.15168E+07        -0.39415E+08         0.00000E+00
    0.00000E+00         0.00000E+00        -0.32560E+08
 
   -0.36078E+08         0.22398E+07         0.00000E+00
    0.22398E+07        -0.40022E+08         0.00000E+00
    0.00000E+00         0.00000E+00        -0.32267E+08
 
   -0.33274E+08         0.33741E+07         0.00000E+00
    0.33741E+07        -0.40873E+08         0.00000E+00
    0.00000E+00         0.00000E+00        -0.31876E+08
 
SCALARS stresss double 
LOOKUP_TABLE default
  -49715813.5270986     
  -50625399.8509468     
  -51458902.7419589     
  -52186280.5866465     
  -52777080.9447759     
  -53262993.5274057     
  -53670114.6701208     
  -54016303.0737606     
  -54314255.6138444     
  -54573318.1139482     
  -54800562.5349822     
  -55001461.2412365     
  -55180327.8950582     
  -55340616.5686829     
  -55485131.0378063     
  -55616175.0939936     
  -55735662.9244892     
  -55845201.7491778     
  -55946154.7603892     
  -56039689.8222392     
  -56126817.7207479     
  -56208422.6573514     
  -56285286.9382503     
  -56358111.3049671     
  -56427532.0000733     
  -56494135.4175294     
  -56558471.0183097     
  -56621063.0790792     
  -56682421.7723457     
  -56743054.0438129     
  -56803474.7540422     
  -56864218.5884463     
  -56925853.3179554     
  -56988995.1240099     
  -57054326.9055925     
  -57122620.7952249     
  -57194766.5781091     
  -57271808.4212839     
  -57354993.4251330     
  -57445837.2628570     
  -57546215.0292694     
  -57658490.2164012     
  -57785703.0699413     
  -57931854.6303068     
  -58102351.0669443     
  -58304728.5061054     
  -58549892.7262728     
  -58854353.3267305     
  -59244482.1520349     
  -59765111.9096112     
  -50537005.6838356     
  -50291098.5150324     
  -50205065.9427485     
  -50209353.4635274     
  -50287575.5484957     
  -50402640.7654829     
  -50532727.6158716     
  -50666880.0654448     
  -50799363.3682669     
  -50927217.0043146     
  -51049002.7407758     
  -51164136.6907138     
  -51272519.6195968     
  -51374326.0274566     
  -51469881.0039207     
  -51559587.2348680     
  -51643881.4778849     
  -51723208.7531949     
  -51798007.3748399     
  -51868700.6998376     
  -51935693.0725660     
  -51999368.3950979     
  -52060090.3352284     
  -52118203.5445396     
  -52174035.4857829     
  -52227898.6128196     
  -52280092.7374345     
  -52330907.4735124     
  -52380624.6808786     
  -52429520.8441593     
  -52477869.3182491     
  -52525942.3499744     
  -52574012.7400265     
  -52622354.9295424     
  -52671245.1626031     
  -52720960.1557109     
  -52771773.3387652     
  -52823947.1133733     
  -52877718.5104600     
  -52933273.7586353     
  -52990703.9018093     
  -53049927.3481543     
  -53110553.2631051     
  -53171636.0430074     
  -53231222.5916168     
  -53285491.0137677     
  -53327051.9673313     
  -53341463.9450789     
  -53299782.3853308     
  -53141949.2361396     
  -50643863.2029833     
  -50408235.0307511     
  -50200904.5455948     
  -50038341.4349576     
  -49915143.3035742     
  -49829562.7686224     
  -49776173.7522334     
  -49748207.7450958     
  -49739596.2158860     
  -49745414.1493376     
  -49761826.8568372     
  -49785904.6138027     
  -49815429.3050264     
  -49848729.5240570     
  -49884549.8433548     
  -49921950.3304244     
  -49960230.2975640     
  -49998870.6726002     
  -50037490.4154810     
  -50075813.4487553     
  -50113643.4382306     
  -50150844.4318102     
  -50187325.8667399     
  -50223030.8243484     
  -50257926.6790472     
  -50291997.4801257     
  -50325237.5392795     
  -50357645.7868280     
  -50389220.5136746     
  -50419954.1390628     
  -50449827.6376931     
  -50478804.2223593     
  -50506821.8052367     
  -50533783.6438411     
  -50559546.4033759     
  -50583904.6170981     
  -50606570.1758021     
  -50627144.9975572     
  -50645084.3942516     
  -50659647.8672268     
  -50669833.2393043     
  -50674289.5749974     
  -50671205.4809871     
  -50658175.4951786     
  -50632067.3862991     
  -50588971.1295791     
  -50524469.1251221     
  -50434894.7718711     
  -50321394.7115995     
  -50201710.0409961     
  -50789051.7536380     
  -50598072.0692753     
  -50432050.9307745     
  -50284478.8232165     
  -50155920.7152540     
  -50045404.6084664     
  -49952214.4996119     
  -49875410.7125429     
  -49813573.8383516     
  -49765003.0901842     
  -49727930.5222319     
  -49700662.8605858     
  -49681656.0879971     
  -49669544.6594402     
  -49663144.1335553     
  -49661439.8765364     
  -49663569.5069962     
  -49668803.4119893     
  -49676525.6137660     
  -49686216.0694631     
  -49697434.8140646     
  -49709807.9955495     
  -49723015.6677453     
  -49736781.1221579     
  -49750861.5089632     
  -49765039.4930426     
  -49779115.6985168     
  -49792901.7064629     
  -49806213.3810935     
  -49818864.3077373     
  -49830659.1312547     
  -49841386.5874044     
  -49850812.0254274     
  -49858669.2341257     
  -49864651.4175112     
  -49868401.2401305     
  -49869500.0120888     
  -49867456.3711034     
  -49861695.3478317     
  -49851549.6432466     
  -49836256.5736922     
  -49814966.8369311     
  -49786775.4472713     
  -49750790.9088331     
  -49706263.9360406     
  -49652792.3546810     
  -49590570.6186942     
  -49520452.3093760     
  -49442908.2813843     
  -49352786.2104666     
  -50823676.7605439     
  -50708090.7992940     
  -50595650.0665045     
  -50489972.5586865     
  -50391633.8057151     
  -50301215.4155300     
  -50218925.1192800     
  -50144765.7964313     
  -50078621.3387805     
  -50020235.7161916     
  -49969217.1725680     
  -49925068.4514730     
  -49887225.6365132     
  -49855094.0370877     
  -49828076.3913076     
  -49805592.7009749     
  -49787092.7970447     
  -49772063.2509260     
  -49760030.1824968     
  -49750559.2424958     
  -49743253.7400825     
  -49737751.6155870     
  -49733721.7433431     
  -49730859.8884043     
  -49728884.5250430     
  -49727532.6443662     
  -49726555.6246209     
  -49725715.2043273     
  -49724779.5808700     
  -49723519.6530769     
  -49721705.4348671     
  -49719102.6891436     
  -49715469.8693093     
  -49710555.5143837     
  -49704096.3285586     
  -49695816.2940503     
  -49685427.3232128     
  -49672632.1522014     
  -49657130.3971864     
  -49638628.8779953     
  -49616857.3194290     
  -49591590.0544605     
  -49562672.7677978     
  -49530049.6136991     
  -49493779.0017612     
  -49454016.3804632     
  -49410939.4941060     
  -49364644.8565750     
  -49315341.3179335     
  -49265359.3850540     
  -50822649.3286900     
  -50743192.7410778     
  -50666278.4449385     
  -50591645.0357676     
  -50519902.3217577     
  -50451475.0989659     
  -50386712.4211231     
  -50325859.6761036     
  -50269058.2313704     
  -50216368.7417429     
  -50167782.8617773     
  -50123229.5480423     
  -50082581.9448180     
  -50045666.3450886     
  -50012272.4524028     
  -49982163.6932160     
  -49955086.6069378     
  -49930778.7758244     
  -49908975.1161250     
  -49889412.5847309     
  -49871833.4799217     
  -49855987.5644964     
  -49841633.2447235     
  -49828538.0207834     
  -49816478.3975395     
  -49805239.4166670     
  -49794613.9467682     
  -49784401.8492191     
  -49774409.1249739     
  -49764447.1415501     
  -49754332.0396743     
  -49743884.4249371     
  -49732929.4600792     
  -49721297.4859531     
  -49708825.3096772     
  -49695358.2998743     
  -49680753.4092696     
  -49664883.1858417     
  -49647640.7091762     
  -49628945.1682154     
  -49608747.4599907     
  -49587034.7686280     
  -49563832.7649090     
  -49539204.3805116     
  -49513246.2010579     
  -49486089.0722048     
  -49457918.2681972     
  -49429025.0928879     
  -49399800.9116262     
  -49370029.9890241     
  -50797042.3262818     
  -50739416.7996961     
  -50682569.3212858     
  -50626982.3094641     
  -50572830.5390345     
  -50520318.9042462     
  -50469632.4613489     
  -50420932.9777517     
  -50374353.3298007     
  -50329991.0456638     
  -50287908.2427061     
  -50248133.8636227     
  -50210666.1877154     
  -50175475.3774304     
  -50142506.2651323     
  -50111681.4759121     
  -50082904.8054743     
  -50056064.6778995     
  -50031037.4978221     
  -50007690.7493686     
  -49985885.7483657     
  -49965480.0061194     
  -49946329.2044402     
  -49928288.8109023     
  -49911215.3820401     
  -49894967.6127722     
  -49879407.1952650     
  -49864399.5517053     
  -49849814.5043764     
  -49835526.9437947     
  -49821417.5515653     
  -49807373.6286389     
  -49793290.0707995     
  -49779070.5200006     
  -49764628.7007876     
  -49749889.9237774     
  -49734792.7023598     
  -49719290.3866939     
  -49703352.6789705     
  -49686966.8744785     
  -49670138.7071086     
  -49652892.8090522     
  -49635273.0471371     
  -49617343.2819673     
  -49599188.9829152     
  -49580918.5301578     
  -49562658.4323298     
  -49544531.7590128     
  -49526636.0770116     
  -49509267.6002294     
  -50756550.0895669     
  -50712126.8349543     
  -50668304.9477521     
  -50625145.7753654     
  -50582793.0497624     
  -50541362.5878850     
  -50500958.9437410     
  -50461675.0128914     
  -50423591.5039270     
  -50386776.5604417     
  -50351284.3570487     
  -50317154.1452001     
  -50284410.0527883     
  -50253061.4291234     
  -50223103.5255028     
  -50194518.4020656     
  -50167276.0125148     
  -50141335.4339498     
  -50116646.2042731     
  -50093149.7229316     
  -50070780.6697034     
  -50049468.4014962     
  -50029138.2965321     
  -50009713.0263020     
  -49991113.7463184     
  -49973261.2057497     
  -49956076.7829160     
  -49939483.4581711     
  -49923406.7379229     
  -49907775.5435686     
  -49892523.0770592     
  -49877587.6708116     
  -49862913.6239628     
  -49848452.0199125     
  -49834161.5125041     
  -49820009.0613722     
  -49805970.5929732     
  -49792031.5651740     
  -49778187.4222125     
  -49764443.9429374     
  -49750817.5009805     
  -49737335.2504346     
  -49724035.1894327     
  -49710965.9089312     
  -49698185.6789121     
  -49685760.7690525     
  -49673764.5588551     
  -49662282.5711453     
  -49651423.8079843     
  -49641250.8149006     
  -50705555.0984451     
  -50670599.1382721     
  -50635962.3938427     
  -50601736.2752883     
  -50567984.2749905     
  -50534774.1226881     
  -50502169.6898848     
  -50470229.7371681     
  -50439007.1188939     
  -50408548.1673161     
  -50378892.4478498     
  -50350072.4987553     
  -50322113.5843426     
  -50295033.5658785     
  -50268842.9341324     
  -50243544.9983441     
  -50219136.2092128     
  -50195606.5931856     
  -50172940.2789270     
  -50151116.0993095     
  -50130108.2531331     
  -50109887.0110558     
  -50090419.4507731     
  -50071670.2077060     
  -50053602.2292543     
  -50036177.5227883     
  -50019357.8896300     
  -50003105.6390467     
  -49987384.2775387     
  -49972159.1693860     
  -49957398.1645388     
  -49943072.1896369     
  -49929155.7974413     
  -49915627.6695560     
  -49902471.0673263     
  -49889674.2264309     
  -49877230.6919013     
  -49865139.5915300     
  -49853405.8456438     
  -49842040.3083570     
  -49831059.8290107     
  -49820487.2163150     
  -49810351.0954904     
  -49800685.6962684     
  -49791530.7113760     
  -49782931.4219588     
  -49774938.8607761     
  -49767608.1572880     
  -49760992.9994068     
  -49755165.6092327     
  -50648131.5828179     
  -50620457.2785538     
  -50592947.5657257     
  -50565648.0962622     
  -50538609.8802376     
  -50511879.1472206     
  -50485499.6745593     
  -50459512.5320252     
  -50433955.7369360     
  -50408863.9539831     
  -50384268.2088191     
  -50360195.7085848     
  -50336669.7396071     
  -50313709.6151133     
  -50291330.6708735     
  -50269544.3156860     
  -50248358.1412361     
  -50227776.0909775     
  -50207798.6841673     
  -50188423.2894157     
  -50169644.4413862     
  -50151454.1939962     
  -50133842.5033109     
  -50116797.6332364     
  -50100306.5771241     
  -50084355.4885105     
  -50068930.1144550     
  -50054016.2252672     
  -50039600.0348082     
  -50025668.6059936     
  -50012210.2365950     
  -49999214.8209421     
  -49986674.1836694     
  -49974582.3822140     
  -49962935.9753139     
  -49951734.2551974     
  -49940979.4414067     
  -49930676.8342669     
  -49920834.9261453     
  -49911465.4695537     
  -49902583.5038973     
  -49894207.3477835     
  -49886358.5684190     
  -49879061.9331526     
  -49872345.3129869     
  -49866239.4506341     
  -49860777.5701417     
  -49855995.3986050     
  -49851932.8663050     
  -49848628.0586136     
  -50587767.7230966     
  -50565978.9978012     
  -50544222.0480217     
  -50522537.7151832     
  -50500963.3362316     
  -50479535.4450393     
  -50458288.7178898     
  -50437255.8766423     
  -50416467.6100694     
  -50395952.4868933     
  -50375736.8823760     
  -50355844.9072034     
  -50336298.3566589     
  -50317116.6888494     
  -50298317.0319310     
  -50279914.2186867     
  -50261920.8477963     
  -50244347.3717388     
  -50227202.2109883     
  -50210491.8934393     
  -50194221.2172315     
  -50178393.4345147     
  -50163010.4532395     
  -50148073.0537333     
  -50133581.1166037     
  -50119533.8583722     
  -50105930.0711825     
  -50092768.3629430     
  -50080047.3943546     
  -50067766.1094345     
  -50055923.9563717     
  -50044521.0958119     
  -50033558.5939705     
  -50023038.5982757     
  -50012964.4935605     
  -50003341.0371486     
  -49994174.4715666     
  -49985472.6141022     
  -49977244.9230399     
  -49969502.5409960     
  -49962258.3158906     
  -49955526.7990515     
  -49949324.2175695     
  -49943668.4170011     
  -49938578.7791812     
  -49934076.1462969     
  -49930182.7908962     
  -49926922.2871336     
  -49924318.7152920     
  -49922398.1175709     
  -50527380.8624474     
  -50510409.9011855     
  -50493376.9032122     
  -50476314.9725199     
  -50459256.4634055     
  -50442232.1384213     
  -50425271.4343920     
  -50408402.3974951     
  -50391651.6338198     
  -50375044.2767856     
  -50358603.9634027     
  -50342352.8224034     
  -50326311.4708939     
  -50310499.0200121     
  -50294933.0916891     
  -50279629.8479110     
  -50264604.0329189     
  -50249869.0282494     
  -50235436.9202740     
  -50221318.5797188     
  -50207523.7524400     
  -50194061.1604861     
  -50180938.6122349     
  -50168163.1201744     
  -50155741.0247170     
  -50143678.1223061     
  -50131979.7959852     
  -50120651.1465559     
  -50109697.1224498     
  -50099122.6464723     
  -50088932.7376437     
  -50079132.6264671     
  -50069727.8620720     
  -50060724.4098441     
  -50052128.7383212     
  -50043947.8943380     
  -50036189.5655963     
  -50028862.1300197     
  -50021974.6913526     
  -50015537.1004922     
  -50009559.9620587     
  -50004054.6260180     
  -49999033.1651470     
  -49994508.3405158     
  -49990493.5562043     
  -49987002.7955821     
  -49984050.5196320     
  -49981651.5566590     
  -49979821.2056155     
  -49978574.6769264     
  -50469182.6275554     
  -50456148.4022087     
  -50442987.8276275     
  -50429729.9344276     
  -50416402.5670578     
  -50403032.5968108     
  -50389645.8152898     
  -50376266.9406989     
  -50362919.6166396     
  -50349626.4090353     
  -50336408.8060233     
  -50323287.2213269     
  -50310281.0027534     
  -50297408.4460840     
  -50284686.8143086     
  -50272132.3623642     
  -50259760.3676102     
  -50247585.1661622     
  -50235620.1950286     
  -50223878.0398308     
  -50212370.4877487     
  -50201108.5852204     
  -50190102.6998123     
  -50179362.5855823     
  -50168897.4511655     
  -50158716.0297397     
  -50148826.6499684     
  -50139237.3069799     
  -50129955.7324216     
  -50120989.4626254     
  -50112345.9039398     
  -50104032.3943154     
  -50096056.2602808     
  -50088424.8685092     
  -50081145.6712419     
  -50074226.2449139     
  -50067674.3213947     
  -50061497.8113380     
  -50055704.8192189     
  -50050303.6497597     
  -50045302.8055963     
  -50040710.9761520     
  -50036537.0175631     
  -50032789.9230049     
  -50029478.7825322     
  -50026612.7340070     
  -50024200.9128826     
  -50022252.3982681     
  -50020776.0761421     
  -50019780.6769577     
  -50414688.4371507     
  -50404836.4860270     
  -50394819.7426159     
  -50384663.1823177     
  -50374391.0183417     
  -50364026.6369095     
  -50353592.6246528     
  -50343110.7614690     
  -50332602.0199534     
  -50322086.5681705     
  -50311583.7744356     
  -50301112.2143736     
  -50290689.6802377     
  -50280333.1927845     
  -50270059.0159252     
  -50259882.6742199     
  -50249818.9732024     
  -50239882.0224848     
  -50230085.2615596     
  -50220441.4881655     
  -50210962.8890223     
  -50201661.0726848     
  -50192547.1042097     
  -50183631.5412782     
  -50174924.4713784     
  -50166435.5496110     
  -50158174.0366532     
  -50150148.8363945     
  -50142368.5327427     
  -50134841.4250910     
  -50127575.5619438     
  -50120578.7722017     
  -50113858.6936304     
  -50107422.7980567     
  -50101278.4128649     
  -50095432.7384030     
  -50089892.8609470     
  -50084665.7609178     
  -50079758.3160958     
  -50075177.2996159     
  -50070929.3725527     
  -50067021.0709161     
  -50063458.7869394     
  -50060248.7447636     
  -50057396.9709293     
  -50054909.2596547     
  -50052791.1305027     
  -50051047.7773631     
  -50049684.0356688     
  -50048704.2942773     
  -50364798.3648291     
  -50357481.7538592     
  -50349981.8435668     
  -50342319.9119492     
  -50334516.6468671     
  -50326592.1565382     
  -50318565.9561259     
  -50310456.9671261     
  -50302283.5161953     
  -50294063.3351696     
  -50285813.5627792     
  -50277550.7480084     
  -50269290.8551292     
  -50261049.2703585     
  -50252840.8101056     
  -50244679.7307956     
  -50236579.7402306     
  -50228554.0104243     
  -50220615.1918153     
  -50212775.4287438     
  -50205046.3760519     
  -50197439.2166455     
  -50189964.6798356     
  -50182633.0602508     
  -50175454.2370978     
  -50168437.6935263     
  -50161592.5358435     
  -50154927.5123095     
  -50148451.0312426     
  -50142171.1781550     
  -50136095.7316424     
  -50130232.1777565     
  -50124587.7225925     
  -50119169.3028399     
  -50113983.5940574     
  -50109037.0164499     
  -50104335.7379479     
  -50099885.6744088     
  -50095692.4867846     
  -50091761.5751227     
  -50088098.0693006     
  -50084706.8164376     
  -50081592.3649646     
  -50078758.9453254     
  -50076210.4471930     
  -50073950.3931558     
  -50071981.9096708     
  -50070307.6963971     
  -50068929.9854422     
  -50067850.5115240     
  -50319919.4362546     
  -50314590.0057201     
  -50309073.4184092     
  -50303387.4361934     
  -50297549.4288133     
  -50291576.3593862     
  -50285484.7785166     
  -50279290.8164921     
  -50273010.1777521     
  -50266658.1368311     
  -50260249.5355976     
  -50253798.7817778     
  -50247319.8487140     
  -50240826.2763180     
  -50234331.1731615     
  -50227847.2196308     
  -50221386.6720754     
  -50214961.3678695     
  -50208582.7313004     
  -50202261.7801882     
  -50196009.1331299     
  -50189835.0172540     
  -50183749.2763602     
  -50177761.3793133     
  -50171880.4285508     
  -50166115.1685587     
  -50160473.9941635     
  -50154964.9584871     
  -50149595.7804048     
  -50144373.8513513     
  -50139306.2413179     
  -50134399.7038861     
  -50129660.6801529     
  -50125095.3014048     
  -50120709.3904078     
  -50116508.4611936     
  -50112497.7172298     
  -50108682.0478779     
  -50105066.0230590     
  -50101653.8860611     
  -50098449.5444432     
  -50095456.5590010     
  -50092678.1307749     
  -50090117.0861046     
  -50087775.8597923     
  -50085656.4764880     
  -50083760.5301818     
  -50082089.1614112     
  -50080643.0349709     
  -50079422.3124624     
  -50280094.1451795     
  -50276295.6591256     
  -50272316.1190731     
  -50268170.0670438     
  -50263871.7967342     
  -50259435.3414582     
  -50254874.4616149     
  -50250202.6345418     
  -50245433.0453742     
  -50240578.5791273     
  -50235651.8139622     
  -50230665.0155498     
  -50225630.1324638     
  -50220558.7925345     
  -50215462.3000961     
  -50210351.6340588     
  -50205237.4467370     
  -50200130.0633577     
  -50195039.4821738     
  -50189975.3751023     
  -50184947.0888064     
  -50179963.6461367     
  -50175033.7478423     
  -50170165.7744653     
  -50165367.7883222     
  -50160647.5354828     
  -50156012.4476484     
  -50151469.6438372     
  -50147025.9317811     
  -50142687.8089409     
  -50138461.4630497     
  -50134352.7720968     
  -50130367.3036672     
  -50126510.3135615     
  -50122786.7436195     
  -50119201.2186855     
  -50115758.0426566     
  -50112461.1935648     
  -50109314.3176544     
  -50106320.7224247     
  -50103483.3686201     
  -50100804.8611592     
  -50098287.4390135     
  -50095932.9640545     
  -50093742.9088921     
  -50091718.3437225     
  -50089859.9222787     
  -50088167.8671460     
  -50086641.9537149     
  -50085281.4944572     
  -50245116.7145226     
  -50242476.7125624     
  -50239667.9655055     
  -50236702.1480000     
  -50233590.7977697     
  -50230345.3004397     
  -50226976.8760991     
  -50223496.5667263     
  -50219915.2248129     
  -50216243.5030238     
  -50212491.8448323     
  -50208670.4760772     
  -50204789.3973854     
  -50200858.3774000     
  -50196886.9467556     
  -50192884.3927399     
  -50188859.7545825     
  -50184821.8193111     
  -50180779.1181135     
  -50176739.9231454     
  -50172712.2447203     
  -50168703.8288214     
  -50164722.1548715     
  -50160774.4336989     
  -50156867.6056373     
  -50153008.3386972     
  -50149203.0267477     
  -50145457.7876493     
  -50141778.4612781     
  -50138170.6073857     
  -50134639.5032403     
  -50131190.1409988     
  -50127827.2247598     
  -50124555.1672572     
  -50121378.0861518     
  -50118299.7998890     
  -50115323.8230923     
  -50112453.3614699     
  -50109691.3062180     
  -50107040.2279107     
  -50104502.3698737     
  -50102079.6410467     
  -50099773.6083456     
  -50097585.4885447     
  -50095516.1397047     
  -50093566.0521952     
  -50091735.3393480     
  -50090023.7277238     
  -50088430.5472909     
  -50086954.7211522     
  -50214628.4274713     
  -50212848.6676616     
  -50210915.8291971     
  -50208839.1100071     
  -50206627.6499090     
  -50204290.5155765     
  -50201836.6863431     
  -50199275.0410259     
  -50196614.3456090     
  -50193863.2417783     
  -50191030.2362646     
  -50188123.6909471     
  -50185151.8136733     
  -50182122.6497514     
  -50179044.0740691     
  -50175923.7837952     
  -50172769.2916187     
  -50169587.9194789     
  -50166386.7927437     
  -50163172.8347889     
  -50159952.7619364     
  -50156733.0787046     
  -50153520.0733298     
  -50150319.8135127     
  -50147138.1423513     
  -50143980.6744159     
  -50140852.7919279     
  -50137759.6410040     
  -50134706.1279285     
  -50131696.9154190     
  -50128736.4188527     
  -50125828.8024244     
  -50122977.9752067     
  -50120187.5870904     
  -50117461.0245819     
  -50114801.4064418     
  -50112211.5791501     
  -50109694.1121885     
  -50107251.2931350     
  -50104885.1225691     
  -50102597.3087920     
  -50100389.2623700     
  -50098262.0905142     
  -50096216.5913170     
  -50094253.2478662     
  -50092372.2222657     
  -50090573.3495923     
  -50088856.1318537     
  -50087219.7319201     
  -50085662.9675931     
  -50188190.3747239     
  -50187036.5198341     
  -50185746.5721684     
  -50184327.6460131     
  -50182786.8511104     
  -50181131.2782847     
  -50179367.9858528     
  -50177503.9867308     
  -50175546.2362477     
  -50173501.6206238     
  -50171376.9460890     
  -50169178.9286122     
  -50166914.1842103     
  -50164589.2198084     
  -50162210.4246201     
  -50159784.0620148     
  -50157316.2618450     
  -50154813.0131981     
  -50152280.1575451     
  -50149723.3822533     
  -50147148.2144338     
  -50144560.0150929     
  -50141963.9735592     
  -50139365.1021563     
  -50136768.2310945     
  -50134178.0035541     
  -50131598.8709354     
  -50129035.0882498     
  -50126490.7096302     
  -50123969.5839396     
  -50121475.3504571     
  -50119011.4346251     
  -50116581.0438416     
  -50114187.1632845     
  -50111832.5517563     
  -50109519.7375424     
  -50107251.0142759     
  -50105028.4368058     
  -50102853.8170704     
  -50100728.7199766     
  -50098654.4592922     
  -50096632.0935604     
  -50094662.4220480     
  -50092745.9807436     
  -50090883.0384232     
  -50089073.5928054     
  -50087317.3668240     
  -50085613.8050346     
  -50083962.0702080     
  -50082361.0401122     
  -50165335.5688019     
  -50164626.8900080     
  -50163799.0479794     
  -50162857.4452590     
  -50161807.5137199     
  -50160654.7015987     
  -50159404.4610671     
  -50158062.2363467     
  -50156633.4523440     
  -50155123.5037945     
  -50153537.7448997     
  -50151881.4794399     
  -50150159.9513448     
  -50148378.3357048     
  -50146541.7302034     
  -50144655.1469513     
  -50142723.5047035     
  -50140751.6214388     
  -50138744.2072837     
  -50136705.8577589     
  -50134641.0473308     
  -50132554.1232489     
  -50130449.2996486     
  -50128330.6519044     
  -50126202.1112136     
  -50124067.4593947     
  -50121930.3238847     
  -50119794.1729215     
  -50117662.3108959     
  -50115537.8738615     
  -50113423.8251924     
  -50111322.9513768     
  -50109237.8579398     
  -50107170.9654879     
  -50105124.5058699     
  -50103100.5184521     
  -50101100.8465037     
  -50099127.1336959     
  -50097180.8207137     
  -50095263.1419871     
  -50093375.1225464     
  -50091517.5750100     
  -50089691.0967149     
  -50087896.0670029     
  -50086132.6446743     
  -50084400.7656287     
  -50082700.1407066     
  -50081030.2537571     
  -50079390.3599453     
  -50077779.4843332     
  -50145603.9351013     
  -50145203.6299462     
  -50144700.1715753     
  -50144097.5860664     
  -50143399.9482775     
  -50142611.3705547     
  -50141735.9918292     
  -50140777.9670979     
  -50139741.4572848     
  -50138630.6194771     
  -50137449.5975289     
  -50136202.5130263     
  -50134893.4566043     
  -50133526.4796061     
  -50132105.5860768     
  -50130634.7250793     
  -50129117.7833226     
  -50127558.5780925     
  -50125960.8504713     
  -50124328.2588390     
  -50122664.3726402     
  -50120972.6664113     
  -50119256.5140519     
  -50117519.1833341     
  -50115763.8306376     
  -50113993.4959014     
  -50112211.0977841     
  -50110419.4290235     
  -50108621.1519880     
  -50106818.7944141     
  -50105014.7453230     
  -50103211.2511119     
  -50101410.4118158     
  -50099614.1775375     
  -50097824.3450433     
  -50096042.5545237     
  -50094270.2865206     
  -50092508.8590214     
  -50090759.4247248     
  -50089022.9684797     
  -50087300.3049065     
  -50085592.0762032     
  -50083898.7501493     
  -50082220.6183116     
  -50080557.7944665     
  -50078910.2132487     
  -50077277.6290392     
  -50075659.6151062     
  -50074055.5630157     
  -50072464.6823251     
  -50128563.9982835     
  -50128370.4963728     
  -50128088.4460991     
  -50127720.7883872     
  -50127270.5222007     
  -50126740.6950071     
  -50126134.3935042     
  -50125454.7346131     
  -50124704.8567349     
  -50123887.9112781     
  -50123007.0544493     
  -50122065.4393119     
  -50121066.2081070     
  -50120012.4848346     
  -50118907.3680932     
  -50117753.9241713     
  -50116555.1803891     
  -50115314.1186839     
  -50114033.6694354     
  -50112716.7055246     
  -50111366.0366231     
  -50109984.4037055     
  -50108574.4737811     
  -50107138.8348393     
  -50105679.9910046     
  -50104200.3578952     
  -50102702.2581829     
  -50101187.9173490     
  -50099659.4596328     
  -50098118.9041712     
  -50096568.1613250     
  -50095009.0291917     
  -50093443.1903029     
  -50091872.2085051     
  -50090297.5260263     
  -50088720.4607258     
  -50087142.2035325     
  -50085563.8160709     
  -50083986.2284803     
  -50082410.2374291     
  -50080836.5043308     
  -50079265.5537657     
  -50077697.7721145     
  -50076133.4064125     
  -50074572.5634293     
  -50073015.2089851     
  -50071461.1675105     
  -50069910.1218611     
  -50068361.6133955     
  -50066815.0423298     
  -50113824.7679424     
  -50113764.2017476     
  -50113628.0669130     
  -50113418.4648443     
  -50113137.5573863     
  -50112787.5589713     
  -50112370.7289355     
  -50111889.3640095     
  -50111345.7909880     
  -50110742.3595826     
  -50110081.4354621     
  -50109365.3934814     
  -50108596.6111030     
  -50107777.4620102     
  -50106910.3099148     
  -50105997.5025581     
  -50105041.3659061     
  -50104044.1985377     
  -50103008.2662256     
  -50101935.7967088     
  -50100828.9746552     
  -50099689.9368135     
  -50098520.7673523     
  -50097323.4933860     
  -50096100.0806852     
  -50094852.4295710     
  -50093582.3709915     
  -50092291.6627804     
  -50090981.9860962     
  -50089654.9420415     
  -50088312.0484625     
  -50086954.7369300     
  -50085584.3498989     
  -50084202.1380519     
  -50082809.2578241     
  -50081406.7691131     
  -50079995.6331754     
  -50078576.7107125     
  -50077150.7601481     
  -50075718.4361012     
  -50074280.2880595     
  -50072836.7592543     
  -50071388.1857460     
  -50069934.7957213     
  -50068476.7090101     
  -50067013.9368273     
  -50065546.3817454     
  -50064073.8379047     
  -50062595.9914680     
  -50061112.4213276     
  -50101040.7544652     
  -50101060.6290172     
  -50101016.2474039     
  -50100909.0734860     
  -50100740.6296049     
  -50100512.4902578     
  -50100226.2758730     
  -50099883.6466916     
  -50099486.2967642     
  -50099035.9480673     
  -50098534.3447457     
  -50097983.2474857     
  -50097384.4280225     
  -50096739.6637878     
  -50096050.7326975     
  -50095319.4080859     
  -50094547.4537863     
  -50093736.6193607     
  -50092888.6354817     
  -50092005.2094661     
  -50091088.0209630     
  -50090138.7177970     
  -50089158.9119679     
  -50088150.1758066     
  -50087114.0382900     
  -50086051.9815143     
  -50084965.4373275     
  -50083855.7841233     
  -50082724.3437957     
  -50081572.3788564     
  -50080401.0897160     
  -50079211.6121300     
  -50078005.0148111     
  -50076782.2972097     
  -50075544.3874644     
  -50074292.1405239     
  -50073026.3364438     
  -50071747.6788594     
  -50070456.7936376     
  -50069154.2277116     
  -50067840.4481006     
  -50066515.8411175     
  -50065180.7117698     
  -50063835.2833552     
  -50062479.6972579     
  -50061114.0129481     
  -50059738.2081899     
  -50058352.1794612     
  -50056955.7425907     
  -50055548.6336166     
  -50089912.4214981     
  -50089976.4233396     
  -50089985.8839609     
  -50089941.7921412     
  -50089845.1906356     
  -50089697.1711805     
  -50089498.8695513     
  -50089251.4606788     
  -50088956.1538339     
  -50088614.1878858     
  -50088226.8266402     
  -50087795.3542646     
  -50087321.0708044     
  -50086805.2877969     
  -50086249.3239847     
  -50085654.5011360     
  -50085022.1399736     
  -50084353.5562165     
  -50083650.0567374     
  -50082912.9358397     
  -50082143.4716557     
  -50081342.9226697     
  -50080512.5243669     
  -50079653.4860124     
  -50078766.9875603     
  -50077854.1766969     
  -50076916.1660184     
  -50075954.0303458     
  -50074968.8041793     
  -50073961.4792928     
  -50072933.0024722     
  -50071884.2733974     
  -50070816.1426721     
  -50069729.4100010     
  -50068624.8225196     
  -50067503.0732747     
  -50066364.7998622     
  -50065210.5832206     
  -50064040.9465856     
  -50062856.3546055     
  -50061657.2126226     
  -50060443.8661209     
  -50059216.6003440     
  -50057975.6400857     
  -50056721.1496555     
  -50055453.2330222     
  -50054171.9341386     
  -50052877.2374491     
  -50051569.0685845     
  -50050247.2952446     
  -50080183.8066203     
  -50080267.6392425     
  -50080305.1818904     
  -50080297.0763618     
  -50080244.0126449     
  -50080146.7250485     
  -50080005.9883498     
  -50079822.6139711     
  -50079597.4461887     
  -50079331.3583852     
  -50079025.2493478     
  -50078680.0396208     
  -50078296.6679178     
  -50077876.0875979     
  -50077419.2632126     
  -50076927.1671263     
  -50076400.7762162     
  -50075841.0686552     
  -50075249.0207815     
  -50074625.6040591     
  -50073971.7821326     
  -50073288.5079785     
  -50072576.7211581     
  -50071837.3451729     
  -50071071.2849265     
  -50070279.4242953     
  -50069462.6238110     
  -50068621.7184561     
  -50067757.5155765     
  -50066870.7929119     
  -50065962.2967477     
  -50065032.7401896     
  -50064082.8015629     
  -50063113.1229399     
  -50062124.3087960     
  -50061116.9247977     
  -50060091.4967235     
  -50059048.5095215     
  -50057988.4065029     
  -50056911.5886765     
  -50055818.4142243     
  -50054709.1981201     
  -50053584.2118945     
  -50052443.6835462     
  -50051287.7976034     
  -50050116.6953356     
  -50048930.4751185     
  -50047729.1929531     
  -50046512.8631408     
  -50045281.4591162     
  -50071638.5577923     
  -50071726.6666524     
  -50071775.4378285     
  -50071785.2652561     
  -50071756.5848454     
  -50071689.8715366     
  -50071585.6363529     
  -50071444.4234592     
  -50071266.8072334     
  -50071053.3893560     
  -50070804.7959242     
  -50070521.6745967     
  -50070204.6917747     
  -50069854.5298233     
  -50069471.8843393     
  -50069057.4614704     
  -50068611.9752890     
  -50068136.1452259     
  -50067630.6935674     
  -50067096.3430204     
  -50066533.8143478     
  -50065943.8240796     
  -50065327.0823003     
  -50064684.2905195     
  -50064016.1396242     
  -50063323.3079201     
  -50062606.4592612     
  -50061866.2412724     
  -50061103.2836664     
  -50060318.1966582     
  -50059511.5694794     
  -50058683.9689933     
  -50057835.9384149     
  -50056967.9961365     
  -50056080.6346611     
  -50055174.3196458     
  -50054249.4890576     
  -50053306.5524413     
  -50052345.8903043     
  -50051367.8536168     
  -50050372.7634315     
  -50049360.9106229     
  -50048332.5557472     
  -50047287.9290262     
  -50046227.2304544     
  -50045150.6300305     
  -50044058.2681161     
  -50042950.2559208     
  -50041826.6761148     
  -50040687.5835703     
  -50064095.2482094     
  -50064178.2936067     
  -50064227.8282042     
  -50064244.0733661     
  -50064227.2863255     
  -50064177.7579850     
  -50064095.8107027     
  -50063981.7960711     
  -50063836.0926937     
  -50063659.1039648     
  -50063451.2558599     
  -50063212.9947387     
  -50062944.7851689     
  -50062647.1077729     
  -50062320.4571048     
  -50061965.3395587     
  -50061582.2713163     
  -50061171.7763344     
  -50060734.3843784     
  -50060270.6291049     
  -50059781.0461966     
  -50059266.1715531     
  -50058726.5395408     
  -50058162.6813052     
  -50057575.1231480     
  -50056964.3849726     
  -50056330.9787998     
  -50055675.4073570     
  -50054998.1627429     
  -50054299.7251701     
  -50053580.5617882     
  -50052841.1255884     
  -50052081.8543937     
  -50051303.1699338     
  -50050505.4770093     
  -50049689.1627447     
  -50048854.5959337     
  -50048002.1264762     
  -50047132.0849104     
  -50046244.7820405     
  -50045340.5086609     
  -50044419.5353785     
  -50043482.1125340     
  -50042528.4702228     
  -50041558.8184170     
  -50040573.3471888     
  -50039572.2270345     
  -50038555.6093028     
  -50037523.6267239     
  -50036476.3940421     
  -50057402.5388158     
  -50057475.4818985     
  -50057519.7840993     
  -50057535.5503333     
  -50057522.9157078     
  -50057482.0439116     
  -50057413.1255834     
  -50057316.3766652     
  -50057192.0367452     
  -50057040.3673947     
  -50056861.6505052     
  -50056656.1866281     
  -50056424.2933230     
  -50056166.3035180     
  -50055882.5638872     
  -50055573.4332467     
  -50055239.2809767     
  -50054880.4854701     
  -50054497.4326126     
  -50054090.5142973     
  -50053660.1269776     
  -50053206.6702604     
  -50052730.5455434     
  -50052232.1546991     
  -50051711.8988087     
  -50051170.1769470     
  -50050607.3850227     
  -50050023.9146750     
  -50049420.1522301     
  -50048796.4777173     
  -50048153.2639506     
  -50047490.8756732     
  -50046809.6687706     
  -50046109.9895514     
  -50045392.1740988     
  -50044656.5476936     
  -50043903.4243109     
  -50043133.1061896     
  -50042345.8834796     
  -50041542.0339639     
  -50040721.8228591     
  -50039885.5026936     
  -50039033.3132658     
  -50038165.4816813     
  -50037282.2224700     
  -50036383.7377849     
  -50035470.2176803     
  -50034541.8404714     
  -50033598.7731750     
  -50032641.1720302     
  -50051434.5419675     
  -50051495.2226041     
  -50051531.3305749     
  -50051542.8953502     
  -50051529.9715101     
  -50051492.6375900     
  -50051430.9949033     
  -50051345.1663446     
  -50051235.2951787     
  -50051101.5438185     
  -50050944.0925956     
  -50050763.1385289     
  -50050558.8940926     
  -50050331.5859891     
  -50050081.4539302     
  -50049808.7494282     
  -50049513.7346022     
  -50049196.6810019     
  -50048857.8684523     
  -50048497.5839211     
  -50048116.1204137     
  -50047713.7758965     
  -50047290.8522521     
  -50046847.6542692     
  -50046384.4886689     
  -50045901.6631698     
  -50045399.4855944     
  -50044878.2630191     
  -50044338.3009689     
  -50043779.9026596     
  -50043203.3682887     
  -50042608.9943768     
  -50041997.0731610     
  -50041367.8920428     
  -50040721.7330893     
  -50040058.8725922     
  -50039379.5806830     
  -50038684.1210074     
  -50037972.7504587     
  -50037245.7189708     
  -50036503.2693734     
  -50035745.6373071     
  -50034973.0512019     
  -50034185.7323174     
  -50033383.8948454     
  -50032567.7460758     
  -50031737.4866251     
  -50030893.3107273     
  -50030035.4065880     
  -50029163.9567994     
  -50046086.5863067     
  -50046134.6878309     
  -50046161.6212760     
  -50046167.3699685     
  -50046151.9379178     
  -50046115.3490101     
  -50046057.6461783     
  -50045978.8905517     
  -50045879.1605901     
  -50045758.5512033     
  -50045617.1728613     
  -50045455.1506972     
  -50045272.6236064     
  -50045069.7433446     
  -50044846.6736282     
  -50044603.5892388     
  -50044340.6751367     
  -50044058.1255827     
  -50043756.1432748     
  -50043434.9384992     
  -50043094.7282988     
  -50042735.7356626     
  -50042358.1887371     
  -50041962.3200624     
  -50041548.3658342     
  -50041116.5651956     
  -50040667.1595578     
  -50040200.3919545     
  -50039716.5064290     
  -50039215.7474572     
  -50038698.3594085     
  -50038164.5860433     
  -50037614.6700522     
  -50037048.8526348     
  -50036467.3731214     
  -50035870.4686375     
  -50035258.3738128     
  -50034631.3205343     
  -50033989.5377466     
  -50033333.2512966     
  -50032662.6838273     
  -50031978.0547168     
  -50031279.5800663     
  -50030567.4727362     
  -50029841.9424284     
  -50029103.1958196     
  -50028351.4367393     
  -50027586.8663980     
  -50026809.6836617     
  -50026020.0853730     
  -50041271.4775923     
  -50041307.7902208     
  -50041325.7952785     
  -50041325.4503519     
  -50041306.7299363     
  -50041269.6248897     
  -50041214.1418638     
  -50041140.3027159     
  -50041048.1439045     
  -50040937.7158702     
  -50040809.0824055     
  -50040662.3200155     
  -50040497.5172724     
  -50040314.7741656     
  -50040114.2014502     
  -50039895.9199969     
  -50039660.0601437     
  -50039406.7610537     
  -50039136.1700796     
  -50038848.4421382     
  -50038543.7390955     
  -50038222.2291660     
  -50037884.0863263     
  -50037529.4897462     
  -50037158.6232390     
  -50036771.6747307     
  -50036368.8357528     
  -50035950.3009572     
  -50035516.2676571     
  -50035066.9353927     
  -50034602.5055258     
  -50034123.1808621     
  -50033629.1653034     
  -50033120.6635307     
  -50032597.8807189     
  -50032061.0222836     
  -50031510.2936622     
  -50030945.9001276     
  -50030368.0466375     
  -50029776.9377179     
  -50029172.7773832     
  -50028555.7690901     
  -50027926.1157297     
  -50027284.0196541     
  -50026629.6827394     
  -50025963.3064855     
  -50025285.0921508     
  -50024595.2409230     
  -50023893.9541253     
  -50023181.4334569     
  -50036916.2809213     
  -50036942.1915495     
  -50036952.2124334     
  -50036946.2891855     
  -50036924.3811628     
  -50036886.4611105     
  -50036832.5147861     
  -50036762.5405658     
  -50036676.5490348     
  -50036574.5625644     
  -50036456.6148770     
  -50036322.7506019     
  -50036173.0248232     
  -50036007.5026224     
  -50035826.2586167     
  -50035629.3764959     
  -50035416.9485583     
  -50035189.0752500     
  -50034945.8647056     
  -50034687.4322954     
  -50034413.9001790     
  -50034125.3968668     
  -50033822.0567922     
  -50033504.0198941     
  -50033171.4312128     
  -50032824.4405000     
  -50032463.2018437     
  -50032087.8733099     
  -50031698.6166025     
  -50031295.5967411     
  -50030878.9817596     
  -50030448.9424247     
  -50030005.6519774     
  -50029549.2858955     
  -50029080.0216804     
  -50028598.0386678     
  -50028103.5178623     
  -50027596.6417980     
  -50027077.5944239     
  -50026546.5610153     
  -50026003.7281119     
  -50025449.2834816     
  -50024883.4161119     
  -50024306.3162266     
  -50023718.1753298     
  -50023119.1862769     
  -50022509.5433707     
  -50021889.4424847     
  -50021259.0812110     
  -50020618.6590344     
  -50032959.6066238     
  -50032976.7569956     
  -50032980.0773701     
  -50032969.5102970     
  -50032945.0094512     
  -50032906.5394136     
  -50032854.0754341     
  -50032787.6031791     
  -50032707.1184652     
  -50032612.6269795     
  -50032504.1439897     
  -50032381.6940442     
  -50032245.3106647     
  -50032095.0360321     
  -50031930.9206679     
  -50031753.0231118     
  -50031561.4095975     
  -50031356.1537281     
  -50031137.3361520     
  -50030905.0442413     
  -50030659.3717734     
  -50030400.4186176     
  -50030128.2904271     
  -50029843.0983393     
  -50029544.9586825     
  -50029233.9926941     
  -50028910.3262472     
  -50028574.0895901     
  -50028225.4170970     
  -50027864.4470324     
  -50027491.3213295     
  -50027106.1853833     
  -50026709.1878587     
  -50026300.4805154     
  -50025880.2180491     
  -50025448.5579499     
  -50025005.6603793     
  -50024551.6880630     
  -50024086.8062054     
  -50023611.1824199     
  -50023124.9866798     
  -50022628.3912881     
  -50022121.5708658     
  -50021604.7023598     
  -50021077.9650704     
  -50020541.5406970     
  -50019995.6134029     
  -50019440.3698989     
  -50018875.9995449     
  -50018302.6944692     
  -50029349.3574429     
  -50029359.4250477     
  -50029357.4339992     
  -50029343.3292207     
  -50029317.0646153     
  -50029278.6029418     
  -50029227.9156761     
  -50029164.9828592     
  -50029089.7929331     
  -50029002.3425645     
  -50028902.6364600     
  -50028790.6871712     
  -50028666.5148929     
  -50028530.1472548     
  -50028381.6191082     
  -50028220.9723075     
  -50028048.2554899     
  -50027863.5238530     
  -50027666.8389305     
  -50027458.2683697     
  -50027237.8857089     
  -50027005.7701577     
  -50026762.0063806     
  -50026506.6842840     
  -50026239.8988090     
  -50025961.7497296     
  -50025672.3414574     
  -50025371.7828543     
  -50025060.1870534     
  -50024737.6712877     
  -50024404.3567294     
  -50024060.3683396     
  -50023705.8347266     
  -50023340.8880184     
  -50022965.6637444     
  -50022580.3007303     
  -50022184.9410048     
  -50021779.7297198     
  -50021364.8150829     
  -50020940.3483032     
  -50020506.4835510     
  -50020063.3779299     
  -50019611.1914630     
  -50019150.0870930     
  -50018680.2306950     
  -50018201.7911022     
  -50017714.9401460     
  -50017219.8527076     
  -50016716.7067835     
  -50016205.6835617     
  -50026040.8825822     
  -50026045.4490143     
  -50026039.4965353     
  -50026022.9754556     
  -50025995.8433202     
  -50025958.0648498     
  -50025909.6118695     
  -50025850.4632262     
  -50025780.6046961     
  -50025700.0288813     
  -50025608.7350984     
  -50025506.7292597     
  -50025394.0237466     
  -50025270.6372770     
  -50025136.5947685     
  -50024991.9271956     
  -50024836.6714450     
  -50024670.8701672     
  -50024494.5716269     
  -50024307.8295520     
  -50024110.7029824     
  -50023903.2561201     
  -50023685.5581791     
  -50023457.6832386     
  -50023219.7100986     
  -50022971.7221382     
  -50022713.8071785     
  -50022446.0573504     
  -50022168.5689665     
  -50021881.4423993     
  -50021584.7819661     
  -50021278.6958196     
  -50020963.2958456     
  -50020638.6975694     
  -50020305.0200688     
  -50019962.3858951     
  -50019610.9210039     
  -50019250.7546930     
  -50018882.0195500     
  -50018504.8514086     
  -50018119.3893141     
  -50017725.7754982     
  -50017324.1553619     
  -50016914.6774693     
  -50016497.4935492     
  -50016072.7585055     
  -50015640.6304376     
  -50015201.2706683     
  -50014754.8437801     
  -50014301.5176603     
  -50022995.4805028     
  -50022995.9605229     
  -50022987.2757305     
  -50022969.3831979     
  -50022942.2458195     
  -50022905.8322949     
  -50022860.1171024     
  -50022805.0804633     
  -50022740.7082970     
  -50022666.9921683     
  -50022583.9292266     
  -50022491.5221392     
  -50022389.7790176     
  -50022278.7133389     
  -50022158.3438617     
  -50022028.6945386     
  -50021889.7944242     
  -50021741.6775810     
  -50021584.3829822     
  -50021417.9544137     
  -50021242.4403740     
  -50021057.8939743     
  -50020864.3728382     
  -50020661.9390023     
  -50020450.6588175     
  -50020230.6028524     
  -50020001.8457983     
  -50019764.4663769     
  -50019518.5472513     
  -50019264.1749398     
  -50019001.4397339     
  -50018730.4356202     
  -50018451.2602071     
  -50018164.0146555     
  -50017868.8036154     
  -50017565.7351668     
  -50017254.9207671     
  -50016936.4752033     
  -50016610.5165498     
  -50016277.1661333     
  -50015936.5485019     
  -50015588.7914016     
  -50015234.0257579     
  -50014872.3856639     
  -50014504.0083733     
  -50014129.0343009     
  -50013747.6070269     
  -50013359.8733073     
  -50012965.9830903     
  -50012566.0895365     
  -50020179.1938500     
  -50020176.8052185     
  -50020166.4572351     
  -50020148.1140458     
  -50020121.7444767     
  -50020087.3220437     
  -50020044.8249541     
  -50019994.2361005     
  -50019935.5430476     
  -50019868.7380119     
  -50019793.8178358     
  -50019710.7839554     
  -50019619.6423628     
  -50019520.4035642     
  -50019413.0825329     
  -50019297.6986588     
  -50019174.2756948     
  -50019042.8416994     
  -50018903.4289777     
  -50018756.0740191     
  -50018600.8174352     
  -50018437.7038950     
  -50018266.7820599     
  -50018088.1045184     
  -50017901.7277209     
  -50017707.7119147     
  -50017506.1210798     
  -50017297.0228660     
  -50017080.4885318     
  -50016856.5928837     
  -50016625.4142196     
  -50016387.0342726     
  -50016141.5381587     
  -50015889.0143263     
  -50015629.5545096     
  -50015363.2536841     
  -50015090.2100265     
  -50014810.5248770     
  -50014524.3027061     
  -50014231.6510840     
  -50013932.6806543     
  -50013627.5051113     
  -50013316.2411806     
  -50012999.0086037     
  -50012675.9301257     
  -50012347.1314870     
  -50012012.7414183     
  -50011672.8916379     
  -50011327.7168534     
  -50010977.3547655     
  -50017561.8443874     
  -50017557.6039152     
  -50017546.4906535     
  -50017528.4754831     
  -50017503.5330404     
  -50017471.6417422     
  -50017432.7838036     
  -50017386.9452500     
  -50017334.1159230     
  -50017274.2894814     
  -50017207.4633960     
  -50017133.6389409     
  -50017052.8211787     
  -50016965.0189436     
  -50016870.2448181     
  -50016768.5151089     
  -50016659.8498174     
  -50016544.2726091     
  -50016421.8107794     
  -50016292.4952178     
  -50016156.3603702     
  -50016013.4441996     
  -50015863.7881459     
  -50015707.4370844     
  -50015544.4392838     
  -50015374.8463644     
  -50015198.7132556     
  -50015016.0981538     
  -50014827.0624807     
  -50014631.6708426     
  -50014429.9909903     
  -50014222.0937799     
  -50014008.0531352     
  -50013787.9460112     
  -50013561.8523596     
  -50013329.8550954     
  -50013092.0400658     
  -50012848.4960205     
  -50012599.3145843     
  -50012344.5902317     
  -50012084.4202635     
  -50011818.9047847     
  -50011548.1466859     
  -50011272.2516253     
  -50010991.3280132     
  -50010705.4869985     
  -50010414.8424569     
  -50010119.5109803     
  -50009819.6118683     
  -50009515.2671209     
  -50015116.2618129     
  -50015110.9972299     
  -50015099.8514551     
  -50015082.8014033     
  -50015059.8269926     
  -50015030.9111761     
  -50014996.0399689     
  -50014955.2024688     
  -50014908.3908737     
  -50014855.6004943     
  -50014796.8297623     
  -50014732.0802349     
  -50014661.3565950     
  -50014584.6666493     
  -50014502.0213213     
  -50014413.4346428     
  -50014318.9237417     
  -50014218.5088280     
  -50014112.2131764     
  -50014000.0631085     
  -50013882.0879711     
  -50013758.3201153     
  -50013628.7948718     
  -50013493.5505268     
  -50013352.6282961     
  -50013206.0722989     
  -50013053.9295306     
  -50012896.2498354     
  -50012733.0858789     
  -50012564.4931204     
  -50012390.5297858     
  -50012211.2568395     
  -50012026.7379583     
  -50011837.0395050     
  -50011642.2305024     
  -50011442.3826082     
  -50011237.5700907     
  -50011027.8698059     
  -50010813.3611741     
  -50010594.1261587     
  -50010370.2492453     
  -50010141.8174220     
  -50009908.9201600     
  -50009671.6493962     
  -50009430.0995156     
  -50009184.3673350     
  -50008934.5520872     
  -50008680.7554060     
  -50008423.0813117     
  -50008161.6361967     
  -50012817.6668262     
  -50012812.0372200     
  -50012801.4424136     
  -50012785.8644898     
  -50012765.2879170     
  -50012739.6995823     
  -50012709.0888215     
  -50012673.4474443     
  -50012632.7697567     
  -50012587.0525794     
  -50012536.2952636     
  -50012480.4997020     
  -50012419.6703387     
  -50012353.8141752     
  -50012282.9407733     
  -50012207.0622566     
  -50012126.1933086     
  -50012040.3511693     
  -50011949.5556290     
  -50011853.8290210     
  -50011753.1962120     
  -50011647.6845913     
  -50011537.3240585     
  -50011422.1470098     
  -50011302.1883230     
  -50011177.4853424     
  -50011048.0778622     
  -50010914.0081089     
  -50010775.3207238     
  -50010632.0627450     
  -50010484.2835885     
  -50010332.0350296     
  -50010175.3711841     
  -50010014.3484886     
  -50009849.0256822     
  -50009679.4637875     
  -50009505.7260908     
  -50009327.8781248     
  -50009145.9876489     
  -50008960.1246314     
  -50008770.3612314     
  -50008576.7717806     
  -50008379.4327659     
  -50008178.4228120     
  -50007973.8226634     
  -50007765.7151677     
  -50007554.1852582     
  -50007339.3199364     
  -50007121.2082549     
  -50006899.9412995     
  -50010643.1751835     
  -50010637.6951056     
  -50010628.1060173     
  -50010614.3942673     
  -50010596.5480750     
  -50010574.5575631     
  -50010548.4147857     
  -50010518.1137556     
  -50010483.6504667     
  -50010445.0229153     
  -50010402.2311179     
  -50010355.2771267     
  -50010304.1650425     
  -50010248.9010257     
  -50010189.4933051     
  -50010125.9521834     
  -50010058.2900428     
  -50009986.5213465     
  -50009910.6626406     
  -50009830.7325520     
  -50009746.7517873     
  -50009658.7431279     
  -50009566.7314255     
  -50009470.7435956     
  -50009370.8086098     
  -50009266.9574876     
  -50009159.2232869     
  -50009047.6410935     
  -50008932.2480106     
  -50008813.0831469     
  -50008690.1876042     
  -50008563.6044649     
  -50008433.3787790     
  -50008299.5575496     
  -50008162.1897202     
  -50008021.3261594     
  -50007877.0196468     
  -50007729.3248585     
  -50007578.2983513     
  -50007423.9985484     
  -50007266.4857232     
  -50007105.8219841     
  -50006942.0712587     
  -50006775.2992773     
  -50006605.5735568     
  -50006432.9633840     
  -50006257.5397986     
  -50006079.3755753     
  -50005898.5452067     
  -50005715.1248842     
  -50008571.3953552     
  -50008566.4594034     
  -50008558.2239082     
  -50008546.6786267     
  -50008531.8147508     
  -50008513.6249353     
  -50008492.1033250     
  -50008467.2455788     
  -50008439.0488923     
  -50008407.5120173     
  -50008372.6352807     
  -50008334.4206001     
  -50008292.8714986     
  -50008247.9931166     
  -50008199.7922233     
  -50008148.2772250     
  -50008093.4581728     
  -50008035.3467685     
  -50007973.9563692     
  -50007909.3019894     
  -50007841.4003038     
  -50007770.2696471     
  -50007695.9300132     
  -50007618.4030538     
  -50007537.7120753     
  -50007453.8820346     
  -50007366.9395351     
  -50007276.9128206     
  -50007183.8317692     
  -50007087.7278861     
  -50006988.6342961     
  -50006886.5857348     
  -50006781.6185403     
  -50006673.7706431     
  -50006563.0815564     
  -50006449.5923659     
  -50006333.3457183     
  -50006214.3858102     
  -50006092.7583763     
  -50005968.5106772     
  -50005841.6914867     
  -50005712.3510788     
  -50005580.5412141     
  -50005446.3151254     
  -50005309.7275043     
  -50005170.8344853     
  -50005029.6936307     
  -50004886.3639146     
  -50004740.9057059     
  -50004593.3807513     
  -50006582.0976093     
  -50006578.0035014     
  -50006571.3836164     
  -50006562.2303551     
  -50006550.5371746     
  -50006536.2986128     
  -50006519.5103117     
  -50006500.1690381     
  -50006478.2727036     
  -50006453.8203825     
  -50006426.8123283     
  -50006397.2499893     
  -50006365.1360217     
  -50006330.4743021     
  -50006293.2699385     
  -50006253.5292800     
  -50006211.2599247     
  -50006166.4707273     
  -50006119.1718047     
  -50006069.3745414     
  -50006017.0915921     
  -50005962.3368859     
  -50005905.1256271     
  -50005845.4742963     
  -50005783.4006502     
  -50005718.9237211     
  -50005652.0638147     
  -50005582.8425082     
  -50005511.2826467     
  -50005437.4083396     
  -50005361.2449560     
  -50005282.8191198     
  -50005202.1587038     
  -50005119.2928237     
  -50005034.2518311     
  -50004947.0673064     
  -50004857.7720506     
  -50004766.4000776     
  -50004672.9866051     
  -50004577.5680451     
  -50004480.1819945     
  -50004380.8672245     
  -50004279.6636705     
  -50004176.6124199     
  -50004071.7557009     
  -50003965.1368701     
  -50003856.8003993     
  -50003746.7918625     
  -50003635.1579209     
  -50003521.9463089     
  -50004655.9367836     
  -50004652.9057769     
  -50004648.0965548     
  -50004641.5035139     
  -50004633.1217723     
  -50004622.9471887     
  -50004610.9763807     
  -50004597.2067422     
  -50004581.6364601     
  -50004564.2645288     
  -50004545.0907646     
  -50004524.1158183     
  -50004501.3411877     
  -50004476.7692282     
  -50004450.4031623     
  -50004422.2470891     
  -50004392.3059923     
  -50004360.5857467     
  -50004327.0931250     
  -50004291.8358029     
  -50004254.8223637     
  -50004216.0623018     
  -50004175.5660262     
  -50004133.3448625     
  -50004089.4110540     
  -50004043.7777634     
  -50003996.4590726     
  -50003947.4699824     
  -50003896.8264115     
  -50003844.5451953     
  -50003790.6440835     
  -50003735.1417375     
  -50003678.0577278     
  -50003619.4125299     
  -50003559.2275204     
  -50003497.5249727     
  -50003434.3280516     
  -50003369.6608087     
  -50003303.5481755     
  -50003236.0159577     
  -50003167.0908285     
  -50003096.8003208     
  -50003025.1728205     
  -50002952.2375574     
  -50002878.0245972     
  -50002802.5648321     
  -50002725.8899713     
  -50002648.0325307     
  -50002569.0258222     
  -50002488.9039426     
  -50002774.2147215     
  -50002772.4087795     
  -50002769.5543671     
  -50002765.6473608     
  -50002760.6840519     
  -50002754.6611622     
  -50002747.5758565     
  -50002739.4257565     
  -50002730.2089533     
  -50002719.9240185     
  -50002708.5700152     
  -50002696.1465082     
  -50002682.6535740     
  -50002668.0918088     
  -50002652.4623371     
  -50002635.7668187     
  -50002618.0074562     
  -50002599.1870007     
  -50002579.3087577     
  -50002558.3765917     
  -50002536.3949312     
  -50002513.3687721     
  -50002489.3036817     
  -50002464.2058008     
  -50002438.0818468     
  -50002410.9391152     
  -50002382.7854814     
  -50002353.6294013     
  -50002323.4799124     
  -50002292.3466339     
  -50002260.2397661     
  -50002227.1700906     
  -50002193.1489688     
  -50002158.1883409     
  -50002122.3007239     
  -50002085.4992105     
  -50002047.7974656     
  -50002009.2097250     
  -50001969.7507912     
  -50001929.4360308     
  -50001888.2813709     
  -50001846.3032946     
  -50001803.5188372     
  -50001759.9455814     
  -50001715.6016519     
  -50001670.5057107     
  -50001624.6769506     
  -50001578.1350893     
  -50001530.9003629     
  -50001482.9935187     
  -50000918.6713456     
  -50000918.2067879     
  -50000917.4133044     
  -50000916.2878678     
  -50000914.8275802     
  -50000913.0296819     
  -50000910.8915611     
  -50000908.4107620     
  -50000905.5849936     
  -50000902.4121369     
  -50000898.8902529     
  -50000895.0175891     
  -50000890.7925868     
  -50000886.2138865     
  -50000881.2803343     
  -50000875.9909876     
  -50000870.3451192     
  -50000864.3422238     
  -50000857.9820208     
  -50000851.2644593     
  -50000844.1897221     
  -50000836.7582287     
  -50000828.9706390     
  -50000820.8278559     
  -50000812.3310285     
  -50000803.4815540     
  -50000794.2810807     
  -50000784.7315094     
  -50000774.8349953     
  -50000764.5939496     
  -50000754.0110412     
  -50000743.0891975     
  -50000731.8316054     
  -50000720.2417125     
  -50000708.3232271     
  -50000696.0801193     
  -50000683.5166209     
  -50000670.6372254     
  -50000657.4466884     
  -50000643.9500270     
  -50000630.1525193     
  -50000616.0597041     
  -50000601.6773801     
  -50000587.0116047     
  -50000572.0686929     
  -50000556.8552161     
  -50000541.3780005     
  -50000525.6441251     
  -50000509.6609198     
  -50000493.4359631     
  -49999071.2956927     
  -49999072.2532558     
  -49999073.5983443     
  -49999075.3287798     
  -49999077.4422382     
  -49999079.9362532     
  -49999082.8082215     
  -49999086.0554060     
  -49999089.6749407     
  -49999093.6638336     
  -49999098.0189712     
  -49999102.7371217     
  -49999107.8149386     
  -49999113.2489643     
  -49999119.0356332     
  -49999125.1712751     
  -49999131.6521183     
  -49999138.4742924     
  -49999145.6338321     
  -49999153.1266790     
  -49999160.9486857     
  -49999169.0956178     
  -49999177.5631571     
  -49999186.3469042     
  -49999195.4423817     
  -49999204.8450361     
  -49999214.5502416     
  -49999224.5533018     
  -49999234.8494531     
  -49999245.4338671     
  -49999256.3016535     
  -49999267.4478629     
  -49999278.8674889     
  -49999290.5554720     
  -49999302.5067012     
  -49999314.7160177     
  -49999327.1782172     
  -49999339.8880530     
  -49999352.8402385     
  -49999366.0294505     
  -49999379.4503319     
  -49999393.0974947     
  -49999406.9655226     
  -49999421.0489742     
  -49999435.3423860     
  -49999449.8402750     
  -49999464.5371419     
  -49999479.4274737     
  -49999494.5057471     
  -49999509.7664304     
  -49997214.1500223     
  -49997216.5813283     
  -49997220.1203367     
  -49997224.7656065     
  -49997230.5152786     
  -49997237.3670759     
  -49997245.3183019     
  -49997254.3658409     
  -49997264.5061567     
  -49997275.7352931     
  -49997288.0488734     
  -49997301.4421004     
  -49997315.9097573     
  -49997331.4462070     
  -49997348.0453939     
  -49997365.7008438     
  -49997384.4056653     
  -49997404.1525507     
  -49997424.9337777     
  -49997446.7412108     
  -49997469.5663028     
  -49997493.4000972     
  -49997518.2332303     
  -49997544.0559335     
  -49997570.8580358     
  -49997598.6289669     
  -49997627.3577603     
  -49997657.0330563     
  -49997687.6431056     
  -49997719.1757734     
  -49997751.6185428     
  -49997784.9585196     
  -49997819.1824359     
  -49997854.2766559     
  -49997890.2271798     
  -49997927.0196492     
  -49997964.6393528     
  -49998003.0712317     
  -49998042.2998849     
  -49998082.3095759     
  -49998123.0842387     
  -49998164.6074840     
  -49998206.8626066     
  -49998249.8325915     
  -49998293.5001217     
  -49998337.8475851     
  -49998382.8570823     
  -49998428.5104341     
  -49998474.7891902     
  -49998521.6746363     
  -49995329.2013722     
  -49995333.1318070     
  -49995338.9005685     
  -49995346.5069780     
  -49995355.9496644     
  -49995367.2265583     
  -49995380.3348860     
  -49995395.2711642     
  -49995412.0311947     
  -49995430.6100607     
  -49995451.0021218     
  -49995473.2010110     
  -49995497.1996312     
  -49995522.9901528     
  -49995550.5640111     
  -49995579.9119048     
  -49995611.0237946     
  -49995643.8889020     
  -49995678.4957097     
  -49995714.8319608     
  -49995752.8846601     
  -49995792.6400746     
  -49995834.0837350     
  -49995877.2004384     
  -49995921.9742498     
  -49995968.3885053     
  -49996016.4258158     
  -49996066.0680704     
  -49996117.2964409     
  -49996170.0913865     
  -49996224.4326588     
  -49996280.2993079     
  -49996337.6696880     
  -49996396.5214643     
  -49996456.8316198     
  -49996518.5764629     
  -49996581.7316351     
  -49996646.2721199     
  -49996712.1722505     
  -49996779.4057201     
  -49996847.9455911     
  -49996917.7643050     
  -49996988.8336935     
  -49997061.1249890     
  -49997134.6088361     
  -49997209.2553037     
  -49997285.0338970     
  -49997361.9135706     
  -49997439.8627410     
  -49997518.8493011     
  -49993398.1557257     
  -49993403.5836849     
  -49993411.5978407     
  -49993422.1984446     
  -49993435.3847709     
  -49993451.1551049     
  -49993469.5067313     
  -49993490.4359246     
  -49993513.9379388     
  -49993540.0069984     
  -49993568.6362909     
  -49993599.8179588     
  -49993633.5430929     
  -49993669.8017269     
  -49993708.5828317     
  -49993749.8743112     
  -49993793.6629989     
  -49993839.9346545     
  -49993888.6739623     
  -49993939.8645295     
  -49993993.4888858     
  -49994049.5284832     
  -49994107.9636970     
  -49994168.7738276     
  -49994231.9371023     
  -49994297.4306785     
  -49994365.2306478     
  -49994435.3120399     
  -49994507.6488276     
  -49994582.2139333     
  -49994658.9792347     
  -49994737.9155726     
  -49994818.9927584     
  -49994902.1795823     
  -49994987.4438233     
  -49995074.7522582     
  -49995164.0706724     
  -49995255.3638714     
  -49995348.5956918     
  -49995443.7290145     
  -49995540.7257773     
  -49995639.5469888     
  -49995740.1527430     
  -49995842.5022340     
  -49995946.5537720     
  -49996052.2647993     
  -49996159.5919079     
  -49996268.4908564     
  -49996378.9165892     
  -49996490.8232549     
  -49991402.2903162     
  -49991409.1827023     
  -49991419.4334574     
  -49991433.0440800     
  -49991450.0147882     
  -49991470.3445019     
  -49991494.0308264     
  -49991521.0700362     
  -49991551.4570610     
  -49991585.1854715     
  -49991622.2474681     
  -49991662.6338684     
  -49991706.3340978     
  -49991753.3361802     
  -49991803.6267301     
  -49991857.1909451     
  -49991914.0126009     
  -49991974.0740460     
  -49992037.3561978     
  -49992103.8385405     
  -49992173.4991228     
  -49992246.3145579     
  -49992322.2600230     
  -49992401.3092616     
  -49992483.4345853     
  -49992568.6068769     
  -49992656.7955954     
  -49992747.9687802     
  -49992842.0930582     
  -49992939.1336498     
  -49993039.0543779     
  -49993141.8176759     
  -49993247.3845978     
  -49993355.7148284     
  -49993466.7666951     
  -49993580.4971801     
  -49993696.8619336     
  -49993815.8152874     
  -49993937.3102703     
  -49994061.2986232     
  -49994187.7308161     
  -49994316.5560653     
  -49994447.7223515     
  -49994581.1764390     
  -49994716.8638954     
  -49994854.7291126     
  -49994994.7153285     
  -49995136.7646492     
  -49995280.8180726     
  -49995426.8155128     
  -49989322.2795176     
  -49989330.5633032     
  -49989343.0094462     
  -49989359.6211663     
  -49989380.4000726     
  -49989405.3461399     
  -49989434.4576853     
  -49989467.7313477     
  -49989505.1620683     
  -49989546.7430720     
  -49989592.4658513     
  -49989642.3201510     
  -49989696.2939549     
  -49989754.3734732     
  -49989816.5431325     
  -49989882.7855658     
  -49989953.0816054     
  -49990027.4102762     
  -49990105.7487908     
  -49990188.0725458     
  -49990274.3551194     
  -49990364.5682705     
  -49990458.6819390     
  -49990556.6642473     
  -49990658.4815030     
  -49990764.0982029     
  -49990873.4770383     
  -49990986.5789009     
  -49991103.3628908     
  -49991223.7863248     
  -49991347.8047459     
  -49991475.3719344     
  -49991606.4399195     
  -49991740.9589922     
  -49991878.8777189     
  -49992020.1429569     
  -49992164.6998699     
  -49992312.4919449     
  -49992463.4610103     
  -49992617.5472547     
  -49992774.6892470     
  -49992934.8239571     
  -49993097.8867777     
  -49993263.8115477     
  -49993432.5305758     
  -49993603.9746653     
  -49993778.0731407     
  -49993954.7538742     
  -49994133.9433141     
  -49994315.5665141     
  -49987138.0092584     
  -49987147.5588686     
  -49987162.1148467     
  -49987181.6827752     
  -49987206.2662574     
  -49987235.8668868     
  -49987270.4842182     
  -49987310.1157413     
  -49987354.7568565     
  -49987404.4008522     
  -49987459.0388841     
  -49987518.6599571     
  -49987583.2509086     
  -49987652.7963936     
  -49987727.2788724     
  -49987806.6785991     
  -49987890.9736131     
  -49987980.1397311     
  -49988074.1505422     
  -49988172.9774035     
  -49988276.5894379     
  -49988384.9535336     
  -49988498.0343449     
  -49988615.7942945     
  -49988738.1935776     
  -49988865.1901670     
  -49988996.7398200     
  -49989132.7960864     
  -49989273.3103178     
  -49989418.2316785     
  -49989567.5071571     
  -49989721.0815797     
  -49989878.8976249     
  -49990040.8958381     
  -49990207.0146491     
  -49990377.1903897     
  -49990551.3573122     
  -49990729.4476097     
  -49990911.3914374     
  -49991097.1169341     
  -49991286.5502463     
  -49991479.6155519     
  -49991676.2350857     
  -49991876.3291665     
  -49992079.8162242     
  -49992286.6128288     
  -49992496.6337205     
  -49992709.7918405     
  -49992925.9983638     
  -49993145.1627327     
  -49984828.3739066     
  -49984838.9941576     
  -49984855.5140021     
  -49984877.9422008     
  -49984906.2851133     
  -49984940.5466617     
  -49984980.7282952     
  -49985026.8289599     
  -49985078.8450684     
  -49985136.7704746     
  -49985200.5964496     
  -49985270.3116602     
  -49985345.9021508     
  -49985427.3513268     
  -49985514.6399406     
  -49985607.7460804     
  -49985706.6451606     
  -49985811.3099147     
  -49985921.7103904     
  -49986037.8139465     
  -49986159.5852515     
  -49986286.9862852     
  -49986419.9763408     
  -49986558.5120297     
  -49986702.5472873     
  -49986852.0333810     
  -49987006.9189196     
  -49987167.1498639     
  -49987332.6695390     
  -49987503.4186481     
  -49987679.3352876     
  -49987860.3549630     
  -49988046.4106066     
  -49988237.4325964     
  -49988433.3487761     
  -49988634.0844756     
  -49988839.5625337     
  -49989049.7033212     
  -49989264.4247655     
  -49989483.6423755     
  -49989707.2692688     
  -49989935.2161987     
  -49990167.3915836     
  -49990403.7015362     
  -49990644.0498945     
  -49990888.3382543     
  -49991136.4660021     
  -49991388.3303500     
  -49991643.8263707     
  -49991902.8470354     
  -49982371.0480505     
  -49982382.4524360     
  -49982400.7094084     
  -49982425.8318950     
  -49982457.8299295     
  -49982496.7106095     
  -49982542.4780570     
  -49982595.1333826     
  -49982654.6746535     
  -49982721.0968642     
  -49982794.3919110     
  -49982874.5485698     
  -49982961.5524770     
  -49983055.3861129     
  -49983156.0287888     
  -49983263.4566365     
  -49983377.6426005     
  -49983498.5564329     
  -49983626.1646913     
  -49983760.4307378     
  -49983901.3147417     
  -49984048.7736839     
  -49984202.7613628     
  -49984363.2284027     
  -49984530.1222643     
  -49984703.3872561     
  -49984882.9645486     
  -49985068.7921889     
  -49985260.8051176     
  -49985458.9351868     
  -49985663.1111793     
  -49985873.2588294     
  -49986089.3008444     
  -49986311.1569278     
  -49986538.7438030     
  -49986771.9752384     
  -49987010.7620734     
  -49987255.0122451     
  -49987504.6308167     
  -49987759.5200056     
  -49988019.5792137     
  -49988284.7050578     
  -49988554.7914013     
  -49988829.7293865     
  -49989109.4074682     
  -49989393.7114488     
  -49989682.5245130     
  -49989975.7272652     
  -49990273.1977668     
  -49990574.8115763     
  -49979742.2234801     
  -49979754.0077566     
  -49979773.6697716     
  -49979801.2277677     
  -49979836.6965074     
  -49979880.0872259     
  -49979931.4075887     
  -49979990.6616532     
  -49980057.8498356     
  -49980132.9688812     
  -49980216.0118399     
  -49980306.9680446     
  -49980405.8230948     
  -49980512.5588424     
  -49980627.1533830     
  -49980749.5810486     
  -49980879.8124049     
  -49981017.8142512     
  -49981163.5496234     
  -49981316.9777992     
  -49981478.0543070     
  -49981646.7309358     
  -49981822.9557485     
  -49982006.6730966     
  -49982197.8236371     
  -49982396.3443513     
  -49982602.1685651     
  -49982815.2259704     
  -49983035.4426490     
  -49983262.7410963     
  -49983497.0402474     
  -49983738.2555036     
  -49983986.2987596     
  -49984241.0784325     
  -49984502.4994904     
  -49984770.4634826     
  -49985044.8685704     
  -49985325.6095574     
  -49985612.5779224     
  -49985905.6618505     
  -49986204.7462669     
  -49986509.7128697     
  -49986820.4401640     
  -49987136.8034967     
  -49987458.6750912     
  -49987785.9240837     
  -49988118.4165593     
  -49988456.0155897     
  -49988798.5812716     
  -49989145.9707655     
  -49976916.2988378     
  -49976927.9101793     
  -49976948.5114123     
  -49976978.1273681     
  -49977016.7786879     
  -49977064.4817738     
  -49977121.2487461     
  -49977187.0874065     
  -49977262.0012068     
  -49977345.9892230     
  -49977439.0461349     
  -49977541.1622104     
  -49977652.3232953     
  -49977772.5108064     
  -49977901.7017300     
  -49978039.8686241     
  -49978186.9796240     
  -49978342.9984524     
  -49978507.8844314     
  -49978681.5924990     
  -49978864.0732276     
  -49979055.2728447     
  -49979255.1332572     
  -49979463.5920767     
  -49979680.5826468     
  -49979906.0340728     
  -49980139.8712518     
  -49980382.0149048     
  -49980632.3816099     
  -49980890.8838356     
  -49981157.4299762     
  -49981431.9243861     
  -49981714.2674158     
  -49982004.3554483     
  -49982302.0809342     
  -49982607.3324290     
  -49982919.9946286     
  -49983239.9484060     
  -49983567.0708472     
  -49983901.2352875     
  -49984242.3113472     
  -49984590.1649674     
  -49984944.6584457     
  -49985305.6504718     
  -49985672.9961629     
  -49986046.5470993     
  -49986426.1513600     
  -49986811.6535589     
  -49987202.8948803     
  -49987599.7131162     
  -49973865.5057627     
  -49973876.2083042     
  -49973897.1179703     
  -49973928.2675093     
  -49973969.6846089     
  -49974021.3918502     
  -49974083.4066702     
  -49974155.7413314     
  -49974238.4028983     
  -49974331.3932214     
  -49974434.7089270     
  -49974548.3414137     
  -49974672.2768542     
  -49974806.4962031     
  -49974950.9752087     
  -49975105.6844314     
  -49975270.5892643     
  -49975445.6499592     
  -49975630.8216561     
  -49975826.0544152     
  -49976031.2932526     
  -49976246.4781784     
  -49976471.5442366     
  -49976706.4215479     
  -49976951.0353528     
  -49977205.3060575     
  -49977469.1492792     
  -49977742.4758934     
  -49978025.1920815     
  -49978317.1993777     
  -49978618.3947170     
  -49978928.6704827     
  -49979247.9145527     
  -49979576.0103465     
  -49979912.8368706     
  -49980258.2687630     
  -49980612.1763372     
  -49980974.4256248     
  -49981344.8784170     
  -49981723.3923045     
  -49982109.8207172     
  -49982504.0129613     
  -49982905.8142563     
  -49983315.0657702     
  -49983731.6046534     
  -49984155.2640725     
  -49984585.8732417     
  -49985023.2574549     
  -49985467.2381162     
  -49985917.6327696     
  -49970559.4507938     
  -49970568.2892385     
  -49970588.6794245     
  -49970620.6632795     
  -49970664.2765936     
  -49970719.5489843     
  -49970786.5038718     
  -49970865.1584636     
  -49970955.5237482     
  -49971057.6044968     
  -49971171.3992731     
  -49971296.9004509     
  -49971434.0942381     
  -49971582.9607071     
  -49971743.4738318     
  -49971915.6015291     
  -49972099.3057059     
  -49972294.5423100     
  -49972501.2613850     
  -49972719.4071289     
  -49972948.9179552     
  -49973189.7265560     
  -49973441.7599682     
  -49973704.9396401     
  -49973979.1814993     
  -49974264.3960213     
  -49974560.4882986     
  -49974867.3581094     
  -49975184.8999852     
  -49975513.0032787     
  -49975851.5522294     
  -49976200.4260284     
  -49976559.4988815     
  -49976928.6400695     
  -49977307.7140071     
  -49977696.5802994     
  -49978095.0937952     
  -49978503.1046379     
  -49978920.4583140     
  -49979346.9956984     
  -49979782.5530962     
  -49980226.9622825     
  -49980680.0505389     
  -49981141.6406868     
  -49981611.5511185     
  -49982089.5958248     
  -49982575.5844206     
  -49983069.3221683     
  -49983570.6099982     
  -49984079.2445272     
  -49966964.5466991     
  -49966970.3109474     
  -49966989.1267001     
  -49967021.0460666     
  -49967066.1136792     
  -49967124.3666802     
  -49967195.8347235     
  -49967280.5399854     
  -49967378.4971884     
  -49967489.7136341     
  -49967614.1892461     
  -49967751.9166221     
  -49967902.8810927     
  -49968067.0607895     
  -49968244.4267190     
  -49968434.9428418     
  -49968638.5661584     
  -49968855.2467986     
  -49969084.9281153     
  -49969327.5467808     
  -49969583.0328869     
  -49969851.3100452     
  -49970132.2954902     
  -49970425.9001817     
  -49970732.0289087     
  -49971050.5803907     
  -49971381.4473804     
  -49971724.5167627     
  -49972079.6696529     
  -49972446.7814916     
  -49972825.7221370     
  -49973216.3559539     
  -49973618.5418985     
  -49974032.1335995     
  -49974456.9794348     
  -49974892.9226036     
  -49975339.8011929     
  -49975797.4482403     
  -49976265.6917903     
  -49976744.3549463     
  -49977233.2559161     
  -49977732.2080532     
  -49978241.0198918     
  -49978759.4951767     
  -49979287.4328882     
  -49979824.6272609     
  -49980370.8677990     
  -49980925.9392857     
  -49981489.6217881     
  -49982061.6906583     
  -49963043.3002128     
  -49963044.4958194     
  -49963060.4325795     
  -49963091.1732305     
  -49963136.7713622     
  -49963197.2714449     
  -49963272.7088728     
  -49963363.1100212     
  -49963468.4923170     
  -49963588.8643222     
  -49963724.2258280     
  -49963874.5679596     
  -49964039.8732903     
  -49964220.1159642     
  -49964415.2618259     
  -49964625.2685565     
  -49964850.0858161     
  -49965089.6553894     
  -49965343.9113357     
  -49965612.7801415     
  -49965896.1808747     
  -49966194.0253396     
  -49966506.2182321     
  -49966832.6572941     
  -49967173.2334663     
  -49967527.8310387     
  -49967896.3277976     
  -49968278.5951699     
  -49968674.4983617     
  -49969083.8964931     
  -49969506.6427262     
  -49969942.5843884     
  -49970391.5630874     
  -49970853.4148207     
  -49971327.9700767     
  -49971815.0539283     
  -49972314.4861182     
  -49972826.0811362     
  -49973349.6482874     
  -49973884.9917521     
  -49974431.9106363     
  -49974990.1990141     
  -49975559.6459604     
  -49976140.0355747     
  -49976731.1469974     
  -49977332.7544151     
  -49977944.6270601     
  -49978566.5291997     
  -49979198.2201187     
  -49979839.4540941     
  -49958753.4153850     
  -49958748.2472375     
  -49958759.7433304     
  -49958787.9764821     
  -49958833.0082842     
  -49958894.8891933     
  -49958973.6586424     
  -49959069.3451680     
  -49959181.9665547     
  -49959311.5299933     
  -49959458.0322528     
  -49959621.4598631     
  -49959801.7893095     
  -49959998.9872360     
  -49960213.0106558     
  -49960443.8071693     
  -49960691.3151868     
  -49960955.4641554     
  -49961236.1747888     
  -49961533.3592980     
  -49961846.9216234     
  -49962176.7576657     
  -49962522.7555144     
  -49962884.7956738     
  -49963262.7512855     
  -49963656.4883448     
  -49964065.8659119     
  -49964490.7363165     
  -49964930.9453537     
  -49965386.3324720     
  -49965856.7309528     
  -49966341.9680782     
  -49966841.8652897     
  -49967356.2383349     
  -49967884.8974034     
  -49968427.6472486     
  -49968984.2872992     
  -49969554.6117562     
  -49970138.4096774     
  -49970735.4650478     
  -49971345.5568368     
  -49971968.4590420     
  -49972603.9407181     
  -49973251.7659935     
  -49973911.6940723     
  -49974583.4792230     
  -49975266.8707544     
  -49975961.6129781     
  -49976667.4451587     
  -49977384.1014519     
  -49954046.6629719     
  -49954033.0431287     
  -49954038.2985849     
  -49954062.5100797     
  -49954105.7445440     
  -49954168.0552920     
  -49954249.4822331     
  -49954350.0521055     
  -49954469.7787277     
  -49954608.6632671     
  -49954766.6945230     
  -49954943.8492240     
  -49955140.0923353     
  -49955355.3773770     
  -49955589.6467493     
  -49955842.8320648     
  -49956114.8544844     
  -49956405.6250567     
  -49956715.0450588     
  -49957043.0063360     
  -49957389.3916404     
  -49957754.0749660     
  -49958136.9218787     
  -49958537.7898406     
  -49958956.5285260     
  -49959392.9801302     
  -49959846.9796659     
  -49960318.3552512     
  -49960806.9283825     
  -49961312.5141966     
  -49961834.9217169     
  -49962373.9540848     
  -49962929.4087755     
  -49963501.0777963     
  -49964088.7478681     
  -49964692.2005885     
  -49965311.2125759     
  -49965945.5555950     
  -49966594.9966629     
  -49967259.2981346     
  -49967938.2177692     
  -49968631.5087761     
  -49969338.9198397     
  -49970060.1951250     
  -49970795.0742632     
  -49971543.2923160     
  -49972304.5797219     
  -49973078.6622217     
  -49973865.2607653     
  -49974664.0914018     
  -49948867.4568293     
  -49948843.0522004     
  -49948840.0899303     
  -49948858.6540363     
  -49948898.8115445     
  -49948960.6128256     
  -49949044.0919553     
  -49949149.2670991     
  -49949276.1409187     
  -49949424.7009962     
  -49949594.9202756     
  -49949786.7575181     
  -49950000.1577691     
  -49950235.0528354     
  -49950491.3617689     
  -49950768.9913555     
  -49951067.8366073     
  -49951387.7812556     
  -49951728.6982417     
  -49952090.4502058     
  -49952472.8899697     
  -49952875.8610125     
  -49953299.1979377     
  -49953742.7269291     
  -49954206.2661945     
  -49954689.6263956     
  -49955192.6110618     
  -49955715.0169874     
  -49956256.6346094     
  -49956817.2483669     
  -49957396.6370389     
  -49957994.5740591     
  -49958610.8278084     
  -49959245.1618834     
  -49959897.3353386     
  -49960567.1029038     
  -49961254.2151748     
  -49961958.4187757     
  -49962679.4564953     
  -49963417.0673939     
  -49964170.9868821     
  -49964940.9467709     
  -49965726.6752931     
  -49966527.8970954     
  -49967344.3332024     
  -49968175.7009512     
  -49969021.7138982     
  -49969882.0816976     
  -49970756.5099531     
  -49971644.7000424     
  -49943151.0686516     
  -49943113.4104600     
  -49943100.2020146     
  -49943111.5223057     
  -49943147.4294395     
  -49943207.9611798     
  -49943293.1355184     
  -49943402.9512731     
  -49943537.3887090     
  -49943696.4101799     
  -49943879.9607868     
  -49944087.9690519     
  -49944320.3476021     
  -49944576.9938629     
  -49944857.7907563     
  -49945162.6074027     
  -49945491.2998217     
  -49945843.7116313     
  -49946219.6747408     
  -49946619.0100375     
  -49947041.5280614     
  -49947487.0296684     
  -49947955.3066789     
  -49948446.1425079     
  -49948959.3127782     
  -49949494.5859098     
  -49950051.7236881     
  -49950630.4818073     
  -49951230.6103845     
  -49951851.8544492     
  -49952493.9544002     
  -49953156.6464320     
  -49953839.6629287     
  -49954542.7328242     
  -49955265.5819267     
  -49956007.9332083     
  -49956769.5070562     
  -49957550.0214877     
  -49958349.1923256     
  -49959166.7333359     
  -49960002.3563246     
  -49960855.7711962     
  -49961726.6859713     
  -49962614.8067644     
  -49963519.8377221     
  -49964441.4809212     
  -49965379.4362268     
  -49966333.4011117     
  -49967303.0704375     
  -49968288.1361972     
  -49936821.4035986     
  -49936768.0886302     
  -49936742.7747610     
  -49936745.5224053     
  -49936776.3663845     
  -49936835.3167548     
  -49936922.3596686     
  -49937037.4582651     
  -49937180.5535850     
  -49937351.5655072     
  -49937550.3937009     
  -49937776.9185927     
  -49938031.0023420     
  -49938312.4898231     
  -49938621.2096089     
  -49938956.9749537     
  -49939319.5847714     
  -49939708.8246063     
  -49940124.4675913     
  -49940566.2753939     
  -49941033.9991433     
  -49941527.3803384     
  -49942046.1517328     
  -49942590.0381929     
  -49943158.7575304     
  -49943752.0213014     
  -49944369.5355738     
  -49945011.0016602     
  -49945676.1168118     
  -49946364.5748739     
  -49947076.0669008     
  -49947810.2817255     
  -49948566.9064871     
  -49949345.6271106     
  -49950146.1287399     
  -49950968.0961214     
  -49951811.2139374     
  -49952675.1670900     
  -49953559.6409312     
  -49954464.3214416     
  -49955388.8953554     
  -49956333.0502318     
  -49957296.4744728     
  -49958278.8572854     
  -49959279.8885917     
  -49960299.2588828     
  -49961336.6590198     
  -49962391.7799807     
  -49963464.3125547     
  -49964553.9469846     
  -49929788.2528588     
  -49929717.2767537     
  -49929678.5230393     
  -49929672.0126872     
  -49929697.7354564     
  -49929755.6511137     
  -49929845.6906877     
  -49929967.7577532     
  -49930121.7297400     
  -49930307.4592623     
  -49930524.7754609     
  -49930773.4853581     
  -49931053.3752164     
  -49931364.2118992     
  -49931705.7442280     
  -49932077.7043317     
  -49932479.8089851     
  -49932911.7609311     
  -49933373.2501831     
  -49933863.9553052     
  -49934383.5446646     
  -49934931.6776540     
  -49935508.0058803     
  -49936112.1743162     
  -49936743.8224121     
  -49937402.5851647     
  -49938088.0941404     
  -49938799.9784491     
  -49939537.8656689     
  -49940301.3827156     
  -49941090.1566579     
  -49941903.8154738     
  -49942741.9887482     
  -49943604.3083083     
  -49944490.4087962     
  -49945399.9281762     
  -49946332.5081758     
  -49947287.7946603     
  -49948265.4379373     
  -49949265.0929926     
  -49950286.4196549     
  -49951329.0826901     
  -49952392.7518241     
  -49953477.1016925     
  -49954581.8117199     
  -49955706.5659252     
  -49956851.0526564     
  -49958014.9642528     
  -49959197.9966362     
  -49960399.8488317     
  -49921943.9372924     
  -49921854.2128761     
  -49921801.7531231     
  -49921786.5087000     
  -49921808.3924717     
  -49921867.2812439     
  -49921963.0175404     
  -49922095.4114079     
  -49922264.2422432     
  -49922469.2606357     
  -49922710.1902200     
  -49922986.7295326     
  -49923298.5538679     
  -49923645.3171258     
  -49924026.6536496     
  -49924442.1800446     
  -49924891.4969764     
  -49925374.1909418     
  -49925889.8360084     
  -49926437.9955189     
  -49927018.2237554     
  -49927630.0675595     
  -49928273.0679048     
  -49928946.7614181     
  -49929650.6818447     
  -49930384.3614555     
  -49931147.3323926     
  -49931939.1279491     
  -49932759.2837813     
  -49933607.3390509     
  -49934482.8374924     
  -49935385.3284055     
  -49936314.3675698     
  -49937269.5180776     
  -49938250.3510855     
  -49939256.4464812     
  -49940287.3934643     
  -49941342.7910397     
  -49942422.2484216     
  -49943525.3853476     
  -49944651.8323010     
  -49945801.2306418     
  -49946973.2326431     
  -49948167.5014355     
  -49949383.7108568     
  -49950621.5452066     
  -49951880.6989088     
  -49953160.8760776     
  -49954461.7899911     
  -49955783.1624712     
  -49913159.2623222     
  -49913051.3915056     
  -49912986.8266666     
  -49912965.4039236     
  -49912986.9140319     
  -49913051.1048124     
  -49913157.6836109     
  -49913306.3197786     
  -49913496.6471691     
  -49913728.2666416     
  -49914000.7485660     
  -49914313.6353211     
  -49914666.4437805     
  -49915058.6677799     
  -49915489.7805587     
  -49915959.2371716     
  -49916466.4768629     
  -49917010.9253990     
  -49917591.9973544     
  -49918209.0983446     
  -49918861.6272024     
  -49919548.9780928     
  -49920270.5425616     
  -49921025.7115136     
  -49921813.8771172     
  -49922634.4346296     
  -49923486.7841418     
  -49924370.3322368     
  -49925284.4935596     
  -49926228.6922962     
  -49927202.3635560     
  -49928204.9546583     
  -49929235.9263169     
  -49930294.7537228     
  -49931380.9275211     
  -49932493.9546806     
  -49933633.3592535     
  -49934798.6830239     
  -49935989.4860432     
  -49937205.3470501     
  -49938445.8637749     
  -49939710.6531263     
  -49940999.3512594     
  -49942311.6135241     
  -49943647.1142938     
  -49945005.5466729     
  -49946386.6220834     
  -49947790.0697303     
  -49949215.6359454     
  -49950663.0834107     
  -49903278.7228694     
  -49903156.1091118     
  -49903084.0471999     
  -49903062.1968741     
  -49903090.1640769     
  -49903167.5042668     
  -49903293.7257497     
  -49903468.2930230     
  -49903690.6301206     
  -49903960.1239521     
  -49904276.1276272     
  -49904637.9637580     
  -49905044.9277311     
  -49905496.2909438     
  -49905991.3039955     
  -49906529.1998293     
  -49907109.1968172     
  -49907730.5017822     
  -49908392.3129525     
  -49909093.8228415     
  -49909834.2210490     
  -49910612.6969781     
  -49911428.4424634     
  -49912280.6543054     
  -49913168.5367077     
  -49914091.3036111     
  -49915048.1809229     
  -49916038.4086360     
  -49917061.2428339     
  -49918115.9575801     
  -49919201.8466862     
  -49920318.2253574     
  -49921464.4317114     
  -49922639.8281682     
  -49923843.8027081     
  -49925075.7699955     
  -49926335.1723654     
  -49927621.4806715     
  -49928934.1949924     
  -49930272.8451953     
  -49931636.9913543     
  -49933026.2240219     
  -49934440.1643529     
  -49935878.4640777     
  -49937340.8053259     
  -49938826.9002972     
  -49940336.4907804     
  -49941869.3475187     
  -49943425.2694209     
  -49945004.0826197     
  -49892114.9349031     
  -49891985.3445473     
  -49891914.9872755     
  -49891903.2619249     
  -49891949.5044833     
  -49892052.9925187     
  -49892212.9496120     
  -49892428.5497783     
  -49892698.9218690     
  -49893023.1539464     
  -49893400.2976179     
  -49893829.3723256     
  -49894309.3695800     
  -49894839.2571322     
  -49895417.9830746     
  -49896044.4798667     
  -49896717.6682751     
  -49897436.4612256     
  -49898199.7675589     
  -49899006.4956828     
  -49899855.5571210     
  -49900745.8699465     
  -49901676.3620996     
  -49902645.9745839     
  -49903653.6645363     
  -49904698.4081661     
  -49905779.2035604     
  -49906895.0733508     
  -49908045.0672379     
  -49909228.2643706     
  -49910443.7755762     
  -49911690.7454383     
  -49912968.3542187     
  -49914275.8196213     
  -49915612.3983944     
  -49916977.3877683     
  -49918370.1267258     
  -49919789.9971029     
  -49921236.4245179     
  -49922708.8791240     
  -49924206.8761869     
  -49925729.9764808     
  -49927277.7865050     
  -49928849.9585153     
  -49930446.1903706     
  -49932066.2251934     
  -49933709.8508395     
  -49935376.8991798     
  -49937067.2451896     
  -49938780.8058452     
  -49879442.3358186     
  -49879320.0402871     
  -49879267.3443463     
  -49879283.2726595     
  -49879366.7778573     
  -49879516.7463545     
  -49879732.0041365     
  -49880011.3225029     
  -49880353.4237581     
  -49880756.9868400     
  -49881220.6528737     
  -49881743.0306458     
  -49882322.7019873     
  -49882958.2270584     
  -49883648.1495278     
  -49884391.0016405     
  -49885185.3091649     
  -49886029.5962162     
  -49886922.3899480     
  -49887862.2251079     
  -49888847.6484515     
  -49889877.2230107     
  -49890949.5322107     
  -49892063.1838318     
  -49893216.8138128     
  -49894409.0898903     
  -49895638.7150726     
  -49896904.4309411     
  -49898205.0207802     
  -49899539.3125275     
  -49900906.1815453     
  -49902304.5532072     
  -49903733.4052978     
  -49905191.7702221     
  -49906678.7370228     
  -49908193.4531988     
  -49909735.1263272     
  -49911303.0254803     
  -49912896.4824385     
  -49914514.8926953     
  -49916157.7162489     
  -49917824.4781816     
  -49919514.7690201     
  -49921228.2448772     
  -49922964.6273695     
  -49924723.7033097     
  -49926505.3241705     
  -49928309.4053188     
  -49930135.9250139     
  -49931984.9231733     
  -49864990.3009633     
  -49864898.9567097     
  -49864889.5204645     
  -49864960.4937479     
  -49865110.2975570     
  -49865337.2798629     
  -49865639.7230302     
  -49866015.8511432     
  -49866463.8372298     
  -49866981.8103732     
  -49867567.8627008     
  -49868220.0562419     
  -49868936.4296485     
  -49869715.0047667     
  -49870553.7930585     
  -49871450.8018620     
  -49872404.0404896     
  -49873411.5261540     
  -49874471.2897217     
  -49875581.3812860     
  -49876739.8755588     
  -49877944.8770745     
  -49879194.5252052     
  -49880486.9989809     
  -49881820.5217158     
  -49883193.3654319     
  -49884603.8550845     
  -49886050.3725786     
  -49887531.3605807     
  -49889045.3261184     
  -49890590.8439676     
  -49892166.5598229     
  -49893771.1932497     
  -49895403.5404139     
  -49897062.4765874     
  -49898746.9584245     
  -49900456.0260083     
  -49902188.8046610     
  -49903944.5065169     
  -49905722.4318537     
  -49907521.9701779     
  -49909342.6010612     
  -49911183.8947226     
  -49913045.5123545     
  -49914927.2061873     
  -49916828.8192866     
  -49918750.2850826     
  -49920691.6266253     
  -49922652.9555598     
  -49924634.4708216     
  -49848435.9828885     
  -49848412.4300445     
  -49848485.2777506     
  -49848652.3120498     
  -49848911.2319498     
  -49849259.6589079     
  -49849695.1461661     
  -49850215.1879200     
  -49850817.2283166     
  -49851498.6702674     
  -49852256.8840729     
  -49853089.2158474     
  -49853992.9957417     
  -49854965.5459541     
  -49856004.1885298     
  -49857106.2529397     
  -49858269.0834392     
  -49859490.0462015     
  -49860766.5362238     
  -49862095.9840046     
  -49863475.8619892     
  -49864903.6907835     
  -49866377.0451327     
  -49867893.5596661     
  -49869450.9344046     
  -49871046.9400308     
  -49872679.4229217     
  -49874346.3099406     
  -49876045.6129882     
  -49877775.4333124     
  -49879533.9655728     
  -49881319.5016602     
  -49883130.4342682     
  -49884965.2602145     
  -49886822.5835091     
  -49888701.1181672     
  -49890599.6907631     
  -49892517.2427206     
  -49894452.8323376     
  -49896405.6365398     
  -49898374.9523578     
  -49900360.1981254     
  -49902360.9143899     
  -49904376.7645325     
  -49906407.5350915     
  -49908453.1357809     
  -49910513.5991994     
  -49912589.0802239     
  -49914679.8550787     
  -49916786.3200755     
  -49829397.4115126     
  -49829496.5918431     
  -49829709.0436623     
  -49830031.5938460     
  -49830460.9796157     
  -49830993.8603024     
  -49831626.8288548     
  -49832356.4230838     
  -49833179.1366352     
  -49834091.4296841     
  -49835089.7393477     
  -49836170.4898110     
  -49837330.1021634     
  -49838565.0039451     
  -49839871.6384007     
  -49841246.4734425     
  -49842686.0103205     
  -49844186.7920028     
  -49845745.4112667     
  -49847358.5185030     
  -49849022.8292336     
  -49850735.1313476     
  -49852492.2920554     
  -49854291.2645651     
  -49856129.0944816     
  -49858002.9259331     
  -49859910.0074237     
  -49861847.6974165     
  -49863813.4696473     
  -49865804.9181688     
  -49867819.7621287     
  -49869855.8502780     
  -49871911.1652119     
  -49873983.8273408     
  -49876072.0985896     
  -49878174.3858237     
  -49880289.2439980     
  -49882415.3790255     
  -49884551.6503614     
  -49886697.0732967     
  -49888850.8209576     
  -49891012.2260011     
  -49893180.7820037     
  -49895356.1445316     
  -49897538.1318880     
  -49899726.7255243     
  -49901922.0701099     
  -49904124.4732481     
  -49906334.4048285     
  -49908552.4960053     
  -49807427.7185765     
  -49807728.9232025     
  -49808162.7447747     
  -49808724.7483539     
  -49809410.4133570     
  -49810215.1478271     
  -49811134.3023072     
  -49812163.1833120     
  -49813297.0663975     
  -49814531.2088253     
  -49815860.8618257     
  -49817281.2824591     
  -49818787.7450802     
  -49820375.5524104     
  -49822040.0462221     
  -49823776.6176422     
  -49825580.7170812     
  -49827447.8637952     
  -49829373.6550884     
  -49831353.7751649     
  -49833384.0036360     
  -49835460.2236928     
  -49837578.4299521     
  -49839734.7359816     
  -49841925.3815142     
  -49844146.7393574     
  -49846395.3220037     
  -49848667.7879501     
  -49850960.9477302     
  -49853271.7696641     
  -49855597.3853310     
  -49857935.0947657     
  -49860282.3713823     
  -49862636.8666261     
  -49864996.4143524     
  -49867359.0349333     
  -49869722.9390881     
  -49872086.5314349     
  -49874448.4137595     
  -49876807.3879944     
  -49879162.4589020     
  -49881512.8364538     
  -49883857.9378961     
  -49886197.3894917     
  -49888531.0279269     
  -49890858.9013692     
  -49893181.2701655     
  -49895498.6071622     
  -49897811.5976351     
  -49900121.1388107     
  -49782011.7914100     
  -49782626.4407197     
  -49783395.4528662     
  -49784312.7634210     
  -49785372.2367201     
  -49786567.6827427     
  -49787892.8734024     
  -49789341.5582578     
  -49790907.4796493     
  -49792584.3872687     
  -49794366.0521747     
  -49796246.2802639     
  -49798218.9252116     
  -49800277.9008957     
  -49802417.1933193     
  -49804630.8720476     
  -49806913.1011751     
  -49809258.1498403     
  -49811660.4023048     
  -49814114.3676132     
  -49816614.6888518     
  -49819156.1520225     
  -49821733.6945476     
  -49824342.4134232     
  -49826977.5730345     
  -49829634.6126497     
  -49832309.1536041     
  -49834997.0061897     
  -49837694.1762593     
  -49840396.8715576     
  -49843101.5077877     
  -49845804.7144202     
  -49848503.3402526     
  -49851194.4587218     
  -49853875.3729744     
  -49856543.6206943     
  -49859196.9786892     
  -49861833.4672316     
  -49864451.3541506     
  -49867049.1586693     
  -49869625.6549784     
  -49872179.8755366     
  -49874711.1140853     
  -49877218.9283648     
  -49879703.1425149     
  -49882163.8491434     
  -49884601.4110424     
  -49887016.4625324     
  -49889409.9104099     
  -49891782.9344772     
  -49752567.2399270     
  -49753648.3609826     
  -49754907.6473757     
  -49756336.9696588     
  -49757928.1569711     
  -49759673.0163996     
  -49761563.3515174     
  -49763590.9801074     
  -49765747.7510990     
  -49768025.5607373     
  -49770416.3680090     
  -49772912.2093519     
  -49775505.2126735     
  -49778187.6107071     
  -49780951.7537351     
  -49783790.1217067     
  -49786695.3357815     
  -49789660.1693284     
  -49792677.5584086     
  -49795740.6117756     
  -49798842.6204175     
  -49801977.0666750     
  -49805137.6329598     
  -49808318.2101039     
  -49811512.9053645     
  -49814716.0501113     
  -49817922.2072186     
  -49821126.1781878     
  -49824323.0100176     
  -49827508.0018450     
  -49830676.7113709     
  -49833824.9610888     
  -49836948.8443261     
  -49840044.7311118     
  -49843109.2738773     
  -49846139.4129944     
  -49849132.3821565     
  -49852085.7135996     
  -49854997.2431622     
  -49857865.1151775     
  -49860687.7871887     
  -49863464.0344760     
  -49866192.9543793     
  -49868873.9704001     
  -49871506.8360588     
  -49874091.6384868     
  -49876628.8017241     
  -49879119.0896904     
  -49881563.6088062     
  -49883963.8102147     
  -49718452.2882591     
  -49720205.7743283     
  -49722162.5389625     
  -49724311.8870961     
  -49726643.1338834     
  -49729145.6260954     
  -49731808.7623708     
  -49734622.0123950     
  -49737574.9350202     
  -49740657.1953821     
  -49743858.5810521     
  -49747169.0172706     
  -49750578.5813032     
  -49754077.5159707     
  -49757656.2423965     
  -49761305.3720188     
  -49765015.7179155     
  -49768778.3054891     
  -49772584.3825575     
  -49776425.4289004     
  -49780293.1653030     
  -49784179.5621486     
  -49788076.8475991     
  -49791977.5154111     
  -49795874.3324278     
  -49799760.3457887     
  -49803628.8898956     
  -49807473.5931725     
  -49811288.3846540     
  -49815067.5004353     
  -49818805.4900127     
  -49822497.2225436     
  -49826137.8930468     
  -49829723.0285669     
  -49833248.4943176     
  -49836710.4998170     
  -49840105.6050258     
  -49843430.7264908     
  -49846683.1434961     
  -49849860.5042179     
  -49852960.8318730     
  -49855982.5308486     
  -49858924.3927964     
  -49861785.6026657     
  -49864565.7446510     
  -49867264.8080180     
  -49869883.1927722     
  -49872421.7151378     
  -49874881.6127736     
  -49877264.5497196     
  -49678984.0662605     
  -49681681.6621551     
  -49684607.6441228     
  -49687748.1971510     
  -49691089.5977310     
  -49694618.2362902     
  -49698320.6382242     
  -49702183.4834651     
  -49706193.6247310     
  -49710338.1044933     
  -49714604.1707243     
  -49718979.2915024     
  -49723451.1685333     
  -49728007.7496644     
  -49732637.2404504     
  -49737328.1148448     
  -49742069.1250848     
  -49746849.3108348     
  -49751658.0076624     
  -49756484.8549094     
  -49761319.8030290     
  -49766153.1204562     
  -49770975.4000762     
  -49775777.5653579     
  -49780550.8762156     
  -49785286.9346626     
  -49789977.6903167     
  -49794615.4458162     
  -49799192.8622036     
  -49803702.9643285     
  -49808139.1463207     
  -49812495.1771793     
  -49816765.2065190     
  -49820943.7705128     
  -49825025.7980604     
  -49829006.6172126     
  -49832881.9618711     
  -49836647.9787788     
  -49840301.2348099     
  -49843838.7245611     
  -49847257.8782404     
  -49850556.5698372     
  -49853733.1255613     
  -49856786.3325139     
  -49859715.4475630     
  -49862520.2063802     
  -49865200.8325924     
  -49867758.0469553     
  -49870193.0765845     
  -49872507.6640034     
  -49633471.7156830     
  -49637465.4566107     
  -49641710.5950736     
  -49646189.6112455     
  -49650885.1964775     
  -49655780.2754800     
  -49660858.0263793     
  -49666101.8992342     
  -49671495.6327960     
  -49677023.2697101     
  -49682669.1702484     
  -49688418.0246455     
  -49694254.8641296     
  -49700165.0707396     
  -49706134.3860162     
  -49712148.9186603     
  -49718195.1512461     
  -49724259.9460820     
  -49730330.5503110     
  -49736394.6003442     
  -49742440.1257212     
  -49748455.5524915     
  -49754429.7062135     
  -49760351.8146635     
  -49766211.5103522     
  -49771998.8329410     
  -49777704.2316529     
  -49783318.5677677     
  -49788833.1172914     
  -49794239.5738860     
  -49799530.0521412     
  -49804697.0912673     
  -49809733.6592798     
  -49814633.1577450     
  -49819389.4271446     
  -49823996.7529123     
  -49828449.8721876     
  -49832743.9813210     
  -49836874.7441578     
  -49840838.3011144     
  -49844631.2790543     
  -49848250.8019549     
  -49851694.5023510     
  -49854960.5335249     
  -49858047.5824038     
  -49860954.8830939     
  -49863682.2309950     
  -49866229.9975249     
  -49868599.1450028     
  -49870791.2422407     
  -49581269.5912922     
  -49587007.1294044     
  -49593013.8896694     
  -49599268.0686227     
  -49605748.2417486     
  -49612433.3823740     
  -49619302.8794808     
  -49626336.5526977     
  -49633514.6656327     
  -49640817.9373373     
  -49648227.5519733     
  -49655725.1668238     
  -49663292.9187580     
  -49670913.4292465     
  -49678569.8080212     
  -49686245.6554900     
  -49693925.0640130     
  -49701592.6181551     
  -49709233.3940290     
  -49716832.9578491     
  -49724377.3638227     
  -49731853.1515042     
  -49739247.3427496     
  -49746547.4384044     
  -49753741.4148685     
  -49760817.7206766     
  -49767765.2732417     
  -49774573.4559021     
  -49781232.1154174     
  -49787731.5600545     
  -49794062.5584000     
  -49800216.3390328     
  -49806184.5911844     
  -49811959.4665025     
  -49817533.5820341     
  -49822900.0245194     
  -49828052.3560898     
  -49832984.6214429     
  -49837691.3565521     
  -49842167.5989585     
  -49846408.8996730     
  -49850411.3367001     
  -49854171.5301715     
  -49857686.6590596     
  -49860954.4794374     
  -49863973.3442614     
  -49866742.2245352     
  -49869260.7314627     
  -49871529.1406829     
  -49873548.4160592     
  -49521856.3249428     
  -49529896.2423123     
  -49538213.7058577     
  -49546782.1057869     
  -49555575.4323629     
  -49564568.2929139     
  -49573735.9222770     
  -49583054.1936313     
  -49592499.6261999     
  -49602049.3907646     
  -49611681.3132763     
  -49621373.8765184     
  -49631106.2198545     
  -49640858.1371629     
  -49650610.0730629     
  -49660343.1175338     
  -49670038.9990363     
  -49679680.0762517     
  -49689249.3285769     
  -49698730.3455199     
  -49708107.3151612     
  -49717365.0118543     
  -49726488.7833555     
  -49735464.5375834     
  -49744278.7292201     
  -49752918.3463757     
  -49761370.8975472     
  -49769624.3991032     
  -49777667.3635367     
  -49785488.7887200     
  -49793078.1484007     
  -49800425.3841690     
  -49807520.8991183     
  -49814355.5534129     
  -49820920.6619627     
  -49827207.9943881     
  -49833209.7774400     
  -49838918.7000242     
  -49844327.9209493     
  -49849431.0794960     
  -49854222.3088813     
  -49858696.2526645     
  -49862848.0841299     
  -49866673.5286396     
  -49870168.8888606     
  -49873331.0727061     
  -49876157.6241534     
  -49878646.7575391     
  -49880797.3911435     
  -49882609.1885647     
  -49454945.0877112     
  -49465971.0379350     
  -49477267.6639816     
  -49488803.1249825     
  -49500546.4672040     
  -49512467.6234558     
  -49524537.4259265     
  -49536727.6072961     
  -49549010.8020737     
  -49561360.5460635     
  -49573751.2729842     
  -49586158.3084894     
  -49598557.8617775     
  -49610927.0147891     
  -49623243.7089693     
  -49635486.7296167     
  -49647635.6879040     
  -49659671.0006815     
  -49671573.8682120     
  -49683326.2500115     
  -49694910.8390080     
  -49706311.0342644     
  -49717510.9125468     
  -49728495.1990538     
  -49739249.2376469     
  -49749758.9609514     
  -49760010.8607142     
  -49769991.9588223     
  -49779689.7793946     
  -49789092.3223650     
  -49798188.0389743     
  -49806965.8095805     
  -49815414.9241865     
  -49823525.0660662     
  -49831286.2988474     
  -49838689.0573821     
  -49845724.1427060     
  -49852382.7213561     
  -49858656.3292788     
  -49864536.8805289     
  -49870016.6809068     
  -49875088.4466206     
  -49879745.3279994     
  -49883980.9383012     
  -49887789.3877873     
  -49891165.3231365     
  -49894103.9710019     
  -49896601.1840440     
  -49898653.5021453     
  -49900258.1973028     
  -49380628.1363476     
  -49395460.8157281     
  -49410535.0151409     
  -49425813.3666527     
  -49441259.7000326     
  -49456839.0828745     
  -49472517.7995774     
  -49488263.3600043     
  -49504044.4989100     
  -49519831.1697893     
  -49535594.5364856     
  -49551306.9619738     
  -49566941.9933500     
  -49582474.3426625     
  -49597879.8635315     
  -49613135.5235532     
  -49628219.3724800     
  -49643110.5062166     
  -49657789.0267474     
  -49672235.9982140     
  -49686433.3994460     
  -49700364.0733405     
  -49714011.6735578     
  -49727360.6090750     
  -49740395.9871984     
  -49753103.5556947     
  -49765469.6447426     
  -49777481.1094382     
  -49789125.2736131     
  -49800389.8757238     
  -49811263.0175764     
  -49821733.1166249     
  -49831788.8625628     
  -49841419.1788853     
  -49850613.1900618     
  -49859360.1948982     
  -49867649.6466153     
  -49875471.1400927     
  -49882814.4066616     
  -49889669.3167625     
  -49896025.8907534     
  -49901874.3181322     
  -49907204.9853492     
  -49912008.5120520     
  -49916275.7951445     
  -49919998.0606943     
  -49923166.9272836     
  -49925774.4824213     
  -49927813.3316388     
  -49929276.7306315     
  -49299553.4218103     
  -49319160.6303087     
  -49338949.7630084     
  -49358877.5446981     
  -49378902.3626911     
  -49398984.1456455     
  -49419084.4606991     
  -49439166.5026712     
  -49459195.0940302     
  -49479136.6917083     
  -49498959.3874307     
  -49518632.8995094     
  -49538128.5572479     
  -49557419.2781923     
  -49576479.5376092     
  -49595285.3295072     
  -49613814.1188285     
  -49632044.7847615     
  -49649957.5553652     
  -49667533.9338858     
  -49684756.6173062     
  -49701609.4078405     
  -49718077.1182463     
  -49734145.4719870     
  -49749800.9994107     
  -49765030.9312245     
  -49779823.0906275     
  -49794165.7855208     
  -49808047.7022388     
  -49821457.8022434     
  -49834385.2231990     
  -49846819.1857859     
  -49858748.9075406     
  -49870163.5249124     
  -49881052.0246240     
  -49891403.1853061     
  -49901205.5302717     
  -49910447.2921766     
  -49919116.3901827     
  -49927200.4200607     
  -49934686.6574384     
  -49941562.0742380     
  -49947813.3685224     
  -49953427.0087221     
  -49958389.2935669     
  -49962686.4253601     
  -49966304.5849448     
  -49969230.0122243     
  -49971449.2109467     
  -49972948.8918949     
  -49213121.0650043     
  -49238630.2894935     
  -49264222.6773227     
  -49289848.4946647     
  -49315459.6787457     
  -49341010.4121837     
  -49366456.8938111     
  -49391757.4436164     
  -49416872.5862382     
  -49441765.0870438     
  -49466399.9747135     
  -49490744.5582729     
  -49514768.4329848     
  -49538443.4698057     
  -49561743.7862282     
  -49584645.6980856     
  -49607127.6523775     
  -49629170.1412513     
  -49650755.5974385     
  -49671868.2717833     
  -49692494.0939322     
  -49712620.5176936     
  -49732236.3529555     
  -49751331.5863690     
  -49769897.1932487     
  -49787924.9433201     
  -49805407.2030610     
  -49822336.7374438     
  -49838706.5138820     
  -49854509.5111330     
  -49869738.5358001     
  -49884386.0489232     
  -49898444.0049557     
  -49911903.7051882     
  -49924755.6674117     
  -49936989.5133176     
  -49948593.8748266     
  -49959556.3202797     
  -49969863.3012602     
  -49979500.1207847     
  -49988450.9235736     
  -49996698.7086552     
  -50004225.3630942     
  -50011011.7135668     
  -50017037.5939440     
  -50022281.9403807     
  -50026722.9431873     
  -50030338.2114763     
  -50033104.6172403     
  -50034999.1330545     
  -49123672.5018670     
  -49156400.0919452     
  -49189065.5211174     
  -49221609.1844434     
  -49253974.9843989     
  -49286108.5853877     
  -49317958.5532973     
  -49349476.4632711     
  -49380616.9402031     
  -49411337.7996056     
  -49441600.1970367     
  -49471368.7345876     
  -49500611.5201392     
  -49529300.1863868     
  -49557409.8727892     
  -49584919.1694301     
  -49611810.0208138     
  -49638067.5887204     
  -49663680.0749081     
  -49688638.5058772     
  -49712936.4829171     
  -49736569.9013700     
  -49759536.6435421     
  -49781836.2501049     
  -49803469.5751300     
  -49824438.4301291     
  -49844745.2225639     
  -49864392.5942844     
  -49883383.0652022     
  -49901718.6872601     
  -49919400.7134052     
  -49936429.2858567     
  -49952803.1475033     
  -49968519.3797921     
  -49983573.1699982     
  -49997957.6102684     
  -50011663.5302565     
  -50024679.3644447     
  -50036991.0543288     
  -50048581.9847757     
  -50059432.9536904     
  -50069522.1757033     
  -50078825.3241678     
  -50087315.6172862     
  -50094963.9412076     
  -50101738.9633522     
  -50107607.1764449     
  -50112533.0903074     
  -50116480.4233533     
  -50119409.9168174     
  -49034625.4151037     
  -49076162.3131696     
  -49117436.3099234     
  -49158374.7471585     
  -49198903.2768303     
  -49238953.5650373     
  -49278460.8114545     
  -49317364.1354853     
  -49355607.4224263     
  -49393139.8216643     
  -49429916.0181418     
  -49465896.4297802     
  -49501047.3643787     
  -49535341.1143303     
  -49568755.9655173     
  -49601276.1104176     
  -49632891.4665932     
  -49663597.4070939     
  -49693394.4109747     
  -49722287.6424549     
  -49750286.4674874     
  -49777403.9169872     
  -49803656.1065420     
  -49829061.6228768     
  -49853640.8875264     
  -49877415.5080450     
  -49900407.6266755     
  -49922639.2758301     
  -49944131.7490324     
  -49964904.9952464     
  -49984977.0437446     
  -50004363.4658884     
  -50023076.8793703     
  -50041126.4996349     
  -50058517.7423972     
  -50075251.8805462     
  -50091325.7583617     
  -50106731.5659089     
  -50121456.6762883     
  -50135483.5470863     
  -50148789.6832606     
  -50161347.6510434     
  -50173125.1255409     
  -50184084.9644121     
  -50194185.3528800     
  -50203380.1511961     
  -50211619.4790143     
  -50218849.6808905     
  -50225010.7734055     
  -50230045.5138944     
  -48950501.4885195     
  -49002941.3545269     
  -49054862.5154317     
  -49106145.5232715     
  -49156692.2769446     
  -49206401.1815413     
  -49255177.1424569     
  -49302934.1353172     
  -49349595.1794165     
  -49395092.6208293     
  -49439368.8271527     
  -49482376.8568149     
  -49524080.8680766     
  -49564456.2339375     
  -49603489.4057780     
  -49641177.5727093     
  -49677528.1483316     
  -49712558.1054892     
  -49746293.1767149     
  -49778766.9401563     
  -49810019.8139460     
  -49840097.9838149     
  -49869052.2884370     
  -49896937.0847747     
  -49923809.1122650     
  -49949726.3708077     
  -49974747.0238694     
  -49998928.3350277     
  -50022325.6442356     
  -50044991.3890505     
  -50066974.1759420     
  -50088317.9073572     
  -50109060.9710935     
  -50129235.4992576     
  -50148866.7041929     
  -50167972.2978926     
  -50186561.9996778     
  -50204637.1351253     
  -50222190.3292549     
  -50239205.3013013     
  -50255656.7780290     
  -50271510.5518385     
  -50286723.6982452     
  -50301244.8959637     
  -50315014.6401737     
  -50327965.0542961     
  -50340019.6440228     
  -50351095.7774066     
  -50361112.9888339     
  -50369963.0108658     
  -48876810.4965625     
  -48943369.8417914     
  -49009029.0743781     
  -49073639.6123160     
  -49136995.2498186     
  -49198928.0026158     
  -49259287.9704965     
  -49317938.0700544     
  -49374757.8789439     
  -49429647.5253131     
  -49482529.5556168     
  -49533349.3564736     
  -49582074.8641267     
  -49628695.9033040     
  -49673223.2251867     
  -49715687.2288209     
  -49756136.3670056     
  -49794635.2812033     
  -49831262.7430162     
  -49866109.4921688     
  -49899276.0557324     
  -49930870.6173395     
  -49961006.9846891     
  -49989802.6831903     
  -50017377.1857125     
  -50043850.2742601     
  -50069340.5192935     
  -50093963.8562104     
  -50117832.2358917     
  -50141052.3268854     
  -50163724.2504808     
  -50185940.3364066     
  -50207783.8958234     
  -50229328.0191097     
  -50250634.4175037     
  -50271752.3380039     
  -50292717.5870021     
  -50313551.6961145     
  -50334261.2502579     
  -50354837.3738690     
  -50375255.3475136     
  -50395474.3347196     
  -50415437.2905984     
  -50435071.3414181     
  -50454289.1568853     
  -50472991.4696053     
  -50491068.4092292     
  -50508391.9503993     
  -50524798.9058490     
  -50540195.8257004     
  -48819999.6549650     
  -48906435.4445784     
  -48991468.8503770     
  -49074567.0340016     
  -49155465.6041832     
  -49233857.8419897     
  -49309450.4397614     
  -49382000.5571259     
  -49451321.6360533     
  -49517279.8521199     
  -49579790.7504013     
  -49638817.1989773     
  -49694367.4404876     
  -49746492.2445185     
  -49795280.8830084     
  -49840856.1579605     
  -49883368.9182145     
  -49922992.5058906     
  -49959917.4796366     
  -49994346.8419791     
  -50026491.8885359     
  -50056568.7114206     
  -50084795.3293773     
  -50111389.3791719     
  -50136566.2811278     
  -50160537.7813460     
  -50183510.7699829     
  -50205686.2760811     
  -50227258.5430242     
  -50248414.0938705     
  -50269330.7026463     
  -50290176.1969760     
  -50311107.0307939     
  -50332266.5856702     
  -50353783.1882321     
  -50375767.8719167     
  -50398311.9648355     
  -50421484.6485150     
  -50445330.6922821     
  -50469868.5970805     
  -50495089.3312470     
  -50520955.6439824     
  -50547401.5631388     
  -50574331.2582749     
  -50601616.6195358     
  -50629095.3056305     
  -50656577.9180474     
  -50683880.3526129     
  -50710856.8948396     
  -50737063.9941571     
  -48788077.9350102     
  -48906545.5691623     
  -49021629.5297767     
  -49133164.9912291     
  -49240203.0385635     
  -49342070.8072447     
  -49438326.8238354     
  -49528664.9318577     
  -49612884.0433551     
  -49690889.0495728     
  -49762693.6154069     
  -49828414.8215686     
  -49888259.9509415     
  -49942508.8948425     
  -49991495.5498657     
  -50035590.4921814     
  -50075186.1358696     
  -50110684.7974185     
  -50142489.6098638     
  -50170997.9821835     
  -50196597.2013271     
  -50219661.7625467     
  -50240552.0458724     
  -50259614.0064130     
  -50277179.5986634     
  -50293567.7022980     
  -50309085.3553376     
  -50324029.1287198     
  -50338686.4939687     
  -50353337.0432286     
  -50368253.4190870     
  -50383701.8014899     
  -50399941.7825050     
  -50417225.4401258     
  -50435795.4058433     
  -50455881.7180536     
  -50477697.2823280     
  -50501431.8478381     
  -50527244.5957633     
  -50555255.7659857     
  -50585538.2531259     
  -50618110.7332988     
  -50652934.3613851     
  -50689914.6077793     
  -50728906.6685149     
  -50769714.5574441     
  -50812060.8563359     
  -50855509.3178176     
  -50899473.8234346     
  -50944279.1341248     
  -48795188.5129355     
  -48969829.3896962     
  -49137698.7927484     
  -49294842.1911518     
  -49440666.0160605     
  -49574751.1016167     
  -49696676.8052468     
  -49806240.1818445     
  -49903563.5451827     
  -49989080.9673055     
  -50063466.7509130     
  -50127551.5640055     
  -50182248.3797085     
  -50228495.4890218     
  -50267216.5790291     
  -50299295.0743116     
  -50325559.3496047     
  -50346775.7505575     
  -50363646.9711420     
  -50376813.9530885     
  -50386859.9941477     
  -50394316.1573079     
  -50399667.3731653     
  -50403358.8425750     
  -50405802.4965991     
  -50407383.3723680     
  -50408465.8295086     
  -50409399.5712321     
  -50410525.4527665     
  -50412181.0605453     
  -50414706.0289595     
  -50418447.0257266     
  -50423762.2778418     
  -50431025.4209764     
  -50440628.3270852     
  -50452982.3874370     
  -50468517.4922829     
  -50487677.6536876     
  -50510911.8898714     
  -50538658.7135363     
  -50571322.5585877     
  -50609241.2087325     
  -50652645.6700562     
  -50701619.4866111     
  -50756075.0583488     
  -50815779.4666822     
  -50880466.5942217     
  -50949992.4235897     
  -51024044.7013657     
  -51099128.9754303     
  -48874246.5836911     
  -49152891.0395590     
  -49398318.8690611     
  -49617582.8792917     
  -49809336.0678120     
  -49972648.9545599     
  -50108360.0653064     
  -50218615.8082578     
  -50306217.3577698     
  -50374143.3301485     
  -50425267.5265733     
  -50462216.9612764     
  -50487316.5576533     
  -50502582.6112944     
  -50509741.2836164     
  -50510258.2370837     
  -50505371.7108143     
  -50496125.0201760     
  -50483396.5794473     
  -50467926.7218036     
  -50450341.2185895     
  -50431171.7160729     
  -50410873.4512221     
  -50389840.6586810     
  -50368420.0848521     
  -50346923.0076186     
  -50325636.1360188     
  -50304831.7407284     
  -50284777.3472294     
  -50265745.3103007     
  -50248022.5804009     
  -50231920.9670894     
  -50217788.1966240     
  -50206020.0405532     
  -50197073.7421003     
  -50191482.8567236     
  -50189873.3989192     
  -50192980.7568663     
  -50201666.0435716     
  -50216929.1397429     
  -50239913.2436569     
  -50271891.6970473     
  -50314221.5641156     
  -50368239.8595423     
  -50435070.4615351     
  -50515316.7597640     
  -50608687.3854938     
  -50713902.4741273     
  -50830256.4640155     
  -50965478.7997799     
  -49105926.2951292     
  -49478301.7085571     
  -49796924.8855590     
  -50037471.0397013     
  -50205561.4893510     
  -50314394.1506992     
  -50377245.7961692     
  -50405337.5074279     
  -50407553.5396225     
  -50390729.9986028     
  -50360058.8769601     
  -50319459.9864072     
  -50271884.1938866     
  -50219548.8184765     
  -50164116.5320086     
  -50106830.1957296     
  -50048614.3044163     
  -49990151.4376948     
  -49931940.0878030     
  -49874338.6162348     
  -49817598.8666930     
  -49761892.0553387     
  -49707328.8964608     
  -49653975.4403427     
  -49601865.7528834     
  -49551012.3189297     
  -49501414.8788906     
  -49453068.2944324     
  -49405969.9733784     
  -49360127.3607247     
  -49315566.0207075     
  -49272338.8970660     
  -49230537.4527143     
  -49190305.5690870     
  -49151857.3493958     
  -49115500.3470869     
  -49081666.2680294     
  -49050951.9160176     
  -49024174.1038988     
  -49002443.4297020     
  -48987263.0551315     
  -48980659.3074693     
  -48985349.2158374     
  -49004940.9186964     
  -49044132.7092322     
  -49108789.5701553     
  -49205537.8480535     
  -49339877.3982411     
  -49510088.2290399     
  -49689558.6992971     
  -49603904.4957767     
  -49870434.7200261     
  -49879092.8350578     
  -49762129.0141172     
  -49585362.2565802     
  -49382758.2200461     
  -49172296.5772701     
  -48963590.4276439     
  -48761712.7000709     
  -48569200.8857846     
  -48387148.4188617     
  -48215818.8573561     
  -48055001.0415321     
  -47904218.7530194     
  -47762856.1661315     
  -47630233.3178288     
  -47505651.2940212     
  -47388418.7711453     
  -47277866.9468898     
  -47173357.1913810     
  -47074284.1263318     
  -46980075.8439094     
  -46890192.3558188     
  -46804122.9700982     
  -46721383.0421305     
  -46641510.3856254     
  -46564061.5273946     
  -46488607.9276267     
  -46414732.2539958     
  -46342024.7877493     
  -46270080.0517958     
  -46198493.7879656     
  -46126860.4816717     
  -46054771.7536335     
  -45981816.1392537     
  -45907581.1074176     
  -45831658.7208807     
  -45753657.2688183     
  -45673222.7981902     
  -45590077.2764909     
  -45504085.1780191     
  -45415369.6704497     
  -45324517.5326409     
  -45232947.4487417     
  -45143589.0952835     
  -45062175.0997640     
  -44999789.0090293     
  -44978092.3600281     
  -45040501.0046450     
  -45277100.7515903     
  -50172670.5398579     
  -48587646.7837899     
  -47357428.7383584     
  -46372370.4303375     
  -45564894.1178030     
  -44890824.1696518     
  -44319843.2040156     
  -43830309.1117545     
  -43406274.8212202     
  -43035683.3455820     
  -42709223.5779492     
  -42419575.8939273     
  -42160897.8522197     
  -41928463.4788545     
  -41718404.0622307     
  -41527517.9556273     
  -41353128.4358013     
  -41192975.7243144     
  -41045133.7247976     
  -40907944.9075067     
  -40779968.6799876     
  -40659939.8727057     
  -40546734.8557821     
  -40439343.4211834     
  -40336844.9987682     
  -40238388.0793301     
  -40143171.9288115     
  -40050429.8181274     
  -39959413.0766810     
  -39869375.3122189     
  -39779556.1271853     
  -39689163.5987918     
  -39597354.6669671     
  -39503212.3732470     
  -39405718.5844751     
  -39303720.3690209     
  -39195887.4905424     
  -39080657.4139131     
  -38956162.5586496     
  -38820131.9044224     
  -38669754.7689301     
  -38501487.3836836     
  -38310770.3879751     
  -38091602.7862613     
  -37835875.4566374     
  -37532283.9102843     
  -37164468.7405485     
  -36707664.3530023     
  -36122311.3015489     
  -35341158.3234818     
SCALARS 2waySource double 
LOOKUP_TABLE default
  0.000000000000000E+000
  0.000000000000000E+000
  0.000000000000000E+000
  0.000000000000000E+000
  0.000000000000000E+000
  0.000000000000000E+000
  0.000000000000000E+000
  0.000000000000000E+000
  0.000000000000000E+000
  0.000000000000000E+000
  0.000000000000000E+000
  0.000000000000000E+000
  0.000000000000000E+000
  0.000000000000000E+000
  0.000000000000000E+000
  0.000000000000000E+000
  0.000000000000000E+000
  0.000000000000000E+000
  0.000000000000000E+000
  0.000000000000000E+000
  0.000000000000000E+000
  0.000000000000000E+000
  0.000000000000000E+000
  0.000000000000000E+000
  0.000000000000000E+000
  0.000000000000000E+000
  0.000000000000000E+000
  0.000000000000000E+000
  0.000000000000000E+000
  0.000000000000000E+000
  0.000000000000000E+000
  0.000000000000000E+000
  0.000000000000000E+000
  0.000000000000000E+000
  0.000000000000000E+000
  0.000000000000000E+000
  0.000000000000000E+000
  0.000000000000000E+000
  0.000000000000000E+000
  0.000000000000000E+000
  0.000000000000000E+000
  0.000000000000000E+000
  0.000000000000000E+000
  0.000000000000000E+000
  0.000000000000000E+000
  0.000000000000000E+000
  0.000000000000000E+000
  0.000000000000000E+000
  0.000000000000000E+000
  0.000000000000000E+000
  0.000000000000000E+000
  0.000000000000000E+000
  0.000000000000000E+000
  0.000000000000000E+000
  0.000000000000000E+000
  0.000000000000000E+000
  0.000000000000000E+000
  0.000000000000000E+000
  0.000000000000000E+000
  0.000000000000000E+000
  0.000000000000000E+000
  0.000000000000000E+000
  0.000000000000000E+000
  0.000000000000000E+000
  0.000000000000000E+000
  0.000000000000000E+000
  0.000000000000000E+000
  0.000000000000000E+000
  0.000000000000000E+000
  0.000000000000000E+000
  0.000000000000000E+000
  0.000000000000000E+000
  0.000000000000000E+000
  0.000000000000000E+000
  0.000000000000000E+000
  0.000000000000000E+000
  0.000000000000000E+000
  0.000000000000000E+000
  0.000000000000000E+000
  0.000000000000000E+000
  0.000000000000000E+000
  0.000000000000000E+000
  0.000000000000000E+000
  0.000000000000000E+000
  0.000000000000000E+000
  0.000000000000000E+000
  0.000000000000000E+000
  0.000000000000000E+000
  0.000000000000000E+000
  0.000000000000000E+000
  0.000000000000000E+000
  0.000000000000000E+000
  0.000000000000000E+000
  0.000000000000000E+000
  0.000000000000000E+000
  0.000000000000000E+000
  0.000000000000000E+000
  0.000000000000000E+000
  0.000000000000000E+000
  0.000000000000000E+000
  0.000000000000000E+000
  0.000000000000000E+000
  0.000000000000000E+000
  0.000000000000000E+000
  0.000000000000000E+000
  0.000000000000000E+000
  0.000000000000000E+000
  0.000000000000000E+000
  0.000000000000000E+000
  0.000000000000000E+000
  0.000000000000000E+000
  0.000000000000000E+000
  0.000000000000000E+000
  0.000000000000000E+000
  0.000000000000000E+000
  0.000000000000000E+000
  0.000000000000000E+000
  0.000000000000000E+000
  0.000000000000000E+000
  0.000000000000000E+000
  0.000000000000000E+000
  0.000000000000000E+000
  0.000000000000000E+000
  0.000000000000000E+000
  0.000000000000000E+000
  0.000000000000000E+000
  0.000000000000000E+000
  0.000000000000000E+000
  0.000000000000000E+000
  0.000000000000000E+000
  0.000000000000000E+000
  0.000000000000000E+000
  0.000000000000000E+000
  0.000000000000000E+000
  0.000000000000000E+000
  0.000000000000000E+000
  0.000000000000000E+000
  0.000000000000000E+000
  0.000000000000000E+000
  0.000000000000000E+000
  0.000000000000000E+000
  0.000000000000000E+000
  0.000000000000000E+000
  0.000000000000000E+000
  0.000000000000000E+000
  0.000000000000000E+000
  0.000000000000000E+000
  0.000000000000000E+000
  0.000000000000000E+000
  0.000000000000000E+000
  0.000000000000000E+000
  0.000000000000000E+000
  0.000000000000000E+000
  0.000000000000000E+000
  0.000000000000000E+000
  0.000000000000000E+000
  0.000000000000000E+000
  0.000000000000000E+000
  0.000000000000000E+000
  0.000000000000000E+000
  0.000000000000000E+000
  0.000000000000000E+000
  0.000000000000000E+000
  0.000000000000000E+000
  0.000000000000000E+000
  0.000000000000000E+000
  0.000000000000000E+000
  0.000000000000000E+000
  0.000000000000000E+000
  0.000000000000000E+000
  0.000000000000000E+000
  0.000000000000000E+000
  0.000000000000000E+000
  0.000000000000000E+000
  0.000000000000000E+000
  0.000000000000000E+000
  0.000000000000000E+000
  0.000000000000000E+000
  0.000000000000000E+000
  0.000000000000000E+000
  0.000000000000000E+000
  0.000000000000000E+000
  0.000000000000000E+000
  0.000000000000000E+000
  0.000000000000000E+000
  0.000000000000000E+000
  0.000000000000000E+000
  0.000000000000000E+000
  0.000000000000000E+000
  0.000000000000000E+000
  0.000000000000000E+000
  0.000000000000000E+000
  0.000000000000000E+000
  0.000000000000000E+000
  0.000000000000000E+000
  0.000000000000000E+000
  0.000000000000000E+000
  0.000000000000000E+000
  0.000000000000000E+000
  0.000000000000000E+000
  0.000000000000000E+000
  0.000000000000000E+000
  0.000000000000000E+000
  0.000000000000000E+000
  0.000000000000000E+000
  0.000000000000000E+000
  0.000000000000000E+000
  0.000000000000000E+000
  0.000000000000000E+000
  0.000000000000000E+000
  0.000000000000000E+000
  0.000000000000000E+000
  0.000000000000000E+000
  0.000000000000000E+000
  0.000000000000000E+000
  0.000000000000000E+000
  0.000000000000000E+000
  0.000000000000000E+000
  0.000000000000000E+000
  0.000000000000000E+000
  0.000000000000000E+000
  0.000000000000000E+000
  0.000000000000000E+000
  0.000000000000000E+000
  0.000000000000000E+000
  0.000000000000000E+000
  0.000000000000000E+000
  0.000000000000000E+000
  0.000000000000000E+000
  0.000000000000000E+000
  0.000000000000000E+000
  0.000000000000000E+000
  0.000000000000000E+000
  0.000000000000000E+000
  0.000000000000000E+000
  0.000000000000000E+000
  0.000000000000000E+000
  0.000000000000000E+000
  0.000000000000000E+000
  0.000000000000000E+000
  0.000000000000000E+000
  0.000000000000000E+000
  0.000000000000000E+000
  0.000000000000000E+000
  0.000000000000000E+000
  0.000000000000000E+000
  0.000000000000000E+000
  0.000000000000000E+000
  0.000000000000000E+000
  0.000000000000000E+000
  0.000000000000000E+000
  0.000000000000000E+000
  0.000000000000000E+000
  0.000000000000000E+000
  0.000000000000000E+000
  0.000000000000000E+000
  0.000000000000000E+000
  0.000000000000000E+000
  0.000000000000000E+000
  0.000000000000000E+000
  0.000000000000000E+000
  0.000000000000000E+000
  0.000000000000000E+000
  0.000000000000000E+000
  0.000000000000000E+000
  0.000000000000000E+000
  0.000000000000000E+000
  0.000000000000000E+000
  0.000000000000000E+000
  0.000000000000000E+000
  0.000000000000000E+000
  0.000000000000000E+000
  0.000000000000000E+000
  0.000000000000000E+000
  0.000000000000000E+000
  0.000000000000000E+000
  0.000000000000000E+000
  0.000000000000000E+000
  0.000000000000000E+000
  0.000000000000000E+000
  0.000000000000000E+000
  0.000000000000000E+000
  0.000000000000000E+000
  0.000000000000000E+000
  0.000000000000000E+000
  0.000000000000000E+000
  0.000000000000000E+000
  0.000000000000000E+000
  0.000000000000000E+000
  0.000000000000000E+000
  0.000000000000000E+000
  0.000000000000000E+000
  0.000000000000000E+000
  0.000000000000000E+000
  0.000000000000000E+000
  0.000000000000000E+000
  0.000000000000000E+000
  0.000000000000000E+000
  0.000000000000000E+000
  0.000000000000000E+000
  0.000000000000000E+000
  0.000000000000000E+000
  0.000000000000000E+000
  0.000000000000000E+000
  0.000000000000000E+000
  0.000000000000000E+000
  0.000000000000000E+000
  0.000000000000000E+000
  0.000000000000000E+000
  0.000000000000000E+000
  0.000000000000000E+000
  0.000000000000000E+000
  0.000000000000000E+000
  0.000000000000000E+000
  0.000000000000000E+000
  0.000000000000000E+000
  0.000000000000000E+000
  0.000000000000000E+000
  0.000000000000000E+000
  0.000000000000000E+000
  0.000000000000000E+000
  0.000000000000000E+000
  0.000000000000000E+000
  0.000000000000000E+000
  0.000000000000000E+000
  0.000000000000000E+000
  0.000000000000000E+000
  0.000000000000000E+000
  0.000000000000000E+000
  0.000000000000000E+000
  0.000000000000000E+000
  0.000000000000000E+000
  0.000000000000000E+000
  0.000000000000000E+000
  0.000000000000000E+000
  0.000000000000000E+000
  0.000000000000000E+000
  0.000000000000000E+000
  0.000000000000000E+000
  0.000000000000000E+000
  0.000000000000000E+000
  0.000000000000000E+000
  0.000000000000000E+000
  0.000000000000000E+000
  0.000000000000000E+000
  0.000000000000000E+000
  0.000000000000000E+000
  0.000000000000000E+000
  0.000000000000000E+000
  0.000000000000000E+000
  0.000000000000000E+000
  0.000000000000000E+000
  0.000000000000000E+000
  0.000000000000000E+000
  0.000000000000000E+000
  0.000000000000000E+000
  0.000000000000000E+000
  0.000000000000000E+000
  0.000000000000000E+000
  0.000000000000000E+000
  0.000000000000000E+000
  0.000000000000000E+000
  0.000000000000000E+000
  0.000000000000000E+000
  0.000000000000000E+000
  0.000000000000000E+000
  0.000000000000000E+000
  0.000000000000000E+000
  0.000000000000000E+000
  0.000000000000000E+000
  0.000000000000000E+000
  0.000000000000000E+000
  0.000000000000000E+000
  0.000000000000000E+000
  0.000000000000000E+000
  0.000000000000000E+000
  0.000000000000000E+000
  0.000000000000000E+000
  0.000000000000000E+000
  0.000000000000000E+000
  0.000000000000000E+000
  0.000000000000000E+000
  0.000000000000000E+000
  0.000000000000000E+000
  0.000000000000000E+000
  0.000000000000000E+000
  0.000000000000000E+000
  0.000000000000000E+000
  0.000000000000000E+000
  0.000000000000000E+000
  0.000000000000000E+000
  0.000000000000000E+000
  0.000000000000000E+000
  0.000000000000000E+000
  0.000000000000000E+000
  0.000000000000000E+000
  0.000000000000000E+000
  0.000000000000000E+000
  0.000000000000000E+000
  0.000000000000000E+000
  0.000000000000000E+000
  0.000000000000000E+000
  0.000000000000000E+000
  0.000000000000000E+000
  0.000000000000000E+000
  0.000000000000000E+000
  0.000000000000000E+000
  0.000000000000000E+000
  0.000000000000000E+000
  0.000000000000000E+000
  0.000000000000000E+000
  0.000000000000000E+000
  0.000000000000000E+000
  0.000000000000000E+000
  0.000000000000000E+000
  0.000000000000000E+000
  0.000000000000000E+000
  0.000000000000000E+000
  0.000000000000000E+000
  0.000000000000000E+000
  0.000000000000000E+000
  0.000000000000000E+000
  0.000000000000000E+000
  0.000000000000000E+000
  0.000000000000000E+000
  0.000000000000000E+000
  0.000000000000000E+000
  0.000000000000000E+000
  0.000000000000000E+000
  0.000000000000000E+000
  0.000000000000000E+000
  0.000000000000000E+000
  0.000000000000000E+000
  0.000000000000000E+000
  0.000000000000000E+000
  0.000000000000000E+000
  0.000000000000000E+000
  0.000000000000000E+000
  0.000000000000000E+000
  0.000000000000000E+000
  0.000000000000000E+000
  0.000000000000000E+000
  0.000000000000000E+000
  0.000000000000000E+000
  0.000000000000000E+000
  0.000000000000000E+000
  0.000000000000000E+000
  0.000000000000000E+000
  0.000000000000000E+000
  0.000000000000000E+000
  0.000000000000000E+000
  0.000000000000000E+000
  0.000000000000000E+000
  0.000000000000000E+000
  0.000000000000000E+000
  0.000000000000000E+000
  0.000000000000000E+000
  0.000000000000000E+000
  0.000000000000000E+000
  0.000000000000000E+000
  0.000000000000000E+000
  0.000000000000000E+000
  0.000000000000000E+000
  0.000000000000000E+000
  0.000000000000000E+000
  0.000000000000000E+000
  0.000000000000000E+000
  0.000000000000000E+000
  0.000000000000000E+000
  0.000000000000000E+000
  0.000000000000000E+000
  0.000000000000000E+000
  0.000000000000000E+000
  0.000000000000000E+000
  0.000000000000000E+000
  0.000000000000000E+000
  0.000000000000000E+000
  0.000000000000000E+000
  0.000000000000000E+000
  0.000000000000000E+000
  0.000000000000000E+000
  0.000000000000000E+000
  0.000000000000000E+000
  0.000000000000000E+000
  0.000000000000000E+000
  0.000000000000000E+000
  0.000000000000000E+000
  0.000000000000000E+000
  0.000000000000000E+000
  0.000000000000000E+000
  0.000000000000000E+000
  0.000000000000000E+000
  0.000000000000000E+000
  0.000000000000000E+000
  0.000000000000000E+000
  0.000000000000000E+000
  0.000000000000000E+000
  0.000000000000000E+000
  0.000000000000000E+000
  0.000000000000000E+000
  0.000000000000000E+000
  0.000000000000000E+000
  0.000000000000000E+000
  0.000000000000000E+000
  0.000000000000000E+000
  0.000000000000000E+000
  0.000000000000000E+000
  0.000000000000000E+000
  0.000000000000000E+000
  0.000000000000000E+000
  0.000000000000000E+000
  0.000000000000000E+000
  0.000000000000000E+000
  0.000000000000000E+000
  0.000000000000000E+000
  0.000000000000000E+000
  0.000000000000000E+000
  0.000000000000000E+000
  0.000000000000000E+000
  0.000000000000000E+000
  0.000000000000000E+000
  0.000000000000000E+000
  0.000000000000000E+000
  0.000000000000000E+000
  0.000000000000000E+000
  0.000000000000000E+000
  0.000000000000000E+000
  0.000000000000000E+000
  0.000000000000000E+000
  0.000000000000000E+000
  0.000000000000000E+000
  0.000000000000000E+000
  0.000000000000000E+000
  0.000000000000000E+000
  0.000000000000000E+000
  0.000000000000000E+000
  0.000000000000000E+000
  0.000000000000000E+000
  0.000000000000000E+000
  0.000000000000000E+000
  0.000000000000000E+000
  0.000000000000000E+000
  0.000000000000000E+000
  0.000000000000000E+000
  0.000000000000000E+000
  0.000000000000000E+000
  0.000000000000000E+000
  0.000000000000000E+000
  0.000000000000000E+000
  0.000000000000000E+000
  0.000000000000000E+000
  0.000000000000000E+000
  0.000000000000000E+000
  0.000000000000000E+000
  0.000000000000000E+000
  0.000000000000000E+000
  0.000000000000000E+000
  0.000000000000000E+000
  0.000000000000000E+000
  0.000000000000000E+000
  0.000000000000000E+000
  0.000000000000000E+000
  0.000000000000000E+000
  0.000000000000000E+000
  0.000000000000000E+000
  0.000000000000000E+000
  0.000000000000000E+000
  0.000000000000000E+000
  0.000000000000000E+000
  0.000000000000000E+000
  0.000000000000000E+000
  0.000000000000000E+000
  0.000000000000000E+000
  0.000000000000000E+000
  0.000000000000000E+000
  0.000000000000000E+000
  0.000000000000000E+000
  0.000000000000000E+000
  0.000000000000000E+000
  0.000000000000000E+000
  0.000000000000000E+000
  0.000000000000000E+000
  0.000000000000000E+000
  0.000000000000000E+000
  0.000000000000000E+000
  0.000000000000000E+000
  0.000000000000000E+000
  0.000000000000000E+000
  0.000000000000000E+000
  0.000000000000000E+000
  0.000000000000000E+000
  0.000000000000000E+000
  0.000000000000000E+000
  0.000000000000000E+000
  0.000000000000000E+000
  0.000000000000000E+000
  0.000000000000000E+000
  0.000000000000000E+000
  0.000000000000000E+000
  0.000000000000000E+000
  0.000000000000000E+000
  0.000000000000000E+000
  0.000000000000000E+000
  0.000000000000000E+000
  0.000000000000000E+000
  0.000000000000000E+000
  0.000000000000000E+000
  0.000000000000000E+000
  0.000000000000000E+000
  0.000000000000000E+000
  0.000000000000000E+000
  0.000000000000000E+000
  0.000000000000000E+000
  0.000000000000000E+000
  0.000000000000000E+000
  0.000000000000000E+000
  0.000000000000000E+000
  0.000000000000000E+000
  0.000000000000000E+000
  0.000000000000000E+000
  0.000000000000000E+000
  0.000000000000000E+000
  0.000000000000000E+000
  0.000000000000000E+000
  0.000000000000000E+000
  0.000000000000000E+000
  0.000000000000000E+000
  0.000000000000000E+000
  0.000000000000000E+000
  0.000000000000000E+000
  0.000000000000000E+000
  0.000000000000000E+000
  0.000000000000000E+000
  0.000000000000000E+000
  0.000000000000000E+000
  0.000000000000000E+000
  0.000000000000000E+000
  0.000000000000000E+000
  0.000000000000000E+000
  0.000000000000000E+000
  0.000000000000000E+000
  0.000000000000000E+000
  0.000000000000000E+000
  0.000000000000000E+000
  0.000000000000000E+000
  0.000000000000000E+000
  0.000000000000000E+000
  0.000000000000000E+000
  0.000000000000000E+000
  0.000000000000000E+000
  0.000000000000000E+000
  0.000000000000000E+000
  0.000000000000000E+000
  0.000000000000000E+000
  0.000000000000000E+000
  0.000000000000000E+000
  0.000000000000000E+000
  0.000000000000000E+000
  0.000000000000000E+000
  0.000000000000000E+000
  0.000000000000000E+000
  0.000000000000000E+000
  0.000000000000000E+000
  0.000000000000000E+000
  0.000000000000000E+000
  0.000000000000000E+000
  0.000000000000000E+000
  0.000000000000000E+000
  0.000000000000000E+000
  0.000000000000000E+000
  0.000000000000000E+000
  0.000000000000000E+000
  0.000000000000000E+000
  0.000000000000000E+000
  0.000000000000000E+000
  0.000000000000000E+000
  0.000000000000000E+000
  0.000000000000000E+000
  0.000000000000000E+000
  0.000000000000000E+000
  0.000000000000000E+000
  0.000000000000000E+000
  0.000000000000000E+000
  0.000000000000000E+000
  0.000000000000000E+000
  0.000000000000000E+000
  0.000000000000000E+000
  0.000000000000000E+000
  0.000000000000000E+000
  0.000000000000000E+000
  0.000000000000000E+000
  0.000000000000000E+000
  0.000000000000000E+000
  0.000000000000000E+000
  0.000000000000000E+000
  0.000000000000000E+000
  0.000000000000000E+000
  0.000000000000000E+000
  0.000000000000000E+000
  0.000000000000000E+000
  0.000000000000000E+000
  0.000000000000000E+000
  0.000000000000000E+000
  0.000000000000000E+000
  0.000000000000000E+000
  0.000000000000000E+000
  0.000000000000000E+000
  0.000000000000000E+000
  0.000000000000000E+000
  0.000000000000000E+000
  0.000000000000000E+000
  0.000000000000000E+000
  0.000000000000000E+000
  0.000000000000000E+000
  0.000000000000000E+000
  0.000000000000000E+000
  0.000000000000000E+000
  0.000000000000000E+000
  0.000000000000000E+000
  0.000000000000000E+000
  0.000000000000000E+000
  0.000000000000000E+000
  0.000000000000000E+000
  0.000000000000000E+000
  0.000000000000000E+000
  0.000000000000000E+000
  0.000000000000000E+000
  0.000000000000000E+000
  0.000000000000000E+000
  0.000000000000000E+000
  0.000000000000000E+000
  0.000000000000000E+000
  0.000000000000000E+000
  0.000000000000000E+000
  0.000000000000000E+000
  0.000000000000000E+000
  0.000000000000000E+000
  0.000000000000000E+000
  0.000000000000000E+000
  0.000000000000000E+000
  0.000000000000000E+000
  0.000000000000000E+000
  0.000000000000000E+000
  0.000000000000000E+000
  0.000000000000000E+000
  0.000000000000000E+000
  0.000000000000000E+000
  0.000000000000000E+000
  0.000000000000000E+000
  0.000000000000000E+000
  0.000000000000000E+000
  0.000000000000000E+000
  0.000000000000000E+000
  0.000000000000000E+000
  0.000000000000000E+000
  0.000000000000000E+000
  0.000000000000000E+000
  0.000000000000000E+000
  0.000000000000000E+000
  0.000000000000000E+000
  0.000000000000000E+000
  0.000000000000000E+000
  0.000000000000000E+000
  0.000000000000000E+000
  0.000000000000000E+000
  0.000000000000000E+000
  0.000000000000000E+000
  0.000000000000000E+000
  0.000000000000000E+000
  0.000000000000000E+000
  0.000000000000000E+000
  0.000000000000000E+000
  0.000000000000000E+000
  0.000000000000000E+000
  0.000000000000000E+000
  0.000000000000000E+000
  0.000000000000000E+000
  0.000000000000000E+000
  0.000000000000000E+000
  0.000000000000000E+000
  0.000000000000000E+000
  0.000000000000000E+000
  0.000000000000000E+000
  0.000000000000000E+000
  0.000000000000000E+000
  0.000000000000000E+000
  0.000000000000000E+000
  0.000000000000000E+000
  0.000000000000000E+000
  0.000000000000000E+000
  0.000000000000000E+000
  0.000000000000000E+000
  0.000000000000000E+000
  0.000000000000000E+000
  0.000000000000000E+000
  0.000000000000000E+000
  0.000000000000000E+000
  0.000000000000000E+000
  0.000000000000000E+000
  0.000000000000000E+000
  0.000000000000000E+000
  0.000000000000000E+000
  0.000000000000000E+000
  0.000000000000000E+000
  0.000000000000000E+000
  0.000000000000000E+000
  0.000000000000000E+000
  0.000000000000000E+000
  0.000000000000000E+000
  0.000000000000000E+000
  0.000000000000000E+000
  0.000000000000000E+000
  0.000000000000000E+000
  0.000000000000000E+000
  0.000000000000000E+000
  0.000000000000000E+000
  0.000000000000000E+000
  0.000000000000000E+000
  0.000000000000000E+000
  0.000000000000000E+000
  0.000000000000000E+000
  0.000000000000000E+000
  0.000000000000000E+000
  0.000000000000000E+000
  0.000000000000000E+000
  0.000000000000000E+000
  0.000000000000000E+000
  0.000000000000000E+000
  0.000000000000000E+000
  0.000000000000000E+000
  0.000000000000000E+000
  0.000000000000000E+000
  0.000000000000000E+000
  0.000000000000000E+000
  0.000000000000000E+000
  0.000000000000000E+000
  0.000000000000000E+000
  0.000000000000000E+000
  0.000000000000000E+000
  0.000000000000000E+000
  0.000000000000000E+000
  0.000000000000000E+000
  0.000000000000000E+000
  0.000000000000000E+000
  0.000000000000000E+000
  0.000000000000000E+000
  0.000000000000000E+000
  0.000000000000000E+000
  0.000000000000000E+000
  0.000000000000000E+000
  0.000000000000000E+000
  0.000000000000000E+000
  0.000000000000000E+000
  0.000000000000000E+000
  0.000000000000000E+000
  0.000000000000000E+000
  0.000000000000000E+000
  0.000000000000000E+000
  0.000000000000000E+000
  0.000000000000000E+000
  0.000000000000000E+000
  0.000000000000000E+000
  0.000000000000000E+000
  0.000000000000000E+000
  0.000000000000000E+000
  0.000000000000000E+000
  0.000000000000000E+000
  0.000000000000000E+000
  0.000000000000000E+000
  0.000000000000000E+000
  0.000000000000000E+000
  0.000000000000000E+000
  0.000000000000000E+000
  0.000000000000000E+000
  0.000000000000000E+000
  0.000000000000000E+000
  0.000000000000000E+000
  0.000000000000000E+000
  0.000000000000000E+000
  0.000000000000000E+000
  0.000000000000000E+000
  0.000000000000000E+000
  0.000000000000000E+000
  0.000000000000000E+000
  0.000000000000000E+000
  0.000000000000000E+000
  0.000000000000000E+000
  0.000000000000000E+000
  0.000000000000000E+000
  0.000000000000000E+000
  0.000000000000000E+000
  0.000000000000000E+000
  0.000000000000000E+000
  0.000000000000000E+000
  0.000000000000000E+000
  0.000000000000000E+000
  0.000000000000000E+000
  0.000000000000000E+000
  0.000000000000000E+000
  0.000000000000000E+000
  0.000000000000000E+000
  0.000000000000000E+000
  0.000000000000000E+000
  0.000000000000000E+000
  0.000000000000000E+000
  0.000000000000000E+000
  0.000000000000000E+000
  0.000000000000000E+000
  0.000000000000000E+000
  0.000000000000000E+000
  0.000000000000000E+000
  0.000000000000000E+000
  0.000000000000000E+000
  0.000000000000000E+000
  0.000000000000000E+000
  0.000000000000000E+000
  0.000000000000000E+000
  0.000000000000000E+000
  0.000000000000000E+000
  0.000000000000000E+000
  0.000000000000000E+000
  0.000000000000000E+000
  0.000000000000000E+000
  0.000000000000000E+000
  0.000000000000000E+000
  0.000000000000000E+000
  0.000000000000000E+000
  0.000000000000000E+000
  0.000000000000000E+000
  0.000000000000000E+000
  0.000000000000000E+000
  0.000000000000000E+000
  0.000000000000000E+000
  0.000000000000000E+000
  0.000000000000000E+000
  0.000000000000000E+000
  0.000000000000000E+000
  0.000000000000000E+000
  0.000000000000000E+000
  0.000000000000000E+000
  0.000000000000000E+000
  0.000000000000000E+000
  0.000000000000000E+000
  0.000000000000000E+000
  0.000000000000000E+000
  0.000000000000000E+000
  0.000000000000000E+000
  0.000000000000000E+000
  0.000000000000000E+000
  0.000000000000000E+000
  0.000000000000000E+000
  0.000000000000000E+000
  0.000000000000000E+000
  0.000000000000000E+000
  0.000000000000000E+000
  0.000000000000000E+000
  0.000000000000000E+000
  0.000000000000000E+000
  0.000000000000000E+000
  0.000000000000000E+000
  0.000000000000000E+000
  0.000000000000000E+000
  0.000000000000000E+000
  0.000000000000000E+000
  0.000000000000000E+000
  0.000000000000000E+000
  0.000000000000000E+000
  0.000000000000000E+000
  0.000000000000000E+000
  0.000000000000000E+000
  0.000000000000000E+000
  0.000000000000000E+000
  0.000000000000000E+000
  0.000000000000000E+000
  0.000000000000000E+000
  0.000000000000000E+000
  0.000000000000000E+000
  0.000000000000000E+000
  0.000000000000000E+000
  0.000000000000000E+000
  0.000000000000000E+000
  0.000000000000000E+000
  0.000000000000000E+000
  0.000000000000000E+000
  0.000000000000000E+000
  0.000000000000000E+000
  0.000000000000000E+000
  0.000000000000000E+000
  0.000000000000000E+000
  0.000000000000000E+000
  0.000000000000000E+000
  0.000000000000000E+000
  0.000000000000000E+000
  0.000000000000000E+000
  0.000000000000000E+000
  0.000000000000000E+000
  0.000000000000000E+000
  0.000000000000000E+000
  0.000000000000000E+000
  0.000000000000000E+000
  0.000000000000000E+000
  0.000000000000000E+000
  0.000000000000000E+000
  0.000000000000000E+000
  0.000000000000000E+000
  0.000000000000000E+000
  0.000000000000000E+000
  0.000000000000000E+000
  0.000000000000000E+000
  0.000000000000000E+000
  0.000000000000000E+000
  0.000000000000000E+000
  0.000000000000000E+000
  0.000000000000000E+000
  0.000000000000000E+000
  0.000000000000000E+000
  0.000000000000000E+000
  0.000000000000000E+000
  0.000000000000000E+000
  0.000000000000000E+000
  0.000000000000000E+000
  0.000000000000000E+000
  0.000000000000000E+000
  0.000000000000000E+000
  0.000000000000000E+000
  0.000000000000000E+000
  0.000000000000000E+000
  0.000000000000000E+000
  0.000000000000000E+000
  0.000000000000000E+000
  0.000000000000000E+000
  0.000000000000000E+000
  0.000000000000000E+000
  0.000000000000000E+000
  0.000000000000000E+000
  0.000000000000000E+000
  0.000000000000000E+000
  0.000000000000000E+000
  0.000000000000000E+000
  0.000000000000000E+000
  0.000000000000000E+000
  0.000000000000000E+000
  0.000000000000000E+000
  0.000000000000000E+000
  0.000000000000000E+000
  0.000000000000000E+000
  0.000000000000000E+000
  0.000000000000000E+000
  0.000000000000000E+000
  0.000000000000000E+000
  0.000000000000000E+000
  0.000000000000000E+000
  0.000000000000000E+000
  0.000000000000000E+000
  0.000000000000000E+000
  0.000000000000000E+000
  0.000000000000000E+000
  0.000000000000000E+000
  0.000000000000000E+000
  0.000000000000000E+000
  0.000000000000000E+000
  0.000000000000000E+000
  0.000000000000000E+000
  0.000000000000000E+000
  0.000000000000000E+000
  0.000000000000000E+000
  0.000000000000000E+000
  0.000000000000000E+000
  0.000000000000000E+000
  0.000000000000000E+000
  0.000000000000000E+000
  0.000000000000000E+000
  0.000000000000000E+000
  0.000000000000000E+000
  0.000000000000000E+000
  0.000000000000000E+000
  0.000000000000000E+000
  0.000000000000000E+000
  0.000000000000000E+000
  0.000000000000000E+000
  0.000000000000000E+000
  0.000000000000000E+000
  0.000000000000000E+000
  0.000000000000000E+000
  0.000000000000000E+000
  0.000000000000000E+000
  0.000000000000000E+000
  0.000000000000000E+000
  0.000000000000000E+000
  0.000000000000000E+000
  0.000000000000000E+000
  0.000000000000000E+000
  0.000000000000000E+000
  0.000000000000000E+000
  0.000000000000000E+000
  0.000000000000000E+000
  0.000000000000000E+000
  0.000000000000000E+000
  0.000000000000000E+000
  0.000000000000000E+000
  0.000000000000000E+000
  0.000000000000000E+000
  0.000000000000000E+000
  0.000000000000000E+000
  0.000000000000000E+000
  0.000000000000000E+000
  0.000000000000000E+000
  0.000000000000000E+000
  0.000000000000000E+000
  0.000000000000000E+000
  0.000000000000000E+000
  0.000000000000000E+000
  0.000000000000000E+000
  0.000000000000000E+000
  0.000000000000000E+000
  0.000000000000000E+000
  0.000000000000000E+000
  0.000000000000000E+000
  0.000000000000000E+000
  0.000000000000000E+000
  0.000000000000000E+000
  0.000000000000000E+000
  0.000000000000000E+000
  0.000000000000000E+000
  0.000000000000000E+000
  0.000000000000000E+000
  0.000000000000000E+000
  0.000000000000000E+000
  0.000000000000000E+000
  0.000000000000000E+000
  0.000000000000000E+000
  0.000000000000000E+000
  0.000000000000000E+000
  0.000000000000000E+000
  0.000000000000000E+000
  0.000000000000000E+000
  0.000000000000000E+000
  0.000000000000000E+000
  0.000000000000000E+000
  0.000000000000000E+000
  0.000000000000000E+000
  0.000000000000000E+000
  0.000000000000000E+000
  0.000000000000000E+000
  0.000000000000000E+000
  0.000000000000000E+000
  0.000000000000000E+000
  0.000000000000000E+000
  0.000000000000000E+000
  0.000000000000000E+000
  0.000000000000000E+000
  0.000000000000000E+000
  0.000000000000000E+000
  0.000000000000000E+000
  0.000000000000000E+000
  0.000000000000000E+000
  0.000000000000000E+000
  0.000000000000000E+000
  0.000000000000000E+000
  0.000000000000000E+000
  0.000000000000000E+000
  0.000000000000000E+000
  0.000000000000000E+000
  0.000000000000000E+000
  0.000000000000000E+000
  0.000000000000000E+000
  0.000000000000000E+000
  0.000000000000000E+000
  0.000000000000000E+000
  0.000000000000000E+000
  0.000000000000000E+000
  0.000000000000000E+000
  0.000000000000000E+000
  0.000000000000000E+000
  0.000000000000000E+000
  0.000000000000000E+000
  0.000000000000000E+000
  0.000000000000000E+000
  0.000000000000000E+000
  0.000000000000000E+000
  0.000000000000000E+000
  0.000000000000000E+000
  0.000000000000000E+000
  0.000000000000000E+000
  0.000000000000000E+000
  0.000000000000000E+000
  0.000000000000000E+000
  0.000000000000000E+000
  0.000000000000000E+000
  0.000000000000000E+000
  0.000000000000000E+000
  0.000000000000000E+000
  0.000000000000000E+000
  0.000000000000000E+000
  0.000000000000000E+000
  0.000000000000000E+000
  0.000000000000000E+000
  0.000000000000000E+000
  0.000000000000000E+000
  0.000000000000000E+000
  0.000000000000000E+000
  0.000000000000000E+000
  0.000000000000000E+000
  0.000000000000000E+000
  0.000000000000000E+000
  0.000000000000000E+000
  0.000000000000000E+000
  0.000000000000000E+000
  0.000000000000000E+000
  0.000000000000000E+000
  0.000000000000000E+000
  0.000000000000000E+000
  0.000000000000000E+000
  0.000000000000000E+000
  0.000000000000000E+000
  0.000000000000000E+000
  0.000000000000000E+000
  0.000000000000000E+000
  0.000000000000000E+000
  0.000000000000000E+000
  0.000000000000000E+000
  0.000000000000000E+000
  0.000000000000000E+000
  0.000000000000000E+000
  0.000000000000000E+000
  0.000000000000000E+000
  0.000000000000000E+000
  0.000000000000000E+000
  0.000000000000000E+000
  0.000000000000000E+000
  0.000000000000000E+000
  0.000000000000000E+000
  0.000000000000000E+000
  0.000000000000000E+000
  0.000000000000000E+000
  0.000000000000000E+000
  0.000000000000000E+000
  0.000000000000000E+000
  0.000000000000000E+000
  0.000000000000000E+000
  0.000000000000000E+000
  0.000000000000000E+000
  0.000000000000000E+000
  0.000000000000000E+000
  0.000000000000000E+000
  0.000000000000000E+000
  0.000000000000000E+000
  0.000000000000000E+000
  0.000000000000000E+000
  0.000000000000000E+000
  0.000000000000000E+000
  0.000000000000000E+000
  0.000000000000000E+000
  0.000000000000000E+000
  0.000000000000000E+000
  0.000000000000000E+000
  0.000000000000000E+000
  0.000000000000000E+000
  0.000000000000000E+000
  0.000000000000000E+000
  0.000000000000000E+000
  0.000000000000000E+000
  0.000000000000000E+000
  0.000000000000000E+000
  0.000000000000000E+000
  0.000000000000000E+000
  0.000000000000000E+000
  0.000000000000000E+000
  0.000000000000000E+000
  0.000000000000000E+000
  0.000000000000000E+000
  0.000000000000000E+000
  0.000000000000000E+000
  0.000000000000000E+000
  0.000000000000000E+000
  0.000000000000000E+000
  0.000000000000000E+000
  0.000000000000000E+000
  0.000000000000000E+000
  0.000000000000000E+000
  0.000000000000000E+000
  0.000000000000000E+000
  0.000000000000000E+000
  0.000000000000000E+000
  0.000000000000000E+000
  0.000000000000000E+000
  0.000000000000000E+000
  0.000000000000000E+000
  0.000000000000000E+000
  0.000000000000000E+000
  0.000000000000000E+000
  0.000000000000000E+000
  0.000000000000000E+000
  0.000000000000000E+000
  0.000000000000000E+000
  0.000000000000000E+000
  0.000000000000000E+000
  0.000000000000000E+000
  0.000000000000000E+000
  0.000000000000000E+000
  0.000000000000000E+000
  0.000000000000000E+000
  0.000000000000000E+000
  0.000000000000000E+000
  0.000000000000000E+000
  0.000000000000000E+000
  0.000000000000000E+000
  0.000000000000000E+000
  0.000000000000000E+000
  0.000000000000000E+000
  0.000000000000000E+000
  0.000000000000000E+000
  0.000000000000000E+000
  0.000000000000000E+000
  0.000000000000000E+000
  0.000000000000000E+000
  0.000000000000000E+000
  0.000000000000000E+000
  0.000000000000000E+000
  0.000000000000000E+000
  0.000000000000000E+000
  0.000000000000000E+000
  0.000000000000000E+000
  0.000000000000000E+000
  0.000000000000000E+000
  0.000000000000000E+000
  0.000000000000000E+000
  0.000000000000000E+000
  0.000000000000000E+000
  0.000000000000000E+000
  0.000000000000000E+000
  0.000000000000000E+000
  0.000000000000000E+000
  0.000000000000000E+000
  0.000000000000000E+000
  0.000000000000000E+000
  0.000000000000000E+000
  0.000000000000000E+000
  0.000000000000000E+000
  0.000000000000000E+000
  0.000000000000000E+000
  0.000000000000000E+000
  0.000000000000000E+000
  0.000000000000000E+000
  0.000000000000000E+000
  0.000000000000000E+000
  0.000000000000000E+000
  0.000000000000000E+000
  0.000000000000000E+000
  0.000000000000000E+000
  0.000000000000000E+000
  0.000000000000000E+000
  0.000000000000000E+000
  0.000000000000000E+000
  0.000000000000000E+000
  0.000000000000000E+000
  0.000000000000000E+000
  0.000000000000000E+000
  0.000000000000000E+000
  0.000000000000000E+000
  0.000000000000000E+000
  0.000000000000000E+000
  0.000000000000000E+000
  0.000000000000000E+000
  0.000000000000000E+000
  0.000000000000000E+000
  0.000000000000000E+000
  0.000000000000000E+000
  0.000000000000000E+000
  0.000000000000000E+000
  0.000000000000000E+000
  0.000000000000000E+000
  0.000000000000000E+000
  0.000000000000000E+000
  0.000000000000000E+000
  0.000000000000000E+000
  0.000000000000000E+000
  0.000000000000000E+000
  0.000000000000000E+000
  0.000000000000000E+000
  0.000000000000000E+000
  0.000000000000000E+000
  0.000000000000000E+000
  0.000000000000000E+000
  0.000000000000000E+000
  0.000000000000000E+000
  0.000000000000000E+000
  0.000000000000000E+000
  0.000000000000000E+000
  0.000000000000000E+000
  0.000000000000000E+000
  0.000000000000000E+000
  0.000000000000000E+000
  0.000000000000000E+000
  0.000000000000000E+000
  0.000000000000000E+000
  0.000000000000000E+000
  0.000000000000000E+000
  0.000000000000000E+000
  0.000000000000000E+000
  0.000000000000000E+000
  0.000000000000000E+000
  0.000000000000000E+000
  0.000000000000000E+000
  0.000000000000000E+000
  0.000000000000000E+000
  0.000000000000000E+000
  0.000000000000000E+000
  0.000000000000000E+000
  0.000000000000000E+000
  0.000000000000000E+000
  0.000000000000000E+000
  0.000000000000000E+000
  0.000000000000000E+000
  0.000000000000000E+000
  0.000000000000000E+000
  0.000000000000000E+000
  0.000000000000000E+000
  0.000000000000000E+000
  0.000000000000000E+000
  0.000000000000000E+000
  0.000000000000000E+000
  0.000000000000000E+000
  0.000000000000000E+000
  0.000000000000000E+000
  0.000000000000000E+000
  0.000000000000000E+000
  0.000000000000000E+000
  0.000000000000000E+000
  0.000000000000000E+000
  0.000000000000000E+000
  0.000000000000000E+000
  0.000000000000000E+000
  0.000000000000000E+000
  0.000000000000000E+000
  0.000000000000000E+000
  0.000000000000000E+000
  0.000000000000000E+000
  0.000000000000000E+000
  0.000000000000000E+000
  0.000000000000000E+000
  0.000000000000000E+000
  0.000000000000000E+000
  0.000000000000000E+000
  0.000000000000000E+000
  0.000000000000000E+000
  0.000000000000000E+000
  0.000000000000000E+000
  0.000000000000000E+000
  0.000000000000000E+000
  0.000000000000000E+000
  0.000000000000000E+000
  0.000000000000000E+000
  0.000000000000000E+000
  0.000000000000000E+000
  0.000000000000000E+000
  0.000000000000000E+000
  0.000000000000000E+000
  0.000000000000000E+000
  0.000000000000000E+000
  0.000000000000000E+000
  0.000000000000000E+000
  0.000000000000000E+000
  0.000000000000000E+000
  0.000000000000000E+000
  0.000000000000000E+000
  0.000000000000000E+000
  0.000000000000000E+000
  0.000000000000000E+000
  0.000000000000000E+000
  0.000000000000000E+000
  0.000000000000000E+000
  0.000000000000000E+000
  0.000000000000000E+000
  0.000000000000000E+000
  0.000000000000000E+000
  0.000000000000000E+000
  0.000000000000000E+000
  0.000000000000000E+000
  0.000000000000000E+000
  0.000000000000000E+000
  0.000000000000000E+000
  0.000000000000000E+000
  0.000000000000000E+000
  0.000000000000000E+000
  0.000000000000000E+000
  0.000000000000000E+000
  0.000000000000000E+000
  0.000000000000000E+000
  0.000000000000000E+000
  0.000000000000000E+000
  0.000000000000000E+000
  0.000000000000000E+000
  0.000000000000000E+000
  0.000000000000000E+000
  0.000000000000000E+000
  0.000000000000000E+000
  0.000000000000000E+000
  0.000000000000000E+000
  0.000000000000000E+000
  0.000000000000000E+000
  0.000000000000000E+000
  0.000000000000000E+000
  0.000000000000000E+000
  0.000000000000000E+000
  0.000000000000000E+000
  0.000000000000000E+000
  0.000000000000000E+000
  0.000000000000000E+000
  0.000000000000000E+000
  0.000000000000000E+000
  0.000000000000000E+000
  0.000000000000000E+000
  0.000000000000000E+000
  0.000000000000000E+000
  0.000000000000000E+000
  0.000000000000000E+000
  0.000000000000000E+000
  0.000000000000000E+000
  0.000000000000000E+000
  0.000000000000000E+000
  0.000000000000000E+000
  0.000000000000000E+000
  0.000000000000000E+000
  0.000000000000000E+000
  0.000000000000000E+000
  0.000000000000000E+000
  0.000000000000000E+000
  0.000000000000000E+000
  0.000000000000000E+000
  0.000000000000000E+000
  0.000000000000000E+000
  0.000000000000000E+000
  0.000000000000000E+000
  0.000000000000000E+000
  0.000000000000000E+000
  0.000000000000000E+000
  0.000000000000000E+000
  0.000000000000000E+000
  0.000000000000000E+000
  0.000000000000000E+000
  0.000000000000000E+000
  0.000000000000000E+000
  0.000000000000000E+000
  0.000000000000000E+000
  0.000000000000000E+000
  0.000000000000000E+000
  0.000000000000000E+000
  0.000000000000000E+000
  0.000000000000000E+000
  0.000000000000000E+000
  0.000000000000000E+000
  0.000000000000000E+000
  0.000000000000000E+000
  0.000000000000000E+000
  0.000000000000000E+000
  0.000000000000000E+000
  0.000000000000000E+000
  0.000000000000000E+000
  0.000000000000000E+000
  0.000000000000000E+000
  0.000000000000000E+000
  0.000000000000000E+000
  0.000000000000000E+000
  0.000000000000000E+000
  0.000000000000000E+000
  0.000000000000000E+000
  0.000000000000000E+000
  0.000000000000000E+000
  0.000000000000000E+000
  0.000000000000000E+000
  0.000000000000000E+000
  0.000000000000000E+000
  0.000000000000000E+000
  0.000000000000000E+000
  0.000000000000000E+000
  0.000000000000000E+000
  0.000000000000000E+000
  0.000000000000000E+000
  0.000000000000000E+000
  0.000000000000000E+000
  0.000000000000000E+000
  0.000000000000000E+000
  0.000000000000000E+000
  0.000000000000000E+000
  0.000000000000000E+000
  0.000000000000000E+000
  0.000000000000000E+000
  0.000000000000000E+000
  0.000000000000000E+000
  0.000000000000000E+000
  0.000000000000000E+000
  0.000000000000000E+000
  0.000000000000000E+000
  0.000000000000000E+000
  0.000000000000000E+000
  0.000000000000000E+000
  0.000000000000000E+000
  0.000000000000000E+000
  0.000000000000000E+000
  0.000000000000000E+000
  0.000000000000000E+000
  0.000000000000000E+000
  0.000000000000000E+000
  0.000000000000000E+000
  0.000000000000000E+000
  0.000000000000000E+000
  0.000000000000000E+000
  0.000000000000000E+000
  0.000000000000000E+000
  0.000000000000000E+000
  0.000000000000000E+000
  0.000000000000000E+000
  0.000000000000000E+000
  0.000000000000000E+000
  0.000000000000000E+000
  0.000000000000000E+000
  0.000000000000000E+000
  0.000000000000000E+000
  0.000000000000000E+000
  0.000000000000000E+000
  0.000000000000000E+000
  0.000000000000000E+000
  0.000000000000000E+000
  0.000000000000000E+000
  0.000000000000000E+000
  0.000000000000000E+000
  0.000000000000000E+000
  0.000000000000000E+000
  0.000000000000000E+000
  0.000000000000000E+000
  0.000000000000000E+000
  0.000000000000000E+000
  0.000000000000000E+000
  0.000000000000000E+000
  0.000000000000000E+000
  0.000000000000000E+000
  0.000000000000000E+000
  0.000000000000000E+000
  0.000000000000000E+000
  0.000000000000000E+000
  0.000000000000000E+000
  0.000000000000000E+000
  0.000000000000000E+000
  0.000000000000000E+000
  0.000000000000000E+000
  0.000000000000000E+000
  0.000000000000000E+000
  0.000000000000000E+000
  0.000000000000000E+000
  0.000000000000000E+000
  0.000000000000000E+000
  0.000000000000000E+000
  0.000000000000000E+000
  0.000000000000000E+000
  0.000000000000000E+000
  0.000000000000000E+000
  0.000000000000000E+000
  0.000000000000000E+000
  0.000000000000000E+000
  0.000000000000000E+000
  0.000000000000000E+000
  0.000000000000000E+000
  0.000000000000000E+000
  0.000000000000000E+000
  0.000000000000000E+000
  0.000000000000000E+000
  0.000000000000000E+000
  0.000000000000000E+000
  0.000000000000000E+000
  0.000000000000000E+000
  0.000000000000000E+000
  0.000000000000000E+000
  0.000000000000000E+000
  0.000000000000000E+000
  0.000000000000000E+000
  0.000000000000000E+000
  0.000000000000000E+000
  0.000000000000000E+000
  0.000000000000000E+000
  0.000000000000000E+000
  0.000000000000000E+000
  0.000000000000000E+000
  0.000000000000000E+000
  0.000000000000000E+000
  0.000000000000000E+000
  0.000000000000000E+000
  0.000000000000000E+000
  0.000000000000000E+000
  0.000000000000000E+000
  0.000000000000000E+000
  0.000000000000000E+000
  0.000000000000000E+000
  0.000000000000000E+000
  0.000000000000000E+000
  0.000000000000000E+000
  0.000000000000000E+000
  0.000000000000000E+000
  0.000000000000000E+000
  0.000000000000000E+000
  0.000000000000000E+000
  0.000000000000000E+000
  0.000000000000000E+000
  0.000000000000000E+000
  0.000000000000000E+000
  0.000000000000000E+000
  0.000000000000000E+000
  0.000000000000000E+000
  0.000000000000000E+000
  0.000000000000000E+000
  0.000000000000000E+000
  0.000000000000000E+000
  0.000000000000000E+000
  0.000000000000000E+000
  0.000000000000000E+000
  0.000000000000000E+000
  0.000000000000000E+000
  0.000000000000000E+000
  0.000000000000000E+000
  0.000000000000000E+000
  0.000000000000000E+000
  0.000000000000000E+000
  0.000000000000000E+000
  0.000000000000000E+000
  0.000000000000000E+000
  0.000000000000000E+000
  0.000000000000000E+000
  0.000000000000000E+000
  0.000000000000000E+000
  0.000000000000000E+000
  0.000000000000000E+000
  0.000000000000000E+000
  0.000000000000000E+000
  0.000000000000000E+000
  0.000000000000000E+000
  0.000000000000000E+000
  0.000000000000000E+000
  0.000000000000000E+000
  0.000000000000000E+000
  0.000000000000000E+000
  0.000000000000000E+000
  0.000000000000000E+000
  0.000000000000000E+000
  0.000000000000000E+000
  0.000000000000000E+000
  0.000000000000000E+000
  0.000000000000000E+000
  0.000000000000000E+000
  0.000000000000000E+000
  0.000000000000000E+000
  0.000000000000000E+000
  0.000000000000000E+000
  0.000000000000000E+000
  0.000000000000000E+000
  0.000000000000000E+000
  0.000000000000000E+000
  0.000000000000000E+000
  0.000000000000000E+000
  0.000000000000000E+000
  0.000000000000000E+000
  0.000000000000000E+000
  0.000000000000000E+000
  0.000000000000000E+000
  0.000000000000000E+000
  0.000000000000000E+000
  0.000000000000000E+000
  0.000000000000000E+000
  0.000000000000000E+000
  0.000000000000000E+000
  0.000000000000000E+000
  0.000000000000000E+000
  0.000000000000000E+000
  0.000000000000000E+000
  0.000000000000000E+000
  0.000000000000000E+000
  0.000000000000000E+000
  0.000000000000000E+000
  0.000000000000000E+000
  0.000000000000000E+000
  0.000000000000000E+000
  0.000000000000000E+000
  0.000000000000000E+000
  0.000000000000000E+000
  0.000000000000000E+000
  0.000000000000000E+000
  0.000000000000000E+000
  0.000000000000000E+000
  0.000000000000000E+000
  0.000000000000000E+000
  0.000000000000000E+000
  0.000000000000000E+000
  0.000000000000000E+000
  0.000000000000000E+000
  0.000000000000000E+000
  0.000000000000000E+000
  0.000000000000000E+000
  0.000000000000000E+000
  0.000000000000000E+000
  0.000000000000000E+000
  0.000000000000000E+000
  0.000000000000000E+000
  0.000000000000000E+000
  0.000000000000000E+000
  0.000000000000000E+000
  0.000000000000000E+000
  0.000000000000000E+000
  0.000000000000000E+000
  0.000000000000000E+000
  0.000000000000000E+000
  0.000000000000000E+000
  0.000000000000000E+000
  0.000000000000000E+000
  0.000000000000000E+000
  0.000000000000000E+000
  0.000000000000000E+000
  0.000000000000000E+000
  0.000000000000000E+000
  0.000000000000000E+000
  0.000000000000000E+000
  0.000000000000000E+000
  0.000000000000000E+000
  0.000000000000000E+000
  0.000000000000000E+000
  0.000000000000000E+000
  0.000000000000000E+000
  0.000000000000000E+000
  0.000000000000000E+000
  0.000000000000000E+000
  0.000000000000000E+000
  0.000000000000000E+000
  0.000000000000000E+000
  0.000000000000000E+000
  0.000000000000000E+000
  0.000000000000000E+000
  0.000000000000000E+000
  0.000000000000000E+000
  0.000000000000000E+000
  0.000000000000000E+000
  0.000000000000000E+000
  0.000000000000000E+000
  0.000000000000000E+000
  0.000000000000000E+000
  0.000000000000000E+000
  0.000000000000000E+000
  0.000000000000000E+000
  0.000000000000000E+000
  0.000000000000000E+000
  0.000000000000000E+000
  0.000000000000000E+000
  0.000000000000000E+000
  0.000000000000000E+000
  0.000000000000000E+000
  0.000000000000000E+000
  0.000000000000000E+000
  0.000000000000000E+000
  0.000000000000000E+000
  0.000000000000000E+000
  0.000000000000000E+000
  0.000000000000000E+000
  0.000000000000000E+000
  0.000000000000000E+000
  0.000000000000000E+000
  0.000000000000000E+000
  0.000000000000000E+000
  0.000000000000000E+000
  0.000000000000000E+000
  0.000000000000000E+000
  0.000000000000000E+000
  0.000000000000000E+000
  0.000000000000000E+000
  0.000000000000000E+000
  0.000000000000000E+000
  0.000000000000000E+000
  0.000000000000000E+000
  0.000000000000000E+000
  0.000000000000000E+000
  0.000000000000000E+000
  0.000000000000000E+000
  0.000000000000000E+000
  0.000000000000000E+000
  0.000000000000000E+000
  0.000000000000000E+000
  0.000000000000000E+000
  0.000000000000000E+000
  0.000000000000000E+000
  0.000000000000000E+000
  0.000000000000000E+000
  0.000000000000000E+000
  0.000000000000000E+000
  0.000000000000000E+000
  0.000000000000000E+000
  0.000000000000000E+000
  0.000000000000000E+000
  0.000000000000000E+000
  0.000000000000000E+000
  0.000000000000000E+000
  0.000000000000000E+000
  0.000000000000000E+000
  0.000000000000000E+000
  0.000000000000000E+000
  0.000000000000000E+000
  0.000000000000000E+000
  0.000000000000000E+000
  0.000000000000000E+000
  0.000000000000000E+000
  0.000000000000000E+000
  0.000000000000000E+000
  0.000000000000000E+000
  0.000000000000000E+000
  0.000000000000000E+000
  0.000000000000000E+000
  0.000000000000000E+000
  0.000000000000000E+000
  0.000000000000000E+000
  0.000000000000000E+000
  0.000000000000000E+000
  0.000000000000000E+000
  0.000000000000000E+000
  0.000000000000000E+000
  0.000000000000000E+000
  0.000000000000000E+000
  0.000000000000000E+000
  0.000000000000000E+000
  0.000000000000000E+000
  0.000000000000000E+000
  0.000000000000000E+000
  0.000000000000000E+000
  0.000000000000000E+000
  0.000000000000000E+000
  0.000000000000000E+000
  0.000000000000000E+000
  0.000000000000000E+000
  0.000000000000000E+000
  0.000000000000000E+000
  0.000000000000000E+000
  0.000000000000000E+000
  0.000000000000000E+000
  0.000000000000000E+000
  0.000000000000000E+000
  0.000000000000000E+000
  0.000000000000000E+000
  0.000000000000000E+000
  0.000000000000000E+000
  0.000000000000000E+000
  0.000000000000000E+000
  0.000000000000000E+000
  0.000000000000000E+000
  0.000000000000000E+000
  0.000000000000000E+000
  0.000000000000000E+000
  0.000000000000000E+000
  0.000000000000000E+000
  0.000000000000000E+000
  0.000000000000000E+000
  0.000000000000000E+000
  0.000000000000000E+000
  0.000000000000000E+000
  0.000000000000000E+000
  0.000000000000000E+000
  0.000000000000000E+000
  0.000000000000000E+000
  0.000000000000000E+000
  0.000000000000000E+000
  0.000000000000000E+000
  0.000000000000000E+000
  0.000000000000000E+000
  0.000000000000000E+000
  0.000000000000000E+000
  0.000000000000000E+000
  0.000000000000000E+000
  0.000000000000000E+000
  0.000000000000000E+000
  0.000000000000000E+000
  0.000000000000000E+000
  0.000000000000000E+000
  0.000000000000000E+000
  0.000000000000000E+000
  0.000000000000000E+000
  0.000000000000000E+000
  0.000000000000000E+000
  0.000000000000000E+000
  0.000000000000000E+000
  0.000000000000000E+000
  0.000000000000000E+000
  0.000000000000000E+000
  0.000000000000000E+000
  0.000000000000000E+000
  0.000000000000000E+000
  0.000000000000000E+000
  0.000000000000000E+000
  0.000000000000000E+000
  0.000000000000000E+000
  0.000000000000000E+000
  0.000000000000000E+000
  0.000000000000000E+000
  0.000000000000000E+000
  0.000000000000000E+000
  0.000000000000000E+000
  0.000000000000000E+000
  0.000000000000000E+000
  0.000000000000000E+000
  0.000000000000000E+000
  0.000000000000000E+000
  0.000000000000000E+000
  0.000000000000000E+000
  0.000000000000000E+000
  0.000000000000000E+000
  0.000000000000000E+000
  0.000000000000000E+000
  0.000000000000000E+000
  0.000000000000000E+000
  0.000000000000000E+000
  0.000000000000000E+000
  0.000000000000000E+000
  0.000000000000000E+000
  0.000000000000000E+000
  0.000000000000000E+000
  0.000000000000000E+000
  0.000000000000000E+000
  0.000000000000000E+000
  0.000000000000000E+000
  0.000000000000000E+000
  0.000000000000000E+000
  0.000000000000000E+000
  0.000000000000000E+000
  0.000000000000000E+000
  0.000000000000000E+000
  0.000000000000000E+000
  0.000000000000000E+000
  0.000000000000000E+000
  0.000000000000000E+000
  0.000000000000000E+000
  0.000000000000000E+000
  0.000000000000000E+000
  0.000000000000000E+000
  0.000000000000000E+000
  0.000000000000000E+000
  0.000000000000000E+000
  0.000000000000000E+000
  0.000000000000000E+000
  0.000000000000000E+000
  0.000000000000000E+000
  0.000000000000000E+000
  0.000000000000000E+000
  0.000000000000000E+000
  0.000000000000000E+000
  0.000000000000000E+000
  0.000000000000000E+000
  0.000000000000000E+000
  0.000000000000000E+000
  0.000000000000000E+000
  0.000000000000000E+000
  0.000000000000000E+000
  0.000000000000000E+000
  0.000000000000000E+000
  0.000000000000000E+000
  0.000000000000000E+000
  0.000000000000000E+000
  0.000000000000000E+000
  0.000000000000000E+000
  0.000000000000000E+000
  0.000000000000000E+000
  0.000000000000000E+000
  0.000000000000000E+000
  0.000000000000000E+000
  0.000000000000000E+000
  0.000000000000000E+000
  0.000000000000000E+000
  0.000000000000000E+000
  0.000000000000000E+000
  0.000000000000000E+000
  0.000000000000000E+000
  0.000000000000000E+000
  0.000000000000000E+000
  0.000000000000000E+000
  0.000000000000000E+000
  0.000000000000000E+000
  0.000000000000000E+000
  0.000000000000000E+000
  0.000000000000000E+000
  0.000000000000000E+000
  0.000000000000000E+000
  0.000000000000000E+000
  0.000000000000000E+000
  0.000000000000000E+000
  0.000000000000000E+000
  0.000000000000000E+000
  0.000000000000000E+000
  0.000000000000000E+000
  0.000000000000000E+000
  0.000000000000000E+000
  0.000000000000000E+000
  0.000000000000000E+000
  0.000000000000000E+000
  0.000000000000000E+000
  0.000000000000000E+000
  0.000000000000000E+000
  0.000000000000000E+000
  0.000000000000000E+000
  0.000000000000000E+000
  0.000000000000000E+000
  0.000000000000000E+000
  0.000000000000000E+000
  0.000000000000000E+000
  0.000000000000000E+000
  0.000000000000000E+000
  0.000000000000000E+000
  0.000000000000000E+000
  0.000000000000000E+000
  0.000000000000000E+000
  0.000000000000000E+000
  0.000000000000000E+000
  0.000000000000000E+000
  0.000000000000000E+000
  0.000000000000000E+000
  0.000000000000000E+000
  0.000000000000000E+000
  0.000000000000000E+000
  0.000000000000000E+000
  0.000000000000000E+000
  0.000000000000000E+000
  0.000000000000000E+000
  0.000000000000000E+000
  0.000000000000000E+000
  0.000000000000000E+000
  0.000000000000000E+000
  0.000000000000000E+000
  0.000000000000000E+000
  0.000000000000000E+000
  0.000000000000000E+000
  0.000000000000000E+000
  0.000000000000000E+000
  0.000000000000000E+000
  0.000000000000000E+000
  0.000000000000000E+000
  0.000000000000000E+000
  0.000000000000000E+000
  0.000000000000000E+000
  0.000000000000000E+000
  0.000000000000000E+000
  0.000000000000000E+000
  0.000000000000000E+000
  0.000000000000000E+000
  0.000000000000000E+000
  0.000000000000000E+000
  0.000000000000000E+000
  0.000000000000000E+000
  0.000000000000000E+000
  0.000000000000000E+000
  0.000000000000000E+000
  0.000000000000000E+000
  0.000000000000000E+000
  0.000000000000000E+000
  0.000000000000000E+000
  0.000000000000000E+000
  0.000000000000000E+000
  0.000000000000000E+000
  0.000000000000000E+000
  0.000000000000000E+000
  0.000000000000000E+000
  0.000000000000000E+000
  0.000000000000000E+000
  0.000000000000000E+000
  0.000000000000000E+000
  0.000000000000000E+000
  0.000000000000000E+000
  0.000000000000000E+000
  0.000000000000000E+000
  0.000000000000000E+000
  0.000000000000000E+000
  0.000000000000000E+000
  0.000000000000000E+000
  0.000000000000000E+000
  0.000000000000000E+000
  0.000000000000000E+000
  0.000000000000000E+000
  0.000000000000000E+000
  0.000000000000000E+000
  0.000000000000000E+000
  0.000000000000000E+000
  0.000000000000000E+000
  0.000000000000000E+000
  0.000000000000000E+000
  0.000000000000000E+000
  0.000000000000000E+000
  0.000000000000000E+000
  0.000000000000000E+000
  0.000000000000000E+000
  0.000000000000000E+000
  0.000000000000000E+000
  0.000000000000000E+000
  0.000000000000000E+000
  0.000000000000000E+000
  0.000000000000000E+000
  0.000000000000000E+000
  0.000000000000000E+000
  0.000000000000000E+000
  0.000000000000000E+000
  0.000000000000000E+000
  0.000000000000000E+000
  0.000000000000000E+000
  0.000000000000000E+000
  0.000000000000000E+000
  0.000000000000000E+000
  0.000000000000000E+000
  0.000000000000000E+000
  0.000000000000000E+000
  0.000000000000000E+000
  0.000000000000000E+000
  0.000000000000000E+000
  0.000000000000000E+000
  0.000000000000000E+000
  0.000000000000000E+000
  0.000000000000000E+000
  0.000000000000000E+000
  0.000000000000000E+000
  0.000000000000000E+000
  0.000000000000000E+000
  0.000000000000000E+000
  0.000000000000000E+000
  0.000000000000000E+000
  0.000000000000000E+000
  0.000000000000000E+000
  0.000000000000000E+000
  0.000000000000000E+000
  0.000000000000000E+000
  0.000000000000000E+000
  0.000000000000000E+000
  0.000000000000000E+000
  0.000000000000000E+000
  0.000000000000000E+000
  0.000000000000000E+000
  0.000000000000000E+000
  0.000000000000000E+000
  0.000000000000000E+000
  0.000000000000000E+000
  0.000000000000000E+000
  0.000000000000000E+000
  0.000000000000000E+000
  0.000000000000000E+000
  0.000000000000000E+000
  0.000000000000000E+000
  0.000000000000000E+000
  0.000000000000000E+000
  0.000000000000000E+000
  0.000000000000000E+000
  0.000000000000000E+000
  0.000000000000000E+000
  0.000000000000000E+000
  0.000000000000000E+000
  0.000000000000000E+000
  0.000000000000000E+000
  0.000000000000000E+000
  0.000000000000000E+000
  0.000000000000000E+000
  0.000000000000000E+000
  0.000000000000000E+000
  0.000000000000000E+000
  0.000000000000000E+000
  0.000000000000000E+000
  0.000000000000000E+000
  0.000000000000000E+000
  0.000000000000000E+000
  0.000000000000000E+000
  0.000000000000000E+000
  0.000000000000000E+000
  0.000000000000000E+000
  0.000000000000000E+000
  0.000000000000000E+000
  0.000000000000000E+000
  0.000000000000000E+000
  0.000000000000000E+000
  0.000000000000000E+000
  0.000000000000000E+000
  0.000000000000000E+000
  0.000000000000000E+000
  0.000000000000000E+000
  0.000000000000000E+000
  0.000000000000000E+000
  0.000000000000000E+000
  0.000000000000000E+000
  0.000000000000000E+000
  0.000000000000000E+000
  0.000000000000000E+000
  0.000000000000000E+000
  0.000000000000000E+000
  0.000000000000000E+000
  0.000000000000000E+000
  0.000000000000000E+000
  0.000000000000000E+000
  0.000000000000000E+000
  0.000000000000000E+000
  0.000000000000000E+000
  0.000000000000000E+000
  0.000000000000000E+000
  0.000000000000000E+000
  0.000000000000000E+000
  0.000000000000000E+000
  0.000000000000000E+000
  0.000000000000000E+000
  0.000000000000000E+000
  0.000000000000000E+000
  0.000000000000000E+000
  0.000000000000000E+000
  0.000000000000000E+000
  0.000000000000000E+000
  0.000000000000000E+000
  0.000000000000000E+000
  0.000000000000000E+000
  0.000000000000000E+000
  0.000000000000000E+000
  0.000000000000000E+000
  0.000000000000000E+000
  0.000000000000000E+000
  0.000000000000000E+000
  0.000000000000000E+000
  0.000000000000000E+000
  0.000000000000000E+000
  0.000000000000000E+000
  0.000000000000000E+000
  0.000000000000000E+000
  0.000000000000000E+000
  0.000000000000000E+000
  0.000000000000000E+000
  0.000000000000000E+000
  0.000000000000000E+000
  0.000000000000000E+000
  0.000000000000000E+000
  0.000000000000000E+000
  0.000000000000000E+000
  0.000000000000000E+000
  0.000000000000000E+000
  0.000000000000000E+000
  0.000000000000000E+000
  0.000000000000000E+000
  0.000000000000000E+000
  0.000000000000000E+000
  0.000000000000000E+000
  0.000000000000000E+000
  0.000000000000000E+000
  0.000000000000000E+000
  0.000000000000000E+000
  0.000000000000000E+000
  0.000000000000000E+000
  0.000000000000000E+000
  0.000000000000000E+000
  0.000000000000000E+000
  0.000000000000000E+000
  0.000000000000000E+000
  0.000000000000000E+000
  0.000000000000000E+000
  0.000000000000000E+000
  0.000000000000000E+000
  0.000000000000000E+000
  0.000000000000000E+000
  0.000000000000000E+000
  0.000000000000000E+000
  0.000000000000000E+000
  0.000000000000000E+000
  0.000000000000000E+000
  0.000000000000000E+000
  0.000000000000000E+000
  0.000000000000000E+000
  0.000000000000000E+000
  0.000000000000000E+000
  0.000000000000000E+000
  0.000000000000000E+000
  0.000000000000000E+000
  0.000000000000000E+000
  0.000000000000000E+000
  0.000000000000000E+000
  0.000000000000000E+000
  0.000000000000000E+000
  0.000000000000000E+000
  0.000000000000000E+000
  0.000000000000000E+000
  0.000000000000000E+000
  0.000000000000000E+000
  0.000000000000000E+000
  0.000000000000000E+000
  0.000000000000000E+000
  0.000000000000000E+000
  0.000000000000000E+000
  0.000000000000000E+000
  0.000000000000000E+000
  0.000000000000000E+000
  0.000000000000000E+000
  0.000000000000000E+000
  0.000000000000000E+000
  0.000000000000000E+000
  0.000000000000000E+000
  0.000000000000000E+000
  0.000000000000000E+000
  0.000000000000000E+000
  0.000000000000000E+000
  0.000000000000000E+000
  0.000000000000000E+000
  0.000000000000000E+000
  0.000000000000000E+000
  0.000000000000000E+000
  0.000000000000000E+000
  0.000000000000000E+000
  0.000000000000000E+000
  0.000000000000000E+000
  0.000000000000000E+000
  0.000000000000000E+000
  0.000000000000000E+000
  0.000000000000000E+000
  0.000000000000000E+000
  0.000000000000000E+000
  0.000000000000000E+000
  0.000000000000000E+000
  0.000000000000000E+000
  0.000000000000000E+000
  0.000000000000000E+000
  0.000000000000000E+000
  0.000000000000000E+000
  0.000000000000000E+000
  0.000000000000000E+000
  0.000000000000000E+000
  0.000000000000000E+000
  0.000000000000000E+000
  0.000000000000000E+000
  0.000000000000000E+000
  0.000000000000000E+000
  0.000000000000000E+000
  0.000000000000000E+000
  0.000000000000000E+000
  0.000000000000000E+000
  0.000000000000000E+000
  0.000000000000000E+000
  0.000000000000000E+000
  0.000000000000000E+000
  0.000000000000000E+000
  0.000000000000000E+000
  0.000000000000000E+000
  0.000000000000000E+000
  0.000000000000000E+000
  0.000000000000000E+000
  0.000000000000000E+000
  0.000000000000000E+000
  0.000000000000000E+000
  0.000000000000000E+000
  0.000000000000000E+000
  0.000000000000000E+000
  0.000000000000000E+000
  0.000000000000000E+000
  0.000000000000000E+000
  0.000000000000000E+000
  0.000000000000000E+000
  0.000000000000000E+000
  0.000000000000000E+000
  0.000000000000000E+000
  0.000000000000000E+000
  0.000000000000000E+000
  0.000000000000000E+000
  0.000000000000000E+000
  0.000000000000000E+000
  0.000000000000000E+000
  0.000000000000000E+000
  0.000000000000000E+000
  0.000000000000000E+000
  0.000000000000000E+000
  0.000000000000000E+000
  0.000000000000000E+000
  0.000000000000000E+000
  0.000000000000000E+000
  0.000000000000000E+000
  0.000000000000000E+000
  0.000000000000000E+000
  0.000000000000000E+000
  0.000000000000000E+000
  0.000000000000000E+000
  0.000000000000000E+000
  0.000000000000000E+000
  0.000000000000000E+000
  0.000000000000000E+000
  0.000000000000000E+000
  0.000000000000000E+000
  0.000000000000000E+000
  0.000000000000000E+000
  0.000000000000000E+000
  0.000000000000000E+000
  0.000000000000000E+000
  0.000000000000000E+000
  0.000000000000000E+000
  0.000000000000000E+000
  0.000000000000000E+000
  0.000000000000000E+000
  0.000000000000000E+000
  0.000000000000000E+000
  0.000000000000000E+000
  0.000000000000000E+000
  0.000000000000000E+000
  0.000000000000000E+000
  0.000000000000000E+000
  0.000000000000000E+000
  0.000000000000000E+000
  0.000000000000000E+000
  0.000000000000000E+000
  0.000000000000000E+000
  0.000000000000000E+000
  0.000000000000000E+000
  0.000000000000000E+000
  0.000000000000000E+000
  0.000000000000000E+000
  0.000000000000000E+000
  0.000000000000000E+000
  0.000000000000000E+000
  0.000000000000000E+000
  0.000000000000000E+000
  0.000000000000000E+000
  0.000000000000000E+000
  0.000000000000000E+000
  0.000000000000000E+000
  0.000000000000000E+000
  0.000000000000000E+000
  0.000000000000000E+000
  0.000000000000000E+000
  0.000000000000000E+000
  0.000000000000000E+000
  0.000000000000000E+000
  0.000000000000000E+000
  0.000000000000000E+000
  0.000000000000000E+000
  0.000000000000000E+000
  0.000000000000000E+000
  0.000000000000000E+000
  0.000000000000000E+000
  0.000000000000000E+000
  0.000000000000000E+000
  0.000000000000000E+000
  0.000000000000000E+000
  0.000000000000000E+000
  0.000000000000000E+000
  0.000000000000000E+000
  0.000000000000000E+000
  0.000000000000000E+000
  0.000000000000000E+000
  0.000000000000000E+000
  0.000000000000000E+000
  0.000000000000000E+000
  0.000000000000000E+000
  0.000000000000000E+000
  0.000000000000000E+000
  0.000000000000000E+000
  0.000000000000000E+000
  0.000000000000000E+000
  0.000000000000000E+000
  0.000000000000000E+000
  0.000000000000000E+000
  0.000000000000000E+000
  0.000000000000000E+000
  0.000000000000000E+000
  0.000000000000000E+000
  0.000000000000000E+000
  0.000000000000000E+000
  0.000000000000000E+000
  0.000000000000000E+000
  0.000000000000000E+000
  0.000000000000000E+000
  0.000000000000000E+000
  0.000000000000000E+000
  0.000000000000000E+000
  0.000000000000000E+000
  0.000000000000000E+000
  0.000000000000000E+000
  0.000000000000000E+000
  0.000000000000000E+000
  0.000000000000000E+000
  0.000000000000000E+000
  0.000000000000000E+000
  0.000000000000000E+000
  0.000000000000000E+000
  0.000000000000000E+000
  0.000000000000000E+000
  0.000000000000000E+000
  0.000000000000000E+000
  0.000000000000000E+000
  0.000000000000000E+000
  0.000000000000000E+000
  0.000000000000000E+000
  0.000000000000000E+000
  0.000000000000000E+000
  0.000000000000000E+000
  0.000000000000000E+000
  0.000000000000000E+000
  0.000000000000000E+000
  0.000000000000000E+000
  0.000000000000000E+000
  0.000000000000000E+000
  0.000000000000000E+000
  0.000000000000000E+000
  0.000000000000000E+000
  0.000000000000000E+000
  0.000000000000000E+000
  0.000000000000000E+000
  0.000000000000000E+000
  0.000000000000000E+000
  0.000000000000000E+000
  0.000000000000000E+000
  0.000000000000000E+000
  0.000000000000000E+000
  0.000000000000000E+000
  0.000000000000000E+000
  0.000000000000000E+000
  0.000000000000000E+000
  0.000000000000000E+000
  0.000000000000000E+000
  0.000000000000000E+000
  0.000000000000000E+000
  0.000000000000000E+000
  0.000000000000000E+000
  0.000000000000000E+000
  0.000000000000000E+000
  0.000000000000000E+000
  0.000000000000000E+000
  0.000000000000000E+000
  0.000000000000000E+000
  0.000000000000000E+000
  0.000000000000000E+000
  0.000000000000000E+000
  0.000000000000000E+000
  0.000000000000000E+000
  0.000000000000000E+000
  0.000000000000000E+000
  0.000000000000000E+000
  0.000000000000000E+000
  0.000000000000000E+000
  0.000000000000000E+000
  0.000000000000000E+000
  0.000000000000000E+000
  0.000000000000000E+000
  0.000000000000000E+000
  0.000000000000000E+000
  0.000000000000000E+000
  0.000000000000000E+000
  0.000000000000000E+000
  0.000000000000000E+000
  0.000000000000000E+000
  0.000000000000000E+000
  0.000000000000000E+000
  0.000000000000000E+000
  0.000000000000000E+000
  0.000000000000000E+000
  0.000000000000000E+000
  0.000000000000000E+000
  0.000000000000000E+000
  0.000000000000000E+000
  0.000000000000000E+000
  0.000000000000000E+000
  0.000000000000000E+000
  0.000000000000000E+000
  0.000000000000000E+000
  0.000000000000000E+000
  0.000000000000000E+000
  0.000000000000000E+000
  0.000000000000000E+000
  0.000000000000000E+000
  0.000000000000000E+000
  0.000000000000000E+000
  0.000000000000000E+000
  0.000000000000000E+000
  0.000000000000000E+000
  0.000000000000000E+000
  0.000000000000000E+000
  0.000000000000000E+000
  0.000000000000000E+000
  0.000000000000000E+000
  0.000000000000000E+000
  0.000000000000000E+000
  0.000000000000000E+000
  0.000000000000000E+000
  0.000000000000000E+000
  0.000000000000000E+000
  0.000000000000000E+000
  0.000000000000000E+000
  0.000000000000000E+000
  0.000000000000000E+000
  0.000000000000000E+000
  0.000000000000000E+000
  0.000000000000000E+000
  0.000000000000000E+000
  0.000000000000000E+000
  0.000000000000000E+000
  0.000000000000000E+000
  0.000000000000000E+000
  0.000000000000000E+000
  0.000000000000000E+000
  0.000000000000000E+000
  0.000000000000000E+000
  0.000000000000000E+000
  0.000000000000000E+000
  0.000000000000000E+000
  0.000000000000000E+000
  0.000000000000000E+000
  0.000000000000000E+000
  0.000000000000000E+000
  0.000000000000000E+000
  0.000000000000000E+000
  0.000000000000000E+000
  0.000000000000000E+000
  0.000000000000000E+000
  0.000000000000000E+000
  0.000000000000000E+000
  0.000000000000000E+000
  0.000000000000000E+000
  0.000000000000000E+000
  0.000000000000000E+000
  0.000000000000000E+000
  0.000000000000000E+000
  0.000000000000000E+000
  0.000000000000000E+000
  0.000000000000000E+000
  0.000000000000000E+000
  0.000000000000000E+000
  0.000000000000000E+000
  0.000000000000000E+000
  0.000000000000000E+000
  0.000000000000000E+000
  0.000000000000000E+000
  0.000000000000000E+000
  0.000000000000000E+000
  0.000000000000000E+000
  0.000000000000000E+000
  0.000000000000000E+000
  0.000000000000000E+000
  0.000000000000000E+000
  0.000000000000000E+000
  0.000000000000000E+000
  0.000000000000000E+000
  0.000000000000000E+000
  0.000000000000000E+000
  0.000000000000000E+000
  0.000000000000000E+000
  0.000000000000000E+000
  0.000000000000000E+000
  0.000000000000000E+000
  0.000000000000000E+000
  0.000000000000000E+000
  0.000000000000000E+000
  0.000000000000000E+000
  0.000000000000000E+000
  0.000000000000000E+000
  0.000000000000000E+000
  0.000000000000000E+000
  0.000000000000000E+000
  0.000000000000000E+000
  0.000000000000000E+000
  0.000000000000000E+000
  0.000000000000000E+000
  0.000000000000000E+000
  0.000000000000000E+000
  0.000000000000000E+000
  0.000000000000000E+000
  0.000000000000000E+000
  0.000000000000000E+000
  0.000000000000000E+000
  0.000000000000000E+000
  0.000000000000000E+000
  0.000000000000000E+000
  0.000000000000000E+000
  0.000000000000000E+000
  0.000000000000000E+000
  0.000000000000000E+000
  0.000000000000000E+000
  0.000000000000000E+000
  0.000000000000000E+000
  0.000000000000000E+000
  0.000000000000000E+000
  0.000000000000000E+000
  0.000000000000000E+000
  0.000000000000000E+000
  0.000000000000000E+000
  0.000000000000000E+000
  0.000000000000000E+000
  0.000000000000000E+000
  0.000000000000000E+000
  0.000000000000000E+000
  0.000000000000000E+000
  0.000000000000000E+000
  0.000000000000000E+000
  0.000000000000000E+000
  0.000000000000000E+000
  0.000000000000000E+000
  0.000000000000000E+000
  0.000000000000000E+000
  0.000000000000000E+000
  0.000000000000000E+000
  0.000000000000000E+000
  0.000000000000000E+000
  0.000000000000000E+000
  0.000000000000000E+000
  0.000000000000000E+000
  0.000000000000000E+000
  0.000000000000000E+000
  0.000000000000000E+000
  0.000000000000000E+000
  0.000000000000000E+000
  0.000000000000000E+000
  0.000000000000000E+000
  0.000000000000000E+000
  0.000000000000000E+000
  0.000000000000000E+000
  0.000000000000000E+000
  0.000000000000000E+000
  0.000000000000000E+000
  0.000000000000000E+000
  0.000000000000000E+000
  0.000000000000000E+000
  0.000000000000000E+000
  0.000000000000000E+000
  0.000000000000000E+000
  0.000000000000000E+000
  0.000000000000000E+000
  0.000000000000000E+000
  0.000000000000000E+000
  0.000000000000000E+000
  0.000000000000000E+000
  0.000000000000000E+000
  0.000000000000000E+000
  0.000000000000000E+000
  0.000000000000000E+000
  0.000000000000000E+000
  0.000000000000000E+000
  0.000000000000000E+000
  0.000000000000000E+000
  0.000000000000000E+000
  0.000000000000000E+000
  0.000000000000000E+000
  0.000000000000000E+000
  0.000000000000000E+000
  0.000000000000000E+000
  0.000000000000000E+000
  0.000000000000000E+000
  0.000000000000000E+000
  0.000000000000000E+000
  0.000000000000000E+000
  0.000000000000000E+000
  0.000000000000000E+000
  0.000000000000000E+000
  0.000000000000000E+000
  0.000000000000000E+000
  0.000000000000000E+000
  0.000000000000000E+000
  0.000000000000000E+000
  0.000000000000000E+000
  0.000000000000000E+000
  0.000000000000000E+000
  0.000000000000000E+000
  0.000000000000000E+000
  0.000000000000000E+000
  0.000000000000000E+000
  0.000000000000000E+000
  0.000000000000000E+000
  0.000000000000000E+000
  0.000000000000000E+000
  0.000000000000000E+000
  0.000000000000000E+000
  0.000000000000000E+000
  0.000000000000000E+000
  0.000000000000000E+000
  0.000000000000000E+000
  0.000000000000000E+000
  0.000000000000000E+000
  0.000000000000000E+000
  0.000000000000000E+000
  0.000000000000000E+000
  0.000000000000000E+000
  0.000000000000000E+000
  0.000000000000000E+000
  0.000000000000000E+000
  0.000000000000000E+000
  0.000000000000000E+000
  0.000000000000000E+000
  0.000000000000000E+000
  0.000000000000000E+000
  0.000000000000000E+000
  0.000000000000000E+000
  0.000000000000000E+000
  0.000000000000000E+000
  0.000000000000000E+000
  0.000000000000000E+000
  0.000000000000000E+000
  0.000000000000000E+000
  0.000000000000000E+000
  0.000000000000000E+000
  0.000000000000000E+000
  0.000000000000000E+000
  0.000000000000000E+000
  0.000000000000000E+000
  0.000000000000000E+000
  0.000000000000000E+000
  0.000000000000000E+000
  0.000000000000000E+000
  0.000000000000000E+000
  0.000000000000000E+000
  0.000000000000000E+000
  0.000000000000000E+000
  0.000000000000000E+000
  0.000000000000000E+000
  0.000000000000000E+000
  0.000000000000000E+000
  0.000000000000000E+000
  0.000000000000000E+000
  0.000000000000000E+000
  0.000000000000000E+000
  0.000000000000000E+000
  0.000000000000000E+000
  0.000000000000000E+000
  0.000000000000000E+000
  0.000000000000000E+000
  0.000000000000000E+000
  0.000000000000000E+000
  0.000000000000000E+000
  0.000000000000000E+000
  0.000000000000000E+000
  0.000000000000000E+000
  0.000000000000000E+000
  0.000000000000000E+000
  0.000000000000000E+000
  0.000000000000000E+000
  0.000000000000000E+000
  0.000000000000000E+000
  0.000000000000000E+000
  0.000000000000000E+000
  0.000000000000000E+000
  0.000000000000000E+000
  0.000000000000000E+000
  0.000000000000000E+000
  0.000000000000000E+000
  0.000000000000000E+000
  0.000000000000000E+000
  0.000000000000000E+000
  0.000000000000000E+000
  0.000000000000000E+000
  0.000000000000000E+000
  0.000000000000000E+000
  0.000000000000000E+000
  0.000000000000000E+000
  0.000000000000000E+000
  0.000000000000000E+000
  0.000000000000000E+000
  0.000000000000000E+000
  0.000000000000000E+000
  0.000000000000000E+000
  0.000000000000000E+000
  0.000000000000000E+000
  0.000000000000000E+000
  0.000000000000000E+000
  0.000000000000000E+000
  0.000000000000000E+000
  0.000000000000000E+000
  0.000000000000000E+000
  0.000000000000000E+000
  0.000000000000000E+000
  0.000000000000000E+000
  0.000000000000000E+000
  0.000000000000000E+000
  0.000000000000000E+000
  0.000000000000000E+000
  0.000000000000000E+000
  0.000000000000000E+000
  0.000000000000000E+000
  0.000000000000000E+000
  0.000000000000000E+000
  0.000000000000000E+000
  0.000000000000000E+000
  0.000000000000000E+000
  0.000000000000000E+000
  0.000000000000000E+000
  0.000000000000000E+000
  0.000000000000000E+000
  0.000000000000000E+000
  0.000000000000000E+000
  0.000000000000000E+000
  0.000000000000000E+000
  0.000000000000000E+000
  0.000000000000000E+000
  0.000000000000000E+000
  0.000000000000000E+000
  0.000000000000000E+000
  0.000000000000000E+000
  0.000000000000000E+000
  0.000000000000000E+000
  0.000000000000000E+000
  0.000000000000000E+000
  0.000000000000000E+000
  0.000000000000000E+000
  0.000000000000000E+000
  0.000000000000000E+000
  0.000000000000000E+000
  0.000000000000000E+000
  0.000000000000000E+000
  0.000000000000000E+000
  0.000000000000000E+000
  0.000000000000000E+000
  0.000000000000000E+000
  0.000000000000000E+000
  0.000000000000000E+000
  0.000000000000000E+000
  0.000000000000000E+000
  0.000000000000000E+000
  0.000000000000000E+000
  0.000000000000000E+000
  0.000000000000000E+000
  0.000000000000000E+000
  0.000000000000000E+000
  0.000000000000000E+000
  0.000000000000000E+000
  0.000000000000000E+000
  0.000000000000000E+000
  0.000000000000000E+000
  0.000000000000000E+000
  0.000000000000000E+000
  0.000000000000000E+000
  0.000000000000000E+000
  0.000000000000000E+000
  0.000000000000000E+000
  0.000000000000000E+000
  0.000000000000000E+000
  0.000000000000000E+000
  0.000000000000000E+000
  0.000000000000000E+000
  0.000000000000000E+000
  0.000000000000000E+000
  0.000000000000000E+000
  0.000000000000000E+000
  0.000000000000000E+000
  0.000000000000000E+000
  0.000000000000000E+000
  0.000000000000000E+000
  0.000000000000000E+000
  0.000000000000000E+000
  0.000000000000000E+000
  0.000000000000000E+000
  0.000000000000000E+000
  0.000000000000000E+000
  0.000000000000000E+000
  0.000000000000000E+000
  0.000000000000000E+000
  0.000000000000000E+000
  0.000000000000000E+000
  0.000000000000000E+000
  0.000000000000000E+000
  0.000000000000000E+000
  0.000000000000000E+000
  0.000000000000000E+000
  0.000000000000000E+000
  0.000000000000000E+000
  0.000000000000000E+000
  0.000000000000000E+000
  0.000000000000000E+000
  0.000000000000000E+000
  0.000000000000000E+000
  0.000000000000000E+000
  0.000000000000000E+000
  0.000000000000000E+000
  0.000000000000000E+000
  0.000000000000000E+000
  0.000000000000000E+000
  0.000000000000000E+000
  0.000000000000000E+000
  0.000000000000000E+000
  0.000000000000000E+000
  0.000000000000000E+000
  0.000000000000000E+000
  0.000000000000000E+000
  0.000000000000000E+000
  0.000000000000000E+000
  0.000000000000000E+000
  0.000000000000000E+000
  0.000000000000000E+000
  0.000000000000000E+000
  0.000000000000000E+000
  0.000000000000000E+000
  0.000000000000000E+000
  0.000000000000000E+000
  0.000000000000000E+000
  0.000000000000000E+000
  0.000000000000000E+000
  0.000000000000000E+000
  0.000000000000000E+000
  0.000000000000000E+000
  0.000000000000000E+000
  0.000000000000000E+000
  0.000000000000000E+000
  0.000000000000000E+000
  0.000000000000000E+000
  0.000000000000000E+000
  0.000000000000000E+000
  0.000000000000000E+000
  0.000000000000000E+000
  0.000000000000000E+000
  0.000000000000000E+000
  0.000000000000000E+000
  0.000000000000000E+000
  0.000000000000000E+000
  0.000000000000000E+000
  0.000000000000000E+000
  0.000000000000000E+000
  0.000000000000000E+000
  0.000000000000000E+000
  0.000000000000000E+000
  0.000000000000000E+000
  0.000000000000000E+000
  0.000000000000000E+000
  0.000000000000000E+000
  0.000000000000000E+000
  0.000000000000000E+000
  0.000000000000000E+000
  0.000000000000000E+000
  0.000000000000000E+000
  0.000000000000000E+000
  0.000000000000000E+000
  0.000000000000000E+000
  0.000000000000000E+000
  0.000000000000000E+000
  0.000000000000000E+000
  0.000000000000000E+000
  0.000000000000000E+000
  0.000000000000000E+000
  0.000000000000000E+000
  0.000000000000000E+000
  0.000000000000000E+000
  0.000000000000000E+000
  0.000000000000000E+000
  0.000000000000000E+000
  0.000000000000000E+000
  0.000000000000000E+000
  0.000000000000000E+000
  0.000000000000000E+000
  0.000000000000000E+000
  0.000000000000000E+000
  0.000000000000000E+000
  0.000000000000000E+000
  0.000000000000000E+000
  0.000000000000000E+000
  0.000000000000000E+000
  0.000000000000000E+000
  0.000000000000000E+000
  0.000000000000000E+000
  0.000000000000000E+000
  0.000000000000000E+000
  0.000000000000000E+000
  0.000000000000000E+000
  0.000000000000000E+000
  0.000000000000000E+000
  0.000000000000000E+000
  0.000000000000000E+000
  0.000000000000000E+000
  0.000000000000000E+000
  0.000000000000000E+000
  0.000000000000000E+000
  0.000000000000000E+000
  0.000000000000000E+000
  0.000000000000000E+000
  0.000000000000000E+000
  0.000000000000000E+000
  0.000000000000000E+000
  0.000000000000000E+000
  0.000000000000000E+000
  0.000000000000000E+000
  0.000000000000000E+000
  0.000000000000000E+000
  0.000000000000000E+000
  0.000000000000000E+000
  0.000000000000000E+000
  0.000000000000000E+000
  0.000000000000000E+000
  0.000000000000000E+000
  0.000000000000000E+000
  0.000000000000000E+000
  0.000000000000000E+000
  0.000000000000000E+000
  0.000000000000000E+000
  0.000000000000000E+000
  0.000000000000000E+000
  0.000000000000000E+000
  0.000000000000000E+000
  0.000000000000000E+000
  0.000000000000000E+000
  0.000000000000000E+000
  0.000000000000000E+000
  0.000000000000000E+000
  0.000000000000000E+000
  0.000000000000000E+000
  0.000000000000000E+000
  0.000000000000000E+000
  0.000000000000000E+000
  0.000000000000000E+000
  0.000000000000000E+000
  0.000000000000000E+000
  0.000000000000000E+000
  0.000000000000000E+000
  0.000000000000000E+000
  0.000000000000000E+000
  0.000000000000000E+000
  0.000000000000000E+000
  0.000000000000000E+000
  0.000000000000000E+000
  0.000000000000000E+000
  0.000000000000000E+000
  0.000000000000000E+000
  0.000000000000000E+000
  0.000000000000000E+000
  0.000000000000000E+000
  0.000000000000000E+000
  0.000000000000000E+000
  0.000000000000000E+000
  0.000000000000000E+000
  0.000000000000000E+000
  0.000000000000000E+000
  0.000000000000000E+000
  0.000000000000000E+000
  0.000000000000000E+000
  0.000000000000000E+000
  0.000000000000000E+000
  0.000000000000000E+000
  0.000000000000000E+000
  0.000000000000000E+000
  0.000000000000000E+000
  0.000000000000000E+000
  0.000000000000000E+000
  0.000000000000000E+000
  0.000000000000000E+000
  0.000000000000000E+000
  0.000000000000000E+000
  0.000000000000000E+000
  0.000000000000000E+000
  0.000000000000000E+000
  0.000000000000000E+000
  0.000000000000000E+000
  0.000000000000000E+000
  0.000000000000000E+000
  0.000000000000000E+000
  0.000000000000000E+000
  0.000000000000000E+000
  0.000000000000000E+000
  0.000000000000000E+000
  0.000000000000000E+000
  0.000000000000000E+000
  0.000000000000000E+000
  0.000000000000000E+000
  0.000000000000000E+000
  0.000000000000000E+000
  0.000000000000000E+000
  0.000000000000000E+000
  0.000000000000000E+000
  0.000000000000000E+000
  0.000000000000000E+000
  0.000000000000000E+000
  0.000000000000000E+000
  0.000000000000000E+000
  0.000000000000000E+000
  0.000000000000000E+000
  0.000000000000000E+000
  0.000000000000000E+000
  0.000000000000000E+000
  0.000000000000000E+000
  0.000000000000000E+000
  0.000000000000000E+000
  0.000000000000000E+000
  0.000000000000000E+000
  0.000000000000000E+000
  0.000000000000000E+000
  0.000000000000000E+000
  0.000000000000000E+000
  0.000000000000000E+000
  0.000000000000000E+000
  0.000000000000000E+000
  0.000000000000000E+000
  0.000000000000000E+000
  0.000000000000000E+000
  0.000000000000000E+000
  0.000000000000000E+000
  0.000000000000000E+000
  0.000000000000000E+000
  0.000000000000000E+000
  0.000000000000000E+000
  0.000000000000000E+000
  0.000000000000000E+000
  0.000000000000000E+000
  0.000000000000000E+000
  0.000000000000000E+000
  0.000000000000000E+000
  0.000000000000000E+000
  0.000000000000000E+000
  0.000000000000000E+000
  0.000000000000000E+000
  0.000000000000000E+000
  0.000000000000000E+000
  0.000000000000000E+000
  0.000000000000000E+000
  0.000000000000000E+000
  0.000000000000000E+000
  0.000000000000000E+000
  0.000000000000000E+000
  0.000000000000000E+000
  0.000000000000000E+000
  0.000000000000000E+000
  0.000000000000000E+000
  0.000000000000000E+000
  0.000000000000000E+000
  0.000000000000000E+000
  0.000000000000000E+000
  0.000000000000000E+000
  0.000000000000000E+000
  0.000000000000000E+000
  0.000000000000000E+000
  0.000000000000000E+000
  0.000000000000000E+000
  0.000000000000000E+000
  0.000000000000000E+000
  0.000000000000000E+000
  0.000000000000000E+000
  0.000000000000000E+000
  0.000000000000000E+000
  0.000000000000000E+000
  0.000000000000000E+000
  0.000000000000000E+000
  0.000000000000000E+000
  0.000000000000000E+000
  0.000000000000000E+000
  0.000000000000000E+000
  0.000000000000000E+000
  0.000000000000000E+000
  0.000000000000000E+000
  0.000000000000000E+000
  0.000000000000000E+000
  0.000000000000000E+000
  0.000000000000000E+000
  0.000000000000000E+000
  0.000000000000000E+000
  0.000000000000000E+000
  0.000000000000000E+000
  0.000000000000000E+000
  0.000000000000000E+000
  0.000000000000000E+000
  0.000000000000000E+000
  0.000000000000000E+000
  0.000000000000000E+000
  0.000000000000000E+000
  0.000000000000000E+000
  0.000000000000000E+000
  0.000000000000000E+000
  0.000000000000000E+000
  0.000000000000000E+000
  0.000000000000000E+000
  0.000000000000000E+000
  0.000000000000000E+000
  0.000000000000000E+000
  0.000000000000000E+000
  0.000000000000000E+000
  0.000000000000000E+000
  0.000000000000000E+000
  0.000000000000000E+000
  0.000000000000000E+000
  0.000000000000000E+000
  0.000000000000000E+000
  0.000000000000000E+000
  0.000000000000000E+000
  0.000000000000000E+000
  0.000000000000000E+000
  0.000000000000000E+000
  0.000000000000000E+000
  0.000000000000000E+000
  0.000000000000000E+000
  0.000000000000000E+000
  0.000000000000000E+000
  0.000000000000000E+000
  0.000000000000000E+000
  0.000000000000000E+000
  0.000000000000000E+000
  0.000000000000000E+000
  0.000000000000000E+000
  0.000000000000000E+000
  0.000000000000000E+000
  0.000000000000000E+000
  0.000000000000000E+000
  0.000000000000000E+000
  0.000000000000000E+000
  0.000000000000000E+000
  0.000000000000000E+000
  0.000000000000000E+000
  0.000000000000000E+000
  0.000000000000000E+000
  0.000000000000000E+000
  0.000000000000000E+000
  0.000000000000000E+000
  0.000000000000000E+000
  0.000000000000000E+000
  0.000000000000000E+000
  0.000000000000000E+000
  0.000000000000000E+000
  0.000000000000000E+000
  0.000000000000000E+000
  0.000000000000000E+000
  0.000000000000000E+000
  0.000000000000000E+000
  0.000000000000000E+000
  0.000000000000000E+000
  0.000000000000000E+000
  0.000000000000000E+000
  0.000000000000000E+000
  0.000000000000000E+000
  0.000000000000000E+000
  0.000000000000000E+000
  0.000000000000000E+000
  0.000000000000000E+000
  0.000000000000000E+000
  0.000000000000000E+000
  0.000000000000000E+000
  0.000000000000000E+000
  0.000000000000000E+000
  0.000000000000000E+000
  0.000000000000000E+000
  0.000000000000000E+000
  0.000000000000000E+000
  0.000000000000000E+000
  0.000000000000000E+000
  0.000000000000000E+000
  0.000000000000000E+000
  0.000000000000000E+000
  0.000000000000000E+000
  0.000000000000000E+000
  0.000000000000000E+000
  0.000000000000000E+000
  0.000000000000000E+000
  0.000000000000000E+000
  0.000000000000000E+000
  0.000000000000000E+000
  0.000000000000000E+000
  0.000000000000000E+000
  0.000000000000000E+000
  0.000000000000000E+000
  0.000000000000000E+000
  0.000000000000000E+000
  0.000000000000000E+000
  0.000000000000000E+000
  0.000000000000000E+000
  0.000000000000000E+000
  0.000000000000000E+000
  0.000000000000000E+000
  0.000000000000000E+000
  0.000000000000000E+000
  0.000000000000000E+000
  0.000000000000000E+000
  0.000000000000000E+000
  0.000000000000000E+000
  0.000000000000000E+000
  0.000000000000000E+000
  0.000000000000000E+000
  0.000000000000000E+000
  0.000000000000000E+000
  0.000000000000000E+000
  0.000000000000000E+000
  0.000000000000000E+000
  0.000000000000000E+000
  0.000000000000000E+000
  0.000000000000000E+000
  0.000000000000000E+000
  0.000000000000000E+000
  0.000000000000000E+000
  0.000000000000000E+000
  0.000000000000000E+000
  0.000000000000000E+000
  0.000000000000000E+000
  0.000000000000000E+000
  0.000000000000000E+000
  0.000000000000000E+000
  0.000000000000000E+000
  0.000000000000000E+000
  0.000000000000000E+000
  0.000000000000000E+000
  0.000000000000000E+000
  0.000000000000000E+000
  0.000000000000000E+000
  0.000000000000000E+000
  0.000000000000000E+000
  0.000000000000000E+000
  0.000000000000000E+000
  0.000000000000000E+000
  0.000000000000000E+000
  0.000000000000000E+000
  0.000000000000000E+000
  0.000000000000000E+000
  0.000000000000000E+000
  0.000000000000000E+000
  0.000000000000000E+000
  0.000000000000000E+000
  0.000000000000000E+000
  0.000000000000000E+000
  0.000000000000000E+000
  0.000000000000000E+000
  0.000000000000000E+000
  0.000000000000000E+000
  0.000000000000000E+000
  0.000000000000000E+000
  0.000000000000000E+000
  0.000000000000000E+000
  0.000000000000000E+000
  0.000000000000000E+000
  0.000000000000000E+000
  0.000000000000000E+000
  0.000000000000000E+000
  0.000000000000000E+000
  0.000000000000000E+000
  0.000000000000000E+000
  0.000000000000000E+000
  0.000000000000000E+000
  0.000000000000000E+000
  0.000000000000000E+000
  0.000000000000000E+000
  0.000000000000000E+000
  0.000000000000000E+000
  0.000000000000000E+000
  0.000000000000000E+000
  0.000000000000000E+000
  0.000000000000000E+000
  0.000000000000000E+000
  0.000000000000000E+000
  0.000000000000000E+000
  0.000000000000000E+000
  0.000000000000000E+000
  0.000000000000000E+000
  0.000000000000000E+000
  0.000000000000000E+000
  0.000000000000000E+000
  0.000000000000000E+000
  0.000000000000000E+000
  0.000000000000000E+000
  0.000000000000000E+000
  0.000000000000000E+000
  0.000000000000000E+000
  0.000000000000000E+000
  0.000000000000000E+000
  0.000000000000000E+000
  0.000000000000000E+000
  0.000000000000000E+000
  0.000000000000000E+000
  0.000000000000000E+000
  0.000000000000000E+000
  0.000000000000000E+000
  0.000000000000000E+000
  0.000000000000000E+000
  0.000000000000000E+000
  0.000000000000000E+000
  0.000000000000000E+000
  0.000000000000000E+000
  0.000000000000000E+000
  0.000000000000000E+000
  0.000000000000000E+000
  0.000000000000000E+000
  0.000000000000000E+000
  0.000000000000000E+000
  0.000000000000000E+000
  0.000000000000000E+000
  0.000000000000000E+000
  0.000000000000000E+000
  0.000000000000000E+000
  0.000000000000000E+000
  0.000000000000000E+000
  0.000000000000000E+000
  0.000000000000000E+000
  0.000000000000000E+000
  0.000000000000000E+000
  0.000000000000000E+000
  0.000000000000000E+000
  0.000000000000000E+000
  0.000000000000000E+000
  0.000000000000000E+000
  0.000000000000000E+000
  0.000000000000000E+000
  0.000000000000000E+000
  0.000000000000000E+000
  0.000000000000000E+000
  0.000000000000000E+000
  0.000000000000000E+000
  0.000000000000000E+000
  0.000000000000000E+000
  0.000000000000000E+000
  0.000000000000000E+000
  0.000000000000000E+000
  0.000000000000000E+000
  0.000000000000000E+000
  0.000000000000000E+000
  0.000000000000000E+000
  0.000000000000000E+000
  0.000000000000000E+000
  0.000000000000000E+000
  0.000000000000000E+000
  0.000000000000000E+000
  0.000000000000000E+000
  0.000000000000000E+000
  0.000000000000000E+000
  0.000000000000000E+000
  0.000000000000000E+000
  0.000000000000000E+000
  0.000000000000000E+000
  0.000000000000000E+000
  0.000000000000000E+000
  0.000000000000000E+000
  0.000000000000000E+000
  0.000000000000000E+000
  0.000000000000000E+000
  0.000000000000000E+000
  0.000000000000000E+000
  0.000000000000000E+000
  0.000000000000000E+000
  0.000000000000000E+000
  0.000000000000000E+000
  0.000000000000000E+000
  0.000000000000000E+000
  0.000000000000000E+000
  0.000000000000000E+000
  0.000000000000000E+000
  0.000000000000000E+000
  0.000000000000000E+000
  0.000000000000000E+000
  0.000000000000000E+000
  0.000000000000000E+000
  0.000000000000000E+000
  0.000000000000000E+000
  0.000000000000000E+000
  0.000000000000000E+000
  0.000000000000000E+000
  0.000000000000000E+000
  0.000000000000000E+000
  0.000000000000000E+000
  0.000000000000000E+000
  0.000000000000000E+000
  0.000000000000000E+000
  0.000000000000000E+000
  0.000000000000000E+000
  0.000000000000000E+000
  0.000000000000000E+000
  0.000000000000000E+000
  0.000000000000000E+000
  0.000000000000000E+000
  0.000000000000000E+000
  0.000000000000000E+000
  0.000000000000000E+000
  0.000000000000000E+000
  0.000000000000000E+000
  0.000000000000000E+000
  0.000000000000000E+000
  0.000000000000000E+000
  0.000000000000000E+000
  0.000000000000000E+000
  0.000000000000000E+000
  0.000000000000000E+000
  0.000000000000000E+000
  0.000000000000000E+000
  0.000000000000000E+000
  0.000000000000000E+000
  0.000000000000000E+000
  0.000000000000000E+000
  0.000000000000000E+000
  0.000000000000000E+000
  0.000000000000000E+000
  0.000000000000000E+000
  0.000000000000000E+000
  0.000000000000000E+000
  0.000000000000000E+000
  0.000000000000000E+000
  0.000000000000000E+000
  0.000000000000000E+000
  0.000000000000000E+000
  0.000000000000000E+000
  0.000000000000000E+000
  0.000000000000000E+000
  0.000000000000000E+000
  0.000000000000000E+000
  0.000000000000000E+000
  0.000000000000000E+000
  0.000000000000000E+000
  0.000000000000000E+000
  0.000000000000000E+000
  0.000000000000000E+000
  0.000000000000000E+000
  0.000000000000000E+000
  0.000000000000000E+000
  0.000000000000000E+000
  0.000000000000000E+000
  0.000000000000000E+000
  0.000000000000000E+000
  0.000000000000000E+000
  0.000000000000000E+000
  0.000000000000000E+000
  0.000000000000000E+000
  0.000000000000000E+000
  0.000000000000000E+000
  0.000000000000000E+000
  0.000000000000000E+000
  0.000000000000000E+000
  0.000000000000000E+000
  0.000000000000000E+000
  0.000000000000000E+000
  0.000000000000000E+000
  0.000000000000000E+000
  0.000000000000000E+000
  0.000000000000000E+000
  0.000000000000000E+000
  0.000000000000000E+000
  0.000000000000000E+000
  0.000000000000000E+000
  0.000000000000000E+000
  0.000000000000000E+000
  0.000000000000000E+000
  0.000000000000000E+000
  0.000000000000000E+000
  0.000000000000000E+000
  0.000000000000000E+000
  0.000000000000000E+000
  0.000000000000000E+000
  0.000000000000000E+000
  0.000000000000000E+000
  0.000000000000000E+000
  0.000000000000000E+000
  0.000000000000000E+000
  0.000000000000000E+000
  0.000000000000000E+000
  0.000000000000000E+000
  0.000000000000000E+000
  0.000000000000000E+000
  0.000000000000000E+000
  0.000000000000000E+000
  0.000000000000000E+000
  0.000000000000000E+000
  0.000000000000000E+000
  0.000000000000000E+000
  0.000000000000000E+000
  0.000000000000000E+000
  0.000000000000000E+000
  0.000000000000000E+000
  0.000000000000000E+000
  0.000000000000000E+000
  0.000000000000000E+000
  0.000000000000000E+000
  0.000000000000000E+000
  0.000000000000000E+000
  0.000000000000000E+000
  0.000000000000000E+000
  0.000000000000000E+000
  0.000000000000000E+000
  0.000000000000000E+000
  0.000000000000000E+000
  0.000000000000000E+000
  0.000000000000000E+000
  0.000000000000000E+000
  0.000000000000000E+000
  0.000000000000000E+000
  0.000000000000000E+000
  0.000000000000000E+000
  0.000000000000000E+000
  0.000000000000000E+000
  0.000000000000000E+000
  0.000000000000000E+000
  0.000000000000000E+000
  0.000000000000000E+000
  0.000000000000000E+000
  0.000000000000000E+000
  0.000000000000000E+000
  0.000000000000000E+000
  0.000000000000000E+000
  0.000000000000000E+000
  0.000000000000000E+000
  0.000000000000000E+000
  0.000000000000000E+000
  0.000000000000000E+000
  0.000000000000000E+000
  0.000000000000000E+000
  0.000000000000000E+000
  0.000000000000000E+000
  0.000000000000000E+000
  0.000000000000000E+000
  0.000000000000000E+000
  0.000000000000000E+000
  0.000000000000000E+000
  0.000000000000000E+000
  0.000000000000000E+000
  0.000000000000000E+000
  0.000000000000000E+000
  0.000000000000000E+000
  0.000000000000000E+000
  0.000000000000000E+000
  0.000000000000000E+000
  0.000000000000000E+000
  0.000000000000000E+000
  0.000000000000000E+000
  0.000000000000000E+000
  0.000000000000000E+000
  0.000000000000000E+000
  0.000000000000000E+000
  0.000000000000000E+000
  0.000000000000000E+000
  0.000000000000000E+000
  0.000000000000000E+000
  0.000000000000000E+000
  0.000000000000000E+000
  0.000000000000000E+000
  0.000000000000000E+000
  0.000000000000000E+000
  0.000000000000000E+000
  0.000000000000000E+000
  0.000000000000000E+000
  0.000000000000000E+000
  0.000000000000000E+000
  0.000000000000000E+000
  0.000000000000000E+000
  0.000000000000000E+000
  0.000000000000000E+000
  0.000000000000000E+000
  0.000000000000000E+000
  0.000000000000000E+000
  0.000000000000000E+000
  0.000000000000000E+000
  0.000000000000000E+000
  0.000000000000000E+000
  0.000000000000000E+000
  0.000000000000000E+000
  0.000000000000000E+000
  0.000000000000000E+000
  0.000000000000000E+000
  0.000000000000000E+000
  0.000000000000000E+000
  0.000000000000000E+000
  0.000000000000000E+000
  0.000000000000000E+000
  0.000000000000000E+000
  0.000000000000000E+000
  0.000000000000000E+000
  0.000000000000000E+000
  0.000000000000000E+000
  0.000000000000000E+000
  0.000000000000000E+000
  0.000000000000000E+000
  0.000000000000000E+000
  0.000000000000000E+000
  0.000000000000000E+000
  0.000000000000000E+000
  0.000000000000000E+000
  0.000000000000000E+000
  0.000000000000000E+000
  0.000000000000000E+000
  0.000000000000000E+000
  0.000000000000000E+000
  0.000000000000000E+000
  0.000000000000000E+000
  0.000000000000000E+000
  0.000000000000000E+000
  0.000000000000000E+000
  0.000000000000000E+000
  0.000000000000000E+000
  0.000000000000000E+000
  0.000000000000000E+000
  0.000000000000000E+000
  0.000000000000000E+000
  0.000000000000000E+000
  0.000000000000000E+000
  0.000000000000000E+000
  0.000000000000000E+000
  0.000000000000000E+000
  0.000000000000000E+000
  0.000000000000000E+000
  0.000000000000000E+000
  0.000000000000000E+000
  0.000000000000000E+000
  0.000000000000000E+000
  0.000000000000000E+000
  0.000000000000000E+000
  0.000000000000000E+000
  0.000000000000000E+000
  0.000000000000000E+000
  0.000000000000000E+000
  0.000000000000000E+000
  0.000000000000000E+000
  0.000000000000000E+000
  0.000000000000000E+000
  0.000000000000000E+000
  0.000000000000000E+000
  0.000000000000000E+000
  0.000000000000000E+000
  0.000000000000000E+000
  0.000000000000000E+000
  0.000000000000000E+000
  0.000000000000000E+000
  0.000000000000000E+000
  0.000000000000000E+000
  0.000000000000000E+000
  0.000000000000000E+000
  0.000000000000000E+000
  0.000000000000000E+000
  0.000000000000000E+000
  0.000000000000000E+000
  0.000000000000000E+000
  0.000000000000000E+000
  0.000000000000000E+000
  0.000000000000000E+000
  0.000000000000000E+000
  0.000000000000000E+000
  0.000000000000000E+000
  0.000000000000000E+000
  0.000000000000000E+000
  0.000000000000000E+000
  0.000000000000000E+000
  0.000000000000000E+000
  0.000000000000000E+000
  0.000000000000000E+000
  0.000000000000000E+000
  0.000000000000000E+000
  0.000000000000000E+000
  0.000000000000000E+000
  0.000000000000000E+000
  0.000000000000000E+000
  0.000000000000000E+000
  0.000000000000000E+000
  0.000000000000000E+000
  0.000000000000000E+000
  0.000000000000000E+000
  0.000000000000000E+000
  0.000000000000000E+000
  0.000000000000000E+000
  0.000000000000000E+000
  0.000000000000000E+000
  0.000000000000000E+000
  0.000000000000000E+000
  0.000000000000000E+000
  0.000000000000000E+000
  0.000000000000000E+000
  0.000000000000000E+000
  0.000000000000000E+000
  0.000000000000000E+000
  0.000000000000000E+000
  0.000000000000000E+000
  0.000000000000000E+000
  0.000000000000000E+000
  0.000000000000000E+000
  0.000000000000000E+000
  0.000000000000000E+000
  0.000000000000000E+000
  0.000000000000000E+000
  0.000000000000000E+000
  0.000000000000000E+000
  0.000000000000000E+000
  0.000000000000000E+000
  0.000000000000000E+000
  0.000000000000000E+000
  0.000000000000000E+000
  0.000000000000000E+000
  0.000000000000000E+000
  0.000000000000000E+000
  0.000000000000000E+000
  0.000000000000000E+000
  0.000000000000000E+000
  0.000000000000000E+000
  0.000000000000000E+000
  0.000000000000000E+000
  0.000000000000000E+000
  0.000000000000000E+000
  0.000000000000000E+000
  0.000000000000000E+000
  0.000000000000000E+000
  0.000000000000000E+000
  0.000000000000000E+000
  0.000000000000000E+000
  0.000000000000000E+000
  0.000000000000000E+000
  0.000000000000000E+000
  0.000000000000000E+000
  0.000000000000000E+000
  0.000000000000000E+000
  0.000000000000000E+000
  0.000000000000000E+000
  0.000000000000000E+000
  0.000000000000000E+000
  0.000000000000000E+000
  0.000000000000000E+000
  0.000000000000000E+000
  0.000000000000000E+000
  0.000000000000000E+000
  0.000000000000000E+000
  0.000000000000000E+000
  0.000000000000000E+000
  0.000000000000000E+000
  0.000000000000000E+000
  0.000000000000000E+000
  0.000000000000000E+000
  0.000000000000000E+000
  0.000000000000000E+000
  0.000000000000000E+000
  0.000000000000000E+000
  0.000000000000000E+000
  0.000000000000000E+000
  0.000000000000000E+000
  0.000000000000000E+000
  0.000000000000000E+000
  0.000000000000000E+000
  0.000000000000000E+000
  0.000000000000000E+000
  0.000000000000000E+000
  0.000000000000000E+000
  0.000000000000000E+000
  0.000000000000000E+000
  0.000000000000000E+000
  0.000000000000000E+000
  0.000000000000000E+000
  0.000000000000000E+000
  0.000000000000000E+000
  0.000000000000000E+000
  0.000000000000000E+000
  0.000000000000000E+000
  0.000000000000000E+000
  0.000000000000000E+000
  0.000000000000000E+000
  0.000000000000000E+000
  0.000000000000000E+000
  0.000000000000000E+000
  0.000000000000000E+000
  0.000000000000000E+000
  0.000000000000000E+000
  0.000000000000000E+000
  0.000000000000000E+000
  0.000000000000000E+000
  0.000000000000000E+000
  0.000000000000000E+000
  0.000000000000000E+000
  0.000000000000000E+000
  0.000000000000000E+000
  0.000000000000000E+000
  0.000000000000000E+000
  0.000000000000000E+000
  0.000000000000000E+000
  0.000000000000000E+000
  0.000000000000000E+000
  0.000000000000000E+000
  0.000000000000000E+000
  0.000000000000000E+000
  0.000000000000000E+000
  0.000000000000000E+000
  0.000000000000000E+000
  0.000000000000000E+000
  0.000000000000000E+000
  0.000000000000000E+000
  0.000000000000000E+000
  0.000000000000000E+000
  0.000000000000000E+000
  0.000000000000000E+000
  0.000000000000000E+000
  0.000000000000000E+000
  0.000000000000000E+000
  0.000000000000000E+000
  0.000000000000000E+000
  0.000000000000000E+000
  0.000000000000000E+000
  0.000000000000000E+000
  0.000000000000000E+000
  0.000000000000000E+000
  0.000000000000000E+000
  0.000000000000000E+000
  0.000000000000000E+000
  0.000000000000000E+000
  0.000000000000000E+000
  0.000000000000000E+000
  0.000000000000000E+000
  0.000000000000000E+000
  0.000000000000000E+000
  0.000000000000000E+000
  0.000000000000000E+000
  0.000000000000000E+000
  0.000000000000000E+000
  0.000000000000000E+000
  0.000000000000000E+000
  0.000000000000000E+000
  0.000000000000000E+000
  0.000000000000000E+000
  0.000000000000000E+000
  0.000000000000000E+000
  0.000000000000000E+000
  0.000000000000000E+000
  0.000000000000000E+000
  0.000000000000000E+000
  0.000000000000000E+000
  0.000000000000000E+000
  0.000000000000000E+000
  0.000000000000000E+000
  0.000000000000000E+000
  0.000000000000000E+000
  0.000000000000000E+000
  0.000000000000000E+000
  0.000000000000000E+000
  0.000000000000000E+000
  0.000000000000000E+000
  0.000000000000000E+000
  0.000000000000000E+000
  0.000000000000000E+000
  0.000000000000000E+000
  0.000000000000000E+000
  0.000000000000000E+000
  0.000000000000000E+000
  0.000000000000000E+000
  0.000000000000000E+000
  0.000000000000000E+000
  0.000000000000000E+000
  0.000000000000000E+000
  0.000000000000000E+000
  0.000000000000000E+000
  0.000000000000000E+000
  0.000000000000000E+000
  0.000000000000000E+000
  0.000000000000000E+000
  0.000000000000000E+000
  0.000000000000000E+000
  0.000000000000000E+000
  0.000000000000000E+000
  0.000000000000000E+000
  0.000000000000000E+000
  0.000000000000000E+000
  0.000000000000000E+000
  0.000000000000000E+000
  0.000000000000000E+000
  0.000000000000000E+000
  0.000000000000000E+000
  0.000000000000000E+000
  0.000000000000000E+000
  0.000000000000000E+000
  0.000000000000000E+000
  0.000000000000000E+000
  0.000000000000000E+000
  0.000000000000000E+000
  0.000000000000000E+000
  0.000000000000000E+000
  0.000000000000000E+000
  0.000000000000000E+000
  0.000000000000000E+000
  0.000000000000000E+000
  0.000000000000000E+000
  0.000000000000000E+000
  0.000000000000000E+000
  0.000000000000000E+000
  0.000000000000000E+000
  0.000000000000000E+000
  0.000000000000000E+000
  0.000000000000000E+000
  0.000000000000000E+000
  0.000000000000000E+000
  0.000000000000000E+000
  0.000000000000000E+000
  0.000000000000000E+000
  0.000000000000000E+000
  0.000000000000000E+000
  0.000000000000000E+000
  0.000000000000000E+000
  0.000000000000000E+000
  0.000000000000000E+000
  0.000000000000000E+000
  0.000000000000000E+000
  0.000000000000000E+000
  0.000000000000000E+000
  0.000000000000000E+000
  0.000000000000000E+000
  0.000000000000000E+000
  0.000000000000000E+000
  0.000000000000000E+000
  0.000000000000000E+000
  0.000000000000000E+000
  0.000000000000000E+000
  0.000000000000000E+000
  0.000000000000000E+000
  0.000000000000000E+000
  0.000000000000000E+000
  0.000000000000000E+000
  0.000000000000000E+000
  0.000000000000000E+000
  0.000000000000000E+000
  0.000000000000000E+000
  0.000000000000000E+000
  0.000000000000000E+000
  0.000000000000000E+000
  0.000000000000000E+000
  0.000000000000000E+000
  0.000000000000000E+000
  0.000000000000000E+000
  0.000000000000000E+000
  0.000000000000000E+000
  0.000000000000000E+000
  0.000000000000000E+000
  0.000000000000000E+000
  0.000000000000000E+000
  0.000000000000000E+000
  0.000000000000000E+000
  0.000000000000000E+000
  0.000000000000000E+000
  0.000000000000000E+000
  0.000000000000000E+000
  0.000000000000000E+000
  0.000000000000000E+000
  0.000000000000000E+000
  0.000000000000000E+000
  0.000000000000000E+000
  0.000000000000000E+000
  0.000000000000000E+000
  0.000000000000000E+000
  0.000000000000000E+000
  0.000000000000000E+000
  0.000000000000000E+000
  0.000000000000000E+000
  0.000000000000000E+000
  0.000000000000000E+000
  0.000000000000000E+000
  0.000000000000000E+000
  0.000000000000000E+000
  0.000000000000000E+000
  0.000000000000000E+000
  0.000000000000000E+000
  0.000000000000000E+000
  0.000000000000000E+000
  0.000000000000000E+000
  0.000000000000000E+000
  0.000000000000000E+000
  0.000000000000000E+000
  0.000000000000000E+000
  0.000000000000000E+000
  0.000000000000000E+000
  0.000000000000000E+000
  0.000000000000000E+000
  0.000000000000000E+000
  0.000000000000000E+000
  0.000000000000000E+000
  0.000000000000000E+000
  0.000000000000000E+000
  0.000000000000000E+000
  0.000000000000000E+000
  0.000000000000000E+000
  0.000000000000000E+000
  0.000000000000000E+000
  0.000000000000000E+000
  0.000000000000000E+000
  0.000000000000000E+000
  0.000000000000000E+000
  0.000000000000000E+000
  0.000000000000000E+000
  0.000000000000000E+000
  0.000000000000000E+000
  0.000000000000000E+000
  0.000000000000000E+000
  0.000000000000000E+000
  0.000000000000000E+000
  0.000000000000000E+000
  0.000000000000000E+000
  0.000000000000000E+000
  0.000000000000000E+000
  0.000000000000000E+000
  0.000000000000000E+000
  0.000000000000000E+000
  0.000000000000000E+000
  0.000000000000000E+000
  0.000000000000000E+000
  0.000000000000000E+000
  0.000000000000000E+000
  0.000000000000000E+000
  0.000000000000000E+000
  0.000000000000000E+000
  0.000000000000000E+000
  0.000000000000000E+000
  0.000000000000000E+000
  0.000000000000000E+000
  0.000000000000000E+000
  0.000000000000000E+000
  0.000000000000000E+000
  0.000000000000000E+000
  0.000000000000000E+000
  0.000000000000000E+000
  0.000000000000000E+000
  0.000000000000000E+000
  0.000000000000000E+000
  0.000000000000000E+000
  0.000000000000000E+000
  0.000000000000000E+000
  0.000000000000000E+000
  0.000000000000000E+000
  0.000000000000000E+000
  0.000000000000000E+000
  0.000000000000000E+000
  0.000000000000000E+000
  0.000000000000000E+000
  0.000000000000000E+000
  0.000000000000000E+000
  0.000000000000000E+000
  0.000000000000000E+000
  0.000000000000000E+000
  0.000000000000000E+000
  0.000000000000000E+000
  0.000000000000000E+000
  0.000000000000000E+000
  0.000000000000000E+000
  0.000000000000000E+000
  0.000000000000000E+000
  0.000000000000000E+000
  0.000000000000000E+000
  0.000000000000000E+000
  0.000000000000000E+000
  0.000000000000000E+000
  0.000000000000000E+000
  0.000000000000000E+000
  0.000000000000000E+000
  0.000000000000000E+000
  0.000000000000000E+000
  0.000000000000000E+000
  0.000000000000000E+000
  0.000000000000000E+000
  0.000000000000000E+000
  0.000000000000000E+000
  0.000000000000000E+000
  0.000000000000000E+000
  0.000000000000000E+000
  0.000000000000000E+000
  0.000000000000000E+000
  0.000000000000000E+000
  0.000000000000000E+000
  0.000000000000000E+000
  0.000000000000000E+000
  0.000000000000000E+000
  0.000000000000000E+000
  0.000000000000000E+000
  0.000000000000000E+000
  0.000000000000000E+000
  0.000000000000000E+000
  0.000000000000000E+000
  0.000000000000000E+000
  0.000000000000000E+000
  0.000000000000000E+000
  0.000000000000000E+000
  0.000000000000000E+000
  0.000000000000000E+000
  0.000000000000000E+000
  0.000000000000000E+000
  0.000000000000000E+000
  0.000000000000000E+000
  0.000000000000000E+000
  0.000000000000000E+000
  0.000000000000000E+000
  0.000000000000000E+000
  0.000000000000000E+000
  0.000000000000000E+000
  0.000000000000000E+000
  0.000000000000000E+000
  0.000000000000000E+000
  0.000000000000000E+000
  0.000000000000000E+000
  0.000000000000000E+000
  0.000000000000000E+000
  0.000000000000000E+000
  0.000000000000000E+000
  0.000000000000000E+000
  0.000000000000000E+000
  0.000000000000000E+000
  0.000000000000000E+000
  0.000000000000000E+000
  0.000000000000000E+000
  0.000000000000000E+000
  0.000000000000000E+000
  0.000000000000000E+000
  0.000000000000000E+000
  0.000000000000000E+000
  0.000000000000000E+000
  0.000000000000000E+000
  0.000000000000000E+000
  0.000000000000000E+000
  0.000000000000000E+000
  0.000000000000000E+000
  0.000000000000000E+000
  0.000000000000000E+000
  0.000000000000000E+000
  0.000000000000000E+000
  0.000000000000000E+000
  0.000000000000000E+000
  0.000000000000000E+000
  0.000000000000000E+000
  0.000000000000000E+000
  0.000000000000000E+000
  0.000000000000000E+000
  0.000000000000000E+000
  0.000000000000000E+000
  0.000000000000000E+000
  0.000000000000000E+000
  0.000000000000000E+000
  0.000000000000000E+000
  0.000000000000000E+000
  0.000000000000000E+000
  0.000000000000000E+000
  0.000000000000000E+000
  0.000000000000000E+000
  0.000000000000000E+000
  0.000000000000000E+000
  0.000000000000000E+000
  0.000000000000000E+000
  0.000000000000000E+000
  0.000000000000000E+000
  0.000000000000000E+000
  0.000000000000000E+000
  0.000000000000000E+000
  0.000000000000000E+000
  0.000000000000000E+000
  0.000000000000000E+000
  0.000000000000000E+000
  0.000000000000000E+000
  0.000000000000000E+000
  0.000000000000000E+000
  0.000000000000000E+000
  0.000000000000000E+000
  0.000000000000000E+000
  0.000000000000000E+000
  0.000000000000000E+000
  0.000000000000000E+000
  0.000000000000000E+000
  0.000000000000000E+000
  0.000000000000000E+000
  0.000000000000000E+000
  0.000000000000000E+000
  0.000000000000000E+000
  0.000000000000000E+000
  0.000000000000000E+000
  0.000000000000000E+000
  0.000000000000000E+000
  0.000000000000000E+000
  0.000000000000000E+000
  0.000000000000000E+000
  0.000000000000000E+000
  0.000000000000000E+000
  0.000000000000000E+000
  0.000000000000000E+000
  0.000000000000000E+000
  0.000000000000000E+000
  0.000000000000000E+000
  0.000000000000000E+000
  0.000000000000000E+000
  0.000000000000000E+000
  0.000000000000000E+000
  0.000000000000000E+000
  0.000000000000000E+000
  0.000000000000000E+000
  0.000000000000000E+000
  0.000000000000000E+000
  0.000000000000000E+000
  0.000000000000000E+000
  0.000000000000000E+000
  0.000000000000000E+000
  0.000000000000000E+000
  0.000000000000000E+000
  0.000000000000000E+000
  0.000000000000000E+000
  0.000000000000000E+000
  0.000000000000000E+000
  0.000000000000000E+000
  0.000000000000000E+000
  0.000000000000000E+000
  0.000000000000000E+000
  0.000000000000000E+000
  0.000000000000000E+000
  0.000000000000000E+000
  0.000000000000000E+000
  0.000000000000000E+000
  0.000000000000000E+000
  0.000000000000000E+000
  0.000000000000000E+000
  0.000000000000000E+000
  0.000000000000000E+000
  0.000000000000000E+000
  0.000000000000000E+000
  0.000000000000000E+000
  0.000000000000000E+000
  0.000000000000000E+000
  0.000000000000000E+000
  0.000000000000000E+000
  0.000000000000000E+000
  0.000000000000000E+000
  0.000000000000000E+000
  0.000000000000000E+000
  0.000000000000000E+000
  0.000000000000000E+000
  0.000000000000000E+000
  0.000000000000000E+000
  0.000000000000000E+000
  0.000000000000000E+000
  0.000000000000000E+000
  0.000000000000000E+000
  0.000000000000000E+000
  0.000000000000000E+000
  0.000000000000000E+000
  0.000000000000000E+000
  0.000000000000000E+000
  0.000000000000000E+000
  0.000000000000000E+000
  0.000000000000000E+000
  0.000000000000000E+000
  0.000000000000000E+000
  0.000000000000000E+000
  0.000000000000000E+000
  0.000000000000000E+000
  0.000000000000000E+000
  0.000000000000000E+000
  0.000000000000000E+000
  0.000000000000000E+000
  0.000000000000000E+000
  0.000000000000000E+000
  0.000000000000000E+000
  0.000000000000000E+000
  0.000000000000000E+000
  0.000000000000000E+000
  0.000000000000000E+000
  0.000000000000000E+000
  0.000000000000000E+000
  0.000000000000000E+000
  0.000000000000000E+000
  0.000000000000000E+000
  0.000000000000000E+000
  0.000000000000000E+000
  0.000000000000000E+000
  0.000000000000000E+000
  0.000000000000000E+000
  0.000000000000000E+000
  0.000000000000000E+000
  0.000000000000000E+000
  0.000000000000000E+000
  0.000000000000000E+000
  0.000000000000000E+000
  0.000000000000000E+000
  0.000000000000000E+000
  0.000000000000000E+000
  0.000000000000000E+000
  0.000000000000000E+000
  0.000000000000000E+000
  0.000000000000000E+000
  0.000000000000000E+000
  0.000000000000000E+000
  0.000000000000000E+000
  0.000000000000000E+000
  0.000000000000000E+000
  0.000000000000000E+000
  0.000000000000000E+000
  0.000000000000000E+000
  0.000000000000000E+000
  0.000000000000000E+000
  0.000000000000000E+000
  0.000000000000000E+000
  0.000000000000000E+000
  0.000000000000000E+000
  0.000000000000000E+000
  0.000000000000000E+000
  0.000000000000000E+000
  0.000000000000000E+000
  0.000000000000000E+000
  0.000000000000000E+000
  0.000000000000000E+000
  0.000000000000000E+000
  0.000000000000000E+000
  0.000000000000000E+000
  0.000000000000000E+000
  0.000000000000000E+000
  0.000000000000000E+000
  0.000000000000000E+000
  0.000000000000000E+000
  0.000000000000000E+000
  0.000000000000000E+000
  0.000000000000000E+000
  0.000000000000000E+000
  0.000000000000000E+000
  0.000000000000000E+000
  0.000000000000000E+000
  0.000000000000000E+000
  0.000000000000000E+000
  0.000000000000000E+000
  0.000000000000000E+000
  0.000000000000000E+000
  0.000000000000000E+000
  0.000000000000000E+000
  0.000000000000000E+000
  0.000000000000000E+000
  0.000000000000000E+000
  0.000000000000000E+000
  0.000000000000000E+000
  0.000000000000000E+000
  0.000000000000000E+000
  0.000000000000000E+000
  0.000000000000000E+000
  0.000000000000000E+000
  0.000000000000000E+000
  0.000000000000000E+000
  0.000000000000000E+000
  0.000000000000000E+000
  0.000000000000000E+000
  0.000000000000000E+000
  0.000000000000000E+000
  0.000000000000000E+000
  0.000000000000000E+000
  0.000000000000000E+000
  0.000000000000000E+000
  0.000000000000000E+000
  0.000000000000000E+000
  0.000000000000000E+000
  0.000000000000000E+000
  0.000000000000000E+000
  0.000000000000000E+000
  0.000000000000000E+000
  0.000000000000000E+000
  0.000000000000000E+000
  0.000000000000000E+000
  0.000000000000000E+000
  0.000000000000000E+000
  0.000000000000000E+000
  0.000000000000000E+000
  0.000000000000000E+000
  0.000000000000000E+000
  0.000000000000000E+000
  0.000000000000000E+000
  0.000000000000000E+000
  0.000000000000000E+000
  0.000000000000000E+000
  0.000000000000000E+000
  0.000000000000000E+000
  0.000000000000000E+000
  0.000000000000000E+000
  0.000000000000000E+000
  0.000000000000000E+000
  0.000000000000000E+000
  0.000000000000000E+000
  0.000000000000000E+000
  0.000000000000000E+000
  0.000000000000000E+000
  0.000000000000000E+000
  0.000000000000000E+000
  0.000000000000000E+000
  0.000000000000000E+000
  0.000000000000000E+000
  0.000000000000000E+000
  0.000000000000000E+000
  0.000000000000000E+000
  0.000000000000000E+000
  0.000000000000000E+000
  0.000000000000000E+000
  0.000000000000000E+000
  0.000000000000000E+000
  0.000000000000000E+000
  0.000000000000000E+000
  0.000000000000000E+000
  0.000000000000000E+000
  0.000000000000000E+000
  0.000000000000000E+000
  0.000000000000000E+000
  0.000000000000000E+000
  0.000000000000000E+000
  0.000000000000000E+000
  0.000000000000000E+000
  0.000000000000000E+000
  0.000000000000000E+000
  0.000000000000000E+000
  0.000000000000000E+000
  0.000000000000000E+000
  0.000000000000000E+000
  0.000000000000000E+000
  0.000000000000000E+000
  0.000000000000000E+000
  0.000000000000000E+000
  0.000000000000000E+000
  0.000000000000000E+000
  0.000000000000000E+000
  0.000000000000000E+000
  0.000000000000000E+000
  0.000000000000000E+000
  0.000000000000000E+000
  0.000000000000000E+000
  0.000000000000000E+000
  0.000000000000000E+000
  0.000000000000000E+000
  0.000000000000000E+000
  0.000000000000000E+000
  0.000000000000000E+000
  0.000000000000000E+000
  0.000000000000000E+000
  0.000000000000000E+000
  0.000000000000000E+000
  0.000000000000000E+000
  0.000000000000000E+000
  0.000000000000000E+000
  0.000000000000000E+000
  0.000000000000000E+000
  0.000000000000000E+000
  0.000000000000000E+000
  0.000000000000000E+000
  0.000000000000000E+000
  0.000000000000000E+000
  0.000000000000000E+000
  0.000000000000000E+000
  0.000000000000000E+000
  0.000000000000000E+000
  0.000000000000000E+000
  0.000000000000000E+000
  0.000000000000000E+000
  0.000000000000000E+000
  0.000000000000000E+000
  0.000000000000000E+000
  0.000000000000000E+000
  0.000000000000000E+000
  0.000000000000000E+000
  0.000000000000000E+000
  0.000000000000000E+000
  0.000000000000000E+000
  0.000000000000000E+000
  0.000000000000000E+000
  0.000000000000000E+000
  0.000000000000000E+000
  0.000000000000000E+000
  0.000000000000000E+000
  0.000000000000000E+000
  0.000000000000000E+000
  0.000000000000000E+000
  0.000000000000000E+000
  0.000000000000000E+000
  0.000000000000000E+000
  0.000000000000000E+000
  0.000000000000000E+000
  0.000000000000000E+000
  0.000000000000000E+000
  0.000000000000000E+000
  0.000000000000000E+000
  0.000000000000000E+000
  0.000000000000000E+000
  0.000000000000000E+000
  0.000000000000000E+000
  0.000000000000000E+000
  0.000000000000000E+000
  0.000000000000000E+000
  0.000000000000000E+000
  0.000000000000000E+000
  0.000000000000000E+000
  0.000000000000000E+000
  0.000000000000000E+000
  0.000000000000000E+000
  0.000000000000000E+000
  0.000000000000000E+000
  0.000000000000000E+000
  0.000000000000000E+000
  0.000000000000000E+000
  0.000000000000000E+000
  0.000000000000000E+000
  0.000000000000000E+000
  0.000000000000000E+000
  0.000000000000000E+000
  0.000000000000000E+000
  0.000000000000000E+000
  0.000000000000000E+000
  0.000000000000000E+000
  0.000000000000000E+000
  0.000000000000000E+000
  0.000000000000000E+000
  0.000000000000000E+000
  0.000000000000000E+000
  0.000000000000000E+000
  0.000000000000000E+000
  0.000000000000000E+000
  0.000000000000000E+000
  0.000000000000000E+000
  0.000000000000000E+000
  0.000000000000000E+000
  0.000000000000000E+000
  0.000000000000000E+000
  0.000000000000000E+000
  0.000000000000000E+000
  0.000000000000000E+000
  0.000000000000000E+000
  0.000000000000000E+000
  0.000000000000000E+000
  0.000000000000000E+000
  0.000000000000000E+000
  0.000000000000000E+000
  0.000000000000000E+000
  0.000000000000000E+000
  0.000000000000000E+000
  0.000000000000000E+000
  0.000000000000000E+000
  0.000000000000000E+000
  0.000000000000000E+000
  0.000000000000000E+000
  0.000000000000000E+000
  0.000000000000000E+000
  0.000000000000000E+000
  0.000000000000000E+000
  0.000000000000000E+000
  0.000000000000000E+000
  0.000000000000000E+000
  0.000000000000000E+000
  0.000000000000000E+000
  0.000000000000000E+000
  0.000000000000000E+000
  0.000000000000000E+000
  0.000000000000000E+000
  0.000000000000000E+000
  0.000000000000000E+000
  0.000000000000000E+000
  0.000000000000000E+000
  0.000000000000000E+000
  0.000000000000000E+000
  0.000000000000000E+000
  0.000000000000000E+000
  0.000000000000000E+000
  0.000000000000000E+000
  0.000000000000000E+000
  0.000000000000000E+000
  0.000000000000000E+000
  0.000000000000000E+000
  0.000000000000000E+000
  0.000000000000000E+000
  0.000000000000000E+000
  0.000000000000000E+000
  0.000000000000000E+000
  0.000000000000000E+000
  0.000000000000000E+000
  0.000000000000000E+000
  0.000000000000000E+000
  0.000000000000000E+000
  0.000000000000000E+000
  0.000000000000000E+000
  0.000000000000000E+000
  0.000000000000000E+000
  0.000000000000000E+000
  0.000000000000000E+000
  0.000000000000000E+000
  0.000000000000000E+000
  0.000000000000000E+000
  0.000000000000000E+000
  0.000000000000000E+000
  0.000000000000000E+000
  0.000000000000000E+000
  0.000000000000000E+000
  0.000000000000000E+000
  0.000000000000000E+000
  0.000000000000000E+000
  0.000000000000000E+000
  0.000000000000000E+000
  0.000000000000000E+000
  0.000000000000000E+000
  0.000000000000000E+000
  0.000000000000000E+000
  0.000000000000000E+000
  0.000000000000000E+000
  0.000000000000000E+000
  0.000000000000000E+000
  0.000000000000000E+000
  0.000000000000000E+000
  0.000000000000000E+000
  0.000000000000000E+000
  0.000000000000000E+000
  0.000000000000000E+000
  0.000000000000000E+000
  0.000000000000000E+000
  0.000000000000000E+000
  0.000000000000000E+000
  0.000000000000000E+000
  0.000000000000000E+000
  0.000000000000000E+000
  0.000000000000000E+000
  0.000000000000000E+000
  0.000000000000000E+000
  0.000000000000000E+000
  0.000000000000000E+000
  0.000000000000000E+000
  0.000000000000000E+000
  0.000000000000000E+000
  0.000000000000000E+000
  0.000000000000000E+000
  0.000000000000000E+000
  0.000000000000000E+000
  0.000000000000000E+000
  0.000000000000000E+000
  0.000000000000000E+000
  0.000000000000000E+000
  0.000000000000000E+000
  0.000000000000000E+000
  0.000000000000000E+000
  0.000000000000000E+000
  0.000000000000000E+000
  0.000000000000000E+000
  0.000000000000000E+000
  0.000000000000000E+000
  0.000000000000000E+000
  0.000000000000000E+000
  0.000000000000000E+000
  0.000000000000000E+000
  0.000000000000000E+000
  0.000000000000000E+000
  0.000000000000000E+000
  0.000000000000000E+000
  0.000000000000000E+000
  0.000000000000000E+000
  0.000000000000000E+000
  0.000000000000000E+000
  0.000000000000000E+000
  0.000000000000000E+000
  0.000000000000000E+000
  0.000000000000000E+000
  0.000000000000000E+000
  0.000000000000000E+000
  0.000000000000000E+000
  0.000000000000000E+000
  0.000000000000000E+000
  0.000000000000000E+000
  0.000000000000000E+000
  0.000000000000000E+000
  0.000000000000000E+000
  0.000000000000000E+000
  0.000000000000000E+000
  0.000000000000000E+000
  0.000000000000000E+000
  0.000000000000000E+000
  0.000000000000000E+000
  0.000000000000000E+000
  0.000000000000000E+000
  0.000000000000000E+000
  0.000000000000000E+000
  0.000000000000000E+000
  0.000000000000000E+000
  0.000000000000000E+000
  0.000000000000000E+000
  0.000000000000000E+000
  0.000000000000000E+000
  0.000000000000000E+000
  0.000000000000000E+000
  0.000000000000000E+000
  0.000000000000000E+000
  0.000000000000000E+000
  0.000000000000000E+000
  0.000000000000000E+000
  0.000000000000000E+000
  0.000000000000000E+000
  0.000000000000000E+000
  0.000000000000000E+000
  0.000000000000000E+000
  0.000000000000000E+000
  0.000000000000000E+000
  0.000000000000000E+000
  0.000000000000000E+000
  0.000000000000000E+000
  0.000000000000000E+000
  0.000000000000000E+000
  0.000000000000000E+000
  0.000000000000000E+000
  0.000000000000000E+000
  0.000000000000000E+000
  0.000000000000000E+000
  0.000000000000000E+000
  0.000000000000000E+000
  0.000000000000000E+000
  0.000000000000000E+000
  0.000000000000000E+000
  0.000000000000000E+000
  0.000000000000000E+000
  0.000000000000000E+000
  0.000000000000000E+000
  0.000000000000000E+000
  0.000000000000000E+000
  0.000000000000000E+000
  0.000000000000000E+000
  0.000000000000000E+000
  0.000000000000000E+000
  0.000000000000000E+000
  0.000000000000000E+000
  0.000000000000000E+000
  0.000000000000000E+000
  0.000000000000000E+000
  0.000000000000000E+000
  0.000000000000000E+000
  0.000000000000000E+000
  0.000000000000000E+000
  0.000000000000000E+000
  0.000000000000000E+000
  0.000000000000000E+000
  0.000000000000000E+000
  0.000000000000000E+000
  0.000000000000000E+000
  0.000000000000000E+000
  0.000000000000000E+000
  0.000000000000000E+000
  0.000000000000000E+000
  0.000000000000000E+000
  0.000000000000000E+000
  0.000000000000000E+000
  0.000000000000000E+000
  0.000000000000000E+000
  0.000000000000000E+000
  0.000000000000000E+000
  0.000000000000000E+000
  0.000000000000000E+000
  0.000000000000000E+000
  0.000000000000000E+000
  0.000000000000000E+000
  0.000000000000000E+000
  0.000000000000000E+000
  0.000000000000000E+000
SCALARS elementIsPlast double 
LOOKUP_TABLE default
   1.00000000000000     
   1.00000000000000     
   1.00000000000000     
   1.00000000000000     
  0.000000000000000E+000
  0.000000000000000E+000
  0.000000000000000E+000
  0.000000000000000E+000
  0.000000000000000E+000
  0.000000000000000E+000
  0.000000000000000E+000
  0.000000000000000E+000
  0.000000000000000E+000
  0.000000000000000E+000
  0.000000000000000E+000
  0.000000000000000E+000
  0.000000000000000E+000
  0.000000000000000E+000
  0.000000000000000E+000
  0.000000000000000E+000
  0.000000000000000E+000
  0.000000000000000E+000
  0.000000000000000E+000
  0.000000000000000E+000
  0.000000000000000E+000
  0.000000000000000E+000
  0.000000000000000E+000
  0.000000000000000E+000
  0.000000000000000E+000
  0.000000000000000E+000
  0.000000000000000E+000
  0.000000000000000E+000
  0.000000000000000E+000
  0.000000000000000E+000
  0.000000000000000E+000
  0.000000000000000E+000
  0.000000000000000E+000
  0.000000000000000E+000
  0.000000000000000E+000
  0.000000000000000E+000
  0.000000000000000E+000
  0.000000000000000E+000
  0.000000000000000E+000
  0.000000000000000E+000
  0.000000000000000E+000
  0.000000000000000E+000
  0.000000000000000E+000
  0.000000000000000E+000
  0.000000000000000E+000
  0.000000000000000E+000
  0.000000000000000E+000
  0.000000000000000E+000
  0.000000000000000E+000
  0.000000000000000E+000
  0.000000000000000E+000
  0.000000000000000E+000
  0.000000000000000E+000
  0.000000000000000E+000
  0.000000000000000E+000
  0.000000000000000E+000
  0.000000000000000E+000
  0.000000000000000E+000
  0.000000000000000E+000
  0.000000000000000E+000
  0.000000000000000E+000
  0.000000000000000E+000
  0.000000000000000E+000
  0.000000000000000E+000
  0.000000000000000E+000
  0.000000000000000E+000
  0.000000000000000E+000
  0.000000000000000E+000
  0.000000000000000E+000
  0.000000000000000E+000
  0.000000000000000E+000
  0.000000000000000E+000
  0.000000000000000E+000
  0.000000000000000E+000
  0.000000000000000E+000
  0.000000000000000E+000
  0.000000000000000E+000
  0.000000000000000E+000
  0.000000000000000E+000
  0.000000000000000E+000
  0.000000000000000E+000
  0.000000000000000E+000
  0.000000000000000E+000
  0.000000000000000E+000
  0.000000000000000E+000
  0.000000000000000E+000
  0.000000000000000E+000
  0.000000000000000E+000
  0.000000000000000E+000
  0.000000000000000E+000
  0.000000000000000E+000
  0.000000000000000E+000
  0.000000000000000E+000
  0.000000000000000E+000
  0.000000000000000E+000
  0.000000000000000E+000
  0.000000000000000E+000
  0.000000000000000E+000
  0.000000000000000E+000
  0.000000000000000E+000
  0.000000000000000E+000
  0.000000000000000E+000
  0.000000000000000E+000
  0.000000000000000E+000
  0.000000000000000E+000
  0.000000000000000E+000
  0.000000000000000E+000
  0.000000000000000E+000
  0.000000000000000E+000
  0.000000000000000E+000
  0.000000000000000E+000
  0.000000000000000E+000
  0.000000000000000E+000
  0.000000000000000E+000
  0.000000000000000E+000
  0.000000000000000E+000
  0.000000000000000E+000
  0.000000000000000E+000
  0.000000000000000E+000
  0.000000000000000E+000
  0.000000000000000E+000
  0.000000000000000E+000
  0.000000000000000E+000
  0.000000000000000E+000
  0.000000000000000E+000
  0.000000000000000E+000
  0.000000000000000E+000
  0.000000000000000E+000
  0.000000000000000E+000
  0.000000000000000E+000
  0.000000000000000E+000
  0.000000000000000E+000
  0.000000000000000E+000
  0.000000000000000E+000
  0.000000000000000E+000
  0.000000000000000E+000
  0.000000000000000E+000
  0.000000000000000E+000
  0.000000000000000E+000
  0.000000000000000E+000
  0.000000000000000E+000
  0.000000000000000E+000
  0.000000000000000E+000
  0.000000000000000E+000
  0.000000000000000E+000
  0.000000000000000E+000
  0.000000000000000E+000
  0.000000000000000E+000
  0.000000000000000E+000
  0.000000000000000E+000
  0.000000000000000E+000
  0.000000000000000E+000
  0.000000000000000E+000
  0.000000000000000E+000
  0.000000000000000E+000
  0.000000000000000E+000
  0.000000000000000E+000
  0.000000000000000E+000
  0.000000000000000E+000
  0.000000000000000E+000
  0.000000000000000E+000
  0.000000000000000E+000
  0.000000000000000E+000
  0.000000000000000E+000
  0.000000000000000E+000
  0.000000000000000E+000
  0.000000000000000E+000
  0.000000000000000E+000
  0.000000000000000E+000
  0.000000000000000E+000
  0.000000000000000E+000
  0.000000000000000E+000
  0.000000000000000E+000
  0.000000000000000E+000
  0.000000000000000E+000
  0.000000000000000E+000
  0.000000000000000E+000
  0.000000000000000E+000
  0.000000000000000E+000
  0.000000000000000E+000
  0.000000000000000E+000
  0.000000000000000E+000
  0.000000000000000E+000
  0.000000000000000E+000
  0.000000000000000E+000
  0.000000000000000E+000
  0.000000000000000E+000
  0.000000000000000E+000
  0.000000000000000E+000
  0.000000000000000E+000
  0.000000000000000E+000
  0.000000000000000E+000
  0.000000000000000E+000
  0.000000000000000E+000
  0.000000000000000E+000
  0.000000000000000E+000
  0.000000000000000E+000
  0.000000000000000E+000
  0.000000000000000E+000
  0.000000000000000E+000
  0.000000000000000E+000
  0.000000000000000E+000
  0.000000000000000E+000
  0.000000000000000E+000
  0.000000000000000E+000
  0.000000000000000E+000
  0.000000000000000E+000
  0.000000000000000E+000
  0.000000000000000E+000
  0.000000000000000E+000
  0.000000000000000E+000
  0.000000000000000E+000
  0.000000000000000E+000
  0.000000000000000E+000
  0.000000000000000E+000
  0.000000000000000E+000
  0.000000000000000E+000
  0.000000000000000E+000
  0.000000000000000E+000
  0.000000000000000E+000
  0.000000000000000E+000
  0.000000000000000E+000
  0.000000000000000E+000
  0.000000000000000E+000
  0.000000000000000E+000
  0.000000000000000E+000
  0.000000000000000E+000
  0.000000000000000E+000
  0.000000000000000E+000
  0.000000000000000E+000
  0.000000000000000E+000
  0.000000000000000E+000
  0.000000000000000E+000
  0.000000000000000E+000
  0.000000000000000E+000
  0.000000000000000E+000
  0.000000000000000E+000
  0.000000000000000E+000
  0.000000000000000E+000
  0.000000000000000E+000
  0.000000000000000E+000
  0.000000000000000E+000
  0.000000000000000E+000
  0.000000000000000E+000
  0.000000000000000E+000
  0.000000000000000E+000
  0.000000000000000E+000
  0.000000000000000E+000
  0.000000000000000E+000
  0.000000000000000E+000
  0.000000000000000E+000
  0.000000000000000E+000
  0.000000000000000E+000
  0.000000000000000E+000
  0.000000000000000E+000
  0.000000000000000E+000
  0.000000000000000E+000
  0.000000000000000E+000
  0.000000000000000E+000
  0.000000000000000E+000
  0.000000000000000E+000
  0.000000000000000E+000
  0.000000000000000E+000
  0.000000000000000E+000
  0.000000000000000E+000
  0.000000000000000E+000
  0.000000000000000E+000
  0.000000000000000E+000
  0.000000000000000E+000
  0.000000000000000E+000
  0.000000000000000E+000
  0.000000000000000E+000
  0.000000000000000E+000
  0.000000000000000E+000
  0.000000000000000E+000
  0.000000000000000E+000
  0.000000000000000E+000
  0.000000000000000E+000
  0.000000000000000E+000
  0.000000000000000E+000
  0.000000000000000E+000
  0.000000000000000E+000
  0.000000000000000E+000
  0.000000000000000E+000
  0.000000000000000E+000
  0.000000000000000E+000
  0.000000000000000E+000
  0.000000000000000E+000
  0.000000000000000E+000
  0.000000000000000E+000
  0.000000000000000E+000
  0.000000000000000E+000
  0.000000000000000E+000
  0.000000000000000E+000
  0.000000000000000E+000
  0.000000000000000E+000
  0.000000000000000E+000
  0.000000000000000E+000
  0.000000000000000E+000
  0.000000000000000E+000
  0.000000000000000E+000
  0.000000000000000E+000
  0.000000000000000E+000
  0.000000000000000E+000
  0.000000000000000E+000
  0.000000000000000E+000
  0.000000000000000E+000
  0.000000000000000E+000
  0.000000000000000E+000
  0.000000000000000E+000
  0.000000000000000E+000
  0.000000000000000E+000
  0.000000000000000E+000
  0.000000000000000E+000
  0.000000000000000E+000
  0.000000000000000E+000
  0.000000000000000E+000
  0.000000000000000E+000
  0.000000000000000E+000
  0.000000000000000E+000
  0.000000000000000E+000
  0.000000000000000E+000
  0.000000000000000E+000
  0.000000000000000E+000
  0.000000000000000E+000
  0.000000000000000E+000
  0.000000000000000E+000
  0.000000000000000E+000
  0.000000000000000E+000
  0.000000000000000E+000
  0.000000000000000E+000
  0.000000000000000E+000
  0.000000000000000E+000
  0.000000000000000E+000
  0.000000000000000E+000
  0.000000000000000E+000
  0.000000000000000E+000
  0.000000000000000E+000
  0.000000000000000E+000
  0.000000000000000E+000
  0.000000000000000E+000
  0.000000000000000E+000
  0.000000000000000E+000
  0.000000000000000E+000
  0.000000000000000E+000
  0.000000000000000E+000
  0.000000000000000E+000
  0.000000000000000E+000
  0.000000000000000E+000
  0.000000000000000E+000
  0.000000000000000E+000
  0.000000000000000E+000
  0.000000000000000E+000
  0.000000000000000E+000
  0.000000000000000E+000
  0.000000000000000E+000
  0.000000000000000E+000
  0.000000000000000E+000
  0.000000000000000E+000
  0.000000000000000E+000
  0.000000000000000E+000
  0.000000000000000E+000
  0.000000000000000E+000
  0.000000000000000E+000
  0.000000000000000E+000
  0.000000000000000E+000
  0.000000000000000E+000
  0.000000000000000E+000
  0.000000000000000E+000
  0.000000000000000E+000
  0.000000000000000E+000
  0.000000000000000E+000
  0.000000000000000E+000
  0.000000000000000E+000
  0.000000000000000E+000
  0.000000000000000E+000
  0.000000000000000E+000
  0.000000000000000E+000
  0.000000000000000E+000
  0.000000000000000E+000
  0.000000000000000E+000
  0.000000000000000E+000
  0.000000000000000E+000
  0.000000000000000E+000
  0.000000000000000E+000
  0.000000000000000E+000
  0.000000000000000E+000
  0.000000000000000E+000
  0.000000000000000E+000
  0.000000000000000E+000
  0.000000000000000E+000
  0.000000000000000E+000
  0.000000000000000E+000
  0.000000000000000E+000
  0.000000000000000E+000
  0.000000000000000E+000
  0.000000000000000E+000
  0.000000000000000E+000
  0.000000000000000E+000
  0.000000000000000E+000
  0.000000000000000E+000
  0.000000000000000E+000
  0.000000000000000E+000
  0.000000000000000E+000
  0.000000000000000E+000
  0.000000000000000E+000
  0.000000000000000E+000
  0.000000000000000E+000
  0.000000000000000E+000
  0.000000000000000E+000
  0.000000000000000E+000
  0.000000000000000E+000
  0.000000000000000E+000
  0.000000000000000E+000
  0.000000000000000E+000
  0.000000000000000E+000
  0.000000000000000E+000
  0.000000000000000E+000
  0.000000000000000E+000
  0.000000000000000E+000
  0.000000000000000E+000
  0.000000000000000E+000
  0.000000000000000E+000
  0.000000000000000E+000
  0.000000000000000E+000
  0.000000000000000E+000
  0.000000000000000E+000
  0.000000000000000E+000
  0.000000000000000E+000
  0.000000000000000E+000
  0.000000000000000E+000
  0.000000000000000E+000
  0.000000000000000E+000
  0.000000000000000E+000
  0.000000000000000E+000
  0.000000000000000E+000
  0.000000000000000E+000
  0.000000000000000E+000
  0.000000000000000E+000
  0.000000000000000E+000
  0.000000000000000E+000
  0.000000000000000E+000
  0.000000000000000E+000
  0.000000000000000E+000
  0.000000000000000E+000
  0.000000000000000E+000
  0.000000000000000E+000
  0.000000000000000E+000
  0.000000000000000E+000
  0.000000000000000E+000
  0.000000000000000E+000
  0.000000000000000E+000
  0.000000000000000E+000
  0.000000000000000E+000
  0.000000000000000E+000
  0.000000000000000E+000
  0.000000000000000E+000
  0.000000000000000E+000
  0.000000000000000E+000
  0.000000000000000E+000
  0.000000000000000E+000
  0.000000000000000E+000
  0.000000000000000E+000
  0.000000000000000E+000
  0.000000000000000E+000
  0.000000000000000E+000
  0.000000000000000E+000
  0.000000000000000E+000
  0.000000000000000E+000
  0.000000000000000E+000
  0.000000000000000E+000
  0.000000000000000E+000
  0.000000000000000E+000
  0.000000000000000E+000
  0.000000000000000E+000
  0.000000000000000E+000
  0.000000000000000E+000
  0.000000000000000E+000
  0.000000000000000E+000
  0.000000000000000E+000
  0.000000000000000E+000
  0.000000000000000E+000
  0.000000000000000E+000
  0.000000000000000E+000
  0.000000000000000E+000
  0.000000000000000E+000
  0.000000000000000E+000
  0.000000000000000E+000
  0.000000000000000E+000
  0.000000000000000E+000
  0.000000000000000E+000
  0.000000000000000E+000
  0.000000000000000E+000
  0.000000000000000E+000
  0.000000000000000E+000
  0.000000000000000E+000
  0.000000000000000E+000
  0.000000000000000E+000
  0.000000000000000E+000
  0.000000000000000E+000
  0.000000000000000E+000
  0.000000000000000E+000
  0.000000000000000E+000
  0.000000000000000E+000
  0.000000000000000E+000
  0.000000000000000E+000
  0.000000000000000E+000
  0.000000000000000E+000
  0.000000000000000E+000
  0.000000000000000E+000
  0.000000000000000E+000
  0.000000000000000E+000
  0.000000000000000E+000
  0.000000000000000E+000
  0.000000000000000E+000
  0.000000000000000E+000
  0.000000000000000E+000
  0.000000000000000E+000
  0.000000000000000E+000
  0.000000000000000E+000
  0.000000000000000E+000
  0.000000000000000E+000
  0.000000000000000E+000
  0.000000000000000E+000
  0.000000000000000E+000
  0.000000000000000E+000
  0.000000000000000E+000
  0.000000000000000E+000
  0.000000000000000E+000
  0.000000000000000E+000
  0.000000000000000E+000
  0.000000000000000E+000
  0.000000000000000E+000
  0.000000000000000E+000
  0.000000000000000E+000
  0.000000000000000E+000
  0.000000000000000E+000
  0.000000000000000E+000
  0.000000000000000E+000
  0.000000000000000E+000
  0.000000000000000E+000
  0.000000000000000E+000
  0.000000000000000E+000
  0.000000000000000E+000
  0.000000000000000E+000
  0.000000000000000E+000
  0.000000000000000E+000
  0.000000000000000E+000
  0.000000000000000E+000
  0.000000000000000E+000
  0.000000000000000E+000
  0.000000000000000E+000
  0.000000000000000E+000
  0.000000000000000E+000
  0.000000000000000E+000
  0.000000000000000E+000
  0.000000000000000E+000
  0.000000000000000E+000
  0.000000000000000E+000
  0.000000000000000E+000
  0.000000000000000E+000
  0.000000000000000E+000
  0.000000000000000E+000
  0.000000000000000E+000
  0.000000000000000E+000
  0.000000000000000E+000
  0.000000000000000E+000
  0.000000000000000E+000
  0.000000000000000E+000
  0.000000000000000E+000
  0.000000000000000E+000
  0.000000000000000E+000
  0.000000000000000E+000
  0.000000000000000E+000
  0.000000000000000E+000
  0.000000000000000E+000
  0.000000000000000E+000
  0.000000000000000E+000
  0.000000000000000E+000
  0.000000000000000E+000
  0.000000000000000E+000
  0.000000000000000E+000
  0.000000000000000E+000
  0.000000000000000E+000
  0.000000000000000E+000
  0.000000000000000E+000
  0.000000000000000E+000
  0.000000000000000E+000
  0.000000000000000E+000
  0.000000000000000E+000
  0.000000000000000E+000
  0.000000000000000E+000
  0.000000000000000E+000
  0.000000000000000E+000
  0.000000000000000E+000
  0.000000000000000E+000
  0.000000000000000E+000
  0.000000000000000E+000
  0.000000000000000E+000
  0.000000000000000E+000
  0.000000000000000E+000
  0.000000000000000E+000
  0.000000000000000E+000
  0.000000000000000E+000
  0.000000000000000E+000
  0.000000000000000E+000
  0.000000000000000E+000
  0.000000000000000E+000
  0.000000000000000E+000
  0.000000000000000E+000
  0.000000000000000E+000
  0.000000000000000E+000
  0.000000000000000E+000
  0.000000000000000E+000
  0.000000000000000E+000
  0.000000000000000E+000
  0.000000000000000E+000
  0.000000000000000E+000
  0.000000000000000E+000
  0.000000000000000E+000
  0.000000000000000E+000
  0.000000000000000E+000
  0.000000000000000E+000
  0.000000000000000E+000
  0.000000000000000E+000
  0.000000000000000E+000
  0.000000000000000E+000
  0.000000000000000E+000
  0.000000000000000E+000
  0.000000000000000E+000
  0.000000000000000E+000
  0.000000000000000E+000
  0.000000000000000E+000
  0.000000000000000E+000
  0.000000000000000E+000
  0.000000000000000E+000
  0.000000000000000E+000
  0.000000000000000E+000
  0.000000000000000E+000
  0.000000000000000E+000
  0.000000000000000E+000
  0.000000000000000E+000
  0.000000000000000E+000
  0.000000000000000E+000
  0.000000000000000E+000
  0.000000000000000E+000
  0.000000000000000E+000
  0.000000000000000E+000
  0.000000000000000E+000
  0.000000000000000E+000
  0.000000000000000E+000
  0.000000000000000E+000
  0.000000000000000E+000
  0.000000000000000E+000
  0.000000000000000E+000
  0.000000000000000E+000
  0.000000000000000E+000
  0.000000000000000E+000
  0.000000000000000E+000
  0.000000000000000E+000
  0.000000000000000E+000
  0.000000000000000E+000
  0.000000000000000E+000
  0.000000000000000E+000
  0.000000000000000E+000
  0.000000000000000E+000
  0.000000000000000E+000
  0.000000000000000E+000
  0.000000000000000E+000
  0.000000000000000E+000
  0.000000000000000E+000
  0.000000000000000E+000
  0.000000000000000E+000
  0.000000000000000E+000
  0.000000000000000E+000
  0.000000000000000E+000
  0.000000000000000E+000
  0.000000000000000E+000
  0.000000000000000E+000
  0.000000000000000E+000
  0.000000000000000E+000
  0.000000000000000E+000
  0.000000000000000E+000
  0.000000000000000E+000
  0.000000000000000E+000
  0.000000000000000E+000
  0.000000000000000E+000
  0.000000000000000E+000
  0.000000000000000E+000
  0.000000000000000E+000
  0.000000000000000E+000
  0.000000000000000E+000
  0.000000000000000E+000
  0.000000000000000E+000
  0.000000000000000E+000
  0.000000000000000E+000
  0.000000000000000E+000
  0.000000000000000E+000
  0.000000000000000E+000
  0.000000000000000E+000
  0.000000000000000E+000
  0.000000000000000E+000
  0.000000000000000E+000
  0.000000000000000E+000
  0.000000000000000E+000
  0.000000000000000E+000
  0.000000000000000E+000
  0.000000000000000E+000
  0.000000000000000E+000
  0.000000000000000E+000
  0.000000000000000E+000
  0.000000000000000E+000
  0.000000000000000E+000
  0.000000000000000E+000
  0.000000000000000E+000
  0.000000000000000E+000
  0.000000000000000E+000
  0.000000000000000E+000
  0.000000000000000E+000
  0.000000000000000E+000
  0.000000000000000E+000
  0.000000000000000E+000
  0.000000000000000E+000
  0.000000000000000E+000
  0.000000000000000E+000
  0.000000000000000E+000
  0.000000000000000E+000
  0.000000000000000E+000
  0.000000000000000E+000
  0.000000000000000E+000
  0.000000000000000E+000
  0.000000000000000E+000
  0.000000000000000E+000
  0.000000000000000E+000
  0.000000000000000E+000
  0.000000000000000E+000
  0.000000000000000E+000
  0.000000000000000E+000
  0.000000000000000E+000
  0.000000000000000E+000
  0.000000000000000E+000
  0.000000000000000E+000
  0.000000000000000E+000
  0.000000000000000E+000
  0.000000000000000E+000
  0.000000000000000E+000
  0.000000000000000E+000
  0.000000000000000E+000
  0.000000000000000E+000
  0.000000000000000E+000
  0.000000000000000E+000
  0.000000000000000E+000
  0.000000000000000E+000
  0.000000000000000E+000
  0.000000000000000E+000
  0.000000000000000E+000
  0.000000000000000E+000
  0.000000000000000E+000
  0.000000000000000E+000
  0.000000000000000E+000
  0.000000000000000E+000
  0.000000000000000E+000
  0.000000000000000E+000
  0.000000000000000E+000
  0.000000000000000E+000
  0.000000000000000E+000
  0.000000000000000E+000
  0.000000000000000E+000
  0.000000000000000E+000
  0.000000000000000E+000
  0.000000000000000E+000
  0.000000000000000E+000
  0.000000000000000E+000
  0.000000000000000E+000
  0.000000000000000E+000
  0.000000000000000E+000
  0.000000000000000E+000
  0.000000000000000E+000
  0.000000000000000E+000
  0.000000000000000E+000
  0.000000000000000E+000
  0.000000000000000E+000
  0.000000000000000E+000
  0.000000000000000E+000
  0.000000000000000E+000
  0.000000000000000E+000
  0.000000000000000E+000
  0.000000000000000E+000
  0.000000000000000E+000
  0.000000000000000E+000
  0.000000000000000E+000
  0.000000000000000E+000
  0.000000000000000E+000
  0.000000000000000E+000
  0.000000000000000E+000
  0.000000000000000E+000
  0.000000000000000E+000
  0.000000000000000E+000
  0.000000000000000E+000
  0.000000000000000E+000
  0.000000000000000E+000
  0.000000000000000E+000
  0.000000000000000E+000
  0.000000000000000E+000
  0.000000000000000E+000
  0.000000000000000E+000
  0.000000000000000E+000
  0.000000000000000E+000
  0.000000000000000E+000
  0.000000000000000E+000
  0.000000000000000E+000
  0.000000000000000E+000
  0.000000000000000E+000
  0.000000000000000E+000
  0.000000000000000E+000
  0.000000000000000E+000
  0.000000000000000E+000
  0.000000000000000E+000
  0.000000000000000E+000
  0.000000000000000E+000
  0.000000000000000E+000
  0.000000000000000E+000
  0.000000000000000E+000
  0.000000000000000E+000
  0.000000000000000E+000
  0.000000000000000E+000
  0.000000000000000E+000
  0.000000000000000E+000
  0.000000000000000E+000
  0.000000000000000E+000
  0.000000000000000E+000
  0.000000000000000E+000
  0.000000000000000E+000
  0.000000000000000E+000
  0.000000000000000E+000
  0.000000000000000E+000
  0.000000000000000E+000
  0.000000000000000E+000
  0.000000000000000E+000
  0.000000000000000E+000
  0.000000000000000E+000
  0.000000000000000E+000
  0.000000000000000E+000
  0.000000000000000E+000
  0.000000000000000E+000
  0.000000000000000E+000
  0.000000000000000E+000
  0.000000000000000E+000
  0.000000000000000E+000
  0.000000000000000E+000
  0.000000000000000E+000
  0.000000000000000E+000
  0.000000000000000E+000
  0.000000000000000E+000
  0.000000000000000E+000
  0.000000000000000E+000
  0.000000000000000E+000
  0.000000000000000E+000
  0.000000000000000E+000
  0.000000000000000E+000
  0.000000000000000E+000
  0.000000000000000E+000
  0.000000000000000E+000
  0.000000000000000E+000
  0.000000000000000E+000
  0.000000000000000E+000
  0.000000000000000E+000
  0.000000000000000E+000
  0.000000000000000E+000
  0.000000000000000E+000
  0.000000000000000E+000
  0.000000000000000E+000
  0.000000000000000E+000
  0.000000000000000E+000
  0.000000000000000E+000
  0.000000000000000E+000
  0.000000000000000E+000
  0.000000000000000E+000
  0.000000000000000E+000
  0.000000000000000E+000
  0.000000000000000E+000
  0.000000000000000E+000
  0.000000000000000E+000
  0.000000000000000E+000
  0.000000000000000E+000
  0.000000000000000E+000
  0.000000000000000E+000
  0.000000000000000E+000
  0.000000000000000E+000
  0.000000000000000E+000
  0.000000000000000E+000
  0.000000000000000E+000
  0.000000000000000E+000
  0.000000000000000E+000
  0.000000000000000E+000
  0.000000000000000E+000
  0.000000000000000E+000
  0.000000000000000E+000
  0.000000000000000E+000
  0.000000000000000E+000
  0.000000000000000E+000
  0.000000000000000E+000
  0.000000000000000E+000
  0.000000000000000E+000
  0.000000000000000E+000
  0.000000000000000E+000
  0.000000000000000E+000
  0.000000000000000E+000
  0.000000000000000E+000
  0.000000000000000E+000
  0.000000000000000E+000
  0.000000000000000E+000
  0.000000000000000E+000
  0.000000000000000E+000
  0.000000000000000E+000
  0.000000000000000E+000
  0.000000000000000E+000
  0.000000000000000E+000
  0.000000000000000E+000
  0.000000000000000E+000
  0.000000000000000E+000
  0.000000000000000E+000
  0.000000000000000E+000
  0.000000000000000E+000
  0.000000000000000E+000
  0.000000000000000E+000
  0.000000000000000E+000
  0.000000000000000E+000
  0.000000000000000E+000
  0.000000000000000E+000
  0.000000000000000E+000
  0.000000000000000E+000
  0.000000000000000E+000
  0.000000000000000E+000
  0.000000000000000E+000
  0.000000000000000E+000
  0.000000000000000E+000
  0.000000000000000E+000
  0.000000000000000E+000
  0.000000000000000E+000
  0.000000000000000E+000
  0.000000000000000E+000
  0.000000000000000E+000
  0.000000000000000E+000
  0.000000000000000E+000
  0.000000000000000E+000
  0.000000000000000E+000
  0.000000000000000E+000
  0.000000000000000E+000
  0.000000000000000E+000
  0.000000000000000E+000
  0.000000000000000E+000
  0.000000000000000E+000
  0.000000000000000E+000
  0.000000000000000E+000
  0.000000000000000E+000
  0.000000000000000E+000
  0.000000000000000E+000
  0.000000000000000E+000
  0.000000000000000E+000
  0.000000000000000E+000
  0.000000000000000E+000
  0.000000000000000E+000
  0.000000000000000E+000
  0.000000000000000E+000
  0.000000000000000E+000
  0.000000000000000E+000
  0.000000000000000E+000
  0.000000000000000E+000
  0.000000000000000E+000
  0.000000000000000E+000
  0.000000000000000E+000
  0.000000000000000E+000
  0.000000000000000E+000
  0.000000000000000E+000
  0.000000000000000E+000
  0.000000000000000E+000
  0.000000000000000E+000
  0.000000000000000E+000
  0.000000000000000E+000
  0.000000000000000E+000
  0.000000000000000E+000
  0.000000000000000E+000
  0.000000000000000E+000
  0.000000000000000E+000
  0.000000000000000E+000
  0.000000000000000E+000
  0.000000000000000E+000
  0.000000000000000E+000
  0.000000000000000E+000
  0.000000000000000E+000
  0.000000000000000E+000
  0.000000000000000E+000
  0.000000000000000E+000
  0.000000000000000E+000
  0.000000000000000E+000
  0.000000000000000E+000
  0.000000000000000E+000
  0.000000000000000E+000
  0.000000000000000E+000
  0.000000000000000E+000
  0.000000000000000E+000
  0.000000000000000E+000
  0.000000000000000E+000
  0.000000000000000E+000
  0.000000000000000E+000
  0.000000000000000E+000
  0.000000000000000E+000
  0.000000000000000E+000
  0.000000000000000E+000
  0.000000000000000E+000
  0.000000000000000E+000
  0.000000000000000E+000
  0.000000000000000E+000
  0.000000000000000E+000
  0.000000000000000E+000
  0.000000000000000E+000
  0.000000000000000E+000
  0.000000000000000E+000
  0.000000000000000E+000
  0.000000000000000E+000
  0.000000000000000E+000
  0.000000000000000E+000
  0.000000000000000E+000
  0.000000000000000E+000
  0.000000000000000E+000
  0.000000000000000E+000
  0.000000000000000E+000
  0.000000000000000E+000
  0.000000000000000E+000
  0.000000000000000E+000
  0.000000000000000E+000
  0.000000000000000E+000
  0.000000000000000E+000
  0.000000000000000E+000
  0.000000000000000E+000
  0.000000000000000E+000
  0.000000000000000E+000
  0.000000000000000E+000
  0.000000000000000E+000
  0.000000000000000E+000
  0.000000000000000E+000
  0.000000000000000E+000
  0.000000000000000E+000
  0.000000000000000E+000
  0.000000000000000E+000
  0.000000000000000E+000
  0.000000000000000E+000
  0.000000000000000E+000
  0.000000000000000E+000
  0.000000000000000E+000
  0.000000000000000E+000
  0.000000000000000E+000
  0.000000000000000E+000
  0.000000000000000E+000
  0.000000000000000E+000
  0.000000000000000E+000
  0.000000000000000E+000
  0.000000000000000E+000
  0.000000000000000E+000
  0.000000000000000E+000
  0.000000000000000E+000
  0.000000000000000E+000
  0.000000000000000E+000
  0.000000000000000E+000
  0.000000000000000E+000
  0.000000000000000E+000
  0.000000000000000E+000
  0.000000000000000E+000
  0.000000000000000E+000
  0.000000000000000E+000
  0.000000000000000E+000
  0.000000000000000E+000
  0.000000000000000E+000
  0.000000000000000E+000
  0.000000000000000E+000
  0.000000000000000E+000
  0.000000000000000E+000
  0.000000000000000E+000
  0.000000000000000E+000
  0.000000000000000E+000
  0.000000000000000E+000
  0.000000000000000E+000
  0.000000000000000E+000
  0.000000000000000E+000
  0.000000000000000E+000
  0.000000000000000E+000
  0.000000000000000E+000
  0.000000000000000E+000
  0.000000000000000E+000
  0.000000000000000E+000
  0.000000000000000E+000
  0.000000000000000E+000
  0.000000000000000E+000
  0.000000000000000E+000
  0.000000000000000E+000
  0.000000000000000E+000
  0.000000000000000E+000
  0.000000000000000E+000
  0.000000000000000E+000
  0.000000000000000E+000
  0.000000000000000E+000
  0.000000000000000E+000
  0.000000000000000E+000
  0.000000000000000E+000
  0.000000000000000E+000
  0.000000000000000E+000
  0.000000000000000E+000
  0.000000000000000E+000
  0.000000000000000E+000
  0.000000000000000E+000
  0.000000000000000E+000
  0.000000000000000E+000
  0.000000000000000E+000
  0.000000000000000E+000
  0.000000000000000E+000
  0.000000000000000E+000
  0.000000000000000E+000
  0.000000000000000E+000
  0.000000000000000E+000
  0.000000000000000E+000
  0.000000000000000E+000
  0.000000000000000E+000
  0.000000000000000E+000
  0.000000000000000E+000
  0.000000000000000E+000
  0.000000000000000E+000
  0.000000000000000E+000
  0.000000000000000E+000
  0.000000000000000E+000
  0.000000000000000E+000
  0.000000000000000E+000
  0.000000000000000E+000
  0.000000000000000E+000
  0.000000000000000E+000
  0.000000000000000E+000
  0.000000000000000E+000
  0.000000000000000E+000
  0.000000000000000E+000
  0.000000000000000E+000
  0.000000000000000E+000
  0.000000000000000E+000
  0.000000000000000E+000
  0.000000000000000E+000
  0.000000000000000E+000
  0.000000000000000E+000
  0.000000000000000E+000
  0.000000000000000E+000
  0.000000000000000E+000
  0.000000000000000E+000
  0.000000000000000E+000
  0.000000000000000E+000
  0.000000000000000E+000
  0.000000000000000E+000
  0.000000000000000E+000
  0.000000000000000E+000
  0.000000000000000E+000
  0.000000000000000E+000
  0.000000000000000E+000
  0.000000000000000E+000
  0.000000000000000E+000
  0.000000000000000E+000
  0.000000000000000E+000
  0.000000000000000E+000
  0.000000000000000E+000
  0.000000000000000E+000
  0.000000000000000E+000
  0.000000000000000E+000
  0.000000000000000E+000
  0.000000000000000E+000
  0.000000000000000E+000
  0.000000000000000E+000
  0.000000000000000E+000
  0.000000000000000E+000
  0.000000000000000E+000
  0.000000000000000E+000
  0.000000000000000E+000
  0.000000000000000E+000
  0.000000000000000E+000
  0.000000000000000E+000
  0.000000000000000E+000
  0.000000000000000E+000
  0.000000000000000E+000
  0.000000000000000E+000
  0.000000000000000E+000
  0.000000000000000E+000
  0.000000000000000E+000
  0.000000000000000E+000
  0.000000000000000E+000
  0.000000000000000E+000
  0.000000000000000E+000
  0.000000000000000E+000
  0.000000000000000E+000
  0.000000000000000E+000
  0.000000000000000E+000
  0.000000000000000E+000
  0.000000000000000E+000
  0.000000000000000E+000
  0.000000000000000E+000
  0.000000000000000E+000
  0.000000000000000E+000
  0.000000000000000E+000
  0.000000000000000E+000
  0.000000000000000E+000
  0.000000000000000E+000
  0.000000000000000E+000
  0.000000000000000E+000
  0.000000000000000E+000
  0.000000000000000E+000
  0.000000000000000E+000
  0.000000000000000E+000
  0.000000000000000E+000
  0.000000000000000E+000
  0.000000000000000E+000
  0.000000000000000E+000
  0.000000000000000E+000
  0.000000000000000E+000
  0.000000000000000E+000
  0.000000000000000E+000
  0.000000000000000E+000
  0.000000000000000E+000
  0.000000000000000E+000
  0.000000000000000E+000
  0.000000000000000E+000
  0.000000000000000E+000
  0.000000000000000E+000
  0.000000000000000E+000
  0.000000000000000E+000
  0.000000000000000E+000
  0.000000000000000E+000
  0.000000000000000E+000
  0.000000000000000E+000
  0.000000000000000E+000
  0.000000000000000E+000
  0.000000000000000E+000
  0.000000000000000E+000
  0.000000000000000E+000
  0.000000000000000E+000
  0.000000000000000E+000
  0.000000000000000E+000
  0.000000000000000E+000
  0.000000000000000E+000
  0.000000000000000E+000
  0.000000000000000E+000
  0.000000000000000E+000
  0.000000000000000E+000
  0.000000000000000E+000
  0.000000000000000E+000
  0.000000000000000E+000
  0.000000000000000E+000
  0.000000000000000E+000
  0.000000000000000E+000
  0.000000000000000E+000
  0.000000000000000E+000
  0.000000000000000E+000
  0.000000000000000E+000
  0.000000000000000E+000
  0.000000000000000E+000
  0.000000000000000E+000
  0.000000000000000E+000
  0.000000000000000E+000
  0.000000000000000E+000
  0.000000000000000E+000
  0.000000000000000E+000
  0.000000000000000E+000
  0.000000000000000E+000
  0.000000000000000E+000
  0.000000000000000E+000
  0.000000000000000E+000
  0.000000000000000E+000
  0.000000000000000E+000
  0.000000000000000E+000
  0.000000000000000E+000
  0.000000000000000E+000
  0.000000000000000E+000
  0.000000000000000E+000
  0.000000000000000E+000
  0.000000000000000E+000
  0.000000000000000E+000
  0.000000000000000E+000
  0.000000000000000E+000
  0.000000000000000E+000
  0.000000000000000E+000
  0.000000000000000E+000
  0.000000000000000E+000
  0.000000000000000E+000
  0.000000000000000E+000
  0.000000000000000E+000
  0.000000000000000E+000
  0.000000000000000E+000
  0.000000000000000E+000
  0.000000000000000E+000
  0.000000000000000E+000
  0.000000000000000E+000
  0.000000000000000E+000
  0.000000000000000E+000
  0.000000000000000E+000
  0.000000000000000E+000
  0.000000000000000E+000
  0.000000000000000E+000
  0.000000000000000E+000
  0.000000000000000E+000
  0.000000000000000E+000
  0.000000000000000E+000
  0.000000000000000E+000
  0.000000000000000E+000
  0.000000000000000E+000
  0.000000000000000E+000
  0.000000000000000E+000
  0.000000000000000E+000
  0.000000000000000E+000
  0.000000000000000E+000
  0.000000000000000E+000
  0.000000000000000E+000
  0.000000000000000E+000
  0.000000000000000E+000
  0.000000000000000E+000
  0.000000000000000E+000
  0.000000000000000E+000
  0.000000000000000E+000
  0.000000000000000E+000
  0.000000000000000E+000
  0.000000000000000E+000
  0.000000000000000E+000
  0.000000000000000E+000
  0.000000000000000E+000
  0.000000000000000E+000
  0.000000000000000E+000
  0.000000000000000E+000
  0.000000000000000E+000
  0.000000000000000E+000
  0.000000000000000E+000
  0.000000000000000E+000
  0.000000000000000E+000
  0.000000000000000E+000
  0.000000000000000E+000
  0.000000000000000E+000
  0.000000000000000E+000
  0.000000000000000E+000
  0.000000000000000E+000
  0.000000000000000E+000
  0.000000000000000E+000
  0.000000000000000E+000
  0.000000000000000E+000
  0.000000000000000E+000
  0.000000000000000E+000
  0.000000000000000E+000
  0.000000000000000E+000
  0.000000000000000E+000
  0.000000000000000E+000
  0.000000000000000E+000
  0.000000000000000E+000
  0.000000000000000E+000
  0.000000000000000E+000
  0.000000000000000E+000
  0.000000000000000E+000
  0.000000000000000E+000
  0.000000000000000E+000
  0.000000000000000E+000
  0.000000000000000E+000
  0.000000000000000E+000
  0.000000000000000E+000
  0.000000000000000E+000
  0.000000000000000E+000
  0.000000000000000E+000
  0.000000000000000E+000
  0.000000000000000E+000
  0.000000000000000E+000
  0.000000000000000E+000
  0.000000000000000E+000
  0.000000000000000E+000
  0.000000000000000E+000
  0.000000000000000E+000
  0.000000000000000E+000
  0.000000000000000E+000
  0.000000000000000E+000
  0.000000000000000E+000
  0.000000000000000E+000
  0.000000000000000E+000
  0.000000000000000E+000
  0.000000000000000E+000
  0.000000000000000E+000
  0.000000000000000E+000
  0.000000000000000E+000
  0.000000000000000E+000
  0.000000000000000E+000
  0.000000000000000E+000
  0.000000000000000E+000
  0.000000000000000E+000
  0.000000000000000E+000
  0.000000000000000E+000
  0.000000000000000E+000
  0.000000000000000E+000
  0.000000000000000E+000
  0.000000000000000E+000
  0.000000000000000E+000
  0.000000000000000E+000
  0.000000000000000E+000
  0.000000000000000E+000
  0.000000000000000E+000
  0.000000000000000E+000
  0.000000000000000E+000
  0.000000000000000E+000
  0.000000000000000E+000
  0.000000000000000E+000
  0.000000000000000E+000
  0.000000000000000E+000
  0.000000000000000E+000
  0.000000000000000E+000
  0.000000000000000E+000
  0.000000000000000E+000
  0.000000000000000E+000
  0.000000000000000E+000
  0.000000000000000E+000
  0.000000000000000E+000
  0.000000000000000E+000
  0.000000000000000E+000
  0.000000000000000E+000
  0.000000000000000E+000
  0.000000000000000E+000
  0.000000000000000E+000
  0.000000000000000E+000
  0.000000000000000E+000
  0.000000000000000E+000
  0.000000000000000E+000
  0.000000000000000E+000
  0.000000000000000E+000
  0.000000000000000E+000
  0.000000000000000E+000
  0.000000000000000E+000
  0.000000000000000E+000
  0.000000000000000E+000
  0.000000000000000E+000
  0.000000000000000E+000
  0.000000000000000E+000
  0.000000000000000E+000
  0.000000000000000E+000
  0.000000000000000E+000
  0.000000000000000E+000
  0.000000000000000E+000
  0.000000000000000E+000
  0.000000000000000E+000
  0.000000000000000E+000
  0.000000000000000E+000
  0.000000000000000E+000
  0.000000000000000E+000
  0.000000000000000E+000
  0.000000000000000E+000
  0.000000000000000E+000
  0.000000000000000E+000
  0.000000000000000E+000
  0.000000000000000E+000
  0.000000000000000E+000
  0.000000000000000E+000
  0.000000000000000E+000
  0.000000000000000E+000
  0.000000000000000E+000
  0.000000000000000E+000
  0.000000000000000E+000
  0.000000000000000E+000
  0.000000000000000E+000
  0.000000000000000E+000
  0.000000000000000E+000
  0.000000000000000E+000
  0.000000000000000E+000
  0.000000000000000E+000
  0.000000000000000E+000
  0.000000000000000E+000
  0.000000000000000E+000
  0.000000000000000E+000
  0.000000000000000E+000
  0.000000000000000E+000
  0.000000000000000E+000
  0.000000000000000E+000
  0.000000000000000E+000
  0.000000000000000E+000
  0.000000000000000E+000
  0.000000000000000E+000
  0.000000000000000E+000
  0.000000000000000E+000
  0.000000000000000E+000
  0.000000000000000E+000
  0.000000000000000E+000
  0.000000000000000E+000
  0.000000000000000E+000
  0.000000000000000E+000
  0.000000000000000E+000
  0.000000000000000E+000
  0.000000000000000E+000
  0.000000000000000E+000
  0.000000000000000E+000
  0.000000000000000E+000
  0.000000000000000E+000
  0.000000000000000E+000
  0.000000000000000E+000
  0.000000000000000E+000
  0.000000000000000E+000
  0.000000000000000E+000
  0.000000000000000E+000
  0.000000000000000E+000
  0.000000000000000E+000
  0.000000000000000E+000
  0.000000000000000E+000
  0.000000000000000E+000
  0.000000000000000E+000
  0.000000000000000E+000
  0.000000000000000E+000
  0.000000000000000E+000
  0.000000000000000E+000
  0.000000000000000E+000
  0.000000000000000E+000
  0.000000000000000E+000
  0.000000000000000E+000
  0.000000000000000E+000
  0.000000000000000E+000
  0.000000000000000E+000
  0.000000000000000E+000
  0.000000000000000E+000
  0.000000000000000E+000
  0.000000000000000E+000
  0.000000000000000E+000
  0.000000000000000E+000
  0.000000000000000E+000
  0.000000000000000E+000
  0.000000000000000E+000
  0.000000000000000E+000
  0.000000000000000E+000
  0.000000000000000E+000
  0.000000000000000E+000
  0.000000000000000E+000
  0.000000000000000E+000
  0.000000000000000E+000
  0.000000000000000E+000
  0.000000000000000E+000
  0.000000000000000E+000
  0.000000000000000E+000
  0.000000000000000E+000
  0.000000000000000E+000
  0.000000000000000E+000
  0.000000000000000E+000
  0.000000000000000E+000
  0.000000000000000E+000
  0.000000000000000E+000
  0.000000000000000E+000
  0.000000000000000E+000
  0.000000000000000E+000
  0.000000000000000E+000
  0.000000000000000E+000
  0.000000000000000E+000
  0.000000000000000E+000
  0.000000000000000E+000
  0.000000000000000E+000
  0.000000000000000E+000
  0.000000000000000E+000
  0.000000000000000E+000
  0.000000000000000E+000
  0.000000000000000E+000
  0.000000000000000E+000
  0.000000000000000E+000
  0.000000000000000E+000
  0.000000000000000E+000
  0.000000000000000E+000
  0.000000000000000E+000
  0.000000000000000E+000
  0.000000000000000E+000
  0.000000000000000E+000
  0.000000000000000E+000
  0.000000000000000E+000
  0.000000000000000E+000
  0.000000000000000E+000
  0.000000000000000E+000
  0.000000000000000E+000
  0.000000000000000E+000
  0.000000000000000E+000
  0.000000000000000E+000
  0.000000000000000E+000
  0.000000000000000E+000
  0.000000000000000E+000
  0.000000000000000E+000
  0.000000000000000E+000
  0.000000000000000E+000
  0.000000000000000E+000
  0.000000000000000E+000
  0.000000000000000E+000
  0.000000000000000E+000
  0.000000000000000E+000
  0.000000000000000E+000
  0.000000000000000E+000
  0.000000000000000E+000
  0.000000000000000E+000
  0.000000000000000E+000
  0.000000000000000E+000
  0.000000000000000E+000
  0.000000000000000E+000
  0.000000000000000E+000
  0.000000000000000E+000
  0.000000000000000E+000
  0.000000000000000E+000
  0.000000000000000E+000
  0.000000000000000E+000
  0.000000000000000E+000
  0.000000000000000E+000
  0.000000000000000E+000
  0.000000000000000E+000
  0.000000000000000E+000
  0.000000000000000E+000
  0.000000000000000E+000
  0.000000000000000E+000
  0.000000000000000E+000
  0.000000000000000E+000
  0.000000000000000E+000
  0.000000000000000E+000
  0.000000000000000E+000
  0.000000000000000E+000
  0.000000000000000E+000
  0.000000000000000E+000
  0.000000000000000E+000
  0.000000000000000E+000
  0.000000000000000E+000
  0.000000000000000E+000
  0.000000000000000E+000
  0.000000000000000E+000
  0.000000000000000E+000
  0.000000000000000E+000
  0.000000000000000E+000
  0.000000000000000E+000
  0.000000000000000E+000
  0.000000000000000E+000
  0.000000000000000E+000
  0.000000000000000E+000
  0.000000000000000E+000
  0.000000000000000E+000
  0.000000000000000E+000
  0.000000000000000E+000
  0.000000000000000E+000
  0.000000000000000E+000
  0.000000000000000E+000
  0.000000000000000E+000
  0.000000000000000E+000
  0.000000000000000E+000
  0.000000000000000E+000
  0.000000000000000E+000
  0.000000000000000E+000
  0.000000000000000E+000
  0.000000000000000E+000
  0.000000000000000E+000
  0.000000000000000E+000
  0.000000000000000E+000
  0.000000000000000E+000
  0.000000000000000E+000
  0.000000000000000E+000
  0.000000000000000E+000
  0.000000000000000E+000
  0.000000000000000E+000
  0.000000000000000E+000
  0.000000000000000E+000
  0.000000000000000E+000
  0.000000000000000E+000
  0.000000000000000E+000
  0.000000000000000E+000
  0.000000000000000E+000
  0.000000000000000E+000
  0.000000000000000E+000
  0.000000000000000E+000
  0.000000000000000E+000
  0.000000000000000E+000
  0.000000000000000E+000
  0.000000000000000E+000
  0.000000000000000E+000
  0.000000000000000E+000
  0.000000000000000E+000
  0.000000000000000E+000
  0.000000000000000E+000
  0.000000000000000E+000
  0.000000000000000E+000
  0.000000000000000E+000
  0.000000000000000E+000
  0.000000000000000E+000
  0.000000000000000E+000
  0.000000000000000E+000
  0.000000000000000E+000
  0.000000000000000E+000
  0.000000000000000E+000
  0.000000000000000E+000
  0.000000000000000E+000
  0.000000000000000E+000
  0.000000000000000E+000
  0.000000000000000E+000
  0.000000000000000E+000
  0.000000000000000E+000
  0.000000000000000E+000
  0.000000000000000E+000
  0.000000000000000E+000
  0.000000000000000E+000
  0.000000000000000E+000
  0.000000000000000E+000
  0.000000000000000E+000
  0.000000000000000E+000
  0.000000000000000E+000
  0.000000000000000E+000
  0.000000000000000E+000
  0.000000000000000E+000
  0.000000000000000E+000
  0.000000000000000E+000
  0.000000000000000E+000
  0.000000000000000E+000
  0.000000000000000E+000
  0.000000000000000E+000
  0.000000000000000E+000
  0.000000000000000E+000
  0.000000000000000E+000
  0.000000000000000E+000
  0.000000000000000E+000
  0.000000000000000E+000
  0.000000000000000E+000
  0.000000000000000E+000
  0.000000000000000E+000
  0.000000000000000E+000
  0.000000000000000E+000
  0.000000000000000E+000
  0.000000000000000E+000
  0.000000000000000E+000
  0.000000000000000E+000
  0.000000000000000E+000
  0.000000000000000E+000
  0.000000000000000E+000
  0.000000000000000E+000
  0.000000000000000E+000
  0.000000000000000E+000
  0.000000000000000E+000
  0.000000000000000E+000
  0.000000000000000E+000
  0.000000000000000E+000
  0.000000000000000E+000
  0.000000000000000E+000
  0.000000000000000E+000
  0.000000000000000E+000
  0.000000000000000E+000
  0.000000000000000E+000
  0.000000000000000E+000
  0.000000000000000E+000
  0.000000000000000E+000
  0.000000000000000E+000
  0.000000000000000E+000
  0.000000000000000E+000
  0.000000000000000E+000
  0.000000000000000E+000
  0.000000000000000E+000
  0.000000000000000E+000
  0.000000000000000E+000
  0.000000000000000E+000
  0.000000000000000E+000
  0.000000000000000E+000
  0.000000000000000E+000
  0.000000000000000E+000
  0.000000000000000E+000
  0.000000000000000E+000
  0.000000000000000E+000
  0.000000000000000E+000
  0.000000000000000E+000
  0.000000000000000E+000
  0.000000000000000E+000
  0.000000000000000E+000
  0.000000000000000E+000
  0.000000000000000E+000
  0.000000000000000E+000
  0.000000000000000E+000
  0.000000000000000E+000
  0.000000000000000E+000
  0.000000000000000E+000
  0.000000000000000E+000
  0.000000000000000E+000
  0.000000000000000E+000
  0.000000000000000E+000
  0.000000000000000E+000
  0.000000000000000E+000
  0.000000000000000E+000
  0.000000000000000E+000
  0.000000000000000E+000
  0.000000000000000E+000
  0.000000000000000E+000
  0.000000000000000E+000
  0.000000000000000E+000
  0.000000000000000E+000
  0.000000000000000E+000
  0.000000000000000E+000
  0.000000000000000E+000
  0.000000000000000E+000
  0.000000000000000E+000
  0.000000000000000E+000
  0.000000000000000E+000
  0.000000000000000E+000
  0.000000000000000E+000
  0.000000000000000E+000
  0.000000000000000E+000
  0.000000000000000E+000
  0.000000000000000E+000
  0.000000000000000E+000
  0.000000000000000E+000
  0.000000000000000E+000
  0.000000000000000E+000
  0.000000000000000E+000
  0.000000000000000E+000
  0.000000000000000E+000
  0.000000000000000E+000
  0.000000000000000E+000
  0.000000000000000E+000
  0.000000000000000E+000
  0.000000000000000E+000
  0.000000000000000E+000
  0.000000000000000E+000
  0.000000000000000E+000
  0.000000000000000E+000
  0.000000000000000E+000
  0.000000000000000E+000
  0.000000000000000E+000
  0.000000000000000E+000
  0.000000000000000E+000
  0.000000000000000E+000
  0.000000000000000E+000
  0.000000000000000E+000
  0.000000000000000E+000
  0.000000000000000E+000
  0.000000000000000E+000
  0.000000000000000E+000
  0.000000000000000E+000
  0.000000000000000E+000
  0.000000000000000E+000
  0.000000000000000E+000
  0.000000000000000E+000
  0.000000000000000E+000
  0.000000000000000E+000
  0.000000000000000E+000
  0.000000000000000E+000
  0.000000000000000E+000
  0.000000000000000E+000
  0.000000000000000E+000
  0.000000000000000E+000
  0.000000000000000E+000
  0.000000000000000E+000
  0.000000000000000E+000
  0.000000000000000E+000
  0.000000000000000E+000
  0.000000000000000E+000
  0.000000000000000E+000
  0.000000000000000E+000
  0.000000000000000E+000
  0.000000000000000E+000
  0.000000000000000E+000
  0.000000000000000E+000
  0.000000000000000E+000
  0.000000000000000E+000
  0.000000000000000E+000
  0.000000000000000E+000
  0.000000000000000E+000
  0.000000000000000E+000
  0.000000000000000E+000
  0.000000000000000E+000
  0.000000000000000E+000
  0.000000000000000E+000
  0.000000000000000E+000
  0.000000000000000E+000
  0.000000000000000E+000
  0.000000000000000E+000
  0.000000000000000E+000
  0.000000000000000E+000
  0.000000000000000E+000
  0.000000000000000E+000
  0.000000000000000E+000
  0.000000000000000E+000
  0.000000000000000E+000
  0.000000000000000E+000
  0.000000000000000E+000
  0.000000000000000E+000
  0.000000000000000E+000
  0.000000000000000E+000
  0.000000000000000E+000
  0.000000000000000E+000
  0.000000000000000E+000
  0.000000000000000E+000
  0.000000000000000E+000
  0.000000000000000E+000
  0.000000000000000E+000
  0.000000000000000E+000
  0.000000000000000E+000
  0.000000000000000E+000
  0.000000000000000E+000
  0.000000000000000E+000
  0.000000000000000E+000
  0.000000000000000E+000
  0.000000000000000E+000
  0.000000000000000E+000
  0.000000000000000E+000
  0.000000000000000E+000
  0.000000000000000E+000
  0.000000000000000E+000
  0.000000000000000E+000
  0.000000000000000E+000
  0.000000000000000E+000
  0.000000000000000E+000
  0.000000000000000E+000
  0.000000000000000E+000
  0.000000000000000E+000
  0.000000000000000E+000
  0.000000000000000E+000
  0.000000000000000E+000
  0.000000000000000E+000
  0.000000000000000E+000
  0.000000000000000E+000
  0.000000000000000E+000
  0.000000000000000E+000
  0.000000000000000E+000
  0.000000000000000E+000
  0.000000000000000E+000
  0.000000000000000E+000
  0.000000000000000E+000
  0.000000000000000E+000
  0.000000000000000E+000
  0.000000000000000E+000
  0.000000000000000E+000
  0.000000000000000E+000
  0.000000000000000E+000
  0.000000000000000E+000
  0.000000000000000E+000
  0.000000000000000E+000
  0.000000000000000E+000
  0.000000000000000E+000
  0.000000000000000E+000
  0.000000000000000E+000
  0.000000000000000E+000
  0.000000000000000E+000
  0.000000000000000E+000
  0.000000000000000E+000
  0.000000000000000E+000
  0.000000000000000E+000
  0.000000000000000E+000
  0.000000000000000E+000
  0.000000000000000E+000
  0.000000000000000E+000
  0.000000000000000E+000
  0.000000000000000E+000
  0.000000000000000E+000
  0.000000000000000E+000
  0.000000000000000E+000
  0.000000000000000E+000
  0.000000000000000E+000
  0.000000000000000E+000
  0.000000000000000E+000
  0.000000000000000E+000
  0.000000000000000E+000
  0.000000000000000E+000
  0.000000000000000E+000
  0.000000000000000E+000
  0.000000000000000E+000
  0.000000000000000E+000
  0.000000000000000E+000
  0.000000000000000E+000
  0.000000000000000E+000
  0.000000000000000E+000
  0.000000000000000E+000
  0.000000000000000E+000
  0.000000000000000E+000
  0.000000000000000E+000
  0.000000000000000E+000
  0.000000000000000E+000
  0.000000000000000E+000
  0.000000000000000E+000
  0.000000000000000E+000
  0.000000000000000E+000
  0.000000000000000E+000
  0.000000000000000E+000
  0.000000000000000E+000
  0.000000000000000E+000
  0.000000000000000E+000
  0.000000000000000E+000
  0.000000000000000E+000
  0.000000000000000E+000
  0.000000000000000E+000
  0.000000000000000E+000
  0.000000000000000E+000
  0.000000000000000E+000
  0.000000000000000E+000
  0.000000000000000E+000
  0.000000000000000E+000
  0.000000000000000E+000
  0.000000000000000E+000
  0.000000000000000E+000
  0.000000000000000E+000
  0.000000000000000E+000
  0.000000000000000E+000
  0.000000000000000E+000
  0.000000000000000E+000
  0.000000000000000E+000
  0.000000000000000E+000
  0.000000000000000E+000
  0.000000000000000E+000
  0.000000000000000E+000
  0.000000000000000E+000
  0.000000000000000E+000
  0.000000000000000E+000
  0.000000000000000E+000
  0.000000000000000E+000
  0.000000000000000E+000
  0.000000000000000E+000
  0.000000000000000E+000
  0.000000000000000E+000
  0.000000000000000E+000
  0.000000000000000E+000
  0.000000000000000E+000
  0.000000000000000E+000
  0.000000000000000E+000
  0.000000000000000E+000
  0.000000000000000E+000
  0.000000000000000E+000
  0.000000000000000E+000
  0.000000000000000E+000
  0.000000000000000E+000
  0.000000000000000E+000
  0.000000000000000E+000
  0.000000000000000E+000
  0.000000000000000E+000
  0.000000000000000E+000
  0.000000000000000E+000
  0.000000000000000E+000
  0.000000000000000E+000
  0.000000000000000E+000
  0.000000000000000E+000
  0.000000000000000E+000
  0.000000000000000E+000
  0.000000000000000E+000
  0.000000000000000E+000
  0.000000000000000E+000
  0.000000000000000E+000
  0.000000000000000E+000
  0.000000000000000E+000
  0.000000000000000E+000
  0.000000000000000E+000
  0.000000000000000E+000
  0.000000000000000E+000
  0.000000000000000E+000
  0.000000000000000E+000
  0.000000000000000E+000
  0.000000000000000E+000
  0.000000000000000E+000
  0.000000000000000E+000
  0.000000000000000E+000
  0.000000000000000E+000
  0.000000000000000E+000
  0.000000000000000E+000
  0.000000000000000E+000
  0.000000000000000E+000
  0.000000000000000E+000
  0.000000000000000E+000
  0.000000000000000E+000
  0.000000000000000E+000
  0.000000000000000E+000
  0.000000000000000E+000
  0.000000000000000E+000
  0.000000000000000E+000
  0.000000000000000E+000
  0.000000000000000E+000
  0.000000000000000E+000
  0.000000000000000E+000
  0.000000000000000E+000
  0.000000000000000E+000
  0.000000000000000E+000
  0.000000000000000E+000
  0.000000000000000E+000
  0.000000000000000E+000
  0.000000000000000E+000
  0.000000000000000E+000
  0.000000000000000E+000
  0.000000000000000E+000
  0.000000000000000E+000
  0.000000000000000E+000
  0.000000000000000E+000
  0.000000000000000E+000
  0.000000000000000E+000
  0.000000000000000E+000
  0.000000000000000E+000
  0.000000000000000E+000
  0.000000000000000E+000
  0.000000000000000E+000
  0.000000000000000E+000
  0.000000000000000E+000
  0.000000000000000E+000
  0.000000000000000E+000
  0.000000000000000E+000
  0.000000000000000E+000
  0.000000000000000E+000
  0.000000000000000E+000
  0.000000000000000E+000
  0.000000000000000E+000
  0.000000000000000E+000
  0.000000000000000E+000
  0.000000000000000E+000
  0.000000000000000E+000
  0.000000000000000E+000
  0.000000000000000E+000
  0.000000000000000E+000
  0.000000000000000E+000
  0.000000000000000E+000
  0.000000000000000E+000
  0.000000000000000E+000
  0.000000000000000E+000
  0.000000000000000E+000
  0.000000000000000E+000
  0.000000000000000E+000
  0.000000000000000E+000
  0.000000000000000E+000
  0.000000000000000E+000
  0.000000000000000E+000
  0.000000000000000E+000
  0.000000000000000E+000
  0.000000000000000E+000
  0.000000000000000E+000
  0.000000000000000E+000
  0.000000000000000E+000
  0.000000000000000E+000
  0.000000000000000E+000
  0.000000000000000E+000
  0.000000000000000E+000
  0.000000000000000E+000
  0.000000000000000E+000
  0.000000000000000E+000
  0.000000000000000E+000
  0.000000000000000E+000
  0.000000000000000E+000
  0.000000000000000E+000
  0.000000000000000E+000
  0.000000000000000E+000
  0.000000000000000E+000
  0.000000000000000E+000
  0.000000000000000E+000
  0.000000000000000E+000
  0.000000000000000E+000
  0.000000000000000E+000
  0.000000000000000E+000
  0.000000000000000E+000
  0.000000000000000E+000
  0.000000000000000E+000
  0.000000000000000E+000
  0.000000000000000E+000
  0.000000000000000E+000
  0.000000000000000E+000
  0.000000000000000E+000
  0.000000000000000E+000
  0.000000000000000E+000
  0.000000000000000E+000
  0.000000000000000E+000
  0.000000000000000E+000
  0.000000000000000E+000
  0.000000000000000E+000
  0.000000000000000E+000
  0.000000000000000E+000
  0.000000000000000E+000
  0.000000000000000E+000
  0.000000000000000E+000
  0.000000000000000E+000
  0.000000000000000E+000
  0.000000000000000E+000
  0.000000000000000E+000
  0.000000000000000E+000
  0.000000000000000E+000
  0.000000000000000E+000
  0.000000000000000E+000
  0.000000000000000E+000
  0.000000000000000E+000
  0.000000000000000E+000
  0.000000000000000E+000
  0.000000000000000E+000
  0.000000000000000E+000
  0.000000000000000E+000
  0.000000000000000E+000
  0.000000000000000E+000
  0.000000000000000E+000
  0.000000000000000E+000
  0.000000000000000E+000
  0.000000000000000E+000
  0.000000000000000E+000
  0.000000000000000E+000
  0.000000000000000E+000
  0.000000000000000E+000
  0.000000000000000E+000
  0.000000000000000E+000
  0.000000000000000E+000
  0.000000000000000E+000
  0.000000000000000E+000
  0.000000000000000E+000
  0.000000000000000E+000
  0.000000000000000E+000
  0.000000000000000E+000
  0.000000000000000E+000
  0.000000000000000E+000
  0.000000000000000E+000
  0.000000000000000E+000
  0.000000000000000E+000
  0.000000000000000E+000
  0.000000000000000E+000
  0.000000000000000E+000
  0.000000000000000E+000
  0.000000000000000E+000
  0.000000000000000E+000
  0.000000000000000E+000
  0.000000000000000E+000
  0.000000000000000E+000
  0.000000000000000E+000
  0.000000000000000E+000
  0.000000000000000E+000
  0.000000000000000E+000
  0.000000000000000E+000
  0.000000000000000E+000
  0.000000000000000E+000
  0.000000000000000E+000
  0.000000000000000E+000
  0.000000000000000E+000
  0.000000000000000E+000
  0.000000000000000E+000
  0.000000000000000E+000
  0.000000000000000E+000
  0.000000000000000E+000
  0.000000000000000E+000
  0.000000000000000E+000
  0.000000000000000E+000
  0.000000000000000E+000
  0.000000000000000E+000
  0.000000000000000E+000
  0.000000000000000E+000
  0.000000000000000E+000
  0.000000000000000E+000
  0.000000000000000E+000
  0.000000000000000E+000
  0.000000000000000E+000
  0.000000000000000E+000
  0.000000000000000E+000
  0.000000000000000E+000
  0.000000000000000E+000
  0.000000000000000E+000
  0.000000000000000E+000
  0.000000000000000E+000
  0.000000000000000E+000
  0.000000000000000E+000
  0.000000000000000E+000
  0.000000000000000E+000
  0.000000000000000E+000
  0.000000000000000E+000
  0.000000000000000E+000
  0.000000000000000E+000
  0.000000000000000E+000
  0.000000000000000E+000
  0.000000000000000E+000
  0.000000000000000E+000
  0.000000000000000E+000
  0.000000000000000E+000
  0.000000000000000E+000
  0.000000000000000E+000
  0.000000000000000E+000
  0.000000000000000E+000
  0.000000000000000E+000
  0.000000000000000E+000
  0.000000000000000E+000
  0.000000000000000E+000
  0.000000000000000E+000
  0.000000000000000E+000
  0.000000000000000E+000
  0.000000000000000E+000
  0.000000000000000E+000
  0.000000000000000E+000
  0.000000000000000E+000
  0.000000000000000E+000
  0.000000000000000E+000
  0.000000000000000E+000
  0.000000000000000E+000
  0.000000000000000E+000
  0.000000000000000E+000
  0.000000000000000E+000
  0.000000000000000E+000
  0.000000000000000E+000
  0.000000000000000E+000
  0.000000000000000E+000
  0.000000000000000E+000
  0.000000000000000E+000
  0.000000000000000E+000
  0.000000000000000E+000
  0.000000000000000E+000
  0.000000000000000E+000
  0.000000000000000E+000
  0.000000000000000E+000
  0.000000000000000E+000
  0.000000000000000E+000
  0.000000000000000E+000
  0.000000000000000E+000
  0.000000000000000E+000
  0.000000000000000E+000
  0.000000000000000E+000
  0.000000000000000E+000
  0.000000000000000E+000
  0.000000000000000E+000
  0.000000000000000E+000
  0.000000000000000E+000
  0.000000000000000E+000
  0.000000000000000E+000
  0.000000000000000E+000
  0.000000000000000E+000
  0.000000000000000E+000
  0.000000000000000E+000
  0.000000000000000E+000
  0.000000000000000E+000
  0.000000000000000E+000
  0.000000000000000E+000
  0.000000000000000E+000
  0.000000000000000E+000
  0.000000000000000E+000
  0.000000000000000E+000
  0.000000000000000E+000
  0.000000000000000E+000
  0.000000000000000E+000
  0.000000000000000E+000
  0.000000000000000E+000
  0.000000000000000E+000
  0.000000000000000E+000
  0.000000000000000E+000
  0.000000000000000E+000
  0.000000000000000E+000
  0.000000000000000E+000
  0.000000000000000E+000
  0.000000000000000E+000
  0.000000000000000E+000
  0.000000000000000E+000
  0.000000000000000E+000
  0.000000000000000E+000
  0.000000000000000E+000
  0.000000000000000E+000
  0.000000000000000E+000
  0.000000000000000E+000
  0.000000000000000E+000
  0.000000000000000E+000
  0.000000000000000E+000
  0.000000000000000E+000
  0.000000000000000E+000
  0.000000000000000E+000
  0.000000000000000E+000
  0.000000000000000E+000
  0.000000000000000E+000
  0.000000000000000E+000
  0.000000000000000E+000
  0.000000000000000E+000
  0.000000000000000E+000
  0.000000000000000E+000
  0.000000000000000E+000
  0.000000000000000E+000
  0.000000000000000E+000
  0.000000000000000E+000
  0.000000000000000E+000
  0.000000000000000E+000
  0.000000000000000E+000
  0.000000000000000E+000
  0.000000000000000E+000
  0.000000000000000E+000
  0.000000000000000E+000
  0.000000000000000E+000
  0.000000000000000E+000
  0.000000000000000E+000
  0.000000000000000E+000
  0.000000000000000E+000
  0.000000000000000E+000
  0.000000000000000E+000
  0.000000000000000E+000
  0.000000000000000E+000
  0.000000000000000E+000
  0.000000000000000E+000
  0.000000000000000E+000
  0.000000000000000E+000
  0.000000000000000E+000
  0.000000000000000E+000
  0.000000000000000E+000
  0.000000000000000E+000
  0.000000000000000E+000
  0.000000000000000E+000
  0.000000000000000E+000
  0.000000000000000E+000
  0.000000000000000E+000
  0.000000000000000E+000
  0.000000000000000E+000
  0.000000000000000E+000
  0.000000000000000E+000
  0.000000000000000E+000
  0.000000000000000E+000
  0.000000000000000E+000
  0.000000000000000E+000
  0.000000000000000E+000
  0.000000000000000E+000
  0.000000000000000E+000
  0.000000000000000E+000
  0.000000000000000E+000
  0.000000000000000E+000
  0.000000000000000E+000
  0.000000000000000E+000
  0.000000000000000E+000
  0.000000000000000E+000
  0.000000000000000E+000
  0.000000000000000E+000
  0.000000000000000E+000
  0.000000000000000E+000
  0.000000000000000E+000
  0.000000000000000E+000
  0.000000000000000E+000
  0.000000000000000E+000
  0.000000000000000E+000
  0.000000000000000E+000
  0.000000000000000E+000
  0.000000000000000E+000
  0.000000000000000E+000
  0.000000000000000E+000
  0.000000000000000E+000
  0.000000000000000E+000
  0.000000000000000E+000
  0.000000000000000E+000
  0.000000000000000E+000
  0.000000000000000E+000
  0.000000000000000E+000
  0.000000000000000E+000
  0.000000000000000E+000
  0.000000000000000E+000
  0.000000000000000E+000
  0.000000000000000E+000
  0.000000000000000E+000
  0.000000000000000E+000
  0.000000000000000E+000
  0.000000000000000E+000
  0.000000000000000E+000
  0.000000000000000E+000
  0.000000000000000E+000
  0.000000000000000E+000
  0.000000000000000E+000
  0.000000000000000E+000
  0.000000000000000E+000
  0.000000000000000E+000
  0.000000000000000E+000
  0.000000000000000E+000
  0.000000000000000E+000
  0.000000000000000E+000
  0.000000000000000E+000
  0.000000000000000E+000
  0.000000000000000E+000
  0.000000000000000E+000
  0.000000000000000E+000
  0.000000000000000E+000
  0.000000000000000E+000
  0.000000000000000E+000
  0.000000000000000E+000
  0.000000000000000E+000
  0.000000000000000E+000
  0.000000000000000E+000
  0.000000000000000E+000
  0.000000000000000E+000
  0.000000000000000E+000
  0.000000000000000E+000
  0.000000000000000E+000
  0.000000000000000E+000
  0.000000000000000E+000
  0.000000000000000E+000
  0.000000000000000E+000
  0.000000000000000E+000
  0.000000000000000E+000
  0.000000000000000E+000
  0.000000000000000E+000
  0.000000000000000E+000
  0.000000000000000E+000
  0.000000000000000E+000
  0.000000000000000E+000
  0.000000000000000E+000
  0.000000000000000E+000
  0.000000000000000E+000
  0.000000000000000E+000
  0.000000000000000E+000
  0.000000000000000E+000
  0.000000000000000E+000
  0.000000000000000E+000
  0.000000000000000E+000
  0.000000000000000E+000
  0.000000000000000E+000
  0.000000000000000E+000
  0.000000000000000E+000
  0.000000000000000E+000
  0.000000000000000E+000
  0.000000000000000E+000
  0.000000000000000E+000
  0.000000000000000E+000
  0.000000000000000E+000
  0.000000000000000E+000
  0.000000000000000E+000
  0.000000000000000E+000
  0.000000000000000E+000
  0.000000000000000E+000
  0.000000000000000E+000
  0.000000000000000E+000
  0.000000000000000E+000
  0.000000000000000E+000
  0.000000000000000E+000
  0.000000000000000E+000
  0.000000000000000E+000
  0.000000000000000E+000
  0.000000000000000E+000
  0.000000000000000E+000
  0.000000000000000E+000
  0.000000000000000E+000
  0.000000000000000E+000
  0.000000000000000E+000
  0.000000000000000E+000
  0.000000000000000E+000
  0.000000000000000E+000
  0.000000000000000E+000
  0.000000000000000E+000
  0.000000000000000E+000
  0.000000000000000E+000
  0.000000000000000E+000
  0.000000000000000E+000
  0.000000000000000E+000
  0.000000000000000E+000
  0.000000000000000E+000
  0.000000000000000E+000
  0.000000000000000E+000
  0.000000000000000E+000
  0.000000000000000E+000
  0.000000000000000E+000
  0.000000000000000E+000
  0.000000000000000E+000
  0.000000000000000E+000
  0.000000000000000E+000
  0.000000000000000E+000
  0.000000000000000E+000
  0.000000000000000E+000
  0.000000000000000E+000
  0.000000000000000E+000
  0.000000000000000E+000
  0.000000000000000E+000
  0.000000000000000E+000
  0.000000000000000E+000
  0.000000000000000E+000
  0.000000000000000E+000
  0.000000000000000E+000
  0.000000000000000E+000
  0.000000000000000E+000
  0.000000000000000E+000
  0.000000000000000E+000
  0.000000000000000E+000
  0.000000000000000E+000
  0.000000000000000E+000
  0.000000000000000E+000
  0.000000000000000E+000
  0.000000000000000E+000
  0.000000000000000E+000
  0.000000000000000E+000
  0.000000000000000E+000
  0.000000000000000E+000
  0.000000000000000E+000
  0.000000000000000E+000
  0.000000000000000E+000
  0.000000000000000E+000
  0.000000000000000E+000
  0.000000000000000E+000
  0.000000000000000E+000
  0.000000000000000E+000
  0.000000000000000E+000
  0.000000000000000E+000
  0.000000000000000E+000
  0.000000000000000E+000
  0.000000000000000E+000
  0.000000000000000E+000
  0.000000000000000E+000
  0.000000000000000E+000
  0.000000000000000E+000
  0.000000000000000E+000
  0.000000000000000E+000
  0.000000000000000E+000
  0.000000000000000E+000
  0.000000000000000E+000
  0.000000000000000E+000
  0.000000000000000E+000
  0.000000000000000E+000
  0.000000000000000E+000
  0.000000000000000E+000
  0.000000000000000E+000
  0.000000000000000E+000
  0.000000000000000E+000
  0.000000000000000E+000
  0.000000000000000E+000
  0.000000000000000E+000
  0.000000000000000E+000
  0.000000000000000E+000
  0.000000000000000E+000
  0.000000000000000E+000
  0.000000000000000E+000
  0.000000000000000E+000
  0.000000000000000E+000
  0.000000000000000E+000
  0.000000000000000E+000
  0.000000000000000E+000
  0.000000000000000E+000
  0.000000000000000E+000
  0.000000000000000E+000
  0.000000000000000E+000
  0.000000000000000E+000
  0.000000000000000E+000
  0.000000000000000E+000
  0.000000000000000E+000
  0.000000000000000E+000
  0.000000000000000E+000
  0.000000000000000E+000
  0.000000000000000E+000
  0.000000000000000E+000
  0.000000000000000E+000
  0.000000000000000E+000
  0.000000000000000E+000
  0.000000000000000E+000
  0.000000000000000E+000
  0.000000000000000E+000
  0.000000000000000E+000
  0.000000000000000E+000
  0.000000000000000E+000
  0.000000000000000E+000
  0.000000000000000E+000
  0.000000000000000E+000
  0.000000000000000E+000
  0.000000000000000E+000
  0.000000000000000E+000
  0.000000000000000E+000
  0.000000000000000E+000
  0.000000000000000E+000
  0.000000000000000E+000
  0.000000000000000E+000
  0.000000000000000E+000
  0.000000000000000E+000
  0.000000000000000E+000
  0.000000000000000E+000
  0.000000000000000E+000
  0.000000000000000E+000
  0.000000000000000E+000
  0.000000000000000E+000
  0.000000000000000E+000
  0.000000000000000E+000
  0.000000000000000E+000
  0.000000000000000E+000
  0.000000000000000E+000
  0.000000000000000E+000
  0.000000000000000E+000
  0.000000000000000E+000
  0.000000000000000E+000
  0.000000000000000E+000
  0.000000000000000E+000
  0.000000000000000E+000
  0.000000000000000E+000
  0.000000000000000E+000
  0.000000000000000E+000
  0.000000000000000E+000
  0.000000000000000E+000
  0.000000000000000E+000
  0.000000000000000E+000
  0.000000000000000E+000
  0.000000000000000E+000
  0.000000000000000E+000
  0.000000000000000E+000
  0.000000000000000E+000
  0.000000000000000E+000
  0.000000000000000E+000
  0.000000000000000E+000
  0.000000000000000E+000
  0.000000000000000E+000
  0.000000000000000E+000
  0.000000000000000E+000
  0.000000000000000E+000
  0.000000000000000E+000
  0.000000000000000E+000
  0.000000000000000E+000
  0.000000000000000E+000
  0.000000000000000E+000
  0.000000000000000E+000
  0.000000000000000E+000
  0.000000000000000E+000
  0.000000000000000E+000
  0.000000000000000E+000
  0.000000000000000E+000
  0.000000000000000E+000
  0.000000000000000E+000
  0.000000000000000E+000
  0.000000000000000E+000
  0.000000000000000E+000
  0.000000000000000E+000
  0.000000000000000E+000
  0.000000000000000E+000
  0.000000000000000E+000
  0.000000000000000E+000
  0.000000000000000E+000
  0.000000000000000E+000
  0.000000000000000E+000
  0.000000000000000E+000
  0.000000000000000E+000
  0.000000000000000E+000
  0.000000000000000E+000
  0.000000000000000E+000
  0.000000000000000E+000
  0.000000000000000E+000
  0.000000000000000E+000
  0.000000000000000E+000
  0.000000000000000E+000
  0.000000000000000E+000
  0.000000000000000E+000
  0.000000000000000E+000
  0.000000000000000E+000
  0.000000000000000E+000
  0.000000000000000E+000
  0.000000000000000E+000
  0.000000000000000E+000
  0.000000000000000E+000
  0.000000000000000E+000
  0.000000000000000E+000
  0.000000000000000E+000
  0.000000000000000E+000
  0.000000000000000E+000
  0.000000000000000E+000
  0.000000000000000E+000
  0.000000000000000E+000
  0.000000000000000E+000
  0.000000000000000E+000
  0.000000000000000E+000
  0.000000000000000E+000
  0.000000000000000E+000
  0.000000000000000E+000
  0.000000000000000E+000
  0.000000000000000E+000
  0.000000000000000E+000
  0.000000000000000E+000
  0.000000000000000E+000
  0.000000000000000E+000
  0.000000000000000E+000
  0.000000000000000E+000
  0.000000000000000E+000
  0.000000000000000E+000
  0.000000000000000E+000
  0.000000000000000E+000
  0.000000000000000E+000
  0.000000000000000E+000
  0.000000000000000E+000
  0.000000000000000E+000
  0.000000000000000E+000
  0.000000000000000E+000
  0.000000000000000E+000
  0.000000000000000E+000
  0.000000000000000E+000
  0.000000000000000E+000
  0.000000000000000E+000
  0.000000000000000E+000
  0.000000000000000E+000
  0.000000000000000E+000
  0.000000000000000E+000
  0.000000000000000E+000
  0.000000000000000E+000
  0.000000000000000E+000
  0.000000000000000E+000
  0.000000000000000E+000
  0.000000000000000E+000
  0.000000000000000E+000
  0.000000000000000E+000
  0.000000000000000E+000
  0.000000000000000E+000
  0.000000000000000E+000
  0.000000000000000E+000
  0.000000000000000E+000
  0.000000000000000E+000
  0.000000000000000E+000
  0.000000000000000E+000
  0.000000000000000E+000
  0.000000000000000E+000
  0.000000000000000E+000
  0.000000000000000E+000
  0.000000000000000E+000
  0.000000000000000E+000
  0.000000000000000E+000
  0.000000000000000E+000
  0.000000000000000E+000
  0.000000000000000E+000
  0.000000000000000E+000
  0.000000000000000E+000
  0.000000000000000E+000
  0.000000000000000E+000
  0.000000000000000E+000
  0.000000000000000E+000
  0.000000000000000E+000
  0.000000000000000E+000
  0.000000000000000E+000
  0.000000000000000E+000
  0.000000000000000E+000
  0.000000000000000E+000
  0.000000000000000E+000
  0.000000000000000E+000
  0.000000000000000E+000
  0.000000000000000E+000
  0.000000000000000E+000
  0.000000000000000E+000
  0.000000000000000E+000
  0.000000000000000E+000
  0.000000000000000E+000
  0.000000000000000E+000
  0.000000000000000E+000
  0.000000000000000E+000
  0.000000000000000E+000
  0.000000000000000E+000
  0.000000000000000E+000
  0.000000000000000E+000
  0.000000000000000E+000
  0.000000000000000E+000
  0.000000000000000E+000
  0.000000000000000E+000
  0.000000000000000E+000
  0.000000000000000E+000
  0.000000000000000E+000
  0.000000000000000E+000
  0.000000000000000E+000
  0.000000000000000E+000
  0.000000000000000E+000
  0.000000000000000E+000
  0.000000000000000E+000
  0.000000000000000E+000
  0.000000000000000E+000
  0.000000000000000E+000
  0.000000000000000E+000
  0.000000000000000E+000
  0.000000000000000E+000
  0.000000000000000E+000
  0.000000000000000E+000
  0.000000000000000E+000
  0.000000000000000E+000
  0.000000000000000E+000
  0.000000000000000E+000
  0.000000000000000E+000
  0.000000000000000E+000
  0.000000000000000E+000
  0.000000000000000E+000
  0.000000000000000E+000
  0.000000000000000E+000
  0.000000000000000E+000
  0.000000000000000E+000
  0.000000000000000E+000
  0.000000000000000E+000
  0.000000000000000E+000
  0.000000000000000E+000
  0.000000000000000E+000
  0.000000000000000E+000
  0.000000000000000E+000
  0.000000000000000E+000
  0.000000000000000E+000
  0.000000000000000E+000
  0.000000000000000E+000
  0.000000000000000E+000
  0.000000000000000E+000
  0.000000000000000E+000
  0.000000000000000E+000
  0.000000000000000E+000
  0.000000000000000E+000
  0.000000000000000E+000
  0.000000000000000E+000
  0.000000000000000E+000
  0.000000000000000E+000
  0.000000000000000E+000
  0.000000000000000E+000
  0.000000000000000E+000
  0.000000000000000E+000
  0.000000000000000E+000
  0.000000000000000E+000
  0.000000000000000E+000
  0.000000000000000E+000
  0.000000000000000E+000
  0.000000000000000E+000
  0.000000000000000E+000
  0.000000000000000E+000
  0.000000000000000E+000
  0.000000000000000E+000
  0.000000000000000E+000
  0.000000000000000E+000
  0.000000000000000E+000
  0.000000000000000E+000
  0.000000000000000E+000
  0.000000000000000E+000
  0.000000000000000E+000
  0.000000000000000E+000
  0.000000000000000E+000
  0.000000000000000E+000
  0.000000000000000E+000
  0.000000000000000E+000
  0.000000000000000E+000
  0.000000000000000E+000
  0.000000000000000E+000
  0.000000000000000E+000
  0.000000000000000E+000
  0.000000000000000E+000
  0.000000000000000E+000
  0.000000000000000E+000
  0.000000000000000E+000
  0.000000000000000E+000
  0.000000000000000E+000
  0.000000000000000E+000
  0.000000000000000E+000
  0.000000000000000E+000
  0.000000000000000E+000
  0.000000000000000E+000
  0.000000000000000E+000
  0.000000000000000E+000
  0.000000000000000E+000
  0.000000000000000E+000
  0.000000000000000E+000
  0.000000000000000E+000
  0.000000000000000E+000
  0.000000000000000E+000
  0.000000000000000E+000
  0.000000000000000E+000
  0.000000000000000E+000
  0.000000000000000E+000
  0.000000000000000E+000
  0.000000000000000E+000
  0.000000000000000E+000
  0.000000000000000E+000
  0.000000000000000E+000
  0.000000000000000E+000
  0.000000000000000E+000
  0.000000000000000E+000
  0.000000000000000E+000
  0.000000000000000E+000
  0.000000000000000E+000
  0.000000000000000E+000
  0.000000000000000E+000
  0.000000000000000E+000
  0.000000000000000E+000
  0.000000000000000E+000
  0.000000000000000E+000
  0.000000000000000E+000
  0.000000000000000E+000
  0.000000000000000E+000
  0.000000000000000E+000
  0.000000000000000E+000
  0.000000000000000E+000
  0.000000000000000E+000
  0.000000000000000E+000
  0.000000000000000E+000
  0.000000000000000E+000
  0.000000000000000E+000
  0.000000000000000E+000
  0.000000000000000E+000
  0.000000000000000E+000
  0.000000000000000E+000
  0.000000000000000E+000
  0.000000000000000E+000
  0.000000000000000E+000
  0.000000000000000E+000
  0.000000000000000E+000
  0.000000000000000E+000
  0.000000000000000E+000
  0.000000000000000E+000
  0.000000000000000E+000
  0.000000000000000E+000
  0.000000000000000E+000
  0.000000000000000E+000
  0.000000000000000E+000
  0.000000000000000E+000
  0.000000000000000E+000
  0.000000000000000E+000
  0.000000000000000E+000
  0.000000000000000E+000
  0.000000000000000E+000
  0.000000000000000E+000
  0.000000000000000E+000
  0.000000000000000E+000
  0.000000000000000E+000
  0.000000000000000E+000
  0.000000000000000E+000
  0.000000000000000E+000
  0.000000000000000E+000
  0.000000000000000E+000
  0.000000000000000E+000
  0.000000000000000E+000
  0.000000000000000E+000
  0.000000000000000E+000
  0.000000000000000E+000
  0.000000000000000E+000
  0.000000000000000E+000
  0.000000000000000E+000
  0.000000000000000E+000
  0.000000000000000E+000
  0.000000000000000E+000
  0.000000000000000E+000
  0.000000000000000E+000
  0.000000000000000E+000
  0.000000000000000E+000
  0.000000000000000E+000
  0.000000000000000E+000
  0.000000000000000E+000
  0.000000000000000E+000
  0.000000000000000E+000
  0.000000000000000E+000
  0.000000000000000E+000
  0.000000000000000E+000
  0.000000000000000E+000
  0.000000000000000E+000
  0.000000000000000E+000
  0.000000000000000E+000
  0.000000000000000E+000
  0.000000000000000E+000
  0.000000000000000E+000
  0.000000000000000E+000
  0.000000000000000E+000
  0.000000000000000E+000
  0.000000000000000E+000
  0.000000000000000E+000
  0.000000000000000E+000
  0.000000000000000E+000
  0.000000000000000E+000
  0.000000000000000E+000
  0.000000000000000E+000
  0.000000000000000E+000
  0.000000000000000E+000
  0.000000000000000E+000
  0.000000000000000E+000
  0.000000000000000E+000
  0.000000000000000E+000
  0.000000000000000E+000
  0.000000000000000E+000
  0.000000000000000E+000
  0.000000000000000E+000
  0.000000000000000E+000
  0.000000000000000E+000
  0.000000000000000E+000
  0.000000000000000E+000
  0.000000000000000E+000
  0.000000000000000E+000
  0.000000000000000E+000
  0.000000000000000E+000
  0.000000000000000E+000
  0.000000000000000E+000
  0.000000000000000E+000
  0.000000000000000E+000
  0.000000000000000E+000
  0.000000000000000E+000
  0.000000000000000E+000
  0.000000000000000E+000
  0.000000000000000E+000
  0.000000000000000E+000
  0.000000000000000E+000
  0.000000000000000E+000
  0.000000000000000E+000
  0.000000000000000E+000
  0.000000000000000E+000
  0.000000000000000E+000
  0.000000000000000E+000
  0.000000000000000E+000
  0.000000000000000E+000
  0.000000000000000E+000
  0.000000000000000E+000
  0.000000000000000E+000
  0.000000000000000E+000
  0.000000000000000E+000
  0.000000000000000E+000
  0.000000000000000E+000
  0.000000000000000E+000
  0.000000000000000E+000
  0.000000000000000E+000
  0.000000000000000E+000
  0.000000000000000E+000
  0.000000000000000E+000
  0.000000000000000E+000
  0.000000000000000E+000
  0.000000000000000E+000
  0.000000000000000E+000
  0.000000000000000E+000
  0.000000000000000E+000
  0.000000000000000E+000
  0.000000000000000E+000
  0.000000000000000E+000
  0.000000000000000E+000
  0.000000000000000E+000
  0.000000000000000E+000
  0.000000000000000E+000
  0.000000000000000E+000
  0.000000000000000E+000
  0.000000000000000E+000
  0.000000000000000E+000
  0.000000000000000E+000
  0.000000000000000E+000
  0.000000000000000E+000
  0.000000000000000E+000
  0.000000000000000E+000
  0.000000000000000E+000
  0.000000000000000E+000
  0.000000000000000E+000
  0.000000000000000E+000
  0.000000000000000E+000
  0.000000000000000E+000
  0.000000000000000E+000
  0.000000000000000E+000
  0.000000000000000E+000
  0.000000000000000E+000
  0.000000000000000E+000
  0.000000000000000E+000
  0.000000000000000E+000
  0.000000000000000E+000
  0.000000000000000E+000
  0.000000000000000E+000
  0.000000000000000E+000
  0.000000000000000E+000
  0.000000000000000E+000
  0.000000000000000E+000
  0.000000000000000E+000
  0.000000000000000E+000
  0.000000000000000E+000
  0.000000000000000E+000
  0.000000000000000E+000
  0.000000000000000E+000
  0.000000000000000E+000
  0.000000000000000E+000
  0.000000000000000E+000
  0.000000000000000E+000
  0.000000000000000E+000
  0.000000000000000E+000
  0.000000000000000E+000
  0.000000000000000E+000
  0.000000000000000E+000
  0.000000000000000E+000
  0.000000000000000E+000
  0.000000000000000E+000
  0.000000000000000E+000
  0.000000000000000E+000
  0.000000000000000E+000
  0.000000000000000E+000
  0.000000000000000E+000
  0.000000000000000E+000
  0.000000000000000E+000
  0.000000000000000E+000
  0.000000000000000E+000
  0.000000000000000E+000
  0.000000000000000E+000
  0.000000000000000E+000
  0.000000000000000E+000
  0.000000000000000E+000
  0.000000000000000E+000
  0.000000000000000E+000
  0.000000000000000E+000
  0.000000000000000E+000
  0.000000000000000E+000
  0.000000000000000E+000
  0.000000000000000E+000
  0.000000000000000E+000
  0.000000000000000E+000
  0.000000000000000E+000
  0.000000000000000E+000
  0.000000000000000E+000
  0.000000000000000E+000
  0.000000000000000E+000
  0.000000000000000E+000
  0.000000000000000E+000
  0.000000000000000E+000
  0.000000000000000E+000
  0.000000000000000E+000
  0.000000000000000E+000
  0.000000000000000E+000
  0.000000000000000E+000
  0.000000000000000E+000
  0.000000000000000E+000
  0.000000000000000E+000
  0.000000000000000E+000
  0.000000000000000E+000
  0.000000000000000E+000
  0.000000000000000E+000
  0.000000000000000E+000
  0.000000000000000E+000
  0.000000000000000E+000
  0.000000000000000E+000
  0.000000000000000E+000
  0.000000000000000E+000
  0.000000000000000E+000
  0.000000000000000E+000
  0.000000000000000E+000
  0.000000000000000E+000
  0.000000000000000E+000
  0.000000000000000E+000
  0.000000000000000E+000
  0.000000000000000E+000
  0.000000000000000E+000
  0.000000000000000E+000
  0.000000000000000E+000
  0.000000000000000E+000
  0.000000000000000E+000
  0.000000000000000E+000
  0.000000000000000E+000
  0.000000000000000E+000
  0.000000000000000E+000
  0.000000000000000E+000
  0.000000000000000E+000
  0.000000000000000E+000
  0.000000000000000E+000
  0.000000000000000E+000
  0.000000000000000E+000
  0.000000000000000E+000
  0.000000000000000E+000
  0.000000000000000E+000
  0.000000000000000E+000
  0.000000000000000E+000
  0.000000000000000E+000
  0.000000000000000E+000
  0.000000000000000E+000
  0.000000000000000E+000
  0.000000000000000E+000
  0.000000000000000E+000
  0.000000000000000E+000
  0.000000000000000E+000
  0.000000000000000E+000
  0.000000000000000E+000
  0.000000000000000E+000
  0.000000000000000E+000
  0.000000000000000E+000
  0.000000000000000E+000
  0.000000000000000E+000
  0.000000000000000E+000
  0.000000000000000E+000
  0.000000000000000E+000
  0.000000000000000E+000
  0.000000000000000E+000
  0.000000000000000E+000
  0.000000000000000E+000
  0.000000000000000E+000
  0.000000000000000E+000
  0.000000000000000E+000
  0.000000000000000E+000
  0.000000000000000E+000
  0.000000000000000E+000
  0.000000000000000E+000
  0.000000000000000E+000
  0.000000000000000E+000
  0.000000000000000E+000
  0.000000000000000E+000
  0.000000000000000E+000
  0.000000000000000E+000
  0.000000000000000E+000
  0.000000000000000E+000
  0.000000000000000E+000
  0.000000000000000E+000
  0.000000000000000E+000
  0.000000000000000E+000
  0.000000000000000E+000
  0.000000000000000E+000
  0.000000000000000E+000
  0.000000000000000E+000
  0.000000000000000E+000
  0.000000000000000E+000
  0.000000000000000E+000
  0.000000000000000E+000
  0.000000000000000E+000
  0.000000000000000E+000
  0.000000000000000E+000
  0.000000000000000E+000
  0.000000000000000E+000
  0.000000000000000E+000
  0.000000000000000E+000
  0.000000000000000E+000
  0.000000000000000E+000
  0.000000000000000E+000
  0.000000000000000E+000
  0.000000000000000E+000
  0.000000000000000E+000
  0.000000000000000E+000
  0.000000000000000E+000
  0.000000000000000E+000
  0.000000000000000E+000
  0.000000000000000E+000
  0.000000000000000E+000
  0.000000000000000E+000
  0.000000000000000E+000
  0.000000000000000E+000
  0.000000000000000E+000
  0.000000000000000E+000
  0.000000000000000E+000
  0.000000000000000E+000
  0.000000000000000E+000
  0.000000000000000E+000
  0.000000000000000E+000
  0.000000000000000E+000
  0.000000000000000E+000
  0.000000000000000E+000
  0.000000000000000E+000
  0.000000000000000E+000
  0.000000000000000E+000
  0.000000000000000E+000
  0.000000000000000E+000
  0.000000000000000E+000
  0.000000000000000E+000
  0.000000000000000E+000
  0.000000000000000E+000
  0.000000000000000E+000
  0.000000000000000E+000
  0.000000000000000E+000
  0.000000000000000E+000
  0.000000000000000E+000
  0.000000000000000E+000
  0.000000000000000E+000
  0.000000000000000E+000
  0.000000000000000E+000
  0.000000000000000E+000
  0.000000000000000E+000
  0.000000000000000E+000
  0.000000000000000E+000
  0.000000000000000E+000
  0.000000000000000E+000
  0.000000000000000E+000
  0.000000000000000E+000
  0.000000000000000E+000
  0.000000000000000E+000
  0.000000000000000E+000
  0.000000000000000E+000
  0.000000000000000E+000
  0.000000000000000E+000
  0.000000000000000E+000
  0.000000000000000E+000
  0.000000000000000E+000
  0.000000000000000E+000
  0.000000000000000E+000
  0.000000000000000E+000
  0.000000000000000E+000
  0.000000000000000E+000
  0.000000000000000E+000
  0.000000000000000E+000
  0.000000000000000E+000
  0.000000000000000E+000
  0.000000000000000E+000
  0.000000000000000E+000
  0.000000000000000E+000
  0.000000000000000E+000
  0.000000000000000E+000
  0.000000000000000E+000
  0.000000000000000E+000
  0.000000000000000E+000
  0.000000000000000E+000
  0.000000000000000E+000
  0.000000000000000E+000
  0.000000000000000E+000
  0.000000000000000E+000
  0.000000000000000E+000
  0.000000000000000E+000
  0.000000000000000E+000
  0.000000000000000E+000
  0.000000000000000E+000
  0.000000000000000E+000
  0.000000000000000E+000
  0.000000000000000E+000
  0.000000000000000E+000
  0.000000000000000E+000
  0.000000000000000E+000
  0.000000000000000E+000
  0.000000000000000E+000
  0.000000000000000E+000
  0.000000000000000E+000
  0.000000000000000E+000
  0.000000000000000E+000
  0.000000000000000E+000
  0.000000000000000E+000
  0.000000000000000E+000
  0.000000000000000E+000
  0.000000000000000E+000
  0.000000000000000E+000
  0.000000000000000E+000
  0.000000000000000E+000
  0.000000000000000E+000
  0.000000000000000E+000
  0.000000000000000E+000
  0.000000000000000E+000
  0.000000000000000E+000
  0.000000000000000E+000
  0.000000000000000E+000
  0.000000000000000E+000
  0.000000000000000E+000
  0.000000000000000E+000
  0.000000000000000E+000
  0.000000000000000E+000
  0.000000000000000E+000
  0.000000000000000E+000
  0.000000000000000E+000
  0.000000000000000E+000
  0.000000000000000E+000
  0.000000000000000E+000
  0.000000000000000E+000
  0.000000000000000E+000
  0.000000000000000E+000
  0.000000000000000E+000
  0.000000000000000E+000
  0.000000000000000E+000
  0.000000000000000E+000
  0.000000000000000E+000
  0.000000000000000E+000
  0.000000000000000E+000
  0.000000000000000E+000
  0.000000000000000E+000
  0.000000000000000E+000
  0.000000000000000E+000
  0.000000000000000E+000
  0.000000000000000E+000
  0.000000000000000E+000
  0.000000000000000E+000
  0.000000000000000E+000
  0.000000000000000E+000
  0.000000000000000E+000
  0.000000000000000E+000
  0.000000000000000E+000
  0.000000000000000E+000
  0.000000000000000E+000
  0.000000000000000E+000
  0.000000000000000E+000
  0.000000000000000E+000
  0.000000000000000E+000
  0.000000000000000E+000
  0.000000000000000E+000
  0.000000000000000E+000
  0.000000000000000E+000
  0.000000000000000E+000
  0.000000000000000E+000
  0.000000000000000E+000
  0.000000000000000E+000
  0.000000000000000E+000
  0.000000000000000E+000
  0.000000000000000E+000
  0.000000000000000E+000
  0.000000000000000E+000
  0.000000000000000E+000
  0.000000000000000E+000
  0.000000000000000E+000
  0.000000000000000E+000
  0.000000000000000E+000
  0.000000000000000E+000
  0.000000000000000E+000
  0.000000000000000E+000
  0.000000000000000E+000
  0.000000000000000E+000
  0.000000000000000E+000
  0.000000000000000E+000
  0.000000000000000E+000
  0.000000000000000E+000
  0.000000000000000E+000
  0.000000000000000E+000
  0.000000000000000E+000
  0.000000000000000E+000
  0.000000000000000E+000
  0.000000000000000E+000
  0.000000000000000E+000
  0.000000000000000E+000
  0.000000000000000E+000
  0.000000000000000E+000
  0.000000000000000E+000
  0.000000000000000E+000
  0.000000000000000E+000
  0.000000000000000E+000
  0.000000000000000E+000
  0.000000000000000E+000
  0.000000000000000E+000
  0.000000000000000E+000
  0.000000000000000E+000
  0.000000000000000E+000
  0.000000000000000E+000
  0.000000000000000E+000
  0.000000000000000E+000
  0.000000000000000E+000
  0.000000000000000E+000
  0.000000000000000E+000
  0.000000000000000E+000
  0.000000000000000E+000
  0.000000000000000E+000
  0.000000000000000E+000
  0.000000000000000E+000
  0.000000000000000E+000
  0.000000000000000E+000
  0.000000000000000E+000
  0.000000000000000E+000
  0.000000000000000E+000
  0.000000000000000E+000
  0.000000000000000E+000
  0.000000000000000E+000
  0.000000000000000E+000
  0.000000000000000E+000
  0.000000000000000E+000
  0.000000000000000E+000
  0.000000000000000E+000
  0.000000000000000E+000
  0.000000000000000E+000
  0.000000000000000E+000
  0.000000000000000E+000
  0.000000000000000E+000
  0.000000000000000E+000
  0.000000000000000E+000
  0.000000000000000E+000
  0.000000000000000E+000
  0.000000000000000E+000
  0.000000000000000E+000
  0.000000000000000E+000
  0.000000000000000E+000
  0.000000000000000E+000
  0.000000000000000E+000
  0.000000000000000E+000
  0.000000000000000E+000
  0.000000000000000E+000
  0.000000000000000E+000
  0.000000000000000E+000
  0.000000000000000E+000
  0.000000000000000E+000
  0.000000000000000E+000
  0.000000000000000E+000
  0.000000000000000E+000
  0.000000000000000E+000
  0.000000000000000E+000
  0.000000000000000E+000
  0.000000000000000E+000
  0.000000000000000E+000
  0.000000000000000E+000
  0.000000000000000E+000
  0.000000000000000E+000
  0.000000000000000E+000
  0.000000000000000E+000
  0.000000000000000E+000
  0.000000000000000E+000
  0.000000000000000E+000
  0.000000000000000E+000
  0.000000000000000E+000
  0.000000000000000E+000
  0.000000000000000E+000
  0.000000000000000E+000
  0.000000000000000E+000
  0.000000000000000E+000
  0.000000000000000E+000
  0.000000000000000E+000
  0.000000000000000E+000
  0.000000000000000E+000
  0.000000000000000E+000
  0.000000000000000E+000
  0.000000000000000E+000
  0.000000000000000E+000
  0.000000000000000E+000
  0.000000000000000E+000
  0.000000000000000E+000
  0.000000000000000E+000
  0.000000000000000E+000
  0.000000000000000E+000
  0.000000000000000E+000
  0.000000000000000E+000
  0.000000000000000E+000
  0.000000000000000E+000
  0.000000000000000E+000
  0.000000000000000E+000
  0.000000000000000E+000
  0.000000000000000E+000
  0.000000000000000E+000
  0.000000000000000E+000
  0.000000000000000E+000
  0.000000000000000E+000
  0.000000000000000E+000
  0.000000000000000E+000
  0.000000000000000E+000
  0.000000000000000E+000
  0.000000000000000E+000
  0.000000000000000E+000
  0.000000000000000E+000
  0.000000000000000E+000
  0.000000000000000E+000
  0.000000000000000E+000
  0.000000000000000E+000
  0.000000000000000E+000
  0.000000000000000E+000
  0.000000000000000E+000
  0.000000000000000E+000
  0.000000000000000E+000
  0.000000000000000E+000
  0.000000000000000E+000
  0.000000000000000E+000
  0.000000000000000E+000
  0.000000000000000E+000
  0.000000000000000E+000
  0.000000000000000E+000
  0.000000000000000E+000
  0.000000000000000E+000
  0.000000000000000E+000
  0.000000000000000E+000
  0.000000000000000E+000
  0.000000000000000E+000
  0.000000000000000E+000
  0.000000000000000E+000
  0.000000000000000E+000
  0.000000000000000E+000
  0.000000000000000E+000
  0.000000000000000E+000
  0.000000000000000E+000
  0.000000000000000E+000
  0.000000000000000E+000
  0.000000000000000E+000
  0.000000000000000E+000
  0.000000000000000E+000
  0.000000000000000E+000
  0.000000000000000E+000
  0.000000000000000E+000
  0.000000000000000E+000
  0.000000000000000E+000
  0.000000000000000E+000
  0.000000000000000E+000
  0.000000000000000E+000
  0.000000000000000E+000
  0.000000000000000E+000
  0.000000000000000E+000
  0.000000000000000E+000
  0.000000000000000E+000
  0.000000000000000E+000
  0.000000000000000E+000
  0.000000000000000E+000
  0.000000000000000E+000
  0.000000000000000E+000
  0.000000000000000E+000
  0.000000000000000E+000
  0.000000000000000E+000
  0.000000000000000E+000
  0.000000000000000E+000
  0.000000000000000E+000
  0.000000000000000E+000
  0.000000000000000E+000
  0.000000000000000E+000
  0.000000000000000E+000
  0.000000000000000E+000
  0.000000000000000E+000
  0.000000000000000E+000
  0.000000000000000E+000
  0.000000000000000E+000
  0.000000000000000E+000
  0.000000000000000E+000
  0.000000000000000E+000
  0.000000000000000E+000
  0.000000000000000E+000
  0.000000000000000E+000
  0.000000000000000E+000
  0.000000000000000E+000
  0.000000000000000E+000
  0.000000000000000E+000
  0.000000000000000E+000
  0.000000000000000E+000
  0.000000000000000E+000
  0.000000000000000E+000
  0.000000000000000E+000
  0.000000000000000E+000
  0.000000000000000E+000
  0.000000000000000E+000
  0.000000000000000E+000
  0.000000000000000E+000
  0.000000000000000E+000
  0.000000000000000E+000
  0.000000000000000E+000
  0.000000000000000E+000
  0.000000000000000E+000
  0.000000000000000E+000
  0.000000000000000E+000
  0.000000000000000E+000
  0.000000000000000E+000
  0.000000000000000E+000
  0.000000000000000E+000
  0.000000000000000E+000
  0.000000000000000E+000
  0.000000000000000E+000
  0.000000000000000E+000
  0.000000000000000E+000
  0.000000000000000E+000
  0.000000000000000E+000
  0.000000000000000E+000
  0.000000000000000E+000
  0.000000000000000E+000
  0.000000000000000E+000
  0.000000000000000E+000
  0.000000000000000E+000
  0.000000000000000E+000
  0.000000000000000E+000
  0.000000000000000E+000
  0.000000000000000E+000
  0.000000000000000E+000
  0.000000000000000E+000
  0.000000000000000E+000
  0.000000000000000E+000
  0.000000000000000E+000
  0.000000000000000E+000
  0.000000000000000E+000
  0.000000000000000E+000
  0.000000000000000E+000
  0.000000000000000E+000
  0.000000000000000E+000
  0.000000000000000E+000
  0.000000000000000E+000
  0.000000000000000E+000
  0.000000000000000E+000
  0.000000000000000E+000
  0.000000000000000E+000
  0.000000000000000E+000
  0.000000000000000E+000
  0.000000000000000E+000
  0.000000000000000E+000
  0.000000000000000E+000
  0.000000000000000E+000
  0.000000000000000E+000
  0.000000000000000E+000
  0.000000000000000E+000
  0.000000000000000E+000
  0.000000000000000E+000
  0.000000000000000E+000
  0.000000000000000E+000
  0.000000000000000E+000
  0.000000000000000E+000
  0.000000000000000E+000
  0.000000000000000E+000
  0.000000000000000E+000
  0.000000000000000E+000
  0.000000000000000E+000
  0.000000000000000E+000
  0.000000000000000E+000
  0.000000000000000E+000
  0.000000000000000E+000
  0.000000000000000E+000
  0.000000000000000E+000
  0.000000000000000E+000
  0.000000000000000E+000
  0.000000000000000E+000
  0.000000000000000E+000
  0.000000000000000E+000
  0.000000000000000E+000
  0.000000000000000E+000
  0.000000000000000E+000
  0.000000000000000E+000
  0.000000000000000E+000
  0.000000000000000E+000
  0.000000000000000E+000
  0.000000000000000E+000
  0.000000000000000E+000
  0.000000000000000E+000
  0.000000000000000E+000
  0.000000000000000E+000
  0.000000000000000E+000
  0.000000000000000E+000
  0.000000000000000E+000
  0.000000000000000E+000
  0.000000000000000E+000
  0.000000000000000E+000
  0.000000000000000E+000
  0.000000000000000E+000
  0.000000000000000E+000
  0.000000000000000E+000
  0.000000000000000E+000
  0.000000000000000E+000
  0.000000000000000E+000
  0.000000000000000E+000
  0.000000000000000E+000
  0.000000000000000E+000
  0.000000000000000E+000
  0.000000000000000E+000
  0.000000000000000E+000
  0.000000000000000E+000
  0.000000000000000E+000
  0.000000000000000E+000
  0.000000000000000E+000
  0.000000000000000E+000
  0.000000000000000E+000
  0.000000000000000E+000
  0.000000000000000E+000
  0.000000000000000E+000
  0.000000000000000E+000
  0.000000000000000E+000
  0.000000000000000E+000
  0.000000000000000E+000
  0.000000000000000E+000
  0.000000000000000E+000
  0.000000000000000E+000
  0.000000000000000E+000
  0.000000000000000E+000
  0.000000000000000E+000
  0.000000000000000E+000
  0.000000000000000E+000
  0.000000000000000E+000
  0.000000000000000E+000
  0.000000000000000E+000
  0.000000000000000E+000
  0.000000000000000E+000
  0.000000000000000E+000
  0.000000000000000E+000
  0.000000000000000E+000
  0.000000000000000E+000
  0.000000000000000E+000
  0.000000000000000E+000
  0.000000000000000E+000
  0.000000000000000E+000
  0.000000000000000E+000
  0.000000000000000E+000
  0.000000000000000E+000
  0.000000000000000E+000
  0.000000000000000E+000
  0.000000000000000E+000
  0.000000000000000E+000
  0.000000000000000E+000
  0.000000000000000E+000
  0.000000000000000E+000
  0.000000000000000E+000
  0.000000000000000E+000
  0.000000000000000E+000
  0.000000000000000E+000
  0.000000000000000E+000
  0.000000000000000E+000
  0.000000000000000E+000
  0.000000000000000E+000
  0.000000000000000E+000
  0.000000000000000E+000
  0.000000000000000E+000
  0.000000000000000E+000
  0.000000000000000E+000
  0.000000000000000E+000
  0.000000000000000E+000
  0.000000000000000E+000
  0.000000000000000E+000
  0.000000000000000E+000
  0.000000000000000E+000
  0.000000000000000E+000
  0.000000000000000E+000
  0.000000000000000E+000
  0.000000000000000E+000
  0.000000000000000E+000
  0.000000000000000E+000
  0.000000000000000E+000
  0.000000000000000E+000
  0.000000000000000E+000
  0.000000000000000E+000
  0.000000000000000E+000
  0.000000000000000E+000
  0.000000000000000E+000
  0.000000000000000E+000
  0.000000000000000E+000
  0.000000000000000E+000
  0.000000000000000E+000
  0.000000000000000E+000
  0.000000000000000E+000
  0.000000000000000E+000
  0.000000000000000E+000
  0.000000000000000E+000
  0.000000000000000E+000
  0.000000000000000E+000
  0.000000000000000E+000
  0.000000000000000E+000
  0.000000000000000E+000
  0.000000000000000E+000
  0.000000000000000E+000
  0.000000000000000E+000
  0.000000000000000E+000
  0.000000000000000E+000
  0.000000000000000E+000
  0.000000000000000E+000
  0.000000000000000E+000
  0.000000000000000E+000
  0.000000000000000E+000
  0.000000000000000E+000
  0.000000000000000E+000
  0.000000000000000E+000
  0.000000000000000E+000
  0.000000000000000E+000
  0.000000000000000E+000
  0.000000000000000E+000
  0.000000000000000E+000
  0.000000000000000E+000
  0.000000000000000E+000
  0.000000000000000E+000
  0.000000000000000E+000
  0.000000000000000E+000
  0.000000000000000E+000
  0.000000000000000E+000
  0.000000000000000E+000
  0.000000000000000E+000
  0.000000000000000E+000
  0.000000000000000E+000
  0.000000000000000E+000
  0.000000000000000E+000
  0.000000000000000E+000
  0.000000000000000E+000
  0.000000000000000E+000
  0.000000000000000E+000
  0.000000000000000E+000
  0.000000000000000E+000
  0.000000000000000E+000
  0.000000000000000E+000
  0.000000000000000E+000
  0.000000000000000E+000
  0.000000000000000E+000
  0.000000000000000E+000
  0.000000000000000E+000
  0.000000000000000E+000
  0.000000000000000E+000
  0.000000000000000E+000
  0.000000000000000E+000
  0.000000000000000E+000
  0.000000000000000E+000
  0.000000000000000E+000
  0.000000000000000E+000
  0.000000000000000E+000
  0.000000000000000E+000
  0.000000000000000E+000
  0.000000000000000E+000
  0.000000000000000E+000
  0.000000000000000E+000
  0.000000000000000E+000
  0.000000000000000E+000
  0.000000000000000E+000
  0.000000000000000E+000
  0.000000000000000E+000
  0.000000000000000E+000
  0.000000000000000E+000
  0.000000000000000E+000
  0.000000000000000E+000
  0.000000000000000E+000
  0.000000000000000E+000
  0.000000000000000E+000
  0.000000000000000E+000
  0.000000000000000E+000
  0.000000000000000E+000
  0.000000000000000E+000
  0.000000000000000E+000
  0.000000000000000E+000
  0.000000000000000E+000
  0.000000000000000E+000
  0.000000000000000E+000
  0.000000000000000E+000
  0.000000000000000E+000
  0.000000000000000E+000
  0.000000000000000E+000
  0.000000000000000E+000
  0.000000000000000E+000
  0.000000000000000E+000
  0.000000000000000E+000
  0.000000000000000E+000
  0.000000000000000E+000
  0.000000000000000E+000
  0.000000000000000E+000
  0.000000000000000E+000
  0.000000000000000E+000
  0.000000000000000E+000
  0.000000000000000E+000
  0.000000000000000E+000
  0.000000000000000E+000
  0.000000000000000E+000
  0.000000000000000E+000
  0.000000000000000E+000
  0.000000000000000E+000
  0.000000000000000E+000
  0.000000000000000E+000
  0.000000000000000E+000
  0.000000000000000E+000
  0.000000000000000E+000
  0.000000000000000E+000
  0.000000000000000E+000
  0.000000000000000E+000
  0.000000000000000E+000
  0.000000000000000E+000
  0.000000000000000E+000
  0.000000000000000E+000
  0.000000000000000E+000
  0.000000000000000E+000
  0.000000000000000E+000
  0.000000000000000E+000
  0.000000000000000E+000
  0.000000000000000E+000
  0.000000000000000E+000
  0.000000000000000E+000
  0.000000000000000E+000
  0.000000000000000E+000
  0.000000000000000E+000
  0.000000000000000E+000
  0.000000000000000E+000
  0.000000000000000E+000
  0.000000000000000E+000
  0.000000000000000E+000
  0.000000000000000E+000
  0.000000000000000E+000
  0.000000000000000E+000
  0.000000000000000E+000
  0.000000000000000E+000
  0.000000000000000E+000
  0.000000000000000E+000
  0.000000000000000E+000
  0.000000000000000E+000
  0.000000000000000E+000
  0.000000000000000E+000
  0.000000000000000E+000
  0.000000000000000E+000
  0.000000000000000E+000
  0.000000000000000E+000
  0.000000000000000E+000
  0.000000000000000E+000
  0.000000000000000E+000
  0.000000000000000E+000
  0.000000000000000E+000
  0.000000000000000E+000
  0.000000000000000E+000
  0.000000000000000E+000
  0.000000000000000E+000
  0.000000000000000E+000
  0.000000000000000E+000
  0.000000000000000E+000
  0.000000000000000E+000
  0.000000000000000E+000
  0.000000000000000E+000
  0.000000000000000E+000
  0.000000000000000E+000
  0.000000000000000E+000
  0.000000000000000E+000
  0.000000000000000E+000
  0.000000000000000E+000
  0.000000000000000E+000
  0.000000000000000E+000
  0.000000000000000E+000
  0.000000000000000E+000
  0.000000000000000E+000
  0.000000000000000E+000
  0.000000000000000E+000
  0.000000000000000E+000
  0.000000000000000E+000
  0.000000000000000E+000
  0.000000000000000E+000
  0.000000000000000E+000
  0.000000000000000E+000
  0.000000000000000E+000
  0.000000000000000E+000
  0.000000000000000E+000
  0.000000000000000E+000
  0.000000000000000E+000
  0.000000000000000E+000
  0.000000000000000E+000
  0.000000000000000E+000
  0.000000000000000E+000
  0.000000000000000E+000
  0.000000000000000E+000
  0.000000000000000E+000
  0.000000000000000E+000
  0.000000000000000E+000
  0.000000000000000E+000
  0.000000000000000E+000
  0.000000000000000E+000
  0.000000000000000E+000
  0.000000000000000E+000
  0.000000000000000E+000
  0.000000000000000E+000
  0.000000000000000E+000
  0.000000000000000E+000
  0.000000000000000E+000
  0.000000000000000E+000
  0.000000000000000E+000
  0.000000000000000E+000
  0.000000000000000E+000
  0.000000000000000E+000
  0.000000000000000E+000
  0.000000000000000E+000
  0.000000000000000E+000
  0.000000000000000E+000
  0.000000000000000E+000
  0.000000000000000E+000
  0.000000000000000E+000
  0.000000000000000E+000
  0.000000000000000E+000
  0.000000000000000E+000
  0.000000000000000E+000
  0.000000000000000E+000
  0.000000000000000E+000
  0.000000000000000E+000
  0.000000000000000E+000
  0.000000000000000E+000
  0.000000000000000E+000
  0.000000000000000E+000
  0.000000000000000E+000
  0.000000000000000E+000
  0.000000000000000E+000
  0.000000000000000E+000
  0.000000000000000E+000
  0.000000000000000E+000
  0.000000000000000E+000
  0.000000000000000E+000
  0.000000000000000E+000
  0.000000000000000E+000
  0.000000000000000E+000
  0.000000000000000E+000
  0.000000000000000E+000
  0.000000000000000E+000
  0.000000000000000E+000
  0.000000000000000E+000
  0.000000000000000E+000
  0.000000000000000E+000
  0.000000000000000E+000
  0.000000000000000E+000
  0.000000000000000E+000
  0.000000000000000E+000
  0.000000000000000E+000
  0.000000000000000E+000
  0.000000000000000E+000
  0.000000000000000E+000
  0.000000000000000E+000
  0.000000000000000E+000
  0.000000000000000E+000
  0.000000000000000E+000
  0.000000000000000E+000
  0.000000000000000E+000
  0.000000000000000E+000
  0.000000000000000E+000
  0.000000000000000E+000
  0.000000000000000E+000
  0.000000000000000E+000
  0.000000000000000E+000
  0.000000000000000E+000
  0.000000000000000E+000
  0.000000000000000E+000
  0.000000000000000E+000
  0.000000000000000E+000
  0.000000000000000E+000
  0.000000000000000E+000
  0.000000000000000E+000
  0.000000000000000E+000
  0.000000000000000E+000
  0.000000000000000E+000
  0.000000000000000E+000
  0.000000000000000E+000
  0.000000000000000E+000
  0.000000000000000E+000
  0.000000000000000E+000
  0.000000000000000E+000
  0.000000000000000E+000
  0.000000000000000E+000
  0.000000000000000E+000
  0.000000000000000E+000
  0.000000000000000E+000
  0.000000000000000E+000
  0.000000000000000E+000
  0.000000000000000E+000
  0.000000000000000E+000
  0.000000000000000E+000
  0.000000000000000E+000
  0.000000000000000E+000
  0.000000000000000E+000
  0.000000000000000E+000
  0.000000000000000E+000
  0.000000000000000E+000
  0.000000000000000E+000
  0.000000000000000E+000
  0.000000000000000E+000
  0.000000000000000E+000
  0.000000000000000E+000
  0.000000000000000E+000
  0.000000000000000E+000
  0.000000000000000E+000
  0.000000000000000E+000
  0.000000000000000E+000
  0.000000000000000E+000
  0.000000000000000E+000
  0.000000000000000E+000
  0.000000000000000E+000
  0.000000000000000E+000
  0.000000000000000E+000
  0.000000000000000E+000
  0.000000000000000E+000
  0.000000000000000E+000
  0.000000000000000E+000
  0.000000000000000E+000
  0.000000000000000E+000
  0.000000000000000E+000
  0.000000000000000E+000
  0.000000000000000E+000
  0.000000000000000E+000
  0.000000000000000E+000
  0.000000000000000E+000
  0.000000000000000E+000
  0.000000000000000E+000
  0.000000000000000E+000
  0.000000000000000E+000
  0.000000000000000E+000
  0.000000000000000E+000
  0.000000000000000E+000
  0.000000000000000E+000
  0.000000000000000E+000
  0.000000000000000E+000
  0.000000000000000E+000
  0.000000000000000E+000
  0.000000000000000E+000
  0.000000000000000E+000
  0.000000000000000E+000
  0.000000000000000E+000
  0.000000000000000E+000
  0.000000000000000E+000
  0.000000000000000E+000
  0.000000000000000E+000
  0.000000000000000E+000
  0.000000000000000E+000
  0.000000000000000E+000
  0.000000000000000E+000
  0.000000000000000E+000
  0.000000000000000E+000
  0.000000000000000E+000
  0.000000000000000E+000
  0.000000000000000E+000
  0.000000000000000E+000
  0.000000000000000E+000
  0.000000000000000E+000
  0.000000000000000E+000
  0.000000000000000E+000
  0.000000000000000E+000
  0.000000000000000E+000
  0.000000000000000E+000
  0.000000000000000E+000
  0.000000000000000E+000
  0.000000000000000E+000
  0.000000000000000E+000
  0.000000000000000E+000
  0.000000000000000E+000
  0.000000000000000E+000
  0.000000000000000E+000
  0.000000000000000E+000
  0.000000000000000E+000
  0.000000000000000E+000
  0.000000000000000E+000
  0.000000000000000E+000
  0.000000000000000E+000
  0.000000000000000E+000
  0.000000000000000E+000
  0.000000000000000E+000
  0.000000000000000E+000
  0.000000000000000E+000
  0.000000000000000E+000
  0.000000000000000E+000
  0.000000000000000E+000
  0.000000000000000E+000
  0.000000000000000E+000
  0.000000000000000E+000
  0.000000000000000E+000
  0.000000000000000E+000
  0.000000000000000E+000
  0.000000000000000E+000
  0.000000000000000E+000
  0.000000000000000E+000
  0.000000000000000E+000
  0.000000000000000E+000
  0.000000000000000E+000
  0.000000000000000E+000
  0.000000000000000E+000
  0.000000000000000E+000
  0.000000000000000E+000
  0.000000000000000E+000
  0.000000000000000E+000
  0.000000000000000E+000
  0.000000000000000E+000
  0.000000000000000E+000
  0.000000000000000E+000
  0.000000000000000E+000
  0.000000000000000E+000
  0.000000000000000E+000
  0.000000000000000E+000
  0.000000000000000E+000
  0.000000000000000E+000
  0.000000000000000E+000
  0.000000000000000E+000
  0.000000000000000E+000
  0.000000000000000E+000
  0.000000000000000E+000
  0.000000000000000E+000
  0.000000000000000E+000
  0.000000000000000E+000
  0.000000000000000E+000
  0.000000000000000E+000
  0.000000000000000E+000
  0.000000000000000E+000
  0.000000000000000E+000
  0.000000000000000E+000
  0.000000000000000E+000
  0.000000000000000E+000
  0.000000000000000E+000
  0.000000000000000E+000
  0.000000000000000E+000
  0.000000000000000E+000
  0.000000000000000E+000
  0.000000000000000E+000
  0.000000000000000E+000
  0.000000000000000E+000
  0.000000000000000E+000
  0.000000000000000E+000
  0.000000000000000E+000
  0.000000000000000E+000
  0.000000000000000E+000
  0.000000000000000E+000
  0.000000000000000E+000
  0.000000000000000E+000
  0.000000000000000E+000
  0.000000000000000E+000
  0.000000000000000E+000
  0.000000000000000E+000
  0.000000000000000E+000
  0.000000000000000E+000
  0.000000000000000E+000
  0.000000000000000E+000
  0.000000000000000E+000
  0.000000000000000E+000
  0.000000000000000E+000
  0.000000000000000E+000
  0.000000000000000E+000
  0.000000000000000E+000
  0.000000000000000E+000
  0.000000000000000E+000
  0.000000000000000E+000
  0.000000000000000E+000
  0.000000000000000E+000
  0.000000000000000E+000
  0.000000000000000E+000
  0.000000000000000E+000
  0.000000000000000E+000
  0.000000000000000E+000
  0.000000000000000E+000
  0.000000000000000E+000
  0.000000000000000E+000
  0.000000000000000E+000
  0.000000000000000E+000
  0.000000000000000E+000
  0.000000000000000E+000
  0.000000000000000E+000
  0.000000000000000E+000
  0.000000000000000E+000
  0.000000000000000E+000
  0.000000000000000E+000
  0.000000000000000E+000
  0.000000000000000E+000
  0.000000000000000E+000
  0.000000000000000E+000
  0.000000000000000E+000
  0.000000000000000E+000
  0.000000000000000E+000
  0.000000000000000E+000
  0.000000000000000E+000
  0.000000000000000E+000
  0.000000000000000E+000
  0.000000000000000E+000
  0.000000000000000E+000
  0.000000000000000E+000
  0.000000000000000E+000
  0.000000000000000E+000
  0.000000000000000E+000
  0.000000000000000E+000
  0.000000000000000E+000
  0.000000000000000E+000
  0.000000000000000E+000
  0.000000000000000E+000
  0.000000000000000E+000
  0.000000000000000E+000
  0.000000000000000E+000
  0.000000000000000E+000
  0.000000000000000E+000
  0.000000000000000E+000
  0.000000000000000E+000
  0.000000000000000E+000
  0.000000000000000E+000
  0.000000000000000E+000
  0.000000000000000E+000
  0.000000000000000E+000
  0.000000000000000E+000
  0.000000000000000E+000
  0.000000000000000E+000
  0.000000000000000E+000
  0.000000000000000E+000
  0.000000000000000E+000
  0.000000000000000E+000
  0.000000000000000E+000
  0.000000000000000E+000
  0.000000000000000E+000
  0.000000000000000E+000
  0.000000000000000E+000
  0.000000000000000E+000
  0.000000000000000E+000
  0.000000000000000E+000
  0.000000000000000E+000
  0.000000000000000E+000
  0.000000000000000E+000
  0.000000000000000E+000
  0.000000000000000E+000
  0.000000000000000E+000
  0.000000000000000E+000
  0.000000000000000E+000
  0.000000000000000E+000
  0.000000000000000E+000
  0.000000000000000E+000
  0.000000000000000E+000
  0.000000000000000E+000
  0.000000000000000E+000
  0.000000000000000E+000
  0.000000000000000E+000
  0.000000000000000E+000
  0.000000000000000E+000
  0.000000000000000E+000
  0.000000000000000E+000
  0.000000000000000E+000
  0.000000000000000E+000
  0.000000000000000E+000
  0.000000000000000E+000
  0.000000000000000E+000
  0.000000000000000E+000
  0.000000000000000E+000
  0.000000000000000E+000
  0.000000000000000E+000
  0.000000000000000E+000
  0.000000000000000E+000
  0.000000000000000E+000
  0.000000000000000E+000
  0.000000000000000E+000
  0.000000000000000E+000
  0.000000000000000E+000
  0.000000000000000E+000
  0.000000000000000E+000
  0.000000000000000E+000
  0.000000000000000E+000
  0.000000000000000E+000
  0.000000000000000E+000
  0.000000000000000E+000
  0.000000000000000E+000
  0.000000000000000E+000
  0.000000000000000E+000
  0.000000000000000E+000
  0.000000000000000E+000
  0.000000000000000E+000
  0.000000000000000E+000
  0.000000000000000E+000
  0.000000000000000E+000
  0.000000000000000E+000
  0.000000000000000E+000
  0.000000000000000E+000
  0.000000000000000E+000
  0.000000000000000E+000
  0.000000000000000E+000
  0.000000000000000E+000
  0.000000000000000E+000
  0.000000000000000E+000
  0.000000000000000E+000
  0.000000000000000E+000
  0.000000000000000E+000
  0.000000000000000E+000
  0.000000000000000E+000
  0.000000000000000E+000
  0.000000000000000E+000
  0.000000000000000E+000
  0.000000000000000E+000
  0.000000000000000E+000
  0.000000000000000E+000
  0.000000000000000E+000
  0.000000000000000E+000
  0.000000000000000E+000
  0.000000000000000E+000
  0.000000000000000E+000
  0.000000000000000E+000
  0.000000000000000E+000
  0.000000000000000E+000
  0.000000000000000E+000
  0.000000000000000E+000
  0.000000000000000E+000
  0.000000000000000E+000
  0.000000000000000E+000
  0.000000000000000E+000
  0.000000000000000E+000
  0.000000000000000E+000
  0.000000000000000E+000
  0.000000000000000E+000
  0.000000000000000E+000
  0.000000000000000E+000
  0.000000000000000E+000
  0.000000000000000E+000
  0.000000000000000E+000
  0.000000000000000E+000
  0.000000000000000E+000
  0.000000000000000E+000
  0.000000000000000E+000
  0.000000000000000E+000
  0.000000000000000E+000
  0.000000000000000E+000
  0.000000000000000E+000
  0.000000000000000E+000
  0.000000000000000E+000
  0.000000000000000E+000
  0.000000000000000E+000
  0.000000000000000E+000
  0.000000000000000E+000
  0.000000000000000E+000
  0.000000000000000E+000
  0.000000000000000E+000
  0.000000000000000E+000
  0.000000000000000E+000
  0.000000000000000E+000
  0.000000000000000E+000
  0.000000000000000E+000
  0.000000000000000E+000
  0.000000000000000E+000
  0.000000000000000E+000
  0.000000000000000E+000
  0.000000000000000E+000
  0.000000000000000E+000
  0.000000000000000E+000
  0.000000000000000E+000
  0.000000000000000E+000
  0.000000000000000E+000
  0.000000000000000E+000
  0.000000000000000E+000
  0.000000000000000E+000
  0.000000000000000E+000
  0.000000000000000E+000
  0.000000000000000E+000
  0.000000000000000E+000
  0.000000000000000E+000
  0.000000000000000E+000
  0.000000000000000E+000
  0.000000000000000E+000
  0.000000000000000E+000
  0.000000000000000E+000
  0.000000000000000E+000
  0.000000000000000E+000
  0.000000000000000E+000
  0.000000000000000E+000
  0.000000000000000E+000
  0.000000000000000E+000
  0.000000000000000E+000
  0.000000000000000E+000
  0.000000000000000E+000
  0.000000000000000E+000
  0.000000000000000E+000
  0.000000000000000E+000
  0.000000000000000E+000
  0.000000000000000E+000
  0.000000000000000E+000
  0.000000000000000E+000
  0.000000000000000E+000
  0.000000000000000E+000
  0.000000000000000E+000
  0.000000000000000E+000
  0.000000000000000E+000
  0.000000000000000E+000
  0.000000000000000E+000
  0.000000000000000E+000
  0.000000000000000E+000
  0.000000000000000E+000
  0.000000000000000E+000
  0.000000000000000E+000
  0.000000000000000E+000
  0.000000000000000E+000
  0.000000000000000E+000
  0.000000000000000E+000
  0.000000000000000E+000
  0.000000000000000E+000
  0.000000000000000E+000
  0.000000000000000E+000
  0.000000000000000E+000
  0.000000000000000E+000
  0.000000000000000E+000
  0.000000000000000E+000
  0.000000000000000E+000
  0.000000000000000E+000
  0.000000000000000E+000
  0.000000000000000E+000
  0.000000000000000E+000
  0.000000000000000E+000
  0.000000000000000E+000
  0.000000000000000E+000
  0.000000000000000E+000
  0.000000000000000E+000
  0.000000000000000E+000
  0.000000000000000E+000
  0.000000000000000E+000
  0.000000000000000E+000
  0.000000000000000E+000
  0.000000000000000E+000
  0.000000000000000E+000
  0.000000000000000E+000
  0.000000000000000E+000
  0.000000000000000E+000
  0.000000000000000E+000
  0.000000000000000E+000
  0.000000000000000E+000
  0.000000000000000E+000
  0.000000000000000E+000
  0.000000000000000E+000
  0.000000000000000E+000
  0.000000000000000E+000
  0.000000000000000E+000
  0.000000000000000E+000
  0.000000000000000E+000
  0.000000000000000E+000
  0.000000000000000E+000
  0.000000000000000E+000
  0.000000000000000E+000
  0.000000000000000E+000
  0.000000000000000E+000
  0.000000000000000E+000
  0.000000000000000E+000
  0.000000000000000E+000
  0.000000000000000E+000
  0.000000000000000E+000
  0.000000000000000E+000
  0.000000000000000E+000
  0.000000000000000E+000
  0.000000000000000E+000
  0.000000000000000E+000
  0.000000000000000E+000
  0.000000000000000E+000
  0.000000000000000E+000
  0.000000000000000E+000
  0.000000000000000E+000
  0.000000000000000E+000
  0.000000000000000E+000
  0.000000000000000E+000
  0.000000000000000E+000
  0.000000000000000E+000
  0.000000000000000E+000
  0.000000000000000E+000
  0.000000000000000E+000
  0.000000000000000E+000
  0.000000000000000E+000
  0.000000000000000E+000
  0.000000000000000E+000
  0.000000000000000E+000
  0.000000000000000E+000
  0.000000000000000E+000
  0.000000000000000E+000
  0.000000000000000E+000
  0.000000000000000E+000
  0.000000000000000E+000
  0.000000000000000E+000
  0.000000000000000E+000
  0.000000000000000E+000
  0.000000000000000E+000
  0.000000000000000E+000
  0.000000000000000E+000
  0.000000000000000E+000
  0.000000000000000E+000
  0.000000000000000E+000
  0.000000000000000E+000
  0.000000000000000E+000
  0.000000000000000E+000
  0.000000000000000E+000
  0.000000000000000E+000
  0.000000000000000E+000
  0.000000000000000E+000
  0.000000000000000E+000
  0.000000000000000E+000
  0.000000000000000E+000
  0.000000000000000E+000
  0.000000000000000E+000
  0.000000000000000E+000
  0.000000000000000E+000
  0.000000000000000E+000
  0.000000000000000E+000
  0.000000000000000E+000
  0.000000000000000E+000
  0.000000000000000E+000
  0.000000000000000E+000
  0.000000000000000E+000
  0.000000000000000E+000
  0.000000000000000E+000
  0.000000000000000E+000
  0.000000000000000E+000
  0.000000000000000E+000
  0.000000000000000E+000
  0.000000000000000E+000
  0.000000000000000E+000
  0.000000000000000E+000
  0.000000000000000E+000
  0.000000000000000E+000
  0.000000000000000E+000
  0.000000000000000E+000
  0.000000000000000E+000
  0.000000000000000E+000
  0.000000000000000E+000
  0.000000000000000E+000
  0.000000000000000E+000
  0.000000000000000E+000
  0.000000000000000E+000
  0.000000000000000E+000
  0.000000000000000E+000
  0.000000000000000E+000
  0.000000000000000E+000
  0.000000000000000E+000
  0.000000000000000E+000
  0.000000000000000E+000
  0.000000000000000E+000
  0.000000000000000E+000
  0.000000000000000E+000
  0.000000000000000E+000
  0.000000000000000E+000
  0.000000000000000E+000
  0.000000000000000E+000
  0.000000000000000E+000
  0.000000000000000E+000
  0.000000000000000E+000
  0.000000000000000E+000
  0.000000000000000E+000
  0.000000000000000E+000
  0.000000000000000E+000
  0.000000000000000E+000
  0.000000000000000E+000
  0.000000000000000E+000
  0.000000000000000E+000
  0.000000000000000E+000
  0.000000000000000E+000
  0.000000000000000E+000
  0.000000000000000E+000
  0.000000000000000E+000
  0.000000000000000E+000
  0.000000000000000E+000
  0.000000000000000E+000
  0.000000000000000E+000
  0.000000000000000E+000
  0.000000000000000E+000
  0.000000000000000E+000
  0.000000000000000E+000
  0.000000000000000E+000
  0.000000000000000E+000
  0.000000000000000E+000
  0.000000000000000E+000
  0.000000000000000E+000
  0.000000000000000E+000
  0.000000000000000E+000
  0.000000000000000E+000
  0.000000000000000E+000
  0.000000000000000E+000
  0.000000000000000E+000
  0.000000000000000E+000
  0.000000000000000E+000
  0.000000000000000E+000
  0.000000000000000E+000
  0.000000000000000E+000
  0.000000000000000E+000
  0.000000000000000E+000
  0.000000000000000E+000
  0.000000000000000E+000
  0.000000000000000E+000
  0.000000000000000E+000
  0.000000000000000E+000
  0.000000000000000E+000
  0.000000000000000E+000
  0.000000000000000E+000
  0.000000000000000E+000
  0.000000000000000E+000
  0.000000000000000E+000
  0.000000000000000E+000
  0.000000000000000E+000
  0.000000000000000E+000
  0.000000000000000E+000
  0.000000000000000E+000
  0.000000000000000E+000
  0.000000000000000E+000
  0.000000000000000E+000
  0.000000000000000E+000
  0.000000000000000E+000
  0.000000000000000E+000
  0.000000000000000E+000
  0.000000000000000E+000
  0.000000000000000E+000
  0.000000000000000E+000
  0.000000000000000E+000
  0.000000000000000E+000
  0.000000000000000E+000
  0.000000000000000E+000
  0.000000000000000E+000
  0.000000000000000E+000
  0.000000000000000E+000
  0.000000000000000E+000
  0.000000000000000E+000
  0.000000000000000E+000
  0.000000000000000E+000
  0.000000000000000E+000
  0.000000000000000E+000
  0.000000000000000E+000
  0.000000000000000E+000
  0.000000000000000E+000
  0.000000000000000E+000
  0.000000000000000E+000
  0.000000000000000E+000
  0.000000000000000E+000
  0.000000000000000E+000
  0.000000000000000E+000
  0.000000000000000E+000
  0.000000000000000E+000
  0.000000000000000E+000
  0.000000000000000E+000
  0.000000000000000E+000
  0.000000000000000E+000
  0.000000000000000E+000
  0.000000000000000E+000
  0.000000000000000E+000
  0.000000000000000E+000
  0.000000000000000E+000
  0.000000000000000E+000
  0.000000000000000E+000
  0.000000000000000E+000
  0.000000000000000E+000
  0.000000000000000E+000
  0.000000000000000E+000
  0.000000000000000E+000
  0.000000000000000E+000
  0.000000000000000E+000
  0.000000000000000E+000
  0.000000000000000E+000
  0.000000000000000E+000
  0.000000000000000E+000
  0.000000000000000E+000
  0.000000000000000E+000
  0.000000000000000E+000
  0.000000000000000E+000
  0.000000000000000E+000
  0.000000000000000E+000
  0.000000000000000E+000
  0.000000000000000E+000
  0.000000000000000E+000
  0.000000000000000E+000
  0.000000000000000E+000
  0.000000000000000E+000
  0.000000000000000E+000
  0.000000000000000E+000
  0.000000000000000E+000
  0.000000000000000E+000
  0.000000000000000E+000
  0.000000000000000E+000
  0.000000000000000E+000
  0.000000000000000E+000
  0.000000000000000E+000
  0.000000000000000E+000
  0.000000000000000E+000
  0.000000000000000E+000
  0.000000000000000E+000
  0.000000000000000E+000
  0.000000000000000E+000
  0.000000000000000E+000
  0.000000000000000E+000
  0.000000000000000E+000
  0.000000000000000E+000
  0.000000000000000E+000
  0.000000000000000E+000
  0.000000000000000E+000
  0.000000000000000E+000
  0.000000000000000E+000
  0.000000000000000E+000
  0.000000000000000E+000
  0.000000000000000E+000
  0.000000000000000E+000
  0.000000000000000E+000
  0.000000000000000E+000
  0.000000000000000E+000
  0.000000000000000E+000
  0.000000000000000E+000
  0.000000000000000E+000
  0.000000000000000E+000
  0.000000000000000E+000
  0.000000000000000E+000
  0.000000000000000E+000
  0.000000000000000E+000
  0.000000000000000E+000
  0.000000000000000E+000
  0.000000000000000E+000
  0.000000000000000E+000
  0.000000000000000E+000
  0.000000000000000E+000
  0.000000000000000E+000
  0.000000000000000E+000
  0.000000000000000E+000
  0.000000000000000E+000
  0.000000000000000E+000
  0.000000000000000E+000
  0.000000000000000E+000
  0.000000000000000E+000
  0.000000000000000E+000
  0.000000000000000E+000
  0.000000000000000E+000
  0.000000000000000E+000
  0.000000000000000E+000
  0.000000000000000E+000
  0.000000000000000E+000
  0.000000000000000E+000
  0.000000000000000E+000
  0.000000000000000E+000
  0.000000000000000E+000
  0.000000000000000E+000
  0.000000000000000E+000
  0.000000000000000E+000
  0.000000000000000E+000
  0.000000000000000E+000
  0.000000000000000E+000
  0.000000000000000E+000
  0.000000000000000E+000
  0.000000000000000E+000
  0.000000000000000E+000
  0.000000000000000E+000
  0.000000000000000E+000
  0.000000000000000E+000
  0.000000000000000E+000
  0.000000000000000E+000
  0.000000000000000E+000
  0.000000000000000E+000
  0.000000000000000E+000
  0.000000000000000E+000
  0.000000000000000E+000
  0.000000000000000E+000
  0.000000000000000E+000
  0.000000000000000E+000
  0.000000000000000E+000
  0.000000000000000E+000
  0.000000000000000E+000
  0.000000000000000E+000
  0.000000000000000E+000
  0.000000000000000E+000
  0.000000000000000E+000
  0.000000000000000E+000
  0.000000000000000E+000
  0.000000000000000E+000
  0.000000000000000E+000
  0.000000000000000E+000
  0.000000000000000E+000
  0.000000000000000E+000
  0.000000000000000E+000
  0.000000000000000E+000
  0.000000000000000E+000
  0.000000000000000E+000
  0.000000000000000E+000
  0.000000000000000E+000
  0.000000000000000E+000
  0.000000000000000E+000
  0.000000000000000E+000
  0.000000000000000E+000
  0.000000000000000E+000
  0.000000000000000E+000
  0.000000000000000E+000
  0.000000000000000E+000
  0.000000000000000E+000
  0.000000000000000E+000
  0.000000000000000E+000
  0.000000000000000E+000
  0.000000000000000E+000
  0.000000000000000E+000
  0.000000000000000E+000
  0.000000000000000E+000
  0.000000000000000E+000
  0.000000000000000E+000
  0.000000000000000E+000
  0.000000000000000E+000
  0.000000000000000E+000
  0.000000000000000E+000
  0.000000000000000E+000
  0.000000000000000E+000
  0.000000000000000E+000
  0.000000000000000E+000
  0.000000000000000E+000
  0.000000000000000E+000
  0.000000000000000E+000
  0.000000000000000E+000
  0.000000000000000E+000
  0.000000000000000E+000
  0.000000000000000E+000
  0.000000000000000E+000
  0.000000000000000E+000
  0.000000000000000E+000
  0.000000000000000E+000
  0.000000000000000E+000
  0.000000000000000E+000
  0.000000000000000E+000
  0.000000000000000E+000
  0.000000000000000E+000
  0.000000000000000E+000
  0.000000000000000E+000
  0.000000000000000E+000
  0.000000000000000E+000
  0.000000000000000E+000
  0.000000000000000E+000
  0.000000000000000E+000
  0.000000000000000E+000
  0.000000000000000E+000
  0.000000000000000E+000
  0.000000000000000E+000
  0.000000000000000E+000
  0.000000000000000E+000
  0.000000000000000E+000
  0.000000000000000E+000
  0.000000000000000E+000
  0.000000000000000E+000
  0.000000000000000E+000
  0.000000000000000E+000
  0.000000000000000E+000
  0.000000000000000E+000
  0.000000000000000E+000
  0.000000000000000E+000
  0.000000000000000E+000
  0.000000000000000E+000
  0.000000000000000E+000
  0.000000000000000E+000
  0.000000000000000E+000
  0.000000000000000E+000
  0.000000000000000E+000
