# vtk DataFile Version 3.0
vtk output
ASCII
DATASET UNSTRUCTURED_GRID
POINTS      5151 double 
  0.00000000E+00  1.00000000E+02  0.00000000E+00
  0.00000000E+00  9.80000000E+01  0.00000000E+00
  0.00000000E+00  9.60000000E+01  0.00000000E+00
  0.00000000E+00  9.40000000E+01  0.00000000E+00
  0.00000000E+00  9.20000000E+01  0.00000000E+00
  0.00000000E+00  9.00000000E+01  0.00000000E+00
  0.00000000E+00  8.80000000E+01  0.00000000E+00
  0.00000000E+00  8.60000000E+01  0.00000000E+00
  0.00000000E+00  8.40000000E+01  0.00000000E+00
  0.00000000E+00  8.20000000E+01  0.00000000E+00
  0.00000000E+00  8.00000000E+01  0.00000000E+00
  0.00000000E+00  7.80000000E+01  0.00000000E+00
  0.00000000E+00  7.60000000E+01  0.00000000E+00
  0.00000000E+00  7.40000000E+01  0.00000000E+00
  0.00000000E+00  7.20000000E+01  0.00000000E+00
  0.00000000E+00  7.00000000E+01  0.00000000E+00
  0.00000000E+00  6.80000000E+01  0.00000000E+00
  0.00000000E+00  6.60000000E+01  0.00000000E+00
  0.00000000E+00  6.40000000E+01  0.00000000E+00
  0.00000000E+00  6.20000000E+01  0.00000000E+00
  0.00000000E+00  6.00000000E+01  0.00000000E+00
  0.00000000E+00  5.80000000E+01  0.00000000E+00
  0.00000000E+00  5.60000000E+01  0.00000000E+00
  0.00000000E+00  5.40000000E+01  0.00000000E+00
  0.00000000E+00  5.20000000E+01  0.00000000E+00
  0.00000000E+00  5.00000000E+01  0.00000000E+00
  0.00000000E+00  4.80000000E+01  0.00000000E+00
  0.00000000E+00  4.60000000E+01  0.00000000E+00
  0.00000000E+00  4.40000000E+01  0.00000000E+00
  0.00000000E+00  4.20000000E+01  0.00000000E+00
  0.00000000E+00  4.00000000E+01  0.00000000E+00
  0.00000000E+00  3.80000000E+01  0.00000000E+00
  0.00000000E+00  3.60000000E+01  0.00000000E+00
  0.00000000E+00  3.40000000E+01  0.00000000E+00
  0.00000000E+00  3.20000000E+01  0.00000000E+00
  0.00000000E+00  3.00000000E+01  0.00000000E+00
  0.00000000E+00  2.80000000E+01  0.00000000E+00
  0.00000000E+00  2.60000000E+01  0.00000000E+00
  0.00000000E+00  2.40000000E+01  0.00000000E+00
  0.00000000E+00  2.20000000E+01  0.00000000E+00
  0.00000000E+00  2.00000000E+01  0.00000000E+00
  0.00000000E+00  1.80000000E+01  0.00000000E+00
  0.00000000E+00  1.60000000E+01  0.00000000E+00
  0.00000000E+00  1.40000000E+01  0.00000000E+00
  0.00000000E+00  1.20000000E+01  0.00000000E+00
  0.00000000E+00  1.00000000E+01  0.00000000E+00
  0.00000000E+00  8.00000000E+00  0.00000000E+00
  0.00000000E+00  6.00000000E+00  0.00000000E+00
  0.00000000E+00  4.00000000E+00  0.00000000E+00
  0.00000000E+00  2.00000000E+00  0.00000000E+00
  0.00000000E+00 -3.33066907E-14  0.00000000E+00
  1.00000000E+01  1.00000000E+02  0.00000000E+00
  1.00000000E+01  9.80000000E+01  0.00000000E+00
  1.00000000E+01  9.60000000E+01  0.00000000E+00
  1.00000000E+01  9.40000000E+01  0.00000000E+00
  1.00000000E+01  9.20000000E+01  0.00000000E+00
  1.00000000E+01  9.00000000E+01  0.00000000E+00
  1.00000000E+01  8.80000000E+01  0.00000000E+00
  1.00000000E+01  8.60000000E+01  0.00000000E+00
  1.00000000E+01  8.40000000E+01  0.00000000E+00
  1.00000000E+01  8.20000000E+01  0.00000000E+00
  1.00000000E+01  8.00000000E+01  0.00000000E+00
  1.00000000E+01  7.80000000E+01  0.00000000E+00
  1.00000000E+01  7.60000000E+01  0.00000000E+00
  1.00000000E+01  7.40000000E+01  0.00000000E+00
  1.00000000E+01  7.20000000E+01  0.00000000E+00
  1.00000000E+01  7.00000000E+01  0.00000000E+00
  1.00000000E+01  6.80000000E+01  0.00000000E+00
  1.00000000E+01  6.60000000E+01  0.00000000E+00
  1.00000000E+01  6.40000000E+01  0.00000000E+00
  1.00000000E+01  6.20000000E+01  0.00000000E+00
  1.00000000E+01  6.00000000E+01  0.00000000E+00
  1.00000000E+01  5.80000000E+01  0.00000000E+00
  1.00000000E+01  5.60000000E+01  0.00000000E+00
  1.00000000E+01  5.40000000E+01  0.00000000E+00
  1.00000000E+01  5.20000000E+01  0.00000000E+00
  1.00000000E+01  5.00000000E+01  0.00000000E+00
  1.00000000E+01  4.80000000E+01  0.00000000E+00
  1.00000000E+01  4.60000000E+01  0.00000000E+00
  1.00000000E+01  4.40000000E+01  0.00000000E+00
  1.00000000E+01  4.20000000E+01  0.00000000E+00
  1.00000000E+01  4.00000000E+01  0.00000000E+00
  1.00000000E+01  3.80000000E+01  0.00000000E+00
  1.00000000E+01  3.60000000E+01  0.00000000E+00
  1.00000000E+01  3.40000000E+01  0.00000000E+00
  1.00000000E+01  3.20000000E+01  0.00000000E+00
  1.00000000E+01  3.00000000E+01  0.00000000E+00
  1.00000000E+01  2.80000000E+01  0.00000000E+00
  1.00000000E+01  2.60000000E+01  0.00000000E+00
  1.00000000E+01  2.40000000E+01  0.00000000E+00
  1.00000000E+01  2.20000000E+01  0.00000000E+00
  1.00000000E+01  2.00000000E+01  0.00000000E+00
  1.00000000E+01  1.80000000E+01  0.00000000E+00
  1.00000000E+01  1.60000000E+01  0.00000000E+00
  1.00000000E+01  1.40000000E+01  0.00000000E+00
  1.00000000E+01  1.20000000E+01  0.00000000E+00
  1.00000000E+01  1.00000000E+01  0.00000000E+00
  1.00000000E+01  8.00000000E+00  0.00000000E+00
  1.00000000E+01  6.00000000E+00  0.00000000E+00
  1.00000000E+01  4.00000000E+00  0.00000000E+00
  1.00000000E+01  2.00000000E+00  0.00000000E+00
  1.00000000E+01 -3.33066907E-14  0.00000000E+00
  2.00000000E+01  1.00000000E+02  0.00000000E+00
  2.00000000E+01  9.80000000E+01  0.00000000E+00
  2.00000000E+01  9.60000000E+01  0.00000000E+00
  2.00000000E+01  9.40000000E+01  0.00000000E+00
  2.00000000E+01  9.20000000E+01  0.00000000E+00
  2.00000000E+01  9.00000000E+01  0.00000000E+00
  2.00000000E+01  8.80000000E+01  0.00000000E+00
  2.00000000E+01  8.60000000E+01  0.00000000E+00
  2.00000000E+01  8.40000000E+01  0.00000000E+00
  2.00000000E+01  8.20000000E+01  0.00000000E+00
  2.00000000E+01  8.00000000E+01  0.00000000E+00
  2.00000000E+01  7.80000000E+01  0.00000000E+00
  2.00000000E+01  7.60000000E+01  0.00000000E+00
  2.00000000E+01  7.40000000E+01  0.00000000E+00
  2.00000000E+01  7.20000000E+01  0.00000000E+00
  2.00000000E+01  7.00000000E+01  0.00000000E+00
  2.00000000E+01  6.80000000E+01  0.00000000E+00
  2.00000000E+01  6.60000000E+01  0.00000000E+00
  2.00000000E+01  6.40000000E+01  0.00000000E+00
  2.00000000E+01  6.20000000E+01  0.00000000E+00
  2.00000000E+01  6.00000000E+01  0.00000000E+00
  2.00000000E+01  5.80000000E+01  0.00000000E+00
  2.00000000E+01  5.60000000E+01  0.00000000E+00
  2.00000000E+01  5.40000000E+01  0.00000000E+00
  2.00000000E+01  5.20000000E+01  0.00000000E+00
  2.00000000E+01  5.00000000E+01  0.00000000E+00
  2.00000000E+01  4.80000000E+01  0.00000000E+00
  2.00000000E+01  4.60000000E+01  0.00000000E+00
  2.00000000E+01  4.40000000E+01  0.00000000E+00
  2.00000000E+01  4.20000000E+01  0.00000000E+00
  2.00000000E+01  4.00000000E+01  0.00000000E+00
  2.00000000E+01  3.80000000E+01  0.00000000E+00
  2.00000000E+01  3.60000000E+01  0.00000000E+00
  2.00000000E+01  3.40000000E+01  0.00000000E+00
  2.00000000E+01  3.20000000E+01  0.00000000E+00
  2.00000000E+01  3.00000000E+01  0.00000000E+00
  2.00000000E+01  2.80000000E+01  0.00000000E+00
  2.00000000E+01  2.60000000E+01  0.00000000E+00
  2.00000000E+01  2.40000000E+01  0.00000000E+00
  2.00000000E+01  2.20000000E+01  0.00000000E+00
  2.00000000E+01  2.00000000E+01  0.00000000E+00
  2.00000000E+01  1.80000000E+01  0.00000000E+00
  2.00000000E+01  1.60000000E+01  0.00000000E+00
  2.00000000E+01  1.40000000E+01  0.00000000E+00
  2.00000000E+01  1.20000000E+01  0.00000000E+00
  2.00000000E+01  1.00000000E+01  0.00000000E+00
  2.00000000E+01  8.00000000E+00  0.00000000E+00
  2.00000000E+01  6.00000000E+00  0.00000000E+00
  2.00000000E+01  4.00000000E+00  0.00000000E+00
  2.00000000E+01  2.00000000E+00  0.00000000E+00
  2.00000000E+01 -3.33066907E-14  0.00000000E+00
  3.00000000E+01  1.00000000E+02  0.00000000E+00
  3.00000000E+01  9.80000000E+01  0.00000000E+00
  3.00000000E+01  9.60000000E+01  0.00000000E+00
  3.00000000E+01  9.40000000E+01  0.00000000E+00
  3.00000000E+01  9.20000000E+01  0.00000000E+00
  3.00000000E+01  9.00000000E+01  0.00000000E+00
  3.00000000E+01  8.80000000E+01  0.00000000E+00
  3.00000000E+01  8.60000000E+01  0.00000000E+00
  3.00000000E+01  8.40000000E+01  0.00000000E+00
  3.00000000E+01  8.20000000E+01  0.00000000E+00
  3.00000000E+01  8.00000000E+01  0.00000000E+00
  3.00000000E+01  7.80000000E+01  0.00000000E+00
  3.00000000E+01  7.60000000E+01  0.00000000E+00
  3.00000000E+01  7.40000000E+01  0.00000000E+00
  3.00000000E+01  7.20000000E+01  0.00000000E+00
  3.00000000E+01  7.00000000E+01  0.00000000E+00
  3.00000000E+01  6.80000000E+01  0.00000000E+00
  3.00000000E+01  6.60000000E+01  0.00000000E+00
  3.00000000E+01  6.40000000E+01  0.00000000E+00
  3.00000000E+01  6.20000000E+01  0.00000000E+00
  3.00000000E+01  6.00000000E+01  0.00000000E+00
  3.00000000E+01  5.80000000E+01  0.00000000E+00
  3.00000000E+01  5.60000000E+01  0.00000000E+00
  3.00000000E+01  5.40000000E+01  0.00000000E+00
  3.00000000E+01  5.20000000E+01  0.00000000E+00
  3.00000000E+01  5.00000000E+01  0.00000000E+00
  3.00000000E+01  4.80000000E+01  0.00000000E+00
  3.00000000E+01  4.60000000E+01  0.00000000E+00
  3.00000000E+01  4.40000000E+01  0.00000000E+00
  3.00000000E+01  4.20000000E+01  0.00000000E+00
  3.00000000E+01  4.00000000E+01  0.00000000E+00
  3.00000000E+01  3.80000000E+01  0.00000000E+00
  3.00000000E+01  3.60000000E+01  0.00000000E+00
  3.00000000E+01  3.40000000E+01  0.00000000E+00
  3.00000000E+01  3.20000000E+01  0.00000000E+00
  3.00000000E+01  3.00000000E+01  0.00000000E+00
  3.00000000E+01  2.80000000E+01  0.00000000E+00
  3.00000000E+01  2.60000000E+01  0.00000000E+00
  3.00000000E+01  2.40000000E+01  0.00000000E+00
  3.00000000E+01  2.20000000E+01  0.00000000E+00
  3.00000000E+01  2.00000000E+01  0.00000000E+00
  3.00000000E+01  1.80000000E+01  0.00000000E+00
  3.00000000E+01  1.60000000E+01  0.00000000E+00
  3.00000000E+01  1.40000000E+01  0.00000000E+00
  3.00000000E+01  1.20000000E+01  0.00000000E+00
  3.00000000E+01  1.00000000E+01  0.00000000E+00
  3.00000000E+01  8.00000000E+00  0.00000000E+00
  3.00000000E+01  6.00000000E+00  0.00000000E+00
  3.00000000E+01  4.00000000E+00  0.00000000E+00
  3.00000000E+01  2.00000000E+00  0.00000000E+00
  3.00000000E+01 -3.33066907E-14  0.00000000E+00
  4.00000000E+01  1.00000000E+02  0.00000000E+00
  4.00000000E+01  9.80000000E+01  0.00000000E+00
  4.00000000E+01  9.60000000E+01  0.00000000E+00
  4.00000000E+01  9.40000000E+01  0.00000000E+00
  4.00000000E+01  9.20000000E+01  0.00000000E+00
  4.00000000E+01  9.00000000E+01  0.00000000E+00
  4.00000000E+01  8.80000000E+01  0.00000000E+00
  4.00000000E+01  8.60000000E+01  0.00000000E+00
  4.00000000E+01  8.40000000E+01  0.00000000E+00
  4.00000000E+01  8.20000000E+01  0.00000000E+00
  4.00000000E+01  8.00000000E+01  0.00000000E+00
  4.00000000E+01  7.80000000E+01  0.00000000E+00
  4.00000000E+01  7.60000000E+01  0.00000000E+00
  4.00000000E+01  7.40000000E+01  0.00000000E+00
  4.00000000E+01  7.20000000E+01  0.00000000E+00
  4.00000000E+01  7.00000000E+01  0.00000000E+00
  4.00000000E+01  6.80000000E+01  0.00000000E+00
  4.00000000E+01  6.60000000E+01  0.00000000E+00
  4.00000000E+01  6.40000000E+01  0.00000000E+00
  4.00000000E+01  6.20000000E+01  0.00000000E+00
  4.00000000E+01  6.00000000E+01  0.00000000E+00
  4.00000000E+01  5.80000000E+01  0.00000000E+00
  4.00000000E+01  5.60000000E+01  0.00000000E+00
  4.00000000E+01  5.40000000E+01  0.00000000E+00
  4.00000000E+01  5.20000000E+01  0.00000000E+00
  4.00000000E+01  5.00000000E+01  0.00000000E+00
  4.00000000E+01  4.80000000E+01  0.00000000E+00
  4.00000000E+01  4.60000000E+01  0.00000000E+00
  4.00000000E+01  4.40000000E+01  0.00000000E+00
  4.00000000E+01  4.20000000E+01  0.00000000E+00
  4.00000000E+01  4.00000000E+01  0.00000000E+00
  4.00000000E+01  3.80000000E+01  0.00000000E+00
  4.00000000E+01  3.60000000E+01  0.00000000E+00
  4.00000000E+01  3.40000000E+01  0.00000000E+00
  4.00000000E+01  3.20000000E+01  0.00000000E+00
  4.00000000E+01  3.00000000E+01  0.00000000E+00
  4.00000000E+01  2.80000000E+01  0.00000000E+00
  4.00000000E+01  2.60000000E+01  0.00000000E+00
  4.00000000E+01  2.40000000E+01  0.00000000E+00
  4.00000000E+01  2.20000000E+01  0.00000000E+00
  4.00000000E+01  2.00000000E+01  0.00000000E+00
  4.00000000E+01  1.80000000E+01  0.00000000E+00
  4.00000000E+01  1.60000000E+01  0.00000000E+00
  4.00000000E+01  1.40000000E+01  0.00000000E+00
  4.00000000E+01  1.20000000E+01  0.00000000E+00
  4.00000000E+01  1.00000000E+01  0.00000000E+00
  4.00000000E+01  8.00000000E+00  0.00000000E+00
  4.00000000E+01  6.00000000E+00  0.00000000E+00
  4.00000000E+01  4.00000000E+00  0.00000000E+00
  4.00000000E+01  2.00000000E+00  0.00000000E+00
  4.00000000E+01 -3.33066907E-14  0.00000000E+00
  5.00000000E+01  1.00000000E+02  0.00000000E+00
  5.00000000E+01  9.80000000E+01  0.00000000E+00
  5.00000000E+01  9.60000000E+01  0.00000000E+00
  5.00000000E+01  9.40000000E+01  0.00000000E+00
  5.00000000E+01  9.20000000E+01  0.00000000E+00
  5.00000000E+01  9.00000000E+01  0.00000000E+00
  5.00000000E+01  8.80000000E+01  0.00000000E+00
  5.00000000E+01  8.60000000E+01  0.00000000E+00
  5.00000000E+01  8.40000000E+01  0.00000000E+00
  5.00000000E+01  8.20000000E+01  0.00000000E+00
  5.00000000E+01  8.00000000E+01  0.00000000E+00
  5.00000000E+01  7.80000000E+01  0.00000000E+00
  5.00000000E+01  7.60000000E+01  0.00000000E+00
  5.00000000E+01  7.40000000E+01  0.00000000E+00
  5.00000000E+01  7.20000000E+01  0.00000000E+00
  5.00000000E+01  7.00000000E+01  0.00000000E+00
  5.00000000E+01  6.80000000E+01  0.00000000E+00
  5.00000000E+01  6.60000000E+01  0.00000000E+00
  5.00000000E+01  6.40000000E+01  0.00000000E+00
  5.00000000E+01  6.20000000E+01  0.00000000E+00
  5.00000000E+01  6.00000000E+01  0.00000000E+00
  5.00000000E+01  5.80000000E+01  0.00000000E+00
  5.00000000E+01  5.60000000E+01  0.00000000E+00
  5.00000000E+01  5.40000000E+01  0.00000000E+00
  5.00000000E+01  5.20000000E+01  0.00000000E+00
  5.00000000E+01  5.00000000E+01  0.00000000E+00
  5.00000000E+01  4.80000000E+01  0.00000000E+00
  5.00000000E+01  4.60000000E+01  0.00000000E+00
  5.00000000E+01  4.40000000E+01  0.00000000E+00
  5.00000000E+01  4.20000000E+01  0.00000000E+00
  5.00000000E+01  4.00000000E+01  0.00000000E+00
  5.00000000E+01  3.80000000E+01  0.00000000E+00
  5.00000000E+01  3.60000000E+01  0.00000000E+00
  5.00000000E+01  3.40000000E+01  0.00000000E+00
  5.00000000E+01  3.20000000E+01  0.00000000E+00
  5.00000000E+01  3.00000000E+01  0.00000000E+00
  5.00000000E+01  2.80000000E+01  0.00000000E+00
  5.00000000E+01  2.60000000E+01  0.00000000E+00
  5.00000000E+01  2.40000000E+01  0.00000000E+00
  5.00000000E+01  2.20000000E+01  0.00000000E+00
  5.00000000E+01  2.00000000E+01  0.00000000E+00
  5.00000000E+01  1.80000000E+01  0.00000000E+00
  5.00000000E+01  1.60000000E+01  0.00000000E+00
  5.00000000E+01  1.40000000E+01  0.00000000E+00
  5.00000000E+01  1.20000000E+01  0.00000000E+00
  5.00000000E+01  1.00000000E+01  0.00000000E+00
  5.00000000E+01  8.00000000E+00  0.00000000E+00
  5.00000000E+01  6.00000000E+00  0.00000000E+00
  5.00000000E+01  4.00000000E+00  0.00000000E+00
  5.00000000E+01  2.00000000E+00  0.00000000E+00
  5.00000000E+01 -3.33066907E-14  0.00000000E+00
  6.00000000E+01  1.00000000E+02  0.00000000E+00
  6.00000000E+01  9.80000000E+01  0.00000000E+00
  6.00000000E+01  9.60000000E+01  0.00000000E+00
  6.00000000E+01  9.40000000E+01  0.00000000E+00
  6.00000000E+01  9.20000000E+01  0.00000000E+00
  6.00000000E+01  9.00000000E+01  0.00000000E+00
  6.00000000E+01  8.80000000E+01  0.00000000E+00
  6.00000000E+01  8.60000000E+01  0.00000000E+00
  6.00000000E+01  8.40000000E+01  0.00000000E+00
  6.00000000E+01  8.20000000E+01  0.00000000E+00
  6.00000000E+01  8.00000000E+01  0.00000000E+00
  6.00000000E+01  7.80000000E+01  0.00000000E+00
  6.00000000E+01  7.60000000E+01  0.00000000E+00
  6.00000000E+01  7.40000000E+01  0.00000000E+00
  6.00000000E+01  7.20000000E+01  0.00000000E+00
  6.00000000E+01  7.00000000E+01  0.00000000E+00
  6.00000000E+01  6.80000000E+01  0.00000000E+00
  6.00000000E+01  6.60000000E+01  0.00000000E+00
  6.00000000E+01  6.40000000E+01  0.00000000E+00
  6.00000000E+01  6.20000000E+01  0.00000000E+00
  6.00000000E+01  6.00000000E+01  0.00000000E+00
  6.00000000E+01  5.80000000E+01  0.00000000E+00
  6.00000000E+01  5.60000000E+01  0.00000000E+00
  6.00000000E+01  5.40000000E+01  0.00000000E+00
  6.00000000E+01  5.20000000E+01  0.00000000E+00
  6.00000000E+01  5.00000000E+01  0.00000000E+00
  6.00000000E+01  4.80000000E+01  0.00000000E+00
  6.00000000E+01  4.60000000E+01  0.00000000E+00
  6.00000000E+01  4.40000000E+01  0.00000000E+00
  6.00000000E+01  4.20000000E+01  0.00000000E+00
  6.00000000E+01  4.00000000E+01  0.00000000E+00
  6.00000000E+01  3.80000000E+01  0.00000000E+00
  6.00000000E+01  3.60000000E+01  0.00000000E+00
  6.00000000E+01  3.40000000E+01  0.00000000E+00
  6.00000000E+01  3.20000000E+01  0.00000000E+00
  6.00000000E+01  3.00000000E+01  0.00000000E+00
  6.00000000E+01  2.80000000E+01  0.00000000E+00
  6.00000000E+01  2.60000000E+01  0.00000000E+00
  6.00000000E+01  2.40000000E+01  0.00000000E+00
  6.00000000E+01  2.20000000E+01  0.00000000E+00
  6.00000000E+01  2.00000000E+01  0.00000000E+00
  6.00000000E+01  1.80000000E+01  0.00000000E+00
  6.00000000E+01  1.60000000E+01  0.00000000E+00
  6.00000000E+01  1.40000000E+01  0.00000000E+00
  6.00000000E+01  1.20000000E+01  0.00000000E+00
  6.00000000E+01  1.00000000E+01  0.00000000E+00
  6.00000000E+01  8.00000000E+00  0.00000000E+00
  6.00000000E+01  6.00000000E+00  0.00000000E+00
  6.00000000E+01  4.00000000E+00  0.00000000E+00
  6.00000000E+01  2.00000000E+00  0.00000000E+00
  6.00000000E+01 -3.33066907E-14  0.00000000E+00
  7.00000000E+01  1.00000000E+02  0.00000000E+00
  7.00000000E+01  9.80000000E+01  0.00000000E+00
  7.00000000E+01  9.60000000E+01  0.00000000E+00
  7.00000000E+01  9.40000000E+01  0.00000000E+00
  7.00000000E+01  9.20000000E+01  0.00000000E+00
  7.00000000E+01  9.00000000E+01  0.00000000E+00
  7.00000000E+01  8.80000000E+01  0.00000000E+00
  7.00000000E+01  8.60000000E+01  0.00000000E+00
  7.00000000E+01  8.40000000E+01  0.00000000E+00
  7.00000000E+01  8.20000000E+01  0.00000000E+00
  7.00000000E+01  8.00000000E+01  0.00000000E+00
  7.00000000E+01  7.80000000E+01  0.00000000E+00
  7.00000000E+01  7.60000000E+01  0.00000000E+00
  7.00000000E+01  7.40000000E+01  0.00000000E+00
  7.00000000E+01  7.20000000E+01  0.00000000E+00
  7.00000000E+01  7.00000000E+01  0.00000000E+00
  7.00000000E+01  6.80000000E+01  0.00000000E+00
  7.00000000E+01  6.60000000E+01  0.00000000E+00
  7.00000000E+01  6.40000000E+01  0.00000000E+00
  7.00000000E+01  6.20000000E+01  0.00000000E+00
  7.00000000E+01  6.00000000E+01  0.00000000E+00
  7.00000000E+01  5.80000000E+01  0.00000000E+00
  7.00000000E+01  5.60000000E+01  0.00000000E+00
  7.00000000E+01  5.40000000E+01  0.00000000E+00
  7.00000000E+01  5.20000000E+01  0.00000000E+00
  7.00000000E+01  5.00000000E+01  0.00000000E+00
  7.00000000E+01  4.80000000E+01  0.00000000E+00
  7.00000000E+01  4.60000000E+01  0.00000000E+00
  7.00000000E+01  4.40000000E+01  0.00000000E+00
  7.00000000E+01  4.20000000E+01  0.00000000E+00
  7.00000000E+01  4.00000000E+01  0.00000000E+00
  7.00000000E+01  3.80000000E+01  0.00000000E+00
  7.00000000E+01  3.60000000E+01  0.00000000E+00
  7.00000000E+01  3.40000000E+01  0.00000000E+00
  7.00000000E+01  3.20000000E+01  0.00000000E+00
  7.00000000E+01  3.00000000E+01  0.00000000E+00
  7.00000000E+01  2.80000000E+01  0.00000000E+00
  7.00000000E+01  2.60000000E+01  0.00000000E+00
  7.00000000E+01  2.40000000E+01  0.00000000E+00
  7.00000000E+01  2.20000000E+01  0.00000000E+00
  7.00000000E+01  2.00000000E+01  0.00000000E+00
  7.00000000E+01  1.80000000E+01  0.00000000E+00
  7.00000000E+01  1.60000000E+01  0.00000000E+00
  7.00000000E+01  1.40000000E+01  0.00000000E+00
  7.00000000E+01  1.20000000E+01  0.00000000E+00
  7.00000000E+01  1.00000000E+01  0.00000000E+00
  7.00000000E+01  8.00000000E+00  0.00000000E+00
  7.00000000E+01  6.00000000E+00  0.00000000E+00
  7.00000000E+01  4.00000000E+00  0.00000000E+00
  7.00000000E+01  2.00000000E+00  0.00000000E+00
  7.00000000E+01 -3.33066907E-14  0.00000000E+00
  8.00000000E+01  1.00000000E+02  0.00000000E+00
  8.00000000E+01  9.80000000E+01  0.00000000E+00
  8.00000000E+01  9.60000000E+01  0.00000000E+00
  8.00000000E+01  9.40000000E+01  0.00000000E+00
  8.00000000E+01  9.20000000E+01  0.00000000E+00
  8.00000000E+01  9.00000000E+01  0.00000000E+00
  8.00000000E+01  8.80000000E+01  0.00000000E+00
  8.00000000E+01  8.60000000E+01  0.00000000E+00
  8.00000000E+01  8.40000000E+01  0.00000000E+00
  8.00000000E+01  8.20000000E+01  0.00000000E+00
  8.00000000E+01  8.00000000E+01  0.00000000E+00
  8.00000000E+01  7.80000000E+01  0.00000000E+00
  8.00000000E+01  7.60000000E+01  0.00000000E+00
  8.00000000E+01  7.40000000E+01  0.00000000E+00
  8.00000000E+01  7.20000000E+01  0.00000000E+00
  8.00000000E+01  7.00000000E+01  0.00000000E+00
  8.00000000E+01  6.80000000E+01  0.00000000E+00
  8.00000000E+01  6.60000000E+01  0.00000000E+00
  8.00000000E+01  6.40000000E+01  0.00000000E+00
  8.00000000E+01  6.20000000E+01  0.00000000E+00
  8.00000000E+01  6.00000000E+01  0.00000000E+00
  8.00000000E+01  5.80000000E+01  0.00000000E+00
  8.00000000E+01  5.60000000E+01  0.00000000E+00
  8.00000000E+01  5.40000000E+01  0.00000000E+00
  8.00000000E+01  5.20000000E+01  0.00000000E+00
  8.00000000E+01  5.00000000E+01  0.00000000E+00
  8.00000000E+01  4.80000000E+01  0.00000000E+00
  8.00000000E+01  4.60000000E+01  0.00000000E+00
  8.00000000E+01  4.40000000E+01  0.00000000E+00
  8.00000000E+01  4.20000000E+01  0.00000000E+00
  8.00000000E+01  4.00000000E+01  0.00000000E+00
  8.00000000E+01  3.80000000E+01  0.00000000E+00
  8.00000000E+01  3.60000000E+01  0.00000000E+00
  8.00000000E+01  3.40000000E+01  0.00000000E+00
  8.00000000E+01  3.20000000E+01  0.00000000E+00
  8.00000000E+01  3.00000000E+01  0.00000000E+00
  8.00000000E+01  2.80000000E+01  0.00000000E+00
  8.00000000E+01  2.60000000E+01  0.00000000E+00
  8.00000000E+01  2.40000000E+01  0.00000000E+00
  8.00000000E+01  2.20000000E+01  0.00000000E+00
  8.00000000E+01  2.00000000E+01  0.00000000E+00
  8.00000000E+01  1.80000000E+01  0.00000000E+00
  8.00000000E+01  1.60000000E+01  0.00000000E+00
  8.00000000E+01  1.40000000E+01  0.00000000E+00
  8.00000000E+01  1.20000000E+01  0.00000000E+00
  8.00000000E+01  1.00000000E+01  0.00000000E+00
  8.00000000E+01  8.00000000E+00  0.00000000E+00
  8.00000000E+01  6.00000000E+00  0.00000000E+00
  8.00000000E+01  4.00000000E+00  0.00000000E+00
  8.00000000E+01  2.00000000E+00  0.00000000E+00
  8.00000000E+01 -3.33066907E-14  0.00000000E+00
  9.00000000E+01  1.00000000E+02  0.00000000E+00
  9.00000000E+01  9.80000000E+01  0.00000000E+00
  9.00000000E+01  9.60000000E+01  0.00000000E+00
  9.00000000E+01  9.40000000E+01  0.00000000E+00
  9.00000000E+01  9.20000000E+01  0.00000000E+00
  9.00000000E+01  9.00000000E+01  0.00000000E+00
  9.00000000E+01  8.80000000E+01  0.00000000E+00
  9.00000000E+01  8.60000000E+01  0.00000000E+00
  9.00000000E+01  8.40000000E+01  0.00000000E+00
  9.00000000E+01  8.20000000E+01  0.00000000E+00
  9.00000000E+01  8.00000000E+01  0.00000000E+00
  9.00000000E+01  7.80000000E+01  0.00000000E+00
  9.00000000E+01  7.60000000E+01  0.00000000E+00
  9.00000000E+01  7.40000000E+01  0.00000000E+00
  9.00000000E+01  7.20000000E+01  0.00000000E+00
  9.00000000E+01  7.00000000E+01  0.00000000E+00
  9.00000000E+01  6.80000000E+01  0.00000000E+00
  9.00000000E+01  6.60000000E+01  0.00000000E+00
  9.00000000E+01  6.40000000E+01  0.00000000E+00
  9.00000000E+01  6.20000000E+01  0.00000000E+00
  9.00000000E+01  6.00000000E+01  0.00000000E+00
  9.00000000E+01  5.80000000E+01  0.00000000E+00
  9.00000000E+01  5.60000000E+01  0.00000000E+00
  9.00000000E+01  5.40000000E+01  0.00000000E+00
  9.00000000E+01  5.20000000E+01  0.00000000E+00
  9.00000000E+01  5.00000000E+01  0.00000000E+00
  9.00000000E+01  4.80000000E+01  0.00000000E+00
  9.00000000E+01  4.60000000E+01  0.00000000E+00
  9.00000000E+01  4.40000000E+01  0.00000000E+00
  9.00000000E+01  4.20000000E+01  0.00000000E+00
  9.00000000E+01  4.00000000E+01  0.00000000E+00
  9.00000000E+01  3.80000000E+01  0.00000000E+00
  9.00000000E+01  3.60000000E+01  0.00000000E+00
  9.00000000E+01  3.40000000E+01  0.00000000E+00
  9.00000000E+01  3.20000000E+01  0.00000000E+00
  9.00000000E+01  3.00000000E+01  0.00000000E+00
  9.00000000E+01  2.80000000E+01  0.00000000E+00
  9.00000000E+01  2.60000000E+01  0.00000000E+00
  9.00000000E+01  2.40000000E+01  0.00000000E+00
  9.00000000E+01  2.20000000E+01  0.00000000E+00
  9.00000000E+01  2.00000000E+01  0.00000000E+00
  9.00000000E+01  1.80000000E+01  0.00000000E+00
  9.00000000E+01  1.60000000E+01  0.00000000E+00
  9.00000000E+01  1.40000000E+01  0.00000000E+00
  9.00000000E+01  1.20000000E+01  0.00000000E+00
  9.00000000E+01  1.00000000E+01  0.00000000E+00
  9.00000000E+01  8.00000000E+00  0.00000000E+00
  9.00000000E+01  6.00000000E+00  0.00000000E+00
  9.00000000E+01  4.00000000E+00  0.00000000E+00
  9.00000000E+01  2.00000000E+00  0.00000000E+00
  9.00000000E+01 -3.33066907E-14  0.00000000E+00
  1.00000000E+02  1.00000000E+02  0.00000000E+00
  1.00000000E+02  9.80000000E+01  0.00000000E+00
  1.00000000E+02  9.60000000E+01  0.00000000E+00
  1.00000000E+02  9.40000000E+01  0.00000000E+00
  1.00000000E+02  9.20000000E+01  0.00000000E+00
  1.00000000E+02  9.00000000E+01  0.00000000E+00
  1.00000000E+02  8.80000000E+01  0.00000000E+00
  1.00000000E+02  8.60000000E+01  0.00000000E+00
  1.00000000E+02  8.40000000E+01  0.00000000E+00
  1.00000000E+02  8.20000000E+01  0.00000000E+00
  1.00000000E+02  8.00000000E+01  0.00000000E+00
  1.00000000E+02  7.80000000E+01  0.00000000E+00
  1.00000000E+02  7.60000000E+01  0.00000000E+00
  1.00000000E+02  7.40000000E+01  0.00000000E+00
  1.00000000E+02  7.20000000E+01  0.00000000E+00
  1.00000000E+02  7.00000000E+01  0.00000000E+00
  1.00000000E+02  6.80000000E+01  0.00000000E+00
  1.00000000E+02  6.60000000E+01  0.00000000E+00
  1.00000000E+02  6.40000000E+01  0.00000000E+00
  1.00000000E+02  6.20000000E+01  0.00000000E+00
  1.00000000E+02  6.00000000E+01  0.00000000E+00
  1.00000000E+02  5.80000000E+01  0.00000000E+00
  1.00000000E+02  5.60000000E+01  0.00000000E+00
  1.00000000E+02  5.40000000E+01  0.00000000E+00
  1.00000000E+02  5.20000000E+01  0.00000000E+00
  1.00000000E+02  5.00000000E+01  0.00000000E+00
  1.00000000E+02  4.80000000E+01  0.00000000E+00
  1.00000000E+02  4.60000000E+01  0.00000000E+00
  1.00000000E+02  4.40000000E+01  0.00000000E+00
  1.00000000E+02  4.20000000E+01  0.00000000E+00
  1.00000000E+02  4.00000000E+01  0.00000000E+00
  1.00000000E+02  3.80000000E+01  0.00000000E+00
  1.00000000E+02  3.60000000E+01  0.00000000E+00
  1.00000000E+02  3.40000000E+01  0.00000000E+00
  1.00000000E+02  3.20000000E+01  0.00000000E+00
  1.00000000E+02  3.00000000E+01  0.00000000E+00
  1.00000000E+02  2.80000000E+01  0.00000000E+00
  1.00000000E+02  2.60000000E+01  0.00000000E+00
  1.00000000E+02  2.40000000E+01  0.00000000E+00
  1.00000000E+02  2.20000000E+01  0.00000000E+00
  1.00000000E+02  2.00000000E+01  0.00000000E+00
  1.00000000E+02  1.80000000E+01  0.00000000E+00
  1.00000000E+02  1.60000000E+01  0.00000000E+00
  1.00000000E+02  1.40000000E+01  0.00000000E+00
  1.00000000E+02  1.20000000E+01  0.00000000E+00
  1.00000000E+02  1.00000000E+01  0.00000000E+00
  1.00000000E+02  8.00000000E+00  0.00000000E+00
  1.00000000E+02  6.00000000E+00  0.00000000E+00
  1.00000000E+02  4.00000000E+00  0.00000000E+00
  1.00000000E+02  2.00000000E+00  0.00000000E+00
  1.00000000E+02 -3.33066907E-14  0.00000000E+00
  1.10000000E+02  1.00000000E+02  0.00000000E+00
  1.10000000E+02  9.80000000E+01  0.00000000E+00
  1.10000000E+02  9.60000000E+01  0.00000000E+00
  1.10000000E+02  9.40000000E+01  0.00000000E+00
  1.10000000E+02  9.20000000E+01  0.00000000E+00
  1.10000000E+02  9.00000000E+01  0.00000000E+00
  1.10000000E+02  8.80000000E+01  0.00000000E+00
  1.10000000E+02  8.60000000E+01  0.00000000E+00
  1.10000000E+02  8.40000000E+01  0.00000000E+00
  1.10000000E+02  8.20000000E+01  0.00000000E+00
  1.10000000E+02  8.00000000E+01  0.00000000E+00
  1.10000000E+02  7.80000000E+01  0.00000000E+00
  1.10000000E+02  7.60000000E+01  0.00000000E+00
  1.10000000E+02  7.40000000E+01  0.00000000E+00
  1.10000000E+02  7.20000000E+01  0.00000000E+00
  1.10000000E+02  7.00000000E+01  0.00000000E+00
  1.10000000E+02  6.80000000E+01  0.00000000E+00
  1.10000000E+02  6.60000000E+01  0.00000000E+00
  1.10000000E+02  6.40000000E+01  0.00000000E+00
  1.10000000E+02  6.20000000E+01  0.00000000E+00
  1.10000000E+02  6.00000000E+01  0.00000000E+00
  1.10000000E+02  5.80000000E+01  0.00000000E+00
  1.10000000E+02  5.60000000E+01  0.00000000E+00
  1.10000000E+02  5.40000000E+01  0.00000000E+00
  1.10000000E+02  5.20000000E+01  0.00000000E+00
  1.10000000E+02  5.00000000E+01  0.00000000E+00
  1.10000000E+02  4.80000000E+01  0.00000000E+00
  1.10000000E+02  4.60000000E+01  0.00000000E+00
  1.10000000E+02  4.40000000E+01  0.00000000E+00
  1.10000000E+02  4.20000000E+01  0.00000000E+00
  1.10000000E+02  4.00000000E+01  0.00000000E+00
  1.10000000E+02  3.80000000E+01  0.00000000E+00
  1.10000000E+02  3.60000000E+01  0.00000000E+00
  1.10000000E+02  3.40000000E+01  0.00000000E+00
  1.10000000E+02  3.20000000E+01  0.00000000E+00
  1.10000000E+02  3.00000000E+01  0.00000000E+00
  1.10000000E+02  2.80000000E+01  0.00000000E+00
  1.10000000E+02  2.60000000E+01  0.00000000E+00
  1.10000000E+02  2.40000000E+01  0.00000000E+00
  1.10000000E+02  2.20000000E+01  0.00000000E+00
  1.10000000E+02  2.00000000E+01  0.00000000E+00
  1.10000000E+02  1.80000000E+01  0.00000000E+00
  1.10000000E+02  1.60000000E+01  0.00000000E+00
  1.10000000E+02  1.40000000E+01  0.00000000E+00
  1.10000000E+02  1.20000000E+01  0.00000000E+00
  1.10000000E+02  1.00000000E+01  0.00000000E+00
  1.10000000E+02  8.00000000E+00  0.00000000E+00
  1.10000000E+02  6.00000000E+00  0.00000000E+00
  1.10000000E+02  4.00000000E+00  0.00000000E+00
  1.10000000E+02  2.00000000E+00  0.00000000E+00
  1.10000000E+02 -3.33066907E-14  0.00000000E+00
  1.20000000E+02  1.00000000E+02  0.00000000E+00
  1.20000000E+02  9.80000000E+01  0.00000000E+00
  1.20000000E+02  9.60000000E+01  0.00000000E+00
  1.20000000E+02  9.40000000E+01  0.00000000E+00
  1.20000000E+02  9.20000000E+01  0.00000000E+00
  1.20000000E+02  9.00000000E+01  0.00000000E+00
  1.20000000E+02  8.80000000E+01  0.00000000E+00
  1.20000000E+02  8.60000000E+01  0.00000000E+00
  1.20000000E+02  8.40000000E+01  0.00000000E+00
  1.20000000E+02  8.20000000E+01  0.00000000E+00
  1.20000000E+02  8.00000000E+01  0.00000000E+00
  1.20000000E+02  7.80000000E+01  0.00000000E+00
  1.20000000E+02  7.60000000E+01  0.00000000E+00
  1.20000000E+02  7.40000000E+01  0.00000000E+00
  1.20000000E+02  7.20000000E+01  0.00000000E+00
  1.20000000E+02  7.00000000E+01  0.00000000E+00
  1.20000000E+02  6.80000000E+01  0.00000000E+00
  1.20000000E+02  6.60000000E+01  0.00000000E+00
  1.20000000E+02  6.40000000E+01  0.00000000E+00
  1.20000000E+02  6.20000000E+01  0.00000000E+00
  1.20000000E+02  6.00000000E+01  0.00000000E+00
  1.20000000E+02  5.80000000E+01  0.00000000E+00
  1.20000000E+02  5.60000000E+01  0.00000000E+00
  1.20000000E+02  5.40000000E+01  0.00000000E+00
  1.20000000E+02  5.20000000E+01  0.00000000E+00
  1.20000000E+02  5.00000000E+01  0.00000000E+00
  1.20000000E+02  4.80000000E+01  0.00000000E+00
  1.20000000E+02  4.60000000E+01  0.00000000E+00
  1.20000000E+02  4.40000000E+01  0.00000000E+00
  1.20000000E+02  4.20000000E+01  0.00000000E+00
  1.20000000E+02  4.00000000E+01  0.00000000E+00
  1.20000000E+02  3.80000000E+01  0.00000000E+00
  1.20000000E+02  3.60000000E+01  0.00000000E+00
  1.20000000E+02  3.40000000E+01  0.00000000E+00
  1.20000000E+02  3.20000000E+01  0.00000000E+00
  1.20000000E+02  3.00000000E+01  0.00000000E+00
  1.20000000E+02  2.80000000E+01  0.00000000E+00
  1.20000000E+02  2.60000000E+01  0.00000000E+00
  1.20000000E+02  2.40000000E+01  0.00000000E+00
  1.20000000E+02  2.20000000E+01  0.00000000E+00
  1.20000000E+02  2.00000000E+01  0.00000000E+00
  1.20000000E+02  1.80000000E+01  0.00000000E+00
  1.20000000E+02  1.60000000E+01  0.00000000E+00
  1.20000000E+02  1.40000000E+01  0.00000000E+00
  1.20000000E+02  1.20000000E+01  0.00000000E+00
  1.20000000E+02  1.00000000E+01  0.00000000E+00
  1.20000000E+02  8.00000000E+00  0.00000000E+00
  1.20000000E+02  6.00000000E+00  0.00000000E+00
  1.20000000E+02  4.00000000E+00  0.00000000E+00
  1.20000000E+02  2.00000000E+00  0.00000000E+00
  1.20000000E+02 -3.33066907E-14  0.00000000E+00
  1.30000000E+02  1.00000000E+02  0.00000000E+00
  1.30000000E+02  9.80000000E+01  0.00000000E+00
  1.30000000E+02  9.60000000E+01  0.00000000E+00
  1.30000000E+02  9.40000000E+01  0.00000000E+00
  1.30000000E+02  9.20000000E+01  0.00000000E+00
  1.30000000E+02  9.00000000E+01  0.00000000E+00
  1.30000000E+02  8.80000000E+01  0.00000000E+00
  1.30000000E+02  8.60000000E+01  0.00000000E+00
  1.30000000E+02  8.40000000E+01  0.00000000E+00
  1.30000000E+02  8.20000000E+01  0.00000000E+00
  1.30000000E+02  8.00000000E+01  0.00000000E+00
  1.30000000E+02  7.80000000E+01  0.00000000E+00
  1.30000000E+02  7.60000000E+01  0.00000000E+00
  1.30000000E+02  7.40000000E+01  0.00000000E+00
  1.30000000E+02  7.20000000E+01  0.00000000E+00
  1.30000000E+02  7.00000000E+01  0.00000000E+00
  1.30000000E+02  6.80000000E+01  0.00000000E+00
  1.30000000E+02  6.60000000E+01  0.00000000E+00
  1.30000000E+02  6.40000000E+01  0.00000000E+00
  1.30000000E+02  6.20000000E+01  0.00000000E+00
  1.30000000E+02  6.00000000E+01  0.00000000E+00
  1.30000000E+02  5.80000000E+01  0.00000000E+00
  1.30000000E+02  5.60000000E+01  0.00000000E+00
  1.30000000E+02  5.40000000E+01  0.00000000E+00
  1.30000000E+02  5.20000000E+01  0.00000000E+00
  1.30000000E+02  5.00000000E+01  0.00000000E+00
  1.30000000E+02  4.80000000E+01  0.00000000E+00
  1.30000000E+02  4.60000000E+01  0.00000000E+00
  1.30000000E+02  4.40000000E+01  0.00000000E+00
  1.30000000E+02  4.20000000E+01  0.00000000E+00
  1.30000000E+02  4.00000000E+01  0.00000000E+00
  1.30000000E+02  3.80000000E+01  0.00000000E+00
  1.30000000E+02  3.60000000E+01  0.00000000E+00
  1.30000000E+02  3.40000000E+01  0.00000000E+00
  1.30000000E+02  3.20000000E+01  0.00000000E+00
  1.30000000E+02  3.00000000E+01  0.00000000E+00
  1.30000000E+02  2.80000000E+01  0.00000000E+00
  1.30000000E+02  2.60000000E+01  0.00000000E+00
  1.30000000E+02  2.40000000E+01  0.00000000E+00
  1.30000000E+02  2.20000000E+01  0.00000000E+00
  1.30000000E+02  2.00000000E+01  0.00000000E+00
  1.30000000E+02  1.80000000E+01  0.00000000E+00
  1.30000000E+02  1.60000000E+01  0.00000000E+00
  1.30000000E+02  1.40000000E+01  0.00000000E+00
  1.30000000E+02  1.20000000E+01  0.00000000E+00
  1.30000000E+02  1.00000000E+01  0.00000000E+00
  1.30000000E+02  8.00000000E+00  0.00000000E+00
  1.30000000E+02  6.00000000E+00  0.00000000E+00
  1.30000000E+02  4.00000000E+00  0.00000000E+00
  1.30000000E+02  2.00000000E+00  0.00000000E+00
  1.30000000E+02 -3.33066907E-14  0.00000000E+00
  1.40000000E+02  1.00000000E+02  0.00000000E+00
  1.40000000E+02  9.80000000E+01  0.00000000E+00
  1.40000000E+02  9.60000000E+01  0.00000000E+00
  1.40000000E+02  9.40000000E+01  0.00000000E+00
  1.40000000E+02  9.20000000E+01  0.00000000E+00
  1.40000000E+02  9.00000000E+01  0.00000000E+00
  1.40000000E+02  8.80000000E+01  0.00000000E+00
  1.40000000E+02  8.60000000E+01  0.00000000E+00
  1.40000000E+02  8.40000000E+01  0.00000000E+00
  1.40000000E+02  8.20000000E+01  0.00000000E+00
  1.40000000E+02  8.00000000E+01  0.00000000E+00
  1.40000000E+02  7.80000000E+01  0.00000000E+00
  1.40000000E+02  7.60000000E+01  0.00000000E+00
  1.40000000E+02  7.40000000E+01  0.00000000E+00
  1.40000000E+02  7.20000000E+01  0.00000000E+00
  1.40000000E+02  7.00000000E+01  0.00000000E+00
  1.40000000E+02  6.80000000E+01  0.00000000E+00
  1.40000000E+02  6.60000000E+01  0.00000000E+00
  1.40000000E+02  6.40000000E+01  0.00000000E+00
  1.40000000E+02  6.20000000E+01  0.00000000E+00
  1.40000000E+02  6.00000000E+01  0.00000000E+00
  1.40000000E+02  5.80000000E+01  0.00000000E+00
  1.40000000E+02  5.60000000E+01  0.00000000E+00
  1.40000000E+02  5.40000000E+01  0.00000000E+00
  1.40000000E+02  5.20000000E+01  0.00000000E+00
  1.40000000E+02  5.00000000E+01  0.00000000E+00
  1.40000000E+02  4.80000000E+01  0.00000000E+00
  1.40000000E+02  4.60000000E+01  0.00000000E+00
  1.40000000E+02  4.40000000E+01  0.00000000E+00
  1.40000000E+02  4.20000000E+01  0.00000000E+00
  1.40000000E+02  4.00000000E+01  0.00000000E+00
  1.40000000E+02  3.80000000E+01  0.00000000E+00
  1.40000000E+02  3.60000000E+01  0.00000000E+00
  1.40000000E+02  3.40000000E+01  0.00000000E+00
  1.40000000E+02  3.20000000E+01  0.00000000E+00
  1.40000000E+02  3.00000000E+01  0.00000000E+00
  1.40000000E+02  2.80000000E+01  0.00000000E+00
  1.40000000E+02  2.60000000E+01  0.00000000E+00
  1.40000000E+02  2.40000000E+01  0.00000000E+00
  1.40000000E+02  2.20000000E+01  0.00000000E+00
  1.40000000E+02  2.00000000E+01  0.00000000E+00
  1.40000000E+02  1.80000000E+01  0.00000000E+00
  1.40000000E+02  1.60000000E+01  0.00000000E+00
  1.40000000E+02  1.40000000E+01  0.00000000E+00
  1.40000000E+02  1.20000000E+01  0.00000000E+00
  1.40000000E+02  1.00000000E+01  0.00000000E+00
  1.40000000E+02  8.00000000E+00  0.00000000E+00
  1.40000000E+02  6.00000000E+00  0.00000000E+00
  1.40000000E+02  4.00000000E+00  0.00000000E+00
  1.40000000E+02  2.00000000E+00  0.00000000E+00
  1.40000000E+02 -3.33066907E-14  0.00000000E+00
  1.50000000E+02  1.00000000E+02  0.00000000E+00
  1.50000000E+02  9.80000000E+01  0.00000000E+00
  1.50000000E+02  9.60000000E+01  0.00000000E+00
  1.50000000E+02  9.40000000E+01  0.00000000E+00
  1.50000000E+02  9.20000000E+01  0.00000000E+00
  1.50000000E+02  9.00000000E+01  0.00000000E+00
  1.50000000E+02  8.80000000E+01  0.00000000E+00
  1.50000000E+02  8.60000000E+01  0.00000000E+00
  1.50000000E+02  8.40000000E+01  0.00000000E+00
  1.50000000E+02  8.20000000E+01  0.00000000E+00
  1.50000000E+02  8.00000000E+01  0.00000000E+00
  1.50000000E+02  7.80000000E+01  0.00000000E+00
  1.50000000E+02  7.60000000E+01  0.00000000E+00
  1.50000000E+02  7.40000000E+01  0.00000000E+00
  1.50000000E+02  7.20000000E+01  0.00000000E+00
  1.50000000E+02  7.00000000E+01  0.00000000E+00
  1.50000000E+02  6.80000000E+01  0.00000000E+00
  1.50000000E+02  6.60000000E+01  0.00000000E+00
  1.50000000E+02  6.40000000E+01  0.00000000E+00
  1.50000000E+02  6.20000000E+01  0.00000000E+00
  1.50000000E+02  6.00000000E+01  0.00000000E+00
  1.50000000E+02  5.80000000E+01  0.00000000E+00
  1.50000000E+02  5.60000000E+01  0.00000000E+00
  1.50000000E+02  5.40000000E+01  0.00000000E+00
  1.50000000E+02  5.20000000E+01  0.00000000E+00
  1.50000000E+02  5.00000000E+01  0.00000000E+00
  1.50000000E+02  4.80000000E+01  0.00000000E+00
  1.50000000E+02  4.60000000E+01  0.00000000E+00
  1.50000000E+02  4.40000000E+01  0.00000000E+00
  1.50000000E+02  4.20000000E+01  0.00000000E+00
  1.50000000E+02  4.00000000E+01  0.00000000E+00
  1.50000000E+02  3.80000000E+01  0.00000000E+00
  1.50000000E+02  3.60000000E+01  0.00000000E+00
  1.50000000E+02  3.40000000E+01  0.00000000E+00
  1.50000000E+02  3.20000000E+01  0.00000000E+00
  1.50000000E+02  3.00000000E+01  0.00000000E+00
  1.50000000E+02  2.80000000E+01  0.00000000E+00
  1.50000000E+02  2.60000000E+01  0.00000000E+00
  1.50000000E+02  2.40000000E+01  0.00000000E+00
  1.50000000E+02  2.20000000E+01  0.00000000E+00
  1.50000000E+02  2.00000000E+01  0.00000000E+00
  1.50000000E+02  1.80000000E+01  0.00000000E+00
  1.50000000E+02  1.60000000E+01  0.00000000E+00
  1.50000000E+02  1.40000000E+01  0.00000000E+00
  1.50000000E+02  1.20000000E+01  0.00000000E+00
  1.50000000E+02  1.00000000E+01  0.00000000E+00
  1.50000000E+02  8.00000000E+00  0.00000000E+00
  1.50000000E+02  6.00000000E+00  0.00000000E+00
  1.50000000E+02  4.00000000E+00  0.00000000E+00
  1.50000000E+02  2.00000000E+00  0.00000000E+00
  1.50000000E+02 -3.33066907E-14  0.00000000E+00
  1.60000000E+02  1.00000000E+02  0.00000000E+00
  1.60000000E+02  9.80000000E+01  0.00000000E+00
  1.60000000E+02  9.60000000E+01  0.00000000E+00
  1.60000000E+02  9.40000000E+01  0.00000000E+00
  1.60000000E+02  9.20000000E+01  0.00000000E+00
  1.60000000E+02  9.00000000E+01  0.00000000E+00
  1.60000000E+02  8.80000000E+01  0.00000000E+00
  1.60000000E+02  8.60000000E+01  0.00000000E+00
  1.60000000E+02  8.40000000E+01  0.00000000E+00
  1.60000000E+02  8.20000000E+01  0.00000000E+00
  1.60000000E+02  8.00000000E+01  0.00000000E+00
  1.60000000E+02  7.80000000E+01  0.00000000E+00
  1.60000000E+02  7.60000000E+01  0.00000000E+00
  1.60000000E+02  7.40000000E+01  0.00000000E+00
  1.60000000E+02  7.20000000E+01  0.00000000E+00
  1.60000000E+02  7.00000000E+01  0.00000000E+00
  1.60000000E+02  6.80000000E+01  0.00000000E+00
  1.60000000E+02  6.60000000E+01  0.00000000E+00
  1.60000000E+02  6.40000000E+01  0.00000000E+00
  1.60000000E+02  6.20000000E+01  0.00000000E+00
  1.60000000E+02  6.00000000E+01  0.00000000E+00
  1.60000000E+02  5.80000000E+01  0.00000000E+00
  1.60000000E+02  5.60000000E+01  0.00000000E+00
  1.60000000E+02  5.40000000E+01  0.00000000E+00
  1.60000000E+02  5.20000000E+01  0.00000000E+00
  1.60000000E+02  5.00000000E+01  0.00000000E+00
  1.60000000E+02  4.80000000E+01  0.00000000E+00
  1.60000000E+02  4.60000000E+01  0.00000000E+00
  1.60000000E+02  4.40000000E+01  0.00000000E+00
  1.60000000E+02  4.20000000E+01  0.00000000E+00
  1.60000000E+02  4.00000000E+01  0.00000000E+00
  1.60000000E+02  3.80000000E+01  0.00000000E+00
  1.60000000E+02  3.60000000E+01  0.00000000E+00
  1.60000000E+02  3.40000000E+01  0.00000000E+00
  1.60000000E+02  3.20000000E+01  0.00000000E+00
  1.60000000E+02  3.00000000E+01  0.00000000E+00
  1.60000000E+02  2.80000000E+01  0.00000000E+00
  1.60000000E+02  2.60000000E+01  0.00000000E+00
  1.60000000E+02  2.40000000E+01  0.00000000E+00
  1.60000000E+02  2.20000000E+01  0.00000000E+00
  1.60000000E+02  2.00000000E+01  0.00000000E+00
  1.60000000E+02  1.80000000E+01  0.00000000E+00
  1.60000000E+02  1.60000000E+01  0.00000000E+00
  1.60000000E+02  1.40000000E+01  0.00000000E+00
  1.60000000E+02  1.20000000E+01  0.00000000E+00
  1.60000000E+02  1.00000000E+01  0.00000000E+00
  1.60000000E+02  8.00000000E+00  0.00000000E+00
  1.60000000E+02  6.00000000E+00  0.00000000E+00
  1.60000000E+02  4.00000000E+00  0.00000000E+00
  1.60000000E+02  2.00000000E+00  0.00000000E+00
  1.60000000E+02 -3.33066907E-14  0.00000000E+00
  1.70000000E+02  1.00000000E+02  0.00000000E+00
  1.70000000E+02  9.80000000E+01  0.00000000E+00
  1.70000000E+02  9.60000000E+01  0.00000000E+00
  1.70000000E+02  9.40000000E+01  0.00000000E+00
  1.70000000E+02  9.20000000E+01  0.00000000E+00
  1.70000000E+02  9.00000000E+01  0.00000000E+00
  1.70000000E+02  8.80000000E+01  0.00000000E+00
  1.70000000E+02  8.60000000E+01  0.00000000E+00
  1.70000000E+02  8.40000000E+01  0.00000000E+00
  1.70000000E+02  8.20000000E+01  0.00000000E+00
  1.70000000E+02  8.00000000E+01  0.00000000E+00
  1.70000000E+02  7.80000000E+01  0.00000000E+00
  1.70000000E+02  7.60000000E+01  0.00000000E+00
  1.70000000E+02  7.40000000E+01  0.00000000E+00
  1.70000000E+02  7.20000000E+01  0.00000000E+00
  1.70000000E+02  7.00000000E+01  0.00000000E+00
  1.70000000E+02  6.80000000E+01  0.00000000E+00
  1.70000000E+02  6.60000000E+01  0.00000000E+00
  1.70000000E+02  6.40000000E+01  0.00000000E+00
  1.70000000E+02  6.20000000E+01  0.00000000E+00
  1.70000000E+02  6.00000000E+01  0.00000000E+00
  1.70000000E+02  5.80000000E+01  0.00000000E+00
  1.70000000E+02  5.60000000E+01  0.00000000E+00
  1.70000000E+02  5.40000000E+01  0.00000000E+00
  1.70000000E+02  5.20000000E+01  0.00000000E+00
  1.70000000E+02  5.00000000E+01  0.00000000E+00
  1.70000000E+02  4.80000000E+01  0.00000000E+00
  1.70000000E+02  4.60000000E+01  0.00000000E+00
  1.70000000E+02  4.40000000E+01  0.00000000E+00
  1.70000000E+02  4.20000000E+01  0.00000000E+00
  1.70000000E+02  4.00000000E+01  0.00000000E+00
  1.70000000E+02  3.80000000E+01  0.00000000E+00
  1.70000000E+02  3.60000000E+01  0.00000000E+00
  1.70000000E+02  3.40000000E+01  0.00000000E+00
  1.70000000E+02  3.20000000E+01  0.00000000E+00
  1.70000000E+02  3.00000000E+01  0.00000000E+00
  1.70000000E+02  2.80000000E+01  0.00000000E+00
  1.70000000E+02  2.60000000E+01  0.00000000E+00
  1.70000000E+02  2.40000000E+01  0.00000000E+00
  1.70000000E+02  2.20000000E+01  0.00000000E+00
  1.70000000E+02  2.00000000E+01  0.00000000E+00
  1.70000000E+02  1.80000000E+01  0.00000000E+00
  1.70000000E+02  1.60000000E+01  0.00000000E+00
  1.70000000E+02  1.40000000E+01  0.00000000E+00
  1.70000000E+02  1.20000000E+01  0.00000000E+00
  1.70000000E+02  1.00000000E+01  0.00000000E+00
  1.70000000E+02  8.00000000E+00  0.00000000E+00
  1.70000000E+02  6.00000000E+00  0.00000000E+00
  1.70000000E+02  4.00000000E+00  0.00000000E+00
  1.70000000E+02  2.00000000E+00  0.00000000E+00
  1.70000000E+02 -3.33066907E-14  0.00000000E+00
  1.80000000E+02  1.00000000E+02  0.00000000E+00
  1.80000000E+02  9.80000000E+01  0.00000000E+00
  1.80000000E+02  9.60000000E+01  0.00000000E+00
  1.80000000E+02  9.40000000E+01  0.00000000E+00
  1.80000000E+02  9.20000000E+01  0.00000000E+00
  1.80000000E+02  9.00000000E+01  0.00000000E+00
  1.80000000E+02  8.80000000E+01  0.00000000E+00
  1.80000000E+02  8.60000000E+01  0.00000000E+00
  1.80000000E+02  8.40000000E+01  0.00000000E+00
  1.80000000E+02  8.20000000E+01  0.00000000E+00
  1.80000000E+02  8.00000000E+01  0.00000000E+00
  1.80000000E+02  7.80000000E+01  0.00000000E+00
  1.80000000E+02  7.60000000E+01  0.00000000E+00
  1.80000000E+02  7.40000000E+01  0.00000000E+00
  1.80000000E+02  7.20000000E+01  0.00000000E+00
  1.80000000E+02  7.00000000E+01  0.00000000E+00
  1.80000000E+02  6.80000000E+01  0.00000000E+00
  1.80000000E+02  6.60000000E+01  0.00000000E+00
  1.80000000E+02  6.40000000E+01  0.00000000E+00
  1.80000000E+02  6.20000000E+01  0.00000000E+00
  1.80000000E+02  6.00000000E+01  0.00000000E+00
  1.80000000E+02  5.80000000E+01  0.00000000E+00
  1.80000000E+02  5.60000000E+01  0.00000000E+00
  1.80000000E+02  5.40000000E+01  0.00000000E+00
  1.80000000E+02  5.20000000E+01  0.00000000E+00
  1.80000000E+02  5.00000000E+01  0.00000000E+00
  1.80000000E+02  4.80000000E+01  0.00000000E+00
  1.80000000E+02  4.60000000E+01  0.00000000E+00
  1.80000000E+02  4.40000000E+01  0.00000000E+00
  1.80000000E+02  4.20000000E+01  0.00000000E+00
  1.80000000E+02  4.00000000E+01  0.00000000E+00
  1.80000000E+02  3.80000000E+01  0.00000000E+00
  1.80000000E+02  3.60000000E+01  0.00000000E+00
  1.80000000E+02  3.40000000E+01  0.00000000E+00
  1.80000000E+02  3.20000000E+01  0.00000000E+00
  1.80000000E+02  3.00000000E+01  0.00000000E+00
  1.80000000E+02  2.80000000E+01  0.00000000E+00
  1.80000000E+02  2.60000000E+01  0.00000000E+00
  1.80000000E+02  2.40000000E+01  0.00000000E+00
  1.80000000E+02  2.20000000E+01  0.00000000E+00
  1.80000000E+02  2.00000000E+01  0.00000000E+00
  1.80000000E+02  1.80000000E+01  0.00000000E+00
  1.80000000E+02  1.60000000E+01  0.00000000E+00
  1.80000000E+02  1.40000000E+01  0.00000000E+00
  1.80000000E+02  1.20000000E+01  0.00000000E+00
  1.80000000E+02  1.00000000E+01  0.00000000E+00
  1.80000000E+02  8.00000000E+00  0.00000000E+00
  1.80000000E+02  6.00000000E+00  0.00000000E+00
  1.80000000E+02  4.00000000E+00  0.00000000E+00
  1.80000000E+02  2.00000000E+00  0.00000000E+00
  1.80000000E+02 -3.33066907E-14  0.00000000E+00
  1.90000000E+02  1.00000000E+02  0.00000000E+00
  1.90000000E+02  9.80000000E+01  0.00000000E+00
  1.90000000E+02  9.60000000E+01  0.00000000E+00
  1.90000000E+02  9.40000000E+01  0.00000000E+00
  1.90000000E+02  9.20000000E+01  0.00000000E+00
  1.90000000E+02  9.00000000E+01  0.00000000E+00
  1.90000000E+02  8.80000000E+01  0.00000000E+00
  1.90000000E+02  8.60000000E+01  0.00000000E+00
  1.90000000E+02  8.40000000E+01  0.00000000E+00
  1.90000000E+02  8.20000000E+01  0.00000000E+00
  1.90000000E+02  8.00000000E+01  0.00000000E+00
  1.90000000E+02  7.80000000E+01  0.00000000E+00
  1.90000000E+02  7.60000000E+01  0.00000000E+00
  1.90000000E+02  7.40000000E+01  0.00000000E+00
  1.90000000E+02  7.20000000E+01  0.00000000E+00
  1.90000000E+02  7.00000000E+01  0.00000000E+00
  1.90000000E+02  6.80000000E+01  0.00000000E+00
  1.90000000E+02  6.60000000E+01  0.00000000E+00
  1.90000000E+02  6.40000000E+01  0.00000000E+00
  1.90000000E+02  6.20000000E+01  0.00000000E+00
  1.90000000E+02  6.00000000E+01  0.00000000E+00
  1.90000000E+02  5.80000000E+01  0.00000000E+00
  1.90000000E+02  5.60000000E+01  0.00000000E+00
  1.90000000E+02  5.40000000E+01  0.00000000E+00
  1.90000000E+02  5.20000000E+01  0.00000000E+00
  1.90000000E+02  5.00000000E+01  0.00000000E+00
  1.90000000E+02  4.80000000E+01  0.00000000E+00
  1.90000000E+02  4.60000000E+01  0.00000000E+00
  1.90000000E+02  4.40000000E+01  0.00000000E+00
  1.90000000E+02  4.20000000E+01  0.00000000E+00
  1.90000000E+02  4.00000000E+01  0.00000000E+00
  1.90000000E+02  3.80000000E+01  0.00000000E+00
  1.90000000E+02  3.60000000E+01  0.00000000E+00
  1.90000000E+02  3.40000000E+01  0.00000000E+00
  1.90000000E+02  3.20000000E+01  0.00000000E+00
  1.90000000E+02  3.00000000E+01  0.00000000E+00
  1.90000000E+02  2.80000000E+01  0.00000000E+00
  1.90000000E+02  2.60000000E+01  0.00000000E+00
  1.90000000E+02  2.40000000E+01  0.00000000E+00
  1.90000000E+02  2.20000000E+01  0.00000000E+00
  1.90000000E+02  2.00000000E+01  0.00000000E+00
  1.90000000E+02  1.80000000E+01  0.00000000E+00
  1.90000000E+02  1.60000000E+01  0.00000000E+00
  1.90000000E+02  1.40000000E+01  0.00000000E+00
  1.90000000E+02  1.20000000E+01  0.00000000E+00
  1.90000000E+02  1.00000000E+01  0.00000000E+00
  1.90000000E+02  8.00000000E+00  0.00000000E+00
  1.90000000E+02  6.00000000E+00  0.00000000E+00
  1.90000000E+02  4.00000000E+00  0.00000000E+00
  1.90000000E+02  2.00000000E+00  0.00000000E+00
  1.90000000E+02 -3.33066907E-14  0.00000000E+00
  2.00000000E+02  1.00000000E+02  0.00000000E+00
  2.00000000E+02  9.80000000E+01  0.00000000E+00
  2.00000000E+02  9.60000000E+01  0.00000000E+00
  2.00000000E+02  9.40000000E+01  0.00000000E+00
  2.00000000E+02  9.20000000E+01  0.00000000E+00
  2.00000000E+02  9.00000000E+01  0.00000000E+00
  2.00000000E+02  8.80000000E+01  0.00000000E+00
  2.00000000E+02  8.60000000E+01  0.00000000E+00
  2.00000000E+02  8.40000000E+01  0.00000000E+00
  2.00000000E+02  8.20000000E+01  0.00000000E+00
  2.00000000E+02  8.00000000E+01  0.00000000E+00
  2.00000000E+02  7.80000000E+01  0.00000000E+00
  2.00000000E+02  7.60000000E+01  0.00000000E+00
  2.00000000E+02  7.40000000E+01  0.00000000E+00
  2.00000000E+02  7.20000000E+01  0.00000000E+00
  2.00000000E+02  7.00000000E+01  0.00000000E+00
  2.00000000E+02  6.80000000E+01  0.00000000E+00
  2.00000000E+02  6.60000000E+01  0.00000000E+00
  2.00000000E+02  6.40000000E+01  0.00000000E+00
  2.00000000E+02  6.20000000E+01  0.00000000E+00
  2.00000000E+02  6.00000000E+01  0.00000000E+00
  2.00000000E+02  5.80000000E+01  0.00000000E+00
  2.00000000E+02  5.60000000E+01  0.00000000E+00
  2.00000000E+02  5.40000000E+01  0.00000000E+00
  2.00000000E+02  5.20000000E+01  0.00000000E+00
  2.00000000E+02  5.00000000E+01  0.00000000E+00
  2.00000000E+02  4.80000000E+01  0.00000000E+00
  2.00000000E+02  4.60000000E+01  0.00000000E+00
  2.00000000E+02  4.40000000E+01  0.00000000E+00
  2.00000000E+02  4.20000000E+01  0.00000000E+00
  2.00000000E+02  4.00000000E+01  0.00000000E+00
  2.00000000E+02  3.80000000E+01  0.00000000E+00
  2.00000000E+02  3.60000000E+01  0.00000000E+00
  2.00000000E+02  3.40000000E+01  0.00000000E+00
  2.00000000E+02  3.20000000E+01  0.00000000E+00
  2.00000000E+02  3.00000000E+01  0.00000000E+00
  2.00000000E+02  2.80000000E+01  0.00000000E+00
  2.00000000E+02  2.60000000E+01  0.00000000E+00
  2.00000000E+02  2.40000000E+01  0.00000000E+00
  2.00000000E+02  2.20000000E+01  0.00000000E+00
  2.00000000E+02  2.00000000E+01  0.00000000E+00
  2.00000000E+02  1.80000000E+01  0.00000000E+00
  2.00000000E+02  1.60000000E+01  0.00000000E+00
  2.00000000E+02  1.40000000E+01  0.00000000E+00
  2.00000000E+02  1.20000000E+01  0.00000000E+00
  2.00000000E+02  1.00000000E+01  0.00000000E+00
  2.00000000E+02  8.00000000E+00  0.00000000E+00
  2.00000000E+02  6.00000000E+00  0.00000000E+00
  2.00000000E+02  4.00000000E+00  0.00000000E+00
  2.00000000E+02  2.00000000E+00  0.00000000E+00
  2.00000000E+02 -3.33066907E-14  0.00000000E+00
  2.10000000E+02  1.00000000E+02  0.00000000E+00
  2.10000000E+02  9.80000000E+01  0.00000000E+00
  2.10000000E+02  9.60000000E+01  0.00000000E+00
  2.10000000E+02  9.40000000E+01  0.00000000E+00
  2.10000000E+02  9.20000000E+01  0.00000000E+00
  2.10000000E+02  9.00000000E+01  0.00000000E+00
  2.10000000E+02  8.80000000E+01  0.00000000E+00
  2.10000000E+02  8.60000000E+01  0.00000000E+00
  2.10000000E+02  8.40000000E+01  0.00000000E+00
  2.10000000E+02  8.20000000E+01  0.00000000E+00
  2.10000000E+02  8.00000000E+01  0.00000000E+00
  2.10000000E+02  7.80000000E+01  0.00000000E+00
  2.10000000E+02  7.60000000E+01  0.00000000E+00
  2.10000000E+02  7.40000000E+01  0.00000000E+00
  2.10000000E+02  7.20000000E+01  0.00000000E+00
  2.10000000E+02  7.00000000E+01  0.00000000E+00
  2.10000000E+02  6.80000000E+01  0.00000000E+00
  2.10000000E+02  6.60000000E+01  0.00000000E+00
  2.10000000E+02  6.40000000E+01  0.00000000E+00
  2.10000000E+02  6.20000000E+01  0.00000000E+00
  2.10000000E+02  6.00000000E+01  0.00000000E+00
  2.10000000E+02  5.80000000E+01  0.00000000E+00
  2.10000000E+02  5.60000000E+01  0.00000000E+00
  2.10000000E+02  5.40000000E+01  0.00000000E+00
  2.10000000E+02  5.20000000E+01  0.00000000E+00
  2.10000000E+02  5.00000000E+01  0.00000000E+00
  2.10000000E+02  4.80000000E+01  0.00000000E+00
  2.10000000E+02  4.60000000E+01  0.00000000E+00
  2.10000000E+02  4.40000000E+01  0.00000000E+00
  2.10000000E+02  4.20000000E+01  0.00000000E+00
  2.10000000E+02  4.00000000E+01  0.00000000E+00
  2.10000000E+02  3.80000000E+01  0.00000000E+00
  2.10000000E+02  3.60000000E+01  0.00000000E+00
  2.10000000E+02  3.40000000E+01  0.00000000E+00
  2.10000000E+02  3.20000000E+01  0.00000000E+00
  2.10000000E+02  3.00000000E+01  0.00000000E+00
  2.10000000E+02  2.80000000E+01  0.00000000E+00
  2.10000000E+02  2.60000000E+01  0.00000000E+00
  2.10000000E+02  2.40000000E+01  0.00000000E+00
  2.10000000E+02  2.20000000E+01  0.00000000E+00
  2.10000000E+02  2.00000000E+01  0.00000000E+00
  2.10000000E+02  1.80000000E+01  0.00000000E+00
  2.10000000E+02  1.60000000E+01  0.00000000E+00
  2.10000000E+02  1.40000000E+01  0.00000000E+00
  2.10000000E+02  1.20000000E+01  0.00000000E+00
  2.10000000E+02  1.00000000E+01  0.00000000E+00
  2.10000000E+02  8.00000000E+00  0.00000000E+00
  2.10000000E+02  6.00000000E+00  0.00000000E+00
  2.10000000E+02  4.00000000E+00  0.00000000E+00
  2.10000000E+02  2.00000000E+00  0.00000000E+00
  2.10000000E+02 -3.33066907E-14  0.00000000E+00
  2.20000000E+02  1.00000000E+02  0.00000000E+00
  2.20000000E+02  9.80000000E+01  0.00000000E+00
  2.20000000E+02  9.60000000E+01  0.00000000E+00
  2.20000000E+02  9.40000000E+01  0.00000000E+00
  2.20000000E+02  9.20000000E+01  0.00000000E+00
  2.20000000E+02  9.00000000E+01  0.00000000E+00
  2.20000000E+02  8.80000000E+01  0.00000000E+00
  2.20000000E+02  8.60000000E+01  0.00000000E+00
  2.20000000E+02  8.40000000E+01  0.00000000E+00
  2.20000000E+02  8.20000000E+01  0.00000000E+00
  2.20000000E+02  8.00000000E+01  0.00000000E+00
  2.20000000E+02  7.80000000E+01  0.00000000E+00
  2.20000000E+02  7.60000000E+01  0.00000000E+00
  2.20000000E+02  7.40000000E+01  0.00000000E+00
  2.20000000E+02  7.20000000E+01  0.00000000E+00
  2.20000000E+02  7.00000000E+01  0.00000000E+00
  2.20000000E+02  6.80000000E+01  0.00000000E+00
  2.20000000E+02  6.60000000E+01  0.00000000E+00
  2.20000000E+02  6.40000000E+01  0.00000000E+00
  2.20000000E+02  6.20000000E+01  0.00000000E+00
  2.20000000E+02  6.00000000E+01  0.00000000E+00
  2.20000000E+02  5.80000000E+01  0.00000000E+00
  2.20000000E+02  5.60000000E+01  0.00000000E+00
  2.20000000E+02  5.40000000E+01  0.00000000E+00
  2.20000000E+02  5.20000000E+01  0.00000000E+00
  2.20000000E+02  5.00000000E+01  0.00000000E+00
  2.20000000E+02  4.80000000E+01  0.00000000E+00
  2.20000000E+02  4.60000000E+01  0.00000000E+00
  2.20000000E+02  4.40000000E+01  0.00000000E+00
  2.20000000E+02  4.20000000E+01  0.00000000E+00
  2.20000000E+02  4.00000000E+01  0.00000000E+00
  2.20000000E+02  3.80000000E+01  0.00000000E+00
  2.20000000E+02  3.60000000E+01  0.00000000E+00
  2.20000000E+02  3.40000000E+01  0.00000000E+00
  2.20000000E+02  3.20000000E+01  0.00000000E+00
  2.20000000E+02  3.00000000E+01  0.00000000E+00
  2.20000000E+02  2.80000000E+01  0.00000000E+00
  2.20000000E+02  2.60000000E+01  0.00000000E+00
  2.20000000E+02  2.40000000E+01  0.00000000E+00
  2.20000000E+02  2.20000000E+01  0.00000000E+00
  2.20000000E+02  2.00000000E+01  0.00000000E+00
  2.20000000E+02  1.80000000E+01  0.00000000E+00
  2.20000000E+02  1.60000000E+01  0.00000000E+00
  2.20000000E+02  1.40000000E+01  0.00000000E+00
  2.20000000E+02  1.20000000E+01  0.00000000E+00
  2.20000000E+02  1.00000000E+01  0.00000000E+00
  2.20000000E+02  8.00000000E+00  0.00000000E+00
  2.20000000E+02  6.00000000E+00  0.00000000E+00
  2.20000000E+02  4.00000000E+00  0.00000000E+00
  2.20000000E+02  2.00000000E+00  0.00000000E+00
  2.20000000E+02 -3.33066907E-14  0.00000000E+00
  2.30000000E+02  1.00000000E+02  0.00000000E+00
  2.30000000E+02  9.80000000E+01  0.00000000E+00
  2.30000000E+02  9.60000000E+01  0.00000000E+00
  2.30000000E+02  9.40000000E+01  0.00000000E+00
  2.30000000E+02  9.20000000E+01  0.00000000E+00
  2.30000000E+02  9.00000000E+01  0.00000000E+00
  2.30000000E+02  8.80000000E+01  0.00000000E+00
  2.30000000E+02  8.60000000E+01  0.00000000E+00
  2.30000000E+02  8.40000000E+01  0.00000000E+00
  2.30000000E+02  8.20000000E+01  0.00000000E+00
  2.30000000E+02  8.00000000E+01  0.00000000E+00
  2.30000000E+02  7.80000000E+01  0.00000000E+00
  2.30000000E+02  7.60000000E+01  0.00000000E+00
  2.30000000E+02  7.40000000E+01  0.00000000E+00
  2.30000000E+02  7.20000000E+01  0.00000000E+00
  2.30000000E+02  7.00000000E+01  0.00000000E+00
  2.30000000E+02  6.80000000E+01  0.00000000E+00
  2.30000000E+02  6.60000000E+01  0.00000000E+00
  2.30000000E+02  6.40000000E+01  0.00000000E+00
  2.30000000E+02  6.20000000E+01  0.00000000E+00
  2.30000000E+02  6.00000000E+01  0.00000000E+00
  2.30000000E+02  5.80000000E+01  0.00000000E+00
  2.30000000E+02  5.60000000E+01  0.00000000E+00
  2.30000000E+02  5.40000000E+01  0.00000000E+00
  2.30000000E+02  5.20000000E+01  0.00000000E+00
  2.30000000E+02  5.00000000E+01  0.00000000E+00
  2.30000000E+02  4.80000000E+01  0.00000000E+00
  2.30000000E+02  4.60000000E+01  0.00000000E+00
  2.30000000E+02  4.40000000E+01  0.00000000E+00
  2.30000000E+02  4.20000000E+01  0.00000000E+00
  2.30000000E+02  4.00000000E+01  0.00000000E+00
  2.30000000E+02  3.80000000E+01  0.00000000E+00
  2.30000000E+02  3.60000000E+01  0.00000000E+00
  2.30000000E+02  3.40000000E+01  0.00000000E+00
  2.30000000E+02  3.20000000E+01  0.00000000E+00
  2.30000000E+02  3.00000000E+01  0.00000000E+00
  2.30000000E+02  2.80000000E+01  0.00000000E+00
  2.30000000E+02  2.60000000E+01  0.00000000E+00
  2.30000000E+02  2.40000000E+01  0.00000000E+00
  2.30000000E+02  2.20000000E+01  0.00000000E+00
  2.30000000E+02  2.00000000E+01  0.00000000E+00
  2.30000000E+02  1.80000000E+01  0.00000000E+00
  2.30000000E+02  1.60000000E+01  0.00000000E+00
  2.30000000E+02  1.40000000E+01  0.00000000E+00
  2.30000000E+02  1.20000000E+01  0.00000000E+00
  2.30000000E+02  1.00000000E+01  0.00000000E+00
  2.30000000E+02  8.00000000E+00  0.00000000E+00
  2.30000000E+02  6.00000000E+00  0.00000000E+00
  2.30000000E+02  4.00000000E+00  0.00000000E+00
  2.30000000E+02  2.00000000E+00  0.00000000E+00
  2.30000000E+02 -3.33066907E-14  0.00000000E+00
  2.40000000E+02  1.00000000E+02  0.00000000E+00
  2.40000000E+02  9.80000000E+01  0.00000000E+00
  2.40000000E+02  9.60000000E+01  0.00000000E+00
  2.40000000E+02  9.40000000E+01  0.00000000E+00
  2.40000000E+02  9.20000000E+01  0.00000000E+00
  2.40000000E+02  9.00000000E+01  0.00000000E+00
  2.40000000E+02  8.80000000E+01  0.00000000E+00
  2.40000000E+02  8.60000000E+01  0.00000000E+00
  2.40000000E+02  8.40000000E+01  0.00000000E+00
  2.40000000E+02  8.20000000E+01  0.00000000E+00
  2.40000000E+02  8.00000000E+01  0.00000000E+00
  2.40000000E+02  7.80000000E+01  0.00000000E+00
  2.40000000E+02  7.60000000E+01  0.00000000E+00
  2.40000000E+02  7.40000000E+01  0.00000000E+00
  2.40000000E+02  7.20000000E+01  0.00000000E+00
  2.40000000E+02  7.00000000E+01  0.00000000E+00
  2.40000000E+02  6.80000000E+01  0.00000000E+00
  2.40000000E+02  6.60000000E+01  0.00000000E+00
  2.40000000E+02  6.40000000E+01  0.00000000E+00
  2.40000000E+02  6.20000000E+01  0.00000000E+00
  2.40000000E+02  6.00000000E+01  0.00000000E+00
  2.40000000E+02  5.80000000E+01  0.00000000E+00
  2.40000000E+02  5.60000000E+01  0.00000000E+00
  2.40000000E+02  5.40000000E+01  0.00000000E+00
  2.40000000E+02  5.20000000E+01  0.00000000E+00
  2.40000000E+02  5.00000000E+01  0.00000000E+00
  2.40000000E+02  4.80000000E+01  0.00000000E+00
  2.40000000E+02  4.60000000E+01  0.00000000E+00
  2.40000000E+02  4.40000000E+01  0.00000000E+00
  2.40000000E+02  4.20000000E+01  0.00000000E+00
  2.40000000E+02  4.00000000E+01  0.00000000E+00
  2.40000000E+02  3.80000000E+01  0.00000000E+00
  2.40000000E+02  3.60000000E+01  0.00000000E+00
  2.40000000E+02  3.40000000E+01  0.00000000E+00
  2.40000000E+02  3.20000000E+01  0.00000000E+00
  2.40000000E+02  3.00000000E+01  0.00000000E+00
  2.40000000E+02  2.80000000E+01  0.00000000E+00
  2.40000000E+02  2.60000000E+01  0.00000000E+00
  2.40000000E+02  2.40000000E+01  0.00000000E+00
  2.40000000E+02  2.20000000E+01  0.00000000E+00
  2.40000000E+02  2.00000000E+01  0.00000000E+00
  2.40000000E+02  1.80000000E+01  0.00000000E+00
  2.40000000E+02  1.60000000E+01  0.00000000E+00
  2.40000000E+02  1.40000000E+01  0.00000000E+00
  2.40000000E+02  1.20000000E+01  0.00000000E+00
  2.40000000E+02  1.00000000E+01  0.00000000E+00
  2.40000000E+02  8.00000000E+00  0.00000000E+00
  2.40000000E+02  6.00000000E+00  0.00000000E+00
  2.40000000E+02  4.00000000E+00  0.00000000E+00
  2.40000000E+02  2.00000000E+00  0.00000000E+00
  2.40000000E+02 -3.33066907E-14  0.00000000E+00
  2.50000000E+02  1.00000000E+02  0.00000000E+00
  2.50000000E+02  9.80000000E+01  0.00000000E+00
  2.50000000E+02  9.60000000E+01  0.00000000E+00
  2.50000000E+02  9.40000000E+01  0.00000000E+00
  2.50000000E+02  9.20000000E+01  0.00000000E+00
  2.50000000E+02  9.00000000E+01  0.00000000E+00
  2.50000000E+02  8.80000000E+01  0.00000000E+00
  2.50000000E+02  8.60000000E+01  0.00000000E+00
  2.50000000E+02  8.40000000E+01  0.00000000E+00
  2.50000000E+02  8.20000000E+01  0.00000000E+00
  2.50000000E+02  8.00000000E+01  0.00000000E+00
  2.50000000E+02  7.80000000E+01  0.00000000E+00
  2.50000000E+02  7.60000000E+01  0.00000000E+00
  2.50000000E+02  7.40000000E+01  0.00000000E+00
  2.50000000E+02  7.20000000E+01  0.00000000E+00
  2.50000000E+02  7.00000000E+01  0.00000000E+00
  2.50000000E+02  6.80000000E+01  0.00000000E+00
  2.50000000E+02  6.60000000E+01  0.00000000E+00
  2.50000000E+02  6.40000000E+01  0.00000000E+00
  2.50000000E+02  6.20000000E+01  0.00000000E+00
  2.50000000E+02  6.00000000E+01  0.00000000E+00
  2.50000000E+02  5.80000000E+01  0.00000000E+00
  2.50000000E+02  5.60000000E+01  0.00000000E+00
  2.50000000E+02  5.40000000E+01  0.00000000E+00
  2.50000000E+02  5.20000000E+01  0.00000000E+00
  2.50000000E+02  5.00000000E+01  0.00000000E+00
  2.50000000E+02  4.80000000E+01  0.00000000E+00
  2.50000000E+02  4.60000000E+01  0.00000000E+00
  2.50000000E+02  4.40000000E+01  0.00000000E+00
  2.50000000E+02  4.20000000E+01  0.00000000E+00
  2.50000000E+02  4.00000000E+01  0.00000000E+00
  2.50000000E+02  3.80000000E+01  0.00000000E+00
  2.50000000E+02  3.60000000E+01  0.00000000E+00
  2.50000000E+02  3.40000000E+01  0.00000000E+00
  2.50000000E+02  3.20000000E+01  0.00000000E+00
  2.50000000E+02  3.00000000E+01  0.00000000E+00
  2.50000000E+02  2.80000000E+01  0.00000000E+00
  2.50000000E+02  2.60000000E+01  0.00000000E+00
  2.50000000E+02  2.40000000E+01  0.00000000E+00
  2.50000000E+02  2.20000000E+01  0.00000000E+00
  2.50000000E+02  2.00000000E+01  0.00000000E+00
  2.50000000E+02  1.80000000E+01  0.00000000E+00
  2.50000000E+02  1.60000000E+01  0.00000000E+00
  2.50000000E+02  1.40000000E+01  0.00000000E+00
  2.50000000E+02  1.20000000E+01  0.00000000E+00
  2.50000000E+02  1.00000000E+01  0.00000000E+00
  2.50000000E+02  8.00000000E+00  0.00000000E+00
  2.50000000E+02  6.00000000E+00  0.00000000E+00
  2.50000000E+02  4.00000000E+00  0.00000000E+00
  2.50000000E+02  2.00000000E+00  0.00000000E+00
  2.50000000E+02 -3.33066907E-14  0.00000000E+00
  2.60000000E+02  1.00000000E+02  0.00000000E+00
  2.60000000E+02  9.80000000E+01  0.00000000E+00
  2.60000000E+02  9.60000000E+01  0.00000000E+00
  2.60000000E+02  9.40000000E+01  0.00000000E+00
  2.60000000E+02  9.20000000E+01  0.00000000E+00
  2.60000000E+02  9.00000000E+01  0.00000000E+00
  2.60000000E+02  8.80000000E+01  0.00000000E+00
  2.60000000E+02  8.60000000E+01  0.00000000E+00
  2.60000000E+02  8.40000000E+01  0.00000000E+00
  2.60000000E+02  8.20000000E+01  0.00000000E+00
  2.60000000E+02  8.00000000E+01  0.00000000E+00
  2.60000000E+02  7.80000000E+01  0.00000000E+00
  2.60000000E+02  7.60000000E+01  0.00000000E+00
  2.60000000E+02  7.40000000E+01  0.00000000E+00
  2.60000000E+02  7.20000000E+01  0.00000000E+00
  2.60000000E+02  7.00000000E+01  0.00000000E+00
  2.60000000E+02  6.80000000E+01  0.00000000E+00
  2.60000000E+02  6.60000000E+01  0.00000000E+00
  2.60000000E+02  6.40000000E+01  0.00000000E+00
  2.60000000E+02  6.20000000E+01  0.00000000E+00
  2.60000000E+02  6.00000000E+01  0.00000000E+00
  2.60000000E+02  5.80000000E+01  0.00000000E+00
  2.60000000E+02  5.60000000E+01  0.00000000E+00
  2.60000000E+02  5.40000000E+01  0.00000000E+00
  2.60000000E+02  5.20000000E+01  0.00000000E+00
  2.60000000E+02  5.00000000E+01  0.00000000E+00
  2.60000000E+02  4.80000000E+01  0.00000000E+00
  2.60000000E+02  4.60000000E+01  0.00000000E+00
  2.60000000E+02  4.40000000E+01  0.00000000E+00
  2.60000000E+02  4.20000000E+01  0.00000000E+00
  2.60000000E+02  4.00000000E+01  0.00000000E+00
  2.60000000E+02  3.80000000E+01  0.00000000E+00
  2.60000000E+02  3.60000000E+01  0.00000000E+00
  2.60000000E+02  3.40000000E+01  0.00000000E+00
  2.60000000E+02  3.20000000E+01  0.00000000E+00
  2.60000000E+02  3.00000000E+01  0.00000000E+00
  2.60000000E+02  2.80000000E+01  0.00000000E+00
  2.60000000E+02  2.60000000E+01  0.00000000E+00
  2.60000000E+02  2.40000000E+01  0.00000000E+00
  2.60000000E+02  2.20000000E+01  0.00000000E+00
  2.60000000E+02  2.00000000E+01  0.00000000E+00
  2.60000000E+02  1.80000000E+01  0.00000000E+00
  2.60000000E+02  1.60000000E+01  0.00000000E+00
  2.60000000E+02  1.40000000E+01  0.00000000E+00
  2.60000000E+02  1.20000000E+01  0.00000000E+00
  2.60000000E+02  1.00000000E+01  0.00000000E+00
  2.60000000E+02  8.00000000E+00  0.00000000E+00
  2.60000000E+02  6.00000000E+00  0.00000000E+00
  2.60000000E+02  4.00000000E+00  0.00000000E+00
  2.60000000E+02  2.00000000E+00  0.00000000E+00
  2.60000000E+02 -3.33066907E-14  0.00000000E+00
  2.70000000E+02  1.00000000E+02  0.00000000E+00
  2.70000000E+02  9.80000000E+01  0.00000000E+00
  2.70000000E+02  9.60000000E+01  0.00000000E+00
  2.70000000E+02  9.40000000E+01  0.00000000E+00
  2.70000000E+02  9.20000000E+01  0.00000000E+00
  2.70000000E+02  9.00000000E+01  0.00000000E+00
  2.70000000E+02  8.80000000E+01  0.00000000E+00
  2.70000000E+02  8.60000000E+01  0.00000000E+00
  2.70000000E+02  8.40000000E+01  0.00000000E+00
  2.70000000E+02  8.20000000E+01  0.00000000E+00
  2.70000000E+02  8.00000000E+01  0.00000000E+00
  2.70000000E+02  7.80000000E+01  0.00000000E+00
  2.70000000E+02  7.60000000E+01  0.00000000E+00
  2.70000000E+02  7.40000000E+01  0.00000000E+00
  2.70000000E+02  7.20000000E+01  0.00000000E+00
  2.70000000E+02  7.00000000E+01  0.00000000E+00
  2.70000000E+02  6.80000000E+01  0.00000000E+00
  2.70000000E+02  6.60000000E+01  0.00000000E+00
  2.70000000E+02  6.40000000E+01  0.00000000E+00
  2.70000000E+02  6.20000000E+01  0.00000000E+00
  2.70000000E+02  6.00000000E+01  0.00000000E+00
  2.70000000E+02  5.80000000E+01  0.00000000E+00
  2.70000000E+02  5.60000000E+01  0.00000000E+00
  2.70000000E+02  5.40000000E+01  0.00000000E+00
  2.70000000E+02  5.20000000E+01  0.00000000E+00
  2.70000000E+02  5.00000000E+01  0.00000000E+00
  2.70000000E+02  4.80000000E+01  0.00000000E+00
  2.70000000E+02  4.60000000E+01  0.00000000E+00
  2.70000000E+02  4.40000000E+01  0.00000000E+00
  2.70000000E+02  4.20000000E+01  0.00000000E+00
  2.70000000E+02  4.00000000E+01  0.00000000E+00
  2.70000000E+02  3.80000000E+01  0.00000000E+00
  2.70000000E+02  3.60000000E+01  0.00000000E+00
  2.70000000E+02  3.40000000E+01  0.00000000E+00
  2.70000000E+02  3.20000000E+01  0.00000000E+00
  2.70000000E+02  3.00000000E+01  0.00000000E+00
  2.70000000E+02  2.80000000E+01  0.00000000E+00
  2.70000000E+02  2.60000000E+01  0.00000000E+00
  2.70000000E+02  2.40000000E+01  0.00000000E+00
  2.70000000E+02  2.20000000E+01  0.00000000E+00
  2.70000000E+02  2.00000000E+01  0.00000000E+00
  2.70000000E+02  1.80000000E+01  0.00000000E+00
  2.70000000E+02  1.60000000E+01  0.00000000E+00
  2.70000000E+02  1.40000000E+01  0.00000000E+00
  2.70000000E+02  1.20000000E+01  0.00000000E+00
  2.70000000E+02  1.00000000E+01  0.00000000E+00
  2.70000000E+02  8.00000000E+00  0.00000000E+00
  2.70000000E+02  6.00000000E+00  0.00000000E+00
  2.70000000E+02  4.00000000E+00  0.00000000E+00
  2.70000000E+02  2.00000000E+00  0.00000000E+00
  2.70000000E+02 -3.33066907E-14  0.00000000E+00
  2.80000000E+02  1.00000000E+02  0.00000000E+00
  2.80000000E+02  9.80000000E+01  0.00000000E+00
  2.80000000E+02  9.60000000E+01  0.00000000E+00
  2.80000000E+02  9.40000000E+01  0.00000000E+00
  2.80000000E+02  9.20000000E+01  0.00000000E+00
  2.80000000E+02  9.00000000E+01  0.00000000E+00
  2.80000000E+02  8.80000000E+01  0.00000000E+00
  2.80000000E+02  8.60000000E+01  0.00000000E+00
  2.80000000E+02  8.40000000E+01  0.00000000E+00
  2.80000000E+02  8.20000000E+01  0.00000000E+00
  2.80000000E+02  8.00000000E+01  0.00000000E+00
  2.80000000E+02  7.80000000E+01  0.00000000E+00
  2.80000000E+02  7.60000000E+01  0.00000000E+00
  2.80000000E+02  7.40000000E+01  0.00000000E+00
  2.80000000E+02  7.20000000E+01  0.00000000E+00
  2.80000000E+02  7.00000000E+01  0.00000000E+00
  2.80000000E+02  6.80000000E+01  0.00000000E+00
  2.80000000E+02  6.60000000E+01  0.00000000E+00
  2.80000000E+02  6.40000000E+01  0.00000000E+00
  2.80000000E+02  6.20000000E+01  0.00000000E+00
  2.80000000E+02  6.00000000E+01  0.00000000E+00
  2.80000000E+02  5.80000000E+01  0.00000000E+00
  2.80000000E+02  5.60000000E+01  0.00000000E+00
  2.80000000E+02  5.40000000E+01  0.00000000E+00
  2.80000000E+02  5.20000000E+01  0.00000000E+00
  2.80000000E+02  5.00000000E+01  0.00000000E+00
  2.80000000E+02  4.80000000E+01  0.00000000E+00
  2.80000000E+02  4.60000000E+01  0.00000000E+00
  2.80000000E+02  4.40000000E+01  0.00000000E+00
  2.80000000E+02  4.20000000E+01  0.00000000E+00
  2.80000000E+02  4.00000000E+01  0.00000000E+00
  2.80000000E+02  3.80000000E+01  0.00000000E+00
  2.80000000E+02  3.60000000E+01  0.00000000E+00
  2.80000000E+02  3.40000000E+01  0.00000000E+00
  2.80000000E+02  3.20000000E+01  0.00000000E+00
  2.80000000E+02  3.00000000E+01  0.00000000E+00
  2.80000000E+02  2.80000000E+01  0.00000000E+00
  2.80000000E+02  2.60000000E+01  0.00000000E+00
  2.80000000E+02  2.40000000E+01  0.00000000E+00
  2.80000000E+02  2.20000000E+01  0.00000000E+00
  2.80000000E+02  2.00000000E+01  0.00000000E+00
  2.80000000E+02  1.80000000E+01  0.00000000E+00
  2.80000000E+02  1.60000000E+01  0.00000000E+00
  2.80000000E+02  1.40000000E+01  0.00000000E+00
  2.80000000E+02  1.20000000E+01  0.00000000E+00
  2.80000000E+02  1.00000000E+01  0.00000000E+00
  2.80000000E+02  8.00000000E+00  0.00000000E+00
  2.80000000E+02  6.00000000E+00  0.00000000E+00
  2.80000000E+02  4.00000000E+00  0.00000000E+00
  2.80000000E+02  2.00000000E+00  0.00000000E+00
  2.80000000E+02 -3.33066907E-14  0.00000000E+00
  2.90000000E+02  1.00000000E+02  0.00000000E+00
  2.90000000E+02  9.80000000E+01  0.00000000E+00
  2.90000000E+02  9.60000000E+01  0.00000000E+00
  2.90000000E+02  9.40000000E+01  0.00000000E+00
  2.90000000E+02  9.20000000E+01  0.00000000E+00
  2.90000000E+02  9.00000000E+01  0.00000000E+00
  2.90000000E+02  8.80000000E+01  0.00000000E+00
  2.90000000E+02  8.60000000E+01  0.00000000E+00
  2.90000000E+02  8.40000000E+01  0.00000000E+00
  2.90000000E+02  8.20000000E+01  0.00000000E+00
  2.90000000E+02  8.00000000E+01  0.00000000E+00
  2.90000000E+02  7.80000000E+01  0.00000000E+00
  2.90000000E+02  7.60000000E+01  0.00000000E+00
  2.90000000E+02  7.40000000E+01  0.00000000E+00
  2.90000000E+02  7.20000000E+01  0.00000000E+00
  2.90000000E+02  7.00000000E+01  0.00000000E+00
  2.90000000E+02  6.80000000E+01  0.00000000E+00
  2.90000000E+02  6.60000000E+01  0.00000000E+00
  2.90000000E+02  6.40000000E+01  0.00000000E+00
  2.90000000E+02  6.20000000E+01  0.00000000E+00
  2.90000000E+02  6.00000000E+01  0.00000000E+00
  2.90000000E+02  5.80000000E+01  0.00000000E+00
  2.90000000E+02  5.60000000E+01  0.00000000E+00
  2.90000000E+02  5.40000000E+01  0.00000000E+00
  2.90000000E+02  5.20000000E+01  0.00000000E+00
  2.90000000E+02  5.00000000E+01  0.00000000E+00
  2.90000000E+02  4.80000000E+01  0.00000000E+00
  2.90000000E+02  4.60000000E+01  0.00000000E+00
  2.90000000E+02  4.40000000E+01  0.00000000E+00
  2.90000000E+02  4.20000000E+01  0.00000000E+00
  2.90000000E+02  4.00000000E+01  0.00000000E+00
  2.90000000E+02  3.80000000E+01  0.00000000E+00
  2.90000000E+02  3.60000000E+01  0.00000000E+00
  2.90000000E+02  3.40000000E+01  0.00000000E+00
  2.90000000E+02  3.20000000E+01  0.00000000E+00
  2.90000000E+02  3.00000000E+01  0.00000000E+00
  2.90000000E+02  2.80000000E+01  0.00000000E+00
  2.90000000E+02  2.60000000E+01  0.00000000E+00
  2.90000000E+02  2.40000000E+01  0.00000000E+00
  2.90000000E+02  2.20000000E+01  0.00000000E+00
  2.90000000E+02  2.00000000E+01  0.00000000E+00
  2.90000000E+02  1.80000000E+01  0.00000000E+00
  2.90000000E+02  1.60000000E+01  0.00000000E+00
  2.90000000E+02  1.40000000E+01  0.00000000E+00
  2.90000000E+02  1.20000000E+01  0.00000000E+00
  2.90000000E+02  1.00000000E+01  0.00000000E+00
  2.90000000E+02  8.00000000E+00  0.00000000E+00
  2.90000000E+02  6.00000000E+00  0.00000000E+00
  2.90000000E+02  4.00000000E+00  0.00000000E+00
  2.90000000E+02  2.00000000E+00  0.00000000E+00
  2.90000000E+02 -3.33066907E-14  0.00000000E+00
  3.00000000E+02  1.00000000E+02  0.00000000E+00
  3.00000000E+02  9.80000000E+01  0.00000000E+00
  3.00000000E+02  9.60000000E+01  0.00000000E+00
  3.00000000E+02  9.40000000E+01  0.00000000E+00
  3.00000000E+02  9.20000000E+01  0.00000000E+00
  3.00000000E+02  9.00000000E+01  0.00000000E+00
  3.00000000E+02  8.80000000E+01  0.00000000E+00
  3.00000000E+02  8.60000000E+01  0.00000000E+00
  3.00000000E+02  8.40000000E+01  0.00000000E+00
  3.00000000E+02  8.20000000E+01  0.00000000E+00
  3.00000000E+02  8.00000000E+01  0.00000000E+00
  3.00000000E+02  7.80000000E+01  0.00000000E+00
  3.00000000E+02  7.60000000E+01  0.00000000E+00
  3.00000000E+02  7.40000000E+01  0.00000000E+00
  3.00000000E+02  7.20000000E+01  0.00000000E+00
  3.00000000E+02  7.00000000E+01  0.00000000E+00
  3.00000000E+02  6.80000000E+01  0.00000000E+00
  3.00000000E+02  6.60000000E+01  0.00000000E+00
  3.00000000E+02  6.40000000E+01  0.00000000E+00
  3.00000000E+02  6.20000000E+01  0.00000000E+00
  3.00000000E+02  6.00000000E+01  0.00000000E+00
  3.00000000E+02  5.80000000E+01  0.00000000E+00
  3.00000000E+02  5.60000000E+01  0.00000000E+00
  3.00000000E+02  5.40000000E+01  0.00000000E+00
  3.00000000E+02  5.20000000E+01  0.00000000E+00
  3.00000000E+02  5.00000000E+01  0.00000000E+00
  3.00000000E+02  4.80000000E+01  0.00000000E+00
  3.00000000E+02  4.60000000E+01  0.00000000E+00
  3.00000000E+02  4.40000000E+01  0.00000000E+00
  3.00000000E+02  4.20000000E+01  0.00000000E+00
  3.00000000E+02  4.00000000E+01  0.00000000E+00
  3.00000000E+02  3.80000000E+01  0.00000000E+00
  3.00000000E+02  3.60000000E+01  0.00000000E+00
  3.00000000E+02  3.40000000E+01  0.00000000E+00
  3.00000000E+02  3.20000000E+01  0.00000000E+00
  3.00000000E+02  3.00000000E+01  0.00000000E+00
  3.00000000E+02  2.80000000E+01  0.00000000E+00
  3.00000000E+02  2.60000000E+01  0.00000000E+00
  3.00000000E+02  2.40000000E+01  0.00000000E+00
  3.00000000E+02  2.20000000E+01  0.00000000E+00
  3.00000000E+02  2.00000000E+01  0.00000000E+00
  3.00000000E+02  1.80000000E+01  0.00000000E+00
  3.00000000E+02  1.60000000E+01  0.00000000E+00
  3.00000000E+02  1.40000000E+01  0.00000000E+00
  3.00000000E+02  1.20000000E+01  0.00000000E+00
  3.00000000E+02  1.00000000E+01  0.00000000E+00
  3.00000000E+02  8.00000000E+00  0.00000000E+00
  3.00000000E+02  6.00000000E+00  0.00000000E+00
  3.00000000E+02  4.00000000E+00  0.00000000E+00
  3.00000000E+02  2.00000000E+00  0.00000000E+00
  3.00000000E+02 -3.33066907E-14  0.00000000E+00
  3.10000000E+02  1.00000000E+02  0.00000000E+00
  3.10000000E+02  9.80000000E+01  0.00000000E+00
  3.10000000E+02  9.60000000E+01  0.00000000E+00
  3.10000000E+02  9.40000000E+01  0.00000000E+00
  3.10000000E+02  9.20000000E+01  0.00000000E+00
  3.10000000E+02  9.00000000E+01  0.00000000E+00
  3.10000000E+02  8.80000000E+01  0.00000000E+00
  3.10000000E+02  8.60000000E+01  0.00000000E+00
  3.10000000E+02  8.40000000E+01  0.00000000E+00
  3.10000000E+02  8.20000000E+01  0.00000000E+00
  3.10000000E+02  8.00000000E+01  0.00000000E+00
  3.10000000E+02  7.80000000E+01  0.00000000E+00
  3.10000000E+02  7.60000000E+01  0.00000000E+00
  3.10000000E+02  7.40000000E+01  0.00000000E+00
  3.10000000E+02  7.20000000E+01  0.00000000E+00
  3.10000000E+02  7.00000000E+01  0.00000000E+00
  3.10000000E+02  6.80000000E+01  0.00000000E+00
  3.10000000E+02  6.60000000E+01  0.00000000E+00
  3.10000000E+02  6.40000000E+01  0.00000000E+00
  3.10000000E+02  6.20000000E+01  0.00000000E+00
  3.10000000E+02  6.00000000E+01  0.00000000E+00
  3.10000000E+02  5.80000000E+01  0.00000000E+00
  3.10000000E+02  5.60000000E+01  0.00000000E+00
  3.10000000E+02  5.40000000E+01  0.00000000E+00
  3.10000000E+02  5.20000000E+01  0.00000000E+00
  3.10000000E+02  5.00000000E+01  0.00000000E+00
  3.10000000E+02  4.80000000E+01  0.00000000E+00
  3.10000000E+02  4.60000000E+01  0.00000000E+00
  3.10000000E+02  4.40000000E+01  0.00000000E+00
  3.10000000E+02  4.20000000E+01  0.00000000E+00
  3.10000000E+02  4.00000000E+01  0.00000000E+00
  3.10000000E+02  3.80000000E+01  0.00000000E+00
  3.10000000E+02  3.60000000E+01  0.00000000E+00
  3.10000000E+02  3.40000000E+01  0.00000000E+00
  3.10000000E+02  3.20000000E+01  0.00000000E+00
  3.10000000E+02  3.00000000E+01  0.00000000E+00
  3.10000000E+02  2.80000000E+01  0.00000000E+00
  3.10000000E+02  2.60000000E+01  0.00000000E+00
  3.10000000E+02  2.40000000E+01  0.00000000E+00
  3.10000000E+02  2.20000000E+01  0.00000000E+00
  3.10000000E+02  2.00000000E+01  0.00000000E+00
  3.10000000E+02  1.80000000E+01  0.00000000E+00
  3.10000000E+02  1.60000000E+01  0.00000000E+00
  3.10000000E+02  1.40000000E+01  0.00000000E+00
  3.10000000E+02  1.20000000E+01  0.00000000E+00
  3.10000000E+02  1.00000000E+01  0.00000000E+00
  3.10000000E+02  8.00000000E+00  0.00000000E+00
  3.10000000E+02  6.00000000E+00  0.00000000E+00
  3.10000000E+02  4.00000000E+00  0.00000000E+00
  3.10000000E+02  2.00000000E+00  0.00000000E+00
  3.10000000E+02 -3.33066907E-14  0.00000000E+00
  3.20000000E+02  1.00000000E+02  0.00000000E+00
  3.20000000E+02  9.80000000E+01  0.00000000E+00
  3.20000000E+02  9.60000000E+01  0.00000000E+00
  3.20000000E+02  9.40000000E+01  0.00000000E+00
  3.20000000E+02  9.20000000E+01  0.00000000E+00
  3.20000000E+02  9.00000000E+01  0.00000000E+00
  3.20000000E+02  8.80000000E+01  0.00000000E+00
  3.20000000E+02  8.60000000E+01  0.00000000E+00
  3.20000000E+02  8.40000000E+01  0.00000000E+00
  3.20000000E+02  8.20000000E+01  0.00000000E+00
  3.20000000E+02  8.00000000E+01  0.00000000E+00
  3.20000000E+02  7.80000000E+01  0.00000000E+00
  3.20000000E+02  7.60000000E+01  0.00000000E+00
  3.20000000E+02  7.40000000E+01  0.00000000E+00
  3.20000000E+02  7.20000000E+01  0.00000000E+00
  3.20000000E+02  7.00000000E+01  0.00000000E+00
  3.20000000E+02  6.80000000E+01  0.00000000E+00
  3.20000000E+02  6.60000000E+01  0.00000000E+00
  3.20000000E+02  6.40000000E+01  0.00000000E+00
  3.20000000E+02  6.20000000E+01  0.00000000E+00
  3.20000000E+02  6.00000000E+01  0.00000000E+00
  3.20000000E+02  5.80000000E+01  0.00000000E+00
  3.20000000E+02  5.60000000E+01  0.00000000E+00
  3.20000000E+02  5.40000000E+01  0.00000000E+00
  3.20000000E+02  5.20000000E+01  0.00000000E+00
  3.20000000E+02  5.00000000E+01  0.00000000E+00
  3.20000000E+02  4.80000000E+01  0.00000000E+00
  3.20000000E+02  4.60000000E+01  0.00000000E+00
  3.20000000E+02  4.40000000E+01  0.00000000E+00
  3.20000000E+02  4.20000000E+01  0.00000000E+00
  3.20000000E+02  4.00000000E+01  0.00000000E+00
  3.20000000E+02  3.80000000E+01  0.00000000E+00
  3.20000000E+02  3.60000000E+01  0.00000000E+00
  3.20000000E+02  3.40000000E+01  0.00000000E+00
  3.20000000E+02  3.20000000E+01  0.00000000E+00
  3.20000000E+02  3.00000000E+01  0.00000000E+00
  3.20000000E+02  2.80000000E+01  0.00000000E+00
  3.20000000E+02  2.60000000E+01  0.00000000E+00
  3.20000000E+02  2.40000000E+01  0.00000000E+00
  3.20000000E+02  2.20000000E+01  0.00000000E+00
  3.20000000E+02  2.00000000E+01  0.00000000E+00
  3.20000000E+02  1.80000000E+01  0.00000000E+00
  3.20000000E+02  1.60000000E+01  0.00000000E+00
  3.20000000E+02  1.40000000E+01  0.00000000E+00
  3.20000000E+02  1.20000000E+01  0.00000000E+00
  3.20000000E+02  1.00000000E+01  0.00000000E+00
  3.20000000E+02  8.00000000E+00  0.00000000E+00
  3.20000000E+02  6.00000000E+00  0.00000000E+00
  3.20000000E+02  4.00000000E+00  0.00000000E+00
  3.20000000E+02  2.00000000E+00  0.00000000E+00
  3.20000000E+02 -3.33066907E-14  0.00000000E+00
  3.30000000E+02  1.00000000E+02  0.00000000E+00
  3.30000000E+02  9.80000000E+01  0.00000000E+00
  3.30000000E+02  9.60000000E+01  0.00000000E+00
  3.30000000E+02  9.40000000E+01  0.00000000E+00
  3.30000000E+02  9.20000000E+01  0.00000000E+00
  3.30000000E+02  9.00000000E+01  0.00000000E+00
  3.30000000E+02  8.80000000E+01  0.00000000E+00
  3.30000000E+02  8.60000000E+01  0.00000000E+00
  3.30000000E+02  8.40000000E+01  0.00000000E+00
  3.30000000E+02  8.20000000E+01  0.00000000E+00
  3.30000000E+02  8.00000000E+01  0.00000000E+00
  3.30000000E+02  7.80000000E+01  0.00000000E+00
  3.30000000E+02  7.60000000E+01  0.00000000E+00
  3.30000000E+02  7.40000000E+01  0.00000000E+00
  3.30000000E+02  7.20000000E+01  0.00000000E+00
  3.30000000E+02  7.00000000E+01  0.00000000E+00
  3.30000000E+02  6.80000000E+01  0.00000000E+00
  3.30000000E+02  6.60000000E+01  0.00000000E+00
  3.30000000E+02  6.40000000E+01  0.00000000E+00
  3.30000000E+02  6.20000000E+01  0.00000000E+00
  3.30000000E+02  6.00000000E+01  0.00000000E+00
  3.30000000E+02  5.80000000E+01  0.00000000E+00
  3.30000000E+02  5.60000000E+01  0.00000000E+00
  3.30000000E+02  5.40000000E+01  0.00000000E+00
  3.30000000E+02  5.20000000E+01  0.00000000E+00
  3.30000000E+02  5.00000000E+01  0.00000000E+00
  3.30000000E+02  4.80000000E+01  0.00000000E+00
  3.30000000E+02  4.60000000E+01  0.00000000E+00
  3.30000000E+02  4.40000000E+01  0.00000000E+00
  3.30000000E+02  4.20000000E+01  0.00000000E+00
  3.30000000E+02  4.00000000E+01  0.00000000E+00
  3.30000000E+02  3.80000000E+01  0.00000000E+00
  3.30000000E+02  3.60000000E+01  0.00000000E+00
  3.30000000E+02  3.40000000E+01  0.00000000E+00
  3.30000000E+02  3.20000000E+01  0.00000000E+00
  3.30000000E+02  3.00000000E+01  0.00000000E+00
  3.30000000E+02  2.80000000E+01  0.00000000E+00
  3.30000000E+02  2.60000000E+01  0.00000000E+00
  3.30000000E+02  2.40000000E+01  0.00000000E+00
  3.30000000E+02  2.20000000E+01  0.00000000E+00
  3.30000000E+02  2.00000000E+01  0.00000000E+00
  3.30000000E+02  1.80000000E+01  0.00000000E+00
  3.30000000E+02  1.60000000E+01  0.00000000E+00
  3.30000000E+02  1.40000000E+01  0.00000000E+00
  3.30000000E+02  1.20000000E+01  0.00000000E+00
  3.30000000E+02  1.00000000E+01  0.00000000E+00
  3.30000000E+02  8.00000000E+00  0.00000000E+00
  3.30000000E+02  6.00000000E+00  0.00000000E+00
  3.30000000E+02  4.00000000E+00  0.00000000E+00
  3.30000000E+02  2.00000000E+00  0.00000000E+00
  3.30000000E+02 -3.33066907E-14  0.00000000E+00
  3.40000000E+02  1.00000000E+02  0.00000000E+00
  3.40000000E+02  9.80000000E+01  0.00000000E+00
  3.40000000E+02  9.60000000E+01  0.00000000E+00
  3.40000000E+02  9.40000000E+01  0.00000000E+00
  3.40000000E+02  9.20000000E+01  0.00000000E+00
  3.40000000E+02  9.00000000E+01  0.00000000E+00
  3.40000000E+02  8.80000000E+01  0.00000000E+00
  3.40000000E+02  8.60000000E+01  0.00000000E+00
  3.40000000E+02  8.40000000E+01  0.00000000E+00
  3.40000000E+02  8.20000000E+01  0.00000000E+00
  3.40000000E+02  8.00000000E+01  0.00000000E+00
  3.40000000E+02  7.80000000E+01  0.00000000E+00
  3.40000000E+02  7.60000000E+01  0.00000000E+00
  3.40000000E+02  7.40000000E+01  0.00000000E+00
  3.40000000E+02  7.20000000E+01  0.00000000E+00
  3.40000000E+02  7.00000000E+01  0.00000000E+00
  3.40000000E+02  6.80000000E+01  0.00000000E+00
  3.40000000E+02  6.60000000E+01  0.00000000E+00
  3.40000000E+02  6.40000000E+01  0.00000000E+00
  3.40000000E+02  6.20000000E+01  0.00000000E+00
  3.40000000E+02  6.00000000E+01  0.00000000E+00
  3.40000000E+02  5.80000000E+01  0.00000000E+00
  3.40000000E+02  5.60000000E+01  0.00000000E+00
  3.40000000E+02  5.40000000E+01  0.00000000E+00
  3.40000000E+02  5.20000000E+01  0.00000000E+00
  3.40000000E+02  5.00000000E+01  0.00000000E+00
  3.40000000E+02  4.80000000E+01  0.00000000E+00
  3.40000000E+02  4.60000000E+01  0.00000000E+00
  3.40000000E+02  4.40000000E+01  0.00000000E+00
  3.40000000E+02  4.20000000E+01  0.00000000E+00
  3.40000000E+02  4.00000000E+01  0.00000000E+00
  3.40000000E+02  3.80000000E+01  0.00000000E+00
  3.40000000E+02  3.60000000E+01  0.00000000E+00
  3.40000000E+02  3.40000000E+01  0.00000000E+00
  3.40000000E+02  3.20000000E+01  0.00000000E+00
  3.40000000E+02  3.00000000E+01  0.00000000E+00
  3.40000000E+02  2.80000000E+01  0.00000000E+00
  3.40000000E+02  2.60000000E+01  0.00000000E+00
  3.40000000E+02  2.40000000E+01  0.00000000E+00
  3.40000000E+02  2.20000000E+01  0.00000000E+00
  3.40000000E+02  2.00000000E+01  0.00000000E+00
  3.40000000E+02  1.80000000E+01  0.00000000E+00
  3.40000000E+02  1.60000000E+01  0.00000000E+00
  3.40000000E+02  1.40000000E+01  0.00000000E+00
  3.40000000E+02  1.20000000E+01  0.00000000E+00
  3.40000000E+02  1.00000000E+01  0.00000000E+00
  3.40000000E+02  8.00000000E+00  0.00000000E+00
  3.40000000E+02  6.00000000E+00  0.00000000E+00
  3.40000000E+02  4.00000000E+00  0.00000000E+00
  3.40000000E+02  2.00000000E+00  0.00000000E+00
  3.40000000E+02 -3.33066907E-14  0.00000000E+00
  3.50000000E+02  1.00000000E+02  0.00000000E+00
  3.50000000E+02  9.80000000E+01  0.00000000E+00
  3.50000000E+02  9.60000000E+01  0.00000000E+00
  3.50000000E+02  9.40000000E+01  0.00000000E+00
  3.50000000E+02  9.20000000E+01  0.00000000E+00
  3.50000000E+02  9.00000000E+01  0.00000000E+00
  3.50000000E+02  8.80000000E+01  0.00000000E+00
  3.50000000E+02  8.60000000E+01  0.00000000E+00
  3.50000000E+02  8.40000000E+01  0.00000000E+00
  3.50000000E+02  8.20000000E+01  0.00000000E+00
  3.50000000E+02  8.00000000E+01  0.00000000E+00
  3.50000000E+02  7.80000000E+01  0.00000000E+00
  3.50000000E+02  7.60000000E+01  0.00000000E+00
  3.50000000E+02  7.40000000E+01  0.00000000E+00
  3.50000000E+02  7.20000000E+01  0.00000000E+00
  3.50000000E+02  7.00000000E+01  0.00000000E+00
  3.50000000E+02  6.80000000E+01  0.00000000E+00
  3.50000000E+02  6.60000000E+01  0.00000000E+00
  3.50000000E+02  6.40000000E+01  0.00000000E+00
  3.50000000E+02  6.20000000E+01  0.00000000E+00
  3.50000000E+02  6.00000000E+01  0.00000000E+00
  3.50000000E+02  5.80000000E+01  0.00000000E+00
  3.50000000E+02  5.60000000E+01  0.00000000E+00
  3.50000000E+02  5.40000000E+01  0.00000000E+00
  3.50000000E+02  5.20000000E+01  0.00000000E+00
  3.50000000E+02  5.00000000E+01  0.00000000E+00
  3.50000000E+02  4.80000000E+01  0.00000000E+00
  3.50000000E+02  4.60000000E+01  0.00000000E+00
  3.50000000E+02  4.40000000E+01  0.00000000E+00
  3.50000000E+02  4.20000000E+01  0.00000000E+00
  3.50000000E+02  4.00000000E+01  0.00000000E+00
  3.50000000E+02  3.80000000E+01  0.00000000E+00
  3.50000000E+02  3.60000000E+01  0.00000000E+00
  3.50000000E+02  3.40000000E+01  0.00000000E+00
  3.50000000E+02  3.20000000E+01  0.00000000E+00
  3.50000000E+02  3.00000000E+01  0.00000000E+00
  3.50000000E+02  2.80000000E+01  0.00000000E+00
  3.50000000E+02  2.60000000E+01  0.00000000E+00
  3.50000000E+02  2.40000000E+01  0.00000000E+00
  3.50000000E+02  2.20000000E+01  0.00000000E+00
  3.50000000E+02  2.00000000E+01  0.00000000E+00
  3.50000000E+02  1.80000000E+01  0.00000000E+00
  3.50000000E+02  1.60000000E+01  0.00000000E+00
  3.50000000E+02  1.40000000E+01  0.00000000E+00
  3.50000000E+02  1.20000000E+01  0.00000000E+00
  3.50000000E+02  1.00000000E+01  0.00000000E+00
  3.50000000E+02  8.00000000E+00  0.00000000E+00
  3.50000000E+02  6.00000000E+00  0.00000000E+00
  3.50000000E+02  4.00000000E+00  0.00000000E+00
  3.50000000E+02  2.00000000E+00  0.00000000E+00
  3.50000000E+02 -3.33066907E-14  0.00000000E+00
  3.60000000E+02  1.00000000E+02  0.00000000E+00
  3.60000000E+02  9.80000000E+01  0.00000000E+00
  3.60000000E+02  9.60000000E+01  0.00000000E+00
  3.60000000E+02  9.40000000E+01  0.00000000E+00
  3.60000000E+02  9.20000000E+01  0.00000000E+00
  3.60000000E+02  9.00000000E+01  0.00000000E+00
  3.60000000E+02  8.80000000E+01  0.00000000E+00
  3.60000000E+02  8.60000000E+01  0.00000000E+00
  3.60000000E+02  8.40000000E+01  0.00000000E+00
  3.60000000E+02  8.20000000E+01  0.00000000E+00
  3.60000000E+02  8.00000000E+01  0.00000000E+00
  3.60000000E+02  7.80000000E+01  0.00000000E+00
  3.60000000E+02  7.60000000E+01  0.00000000E+00
  3.60000000E+02  7.40000000E+01  0.00000000E+00
  3.60000000E+02  7.20000000E+01  0.00000000E+00
  3.60000000E+02  7.00000000E+01  0.00000000E+00
  3.60000000E+02  6.80000000E+01  0.00000000E+00
  3.60000000E+02  6.60000000E+01  0.00000000E+00
  3.60000000E+02  6.40000000E+01  0.00000000E+00
  3.60000000E+02  6.20000000E+01  0.00000000E+00
  3.60000000E+02  6.00000000E+01  0.00000000E+00
  3.60000000E+02  5.80000000E+01  0.00000000E+00
  3.60000000E+02  5.60000000E+01  0.00000000E+00
  3.60000000E+02  5.40000000E+01  0.00000000E+00
  3.60000000E+02  5.20000000E+01  0.00000000E+00
  3.60000000E+02  5.00000000E+01  0.00000000E+00
  3.60000000E+02  4.80000000E+01  0.00000000E+00
  3.60000000E+02  4.60000000E+01  0.00000000E+00
  3.60000000E+02  4.40000000E+01  0.00000000E+00
  3.60000000E+02  4.20000000E+01  0.00000000E+00
  3.60000000E+02  4.00000000E+01  0.00000000E+00
  3.60000000E+02  3.80000000E+01  0.00000000E+00
  3.60000000E+02  3.60000000E+01  0.00000000E+00
  3.60000000E+02  3.40000000E+01  0.00000000E+00
  3.60000000E+02  3.20000000E+01  0.00000000E+00
  3.60000000E+02  3.00000000E+01  0.00000000E+00
  3.60000000E+02  2.80000000E+01  0.00000000E+00
  3.60000000E+02  2.60000000E+01  0.00000000E+00
  3.60000000E+02  2.40000000E+01  0.00000000E+00
  3.60000000E+02  2.20000000E+01  0.00000000E+00
  3.60000000E+02  2.00000000E+01  0.00000000E+00
  3.60000000E+02  1.80000000E+01  0.00000000E+00
  3.60000000E+02  1.60000000E+01  0.00000000E+00
  3.60000000E+02  1.40000000E+01  0.00000000E+00
  3.60000000E+02  1.20000000E+01  0.00000000E+00
  3.60000000E+02  1.00000000E+01  0.00000000E+00
  3.60000000E+02  8.00000000E+00  0.00000000E+00
  3.60000000E+02  6.00000000E+00  0.00000000E+00
  3.60000000E+02  4.00000000E+00  0.00000000E+00
  3.60000000E+02  2.00000000E+00  0.00000000E+00
  3.60000000E+02 -3.33066907E-14  0.00000000E+00
  3.70000000E+02  1.00000000E+02  0.00000000E+00
  3.70000000E+02  9.80000000E+01  0.00000000E+00
  3.70000000E+02  9.60000000E+01  0.00000000E+00
  3.70000000E+02  9.40000000E+01  0.00000000E+00
  3.70000000E+02  9.20000000E+01  0.00000000E+00
  3.70000000E+02  9.00000000E+01  0.00000000E+00
  3.70000000E+02  8.80000000E+01  0.00000000E+00
  3.70000000E+02  8.60000000E+01  0.00000000E+00
  3.70000000E+02  8.40000000E+01  0.00000000E+00
  3.70000000E+02  8.20000000E+01  0.00000000E+00
  3.70000000E+02  8.00000000E+01  0.00000000E+00
  3.70000000E+02  7.80000000E+01  0.00000000E+00
  3.70000000E+02  7.60000000E+01  0.00000000E+00
  3.70000000E+02  7.40000000E+01  0.00000000E+00
  3.70000000E+02  7.20000000E+01  0.00000000E+00
  3.70000000E+02  7.00000000E+01  0.00000000E+00
  3.70000000E+02  6.80000000E+01  0.00000000E+00
  3.70000000E+02  6.60000000E+01  0.00000000E+00
  3.70000000E+02  6.40000000E+01  0.00000000E+00
  3.70000000E+02  6.20000000E+01  0.00000000E+00
  3.70000000E+02  6.00000000E+01  0.00000000E+00
  3.70000000E+02  5.80000000E+01  0.00000000E+00
  3.70000000E+02  5.60000000E+01  0.00000000E+00
  3.70000000E+02  5.40000000E+01  0.00000000E+00
  3.70000000E+02  5.20000000E+01  0.00000000E+00
  3.70000000E+02  5.00000000E+01  0.00000000E+00
  3.70000000E+02  4.80000000E+01  0.00000000E+00
  3.70000000E+02  4.60000000E+01  0.00000000E+00
  3.70000000E+02  4.40000000E+01  0.00000000E+00
  3.70000000E+02  4.20000000E+01  0.00000000E+00
  3.70000000E+02  4.00000000E+01  0.00000000E+00
  3.70000000E+02  3.80000000E+01  0.00000000E+00
  3.70000000E+02  3.60000000E+01  0.00000000E+00
  3.70000000E+02  3.40000000E+01  0.00000000E+00
  3.70000000E+02  3.20000000E+01  0.00000000E+00
  3.70000000E+02  3.00000000E+01  0.00000000E+00
  3.70000000E+02  2.80000000E+01  0.00000000E+00
  3.70000000E+02  2.60000000E+01  0.00000000E+00
  3.70000000E+02  2.40000000E+01  0.00000000E+00
  3.70000000E+02  2.20000000E+01  0.00000000E+00
  3.70000000E+02  2.00000000E+01  0.00000000E+00
  3.70000000E+02  1.80000000E+01  0.00000000E+00
  3.70000000E+02  1.60000000E+01  0.00000000E+00
  3.70000000E+02  1.40000000E+01  0.00000000E+00
  3.70000000E+02  1.20000000E+01  0.00000000E+00
  3.70000000E+02  1.00000000E+01  0.00000000E+00
  3.70000000E+02  8.00000000E+00  0.00000000E+00
  3.70000000E+02  6.00000000E+00  0.00000000E+00
  3.70000000E+02  4.00000000E+00  0.00000000E+00
  3.70000000E+02  2.00000000E+00  0.00000000E+00
  3.70000000E+02 -3.33066907E-14  0.00000000E+00
  3.80000000E+02  1.00000000E+02  0.00000000E+00
  3.80000000E+02  9.80000000E+01  0.00000000E+00
  3.80000000E+02  9.60000000E+01  0.00000000E+00
  3.80000000E+02  9.40000000E+01  0.00000000E+00
  3.80000000E+02  9.20000000E+01  0.00000000E+00
  3.80000000E+02  9.00000000E+01  0.00000000E+00
  3.80000000E+02  8.80000000E+01  0.00000000E+00
  3.80000000E+02  8.60000000E+01  0.00000000E+00
  3.80000000E+02  8.40000000E+01  0.00000000E+00
  3.80000000E+02  8.20000000E+01  0.00000000E+00
  3.80000000E+02  8.00000000E+01  0.00000000E+00
  3.80000000E+02  7.80000000E+01  0.00000000E+00
  3.80000000E+02  7.60000000E+01  0.00000000E+00
  3.80000000E+02  7.40000000E+01  0.00000000E+00
  3.80000000E+02  7.20000000E+01  0.00000000E+00
  3.80000000E+02  7.00000000E+01  0.00000000E+00
  3.80000000E+02  6.80000000E+01  0.00000000E+00
  3.80000000E+02  6.60000000E+01  0.00000000E+00
  3.80000000E+02  6.40000000E+01  0.00000000E+00
  3.80000000E+02  6.20000000E+01  0.00000000E+00
  3.80000000E+02  6.00000000E+01  0.00000000E+00
  3.80000000E+02  5.80000000E+01  0.00000000E+00
  3.80000000E+02  5.60000000E+01  0.00000000E+00
  3.80000000E+02  5.40000000E+01  0.00000000E+00
  3.80000000E+02  5.20000000E+01  0.00000000E+00
  3.80000000E+02  5.00000000E+01  0.00000000E+00
  3.80000000E+02  4.80000000E+01  0.00000000E+00
  3.80000000E+02  4.60000000E+01  0.00000000E+00
  3.80000000E+02  4.40000000E+01  0.00000000E+00
  3.80000000E+02  4.20000000E+01  0.00000000E+00
  3.80000000E+02  4.00000000E+01  0.00000000E+00
  3.80000000E+02  3.80000000E+01  0.00000000E+00
  3.80000000E+02  3.60000000E+01  0.00000000E+00
  3.80000000E+02  3.40000000E+01  0.00000000E+00
  3.80000000E+02  3.20000000E+01  0.00000000E+00
  3.80000000E+02  3.00000000E+01  0.00000000E+00
  3.80000000E+02  2.80000000E+01  0.00000000E+00
  3.80000000E+02  2.60000000E+01  0.00000000E+00
  3.80000000E+02  2.40000000E+01  0.00000000E+00
  3.80000000E+02  2.20000000E+01  0.00000000E+00
  3.80000000E+02  2.00000000E+01  0.00000000E+00
  3.80000000E+02  1.80000000E+01  0.00000000E+00
  3.80000000E+02  1.60000000E+01  0.00000000E+00
  3.80000000E+02  1.40000000E+01  0.00000000E+00
  3.80000000E+02  1.20000000E+01  0.00000000E+00
  3.80000000E+02  1.00000000E+01  0.00000000E+00
  3.80000000E+02  8.00000000E+00  0.00000000E+00
  3.80000000E+02  6.00000000E+00  0.00000000E+00
  3.80000000E+02  4.00000000E+00  0.00000000E+00
  3.80000000E+02  2.00000000E+00  0.00000000E+00
  3.80000000E+02 -3.33066907E-14  0.00000000E+00
  3.90000000E+02  1.00000000E+02  0.00000000E+00
  3.90000000E+02  9.80000000E+01  0.00000000E+00
  3.90000000E+02  9.60000000E+01  0.00000000E+00
  3.90000000E+02  9.40000000E+01  0.00000000E+00
  3.90000000E+02  9.20000000E+01  0.00000000E+00
  3.90000000E+02  9.00000000E+01  0.00000000E+00
  3.90000000E+02  8.80000000E+01  0.00000000E+00
  3.90000000E+02  8.60000000E+01  0.00000000E+00
  3.90000000E+02  8.40000000E+01  0.00000000E+00
  3.90000000E+02  8.20000000E+01  0.00000000E+00
  3.90000000E+02  8.00000000E+01  0.00000000E+00
  3.90000000E+02  7.80000000E+01  0.00000000E+00
  3.90000000E+02  7.60000000E+01  0.00000000E+00
  3.90000000E+02  7.40000000E+01  0.00000000E+00
  3.90000000E+02  7.20000000E+01  0.00000000E+00
  3.90000000E+02  7.00000000E+01  0.00000000E+00
  3.90000000E+02  6.80000000E+01  0.00000000E+00
  3.90000000E+02  6.60000000E+01  0.00000000E+00
  3.90000000E+02  6.40000000E+01  0.00000000E+00
  3.90000000E+02  6.20000000E+01  0.00000000E+00
  3.90000000E+02  6.00000000E+01  0.00000000E+00
  3.90000000E+02  5.80000000E+01  0.00000000E+00
  3.90000000E+02  5.60000000E+01  0.00000000E+00
  3.90000000E+02  5.40000000E+01  0.00000000E+00
  3.90000000E+02  5.20000000E+01  0.00000000E+00
  3.90000000E+02  5.00000000E+01  0.00000000E+00
  3.90000000E+02  4.80000000E+01  0.00000000E+00
  3.90000000E+02  4.60000000E+01  0.00000000E+00
  3.90000000E+02  4.40000000E+01  0.00000000E+00
  3.90000000E+02  4.20000000E+01  0.00000000E+00
  3.90000000E+02  4.00000000E+01  0.00000000E+00
  3.90000000E+02  3.80000000E+01  0.00000000E+00
  3.90000000E+02  3.60000000E+01  0.00000000E+00
  3.90000000E+02  3.40000000E+01  0.00000000E+00
  3.90000000E+02  3.20000000E+01  0.00000000E+00
  3.90000000E+02  3.00000000E+01  0.00000000E+00
  3.90000000E+02  2.80000000E+01  0.00000000E+00
  3.90000000E+02  2.60000000E+01  0.00000000E+00
  3.90000000E+02  2.40000000E+01  0.00000000E+00
  3.90000000E+02  2.20000000E+01  0.00000000E+00
  3.90000000E+02  2.00000000E+01  0.00000000E+00
  3.90000000E+02  1.80000000E+01  0.00000000E+00
  3.90000000E+02  1.60000000E+01  0.00000000E+00
  3.90000000E+02  1.40000000E+01  0.00000000E+00
  3.90000000E+02  1.20000000E+01  0.00000000E+00
  3.90000000E+02  1.00000000E+01  0.00000000E+00
  3.90000000E+02  8.00000000E+00  0.00000000E+00
  3.90000000E+02  6.00000000E+00  0.00000000E+00
  3.90000000E+02  4.00000000E+00  0.00000000E+00
  3.90000000E+02  2.00000000E+00  0.00000000E+00
  3.90000000E+02 -3.33066907E-14  0.00000000E+00
  4.00000000E+02  1.00000000E+02  0.00000000E+00
  4.00000000E+02  9.80000000E+01  0.00000000E+00
  4.00000000E+02  9.60000000E+01  0.00000000E+00
  4.00000000E+02  9.40000000E+01  0.00000000E+00
  4.00000000E+02  9.20000000E+01  0.00000000E+00
  4.00000000E+02  9.00000000E+01  0.00000000E+00
  4.00000000E+02  8.80000000E+01  0.00000000E+00
  4.00000000E+02  8.60000000E+01  0.00000000E+00
  4.00000000E+02  8.40000000E+01  0.00000000E+00
  4.00000000E+02  8.20000000E+01  0.00000000E+00
  4.00000000E+02  8.00000000E+01  0.00000000E+00
  4.00000000E+02  7.80000000E+01  0.00000000E+00
  4.00000000E+02  7.60000000E+01  0.00000000E+00
  4.00000000E+02  7.40000000E+01  0.00000000E+00
  4.00000000E+02  7.20000000E+01  0.00000000E+00
  4.00000000E+02  7.00000000E+01  0.00000000E+00
  4.00000000E+02  6.80000000E+01  0.00000000E+00
  4.00000000E+02  6.60000000E+01  0.00000000E+00
  4.00000000E+02  6.40000000E+01  0.00000000E+00
  4.00000000E+02  6.20000000E+01  0.00000000E+00
  4.00000000E+02  6.00000000E+01  0.00000000E+00
  4.00000000E+02  5.80000000E+01  0.00000000E+00
  4.00000000E+02  5.60000000E+01  0.00000000E+00
  4.00000000E+02  5.40000000E+01  0.00000000E+00
  4.00000000E+02  5.20000000E+01  0.00000000E+00
  4.00000000E+02  5.00000000E+01  0.00000000E+00
  4.00000000E+02  4.80000000E+01  0.00000000E+00
  4.00000000E+02  4.60000000E+01  0.00000000E+00
  4.00000000E+02  4.40000000E+01  0.00000000E+00
  4.00000000E+02  4.20000000E+01  0.00000000E+00
  4.00000000E+02  4.00000000E+01  0.00000000E+00
  4.00000000E+02  3.80000000E+01  0.00000000E+00
  4.00000000E+02  3.60000000E+01  0.00000000E+00
  4.00000000E+02  3.40000000E+01  0.00000000E+00
  4.00000000E+02  3.20000000E+01  0.00000000E+00
  4.00000000E+02  3.00000000E+01  0.00000000E+00
  4.00000000E+02  2.80000000E+01  0.00000000E+00
  4.00000000E+02  2.60000000E+01  0.00000000E+00
  4.00000000E+02  2.40000000E+01  0.00000000E+00
  4.00000000E+02  2.20000000E+01  0.00000000E+00
  4.00000000E+02  2.00000000E+01  0.00000000E+00
  4.00000000E+02  1.80000000E+01  0.00000000E+00
  4.00000000E+02  1.60000000E+01  0.00000000E+00
  4.00000000E+02  1.40000000E+01  0.00000000E+00
  4.00000000E+02  1.20000000E+01  0.00000000E+00
  4.00000000E+02  1.00000000E+01  0.00000000E+00
  4.00000000E+02  8.00000000E+00  0.00000000E+00
  4.00000000E+02  6.00000000E+00  0.00000000E+00
  4.00000000E+02  4.00000000E+00  0.00000000E+00
  4.00000000E+02  2.00000000E+00  0.00000000E+00
  4.00000000E+02 -3.33066907E-14  0.00000000E+00
  4.10000000E+02  1.00000000E+02  0.00000000E+00
  4.10000000E+02  9.80000000E+01  0.00000000E+00
  4.10000000E+02  9.60000000E+01  0.00000000E+00
  4.10000000E+02  9.40000000E+01  0.00000000E+00
  4.10000000E+02  9.20000000E+01  0.00000000E+00
  4.10000000E+02  9.00000000E+01  0.00000000E+00
  4.10000000E+02  8.80000000E+01  0.00000000E+00
  4.10000000E+02  8.60000000E+01  0.00000000E+00
  4.10000000E+02  8.40000000E+01  0.00000000E+00
  4.10000000E+02  8.20000000E+01  0.00000000E+00
  4.10000000E+02  8.00000000E+01  0.00000000E+00
  4.10000000E+02  7.80000000E+01  0.00000000E+00
  4.10000000E+02  7.60000000E+01  0.00000000E+00
  4.10000000E+02  7.40000000E+01  0.00000000E+00
  4.10000000E+02  7.20000000E+01  0.00000000E+00
  4.10000000E+02  7.00000000E+01  0.00000000E+00
  4.10000000E+02  6.80000000E+01  0.00000000E+00
  4.10000000E+02  6.60000000E+01  0.00000000E+00
  4.10000000E+02  6.40000000E+01  0.00000000E+00
  4.10000000E+02  6.20000000E+01  0.00000000E+00
  4.10000000E+02  6.00000000E+01  0.00000000E+00
  4.10000000E+02  5.80000000E+01  0.00000000E+00
  4.10000000E+02  5.60000000E+01  0.00000000E+00
  4.10000000E+02  5.40000000E+01  0.00000000E+00
  4.10000000E+02  5.20000000E+01  0.00000000E+00
  4.10000000E+02  5.00000000E+01  0.00000000E+00
  4.10000000E+02  4.80000000E+01  0.00000000E+00
  4.10000000E+02  4.60000000E+01  0.00000000E+00
  4.10000000E+02  4.40000000E+01  0.00000000E+00
  4.10000000E+02  4.20000000E+01  0.00000000E+00
  4.10000000E+02  4.00000000E+01  0.00000000E+00
  4.10000000E+02  3.80000000E+01  0.00000000E+00
  4.10000000E+02  3.60000000E+01  0.00000000E+00
  4.10000000E+02  3.40000000E+01  0.00000000E+00
  4.10000000E+02  3.20000000E+01  0.00000000E+00
  4.10000000E+02  3.00000000E+01  0.00000000E+00
  4.10000000E+02  2.80000000E+01  0.00000000E+00
  4.10000000E+02  2.60000000E+01  0.00000000E+00
  4.10000000E+02  2.40000000E+01  0.00000000E+00
  4.10000000E+02  2.20000000E+01  0.00000000E+00
  4.10000000E+02  2.00000000E+01  0.00000000E+00
  4.10000000E+02  1.80000000E+01  0.00000000E+00
  4.10000000E+02  1.60000000E+01  0.00000000E+00
  4.10000000E+02  1.40000000E+01  0.00000000E+00
  4.10000000E+02  1.20000000E+01  0.00000000E+00
  4.10000000E+02  1.00000000E+01  0.00000000E+00
  4.10000000E+02  8.00000000E+00  0.00000000E+00
  4.10000000E+02  6.00000000E+00  0.00000000E+00
  4.10000000E+02  4.00000000E+00  0.00000000E+00
  4.10000000E+02  2.00000000E+00  0.00000000E+00
  4.10000000E+02 -3.33066907E-14  0.00000000E+00
  4.20000000E+02  1.00000000E+02  0.00000000E+00
  4.20000000E+02  9.80000000E+01  0.00000000E+00
  4.20000000E+02  9.60000000E+01  0.00000000E+00
  4.20000000E+02  9.40000000E+01  0.00000000E+00
  4.20000000E+02  9.20000000E+01  0.00000000E+00
  4.20000000E+02  9.00000000E+01  0.00000000E+00
  4.20000000E+02  8.80000000E+01  0.00000000E+00
  4.20000000E+02  8.60000000E+01  0.00000000E+00
  4.20000000E+02  8.40000000E+01  0.00000000E+00
  4.20000000E+02  8.20000000E+01  0.00000000E+00
  4.20000000E+02  8.00000000E+01  0.00000000E+00
  4.20000000E+02  7.80000000E+01  0.00000000E+00
  4.20000000E+02  7.60000000E+01  0.00000000E+00
  4.20000000E+02  7.40000000E+01  0.00000000E+00
  4.20000000E+02  7.20000000E+01  0.00000000E+00
  4.20000000E+02  7.00000000E+01  0.00000000E+00
  4.20000000E+02  6.80000000E+01  0.00000000E+00
  4.20000000E+02  6.60000000E+01  0.00000000E+00
  4.20000000E+02  6.40000000E+01  0.00000000E+00
  4.20000000E+02  6.20000000E+01  0.00000000E+00
  4.20000000E+02  6.00000000E+01  0.00000000E+00
  4.20000000E+02  5.80000000E+01  0.00000000E+00
  4.20000000E+02  5.60000000E+01  0.00000000E+00
  4.20000000E+02  5.40000000E+01  0.00000000E+00
  4.20000000E+02  5.20000000E+01  0.00000000E+00
  4.20000000E+02  5.00000000E+01  0.00000000E+00
  4.20000000E+02  4.80000000E+01  0.00000000E+00
  4.20000000E+02  4.60000000E+01  0.00000000E+00
  4.20000000E+02  4.40000000E+01  0.00000000E+00
  4.20000000E+02  4.20000000E+01  0.00000000E+00
  4.20000000E+02  4.00000000E+01  0.00000000E+00
  4.20000000E+02  3.80000000E+01  0.00000000E+00
  4.20000000E+02  3.60000000E+01  0.00000000E+00
  4.20000000E+02  3.40000000E+01  0.00000000E+00
  4.20000000E+02  3.20000000E+01  0.00000000E+00
  4.20000000E+02  3.00000000E+01  0.00000000E+00
  4.20000000E+02  2.80000000E+01  0.00000000E+00
  4.20000000E+02  2.60000000E+01  0.00000000E+00
  4.20000000E+02  2.40000000E+01  0.00000000E+00
  4.20000000E+02  2.20000000E+01  0.00000000E+00
  4.20000000E+02  2.00000000E+01  0.00000000E+00
  4.20000000E+02  1.80000000E+01  0.00000000E+00
  4.20000000E+02  1.60000000E+01  0.00000000E+00
  4.20000000E+02  1.40000000E+01  0.00000000E+00
  4.20000000E+02  1.20000000E+01  0.00000000E+00
  4.20000000E+02  1.00000000E+01  0.00000000E+00
  4.20000000E+02  8.00000000E+00  0.00000000E+00
  4.20000000E+02  6.00000000E+00  0.00000000E+00
  4.20000000E+02  4.00000000E+00  0.00000000E+00
  4.20000000E+02  2.00000000E+00  0.00000000E+00
  4.20000000E+02 -3.33066907E-14  0.00000000E+00
  4.30000000E+02  1.00000000E+02  0.00000000E+00
  4.30000000E+02  9.80000000E+01  0.00000000E+00
  4.30000000E+02  9.60000000E+01  0.00000000E+00
  4.30000000E+02  9.40000000E+01  0.00000000E+00
  4.30000000E+02  9.20000000E+01  0.00000000E+00
  4.30000000E+02  9.00000000E+01  0.00000000E+00
  4.30000000E+02  8.80000000E+01  0.00000000E+00
  4.30000000E+02  8.60000000E+01  0.00000000E+00
  4.30000000E+02  8.40000000E+01  0.00000000E+00
  4.30000000E+02  8.20000000E+01  0.00000000E+00
  4.30000000E+02  8.00000000E+01  0.00000000E+00
  4.30000000E+02  7.80000000E+01  0.00000000E+00
  4.30000000E+02  7.60000000E+01  0.00000000E+00
  4.30000000E+02  7.40000000E+01  0.00000000E+00
  4.30000000E+02  7.20000000E+01  0.00000000E+00
  4.30000000E+02  7.00000000E+01  0.00000000E+00
  4.30000000E+02  6.80000000E+01  0.00000000E+00
  4.30000000E+02  6.60000000E+01  0.00000000E+00
  4.30000000E+02  6.40000000E+01  0.00000000E+00
  4.30000000E+02  6.20000000E+01  0.00000000E+00
  4.30000000E+02  6.00000000E+01  0.00000000E+00
  4.30000000E+02  5.80000000E+01  0.00000000E+00
  4.30000000E+02  5.60000000E+01  0.00000000E+00
  4.30000000E+02  5.40000000E+01  0.00000000E+00
  4.30000000E+02  5.20000000E+01  0.00000000E+00
  4.30000000E+02  5.00000000E+01  0.00000000E+00
  4.30000000E+02  4.80000000E+01  0.00000000E+00
  4.30000000E+02  4.60000000E+01  0.00000000E+00
  4.30000000E+02  4.40000000E+01  0.00000000E+00
  4.30000000E+02  4.20000000E+01  0.00000000E+00
  4.30000000E+02  4.00000000E+01  0.00000000E+00
  4.30000000E+02  3.80000000E+01  0.00000000E+00
  4.30000000E+02  3.60000000E+01  0.00000000E+00
  4.30000000E+02  3.40000000E+01  0.00000000E+00
  4.30000000E+02  3.20000000E+01  0.00000000E+00
  4.30000000E+02  3.00000000E+01  0.00000000E+00
  4.30000000E+02  2.80000000E+01  0.00000000E+00
  4.30000000E+02  2.60000000E+01  0.00000000E+00
  4.30000000E+02  2.40000000E+01  0.00000000E+00
  4.30000000E+02  2.20000000E+01  0.00000000E+00
  4.30000000E+02  2.00000000E+01  0.00000000E+00
  4.30000000E+02  1.80000000E+01  0.00000000E+00
  4.30000000E+02  1.60000000E+01  0.00000000E+00
  4.30000000E+02  1.40000000E+01  0.00000000E+00
  4.30000000E+02  1.20000000E+01  0.00000000E+00
  4.30000000E+02  1.00000000E+01  0.00000000E+00
  4.30000000E+02  8.00000000E+00  0.00000000E+00
  4.30000000E+02  6.00000000E+00  0.00000000E+00
  4.30000000E+02  4.00000000E+00  0.00000000E+00
  4.30000000E+02  2.00000000E+00  0.00000000E+00
  4.30000000E+02 -3.33066907E-14  0.00000000E+00
  4.40000000E+02  1.00000000E+02  0.00000000E+00
  4.40000000E+02  9.80000000E+01  0.00000000E+00
  4.40000000E+02  9.60000000E+01  0.00000000E+00
  4.40000000E+02  9.40000000E+01  0.00000000E+00
  4.40000000E+02  9.20000000E+01  0.00000000E+00
  4.40000000E+02  9.00000000E+01  0.00000000E+00
  4.40000000E+02  8.80000000E+01  0.00000000E+00
  4.40000000E+02  8.60000000E+01  0.00000000E+00
  4.40000000E+02  8.40000000E+01  0.00000000E+00
  4.40000000E+02  8.20000000E+01  0.00000000E+00
  4.40000000E+02  8.00000000E+01  0.00000000E+00
  4.40000000E+02  7.80000000E+01  0.00000000E+00
  4.40000000E+02  7.60000000E+01  0.00000000E+00
  4.40000000E+02  7.40000000E+01  0.00000000E+00
  4.40000000E+02  7.20000000E+01  0.00000000E+00
  4.40000000E+02  7.00000000E+01  0.00000000E+00
  4.40000000E+02  6.80000000E+01  0.00000000E+00
  4.40000000E+02  6.60000000E+01  0.00000000E+00
  4.40000000E+02  6.40000000E+01  0.00000000E+00
  4.40000000E+02  6.20000000E+01  0.00000000E+00
  4.40000000E+02  6.00000000E+01  0.00000000E+00
  4.40000000E+02  5.80000000E+01  0.00000000E+00
  4.40000000E+02  5.60000000E+01  0.00000000E+00
  4.40000000E+02  5.40000000E+01  0.00000000E+00
  4.40000000E+02  5.20000000E+01  0.00000000E+00
  4.40000000E+02  5.00000000E+01  0.00000000E+00
  4.40000000E+02  4.80000000E+01  0.00000000E+00
  4.40000000E+02  4.60000000E+01  0.00000000E+00
  4.40000000E+02  4.40000000E+01  0.00000000E+00
  4.40000000E+02  4.20000000E+01  0.00000000E+00
  4.40000000E+02  4.00000000E+01  0.00000000E+00
  4.40000000E+02  3.80000000E+01  0.00000000E+00
  4.40000000E+02  3.60000000E+01  0.00000000E+00
  4.40000000E+02  3.40000000E+01  0.00000000E+00
  4.40000000E+02  3.20000000E+01  0.00000000E+00
  4.40000000E+02  3.00000000E+01  0.00000000E+00
  4.40000000E+02  2.80000000E+01  0.00000000E+00
  4.40000000E+02  2.60000000E+01  0.00000000E+00
  4.40000000E+02  2.40000000E+01  0.00000000E+00
  4.40000000E+02  2.20000000E+01  0.00000000E+00
  4.40000000E+02  2.00000000E+01  0.00000000E+00
  4.40000000E+02  1.80000000E+01  0.00000000E+00
  4.40000000E+02  1.60000000E+01  0.00000000E+00
  4.40000000E+02  1.40000000E+01  0.00000000E+00
  4.40000000E+02  1.20000000E+01  0.00000000E+00
  4.40000000E+02  1.00000000E+01  0.00000000E+00
  4.40000000E+02  8.00000000E+00  0.00000000E+00
  4.40000000E+02  6.00000000E+00  0.00000000E+00
  4.40000000E+02  4.00000000E+00  0.00000000E+00
  4.40000000E+02  2.00000000E+00  0.00000000E+00
  4.40000000E+02 -3.33066907E-14  0.00000000E+00
  4.50000000E+02  1.00000000E+02  0.00000000E+00
  4.50000000E+02  9.80000000E+01  0.00000000E+00
  4.50000000E+02  9.60000000E+01  0.00000000E+00
  4.50000000E+02  9.40000000E+01  0.00000000E+00
  4.50000000E+02  9.20000000E+01  0.00000000E+00
  4.50000000E+02  9.00000000E+01  0.00000000E+00
  4.50000000E+02  8.80000000E+01  0.00000000E+00
  4.50000000E+02  8.60000000E+01  0.00000000E+00
  4.50000000E+02  8.40000000E+01  0.00000000E+00
  4.50000000E+02  8.20000000E+01  0.00000000E+00
  4.50000000E+02  8.00000000E+01  0.00000000E+00
  4.50000000E+02  7.80000000E+01  0.00000000E+00
  4.50000000E+02  7.60000000E+01  0.00000000E+00
  4.50000000E+02  7.40000000E+01  0.00000000E+00
  4.50000000E+02  7.20000000E+01  0.00000000E+00
  4.50000000E+02  7.00000000E+01  0.00000000E+00
  4.50000000E+02  6.80000000E+01  0.00000000E+00
  4.50000000E+02  6.60000000E+01  0.00000000E+00
  4.50000000E+02  6.40000000E+01  0.00000000E+00
  4.50000000E+02  6.20000000E+01  0.00000000E+00
  4.50000000E+02  6.00000000E+01  0.00000000E+00
  4.50000000E+02  5.80000000E+01  0.00000000E+00
  4.50000000E+02  5.60000000E+01  0.00000000E+00
  4.50000000E+02  5.40000000E+01  0.00000000E+00
  4.50000000E+02  5.20000000E+01  0.00000000E+00
  4.50000000E+02  5.00000000E+01  0.00000000E+00
  4.50000000E+02  4.80000000E+01  0.00000000E+00
  4.50000000E+02  4.60000000E+01  0.00000000E+00
  4.50000000E+02  4.40000000E+01  0.00000000E+00
  4.50000000E+02  4.20000000E+01  0.00000000E+00
  4.50000000E+02  4.00000000E+01  0.00000000E+00
  4.50000000E+02  3.80000000E+01  0.00000000E+00
  4.50000000E+02  3.60000000E+01  0.00000000E+00
  4.50000000E+02  3.40000000E+01  0.00000000E+00
  4.50000000E+02  3.20000000E+01  0.00000000E+00
  4.50000000E+02  3.00000000E+01  0.00000000E+00
  4.50000000E+02  2.80000000E+01  0.00000000E+00
  4.50000000E+02  2.60000000E+01  0.00000000E+00
  4.50000000E+02  2.40000000E+01  0.00000000E+00
  4.50000000E+02  2.20000000E+01  0.00000000E+00
  4.50000000E+02  2.00000000E+01  0.00000000E+00
  4.50000000E+02  1.80000000E+01  0.00000000E+00
  4.50000000E+02  1.60000000E+01  0.00000000E+00
  4.50000000E+02  1.40000000E+01  0.00000000E+00
  4.50000000E+02  1.20000000E+01  0.00000000E+00
  4.50000000E+02  1.00000000E+01  0.00000000E+00
  4.50000000E+02  8.00000000E+00  0.00000000E+00
  4.50000000E+02  6.00000000E+00  0.00000000E+00
  4.50000000E+02  4.00000000E+00  0.00000000E+00
  4.50000000E+02  2.00000000E+00  0.00000000E+00
  4.50000000E+02 -3.33066907E-14  0.00000000E+00
  4.60000000E+02  1.00000000E+02  0.00000000E+00
  4.60000000E+02  9.80000000E+01  0.00000000E+00
  4.60000000E+02  9.60000000E+01  0.00000000E+00
  4.60000000E+02  9.40000000E+01  0.00000000E+00
  4.60000000E+02  9.20000000E+01  0.00000000E+00
  4.60000000E+02  9.00000000E+01  0.00000000E+00
  4.60000000E+02  8.80000000E+01  0.00000000E+00
  4.60000000E+02  8.60000000E+01  0.00000000E+00
  4.60000000E+02  8.40000000E+01  0.00000000E+00
  4.60000000E+02  8.20000000E+01  0.00000000E+00
  4.60000000E+02  8.00000000E+01  0.00000000E+00
  4.60000000E+02  7.80000000E+01  0.00000000E+00
  4.60000000E+02  7.60000000E+01  0.00000000E+00
  4.60000000E+02  7.40000000E+01  0.00000000E+00
  4.60000000E+02  7.20000000E+01  0.00000000E+00
  4.60000000E+02  7.00000000E+01  0.00000000E+00
  4.60000000E+02  6.80000000E+01  0.00000000E+00
  4.60000000E+02  6.60000000E+01  0.00000000E+00
  4.60000000E+02  6.40000000E+01  0.00000000E+00
  4.60000000E+02  6.20000000E+01  0.00000000E+00
  4.60000000E+02  6.00000000E+01  0.00000000E+00
  4.60000000E+02  5.80000000E+01  0.00000000E+00
  4.60000000E+02  5.60000000E+01  0.00000000E+00
  4.60000000E+02  5.40000000E+01  0.00000000E+00
  4.60000000E+02  5.20000000E+01  0.00000000E+00
  4.60000000E+02  5.00000000E+01  0.00000000E+00
  4.60000000E+02  4.80000000E+01  0.00000000E+00
  4.60000000E+02  4.60000000E+01  0.00000000E+00
  4.60000000E+02  4.40000000E+01  0.00000000E+00
  4.60000000E+02  4.20000000E+01  0.00000000E+00
  4.60000000E+02  4.00000000E+01  0.00000000E+00
  4.60000000E+02  3.80000000E+01  0.00000000E+00
  4.60000000E+02  3.60000000E+01  0.00000000E+00
  4.60000000E+02  3.40000000E+01  0.00000000E+00
  4.60000000E+02  3.20000000E+01  0.00000000E+00
  4.60000000E+02  3.00000000E+01  0.00000000E+00
  4.60000000E+02  2.80000000E+01  0.00000000E+00
  4.60000000E+02  2.60000000E+01  0.00000000E+00
  4.60000000E+02  2.40000000E+01  0.00000000E+00
  4.60000000E+02  2.20000000E+01  0.00000000E+00
  4.60000000E+02  2.00000000E+01  0.00000000E+00
  4.60000000E+02  1.80000000E+01  0.00000000E+00
  4.60000000E+02  1.60000000E+01  0.00000000E+00
  4.60000000E+02  1.40000000E+01  0.00000000E+00
  4.60000000E+02  1.20000000E+01  0.00000000E+00
  4.60000000E+02  1.00000000E+01  0.00000000E+00
  4.60000000E+02  8.00000000E+00  0.00000000E+00
  4.60000000E+02  6.00000000E+00  0.00000000E+00
  4.60000000E+02  4.00000000E+00  0.00000000E+00
  4.60000000E+02  2.00000000E+00  0.00000000E+00
  4.60000000E+02 -3.33066907E-14  0.00000000E+00
  4.70000000E+02  1.00000000E+02  0.00000000E+00
  4.70000000E+02  9.80000000E+01  0.00000000E+00
  4.70000000E+02  9.60000000E+01  0.00000000E+00
  4.70000000E+02  9.40000000E+01  0.00000000E+00
  4.70000000E+02  9.20000000E+01  0.00000000E+00
  4.70000000E+02  9.00000000E+01  0.00000000E+00
  4.70000000E+02  8.80000000E+01  0.00000000E+00
  4.70000000E+02  8.60000000E+01  0.00000000E+00
  4.70000000E+02  8.40000000E+01  0.00000000E+00
  4.70000000E+02  8.20000000E+01  0.00000000E+00
  4.70000000E+02  8.00000000E+01  0.00000000E+00
  4.70000000E+02  7.80000000E+01  0.00000000E+00
  4.70000000E+02  7.60000000E+01  0.00000000E+00
  4.70000000E+02  7.40000000E+01  0.00000000E+00
  4.70000000E+02  7.20000000E+01  0.00000000E+00
  4.70000000E+02  7.00000000E+01  0.00000000E+00
  4.70000000E+02  6.80000000E+01  0.00000000E+00
  4.70000000E+02  6.60000000E+01  0.00000000E+00
  4.70000000E+02  6.40000000E+01  0.00000000E+00
  4.70000000E+02  6.20000000E+01  0.00000000E+00
  4.70000000E+02  6.00000000E+01  0.00000000E+00
  4.70000000E+02  5.80000000E+01  0.00000000E+00
  4.70000000E+02  5.60000000E+01  0.00000000E+00
  4.70000000E+02  5.40000000E+01  0.00000000E+00
  4.70000000E+02  5.20000000E+01  0.00000000E+00
  4.70000000E+02  5.00000000E+01  0.00000000E+00
  4.70000000E+02  4.80000000E+01  0.00000000E+00
  4.70000000E+02  4.60000000E+01  0.00000000E+00
  4.70000000E+02  4.40000000E+01  0.00000000E+00
  4.70000000E+02  4.20000000E+01  0.00000000E+00
  4.70000000E+02  4.00000000E+01  0.00000000E+00
  4.70000000E+02  3.80000000E+01  0.00000000E+00
  4.70000000E+02  3.60000000E+01  0.00000000E+00
  4.70000000E+02  3.40000000E+01  0.00000000E+00
  4.70000000E+02  3.20000000E+01  0.00000000E+00
  4.70000000E+02  3.00000000E+01  0.00000000E+00
  4.70000000E+02  2.80000000E+01  0.00000000E+00
  4.70000000E+02  2.60000000E+01  0.00000000E+00
  4.70000000E+02  2.40000000E+01  0.00000000E+00
  4.70000000E+02  2.20000000E+01  0.00000000E+00
  4.70000000E+02  2.00000000E+01  0.00000000E+00
  4.70000000E+02  1.80000000E+01  0.00000000E+00
  4.70000000E+02  1.60000000E+01  0.00000000E+00
  4.70000000E+02  1.40000000E+01  0.00000000E+00
  4.70000000E+02  1.20000000E+01  0.00000000E+00
  4.70000000E+02  1.00000000E+01  0.00000000E+00
  4.70000000E+02  8.00000000E+00  0.00000000E+00
  4.70000000E+02  6.00000000E+00  0.00000000E+00
  4.70000000E+02  4.00000000E+00  0.00000000E+00
  4.70000000E+02  2.00000000E+00  0.00000000E+00
  4.70000000E+02 -3.33066907E-14  0.00000000E+00
  4.80000000E+02  1.00000000E+02  0.00000000E+00
  4.80000000E+02  9.80000000E+01  0.00000000E+00
  4.80000000E+02  9.60000000E+01  0.00000000E+00
  4.80000000E+02  9.40000000E+01  0.00000000E+00
  4.80000000E+02  9.20000000E+01  0.00000000E+00
  4.80000000E+02  9.00000000E+01  0.00000000E+00
  4.80000000E+02  8.80000000E+01  0.00000000E+00
  4.80000000E+02  8.60000000E+01  0.00000000E+00
  4.80000000E+02  8.40000000E+01  0.00000000E+00
  4.80000000E+02  8.20000000E+01  0.00000000E+00
  4.80000000E+02  8.00000000E+01  0.00000000E+00
  4.80000000E+02  7.80000000E+01  0.00000000E+00
  4.80000000E+02  7.60000000E+01  0.00000000E+00
  4.80000000E+02  7.40000000E+01  0.00000000E+00
  4.80000000E+02  7.20000000E+01  0.00000000E+00
  4.80000000E+02  7.00000000E+01  0.00000000E+00
  4.80000000E+02  6.80000000E+01  0.00000000E+00
  4.80000000E+02  6.60000000E+01  0.00000000E+00
  4.80000000E+02  6.40000000E+01  0.00000000E+00
  4.80000000E+02  6.20000000E+01  0.00000000E+00
  4.80000000E+02  6.00000000E+01  0.00000000E+00
  4.80000000E+02  5.80000000E+01  0.00000000E+00
  4.80000000E+02  5.60000000E+01  0.00000000E+00
  4.80000000E+02  5.40000000E+01  0.00000000E+00
  4.80000000E+02  5.20000000E+01  0.00000000E+00
  4.80000000E+02  5.00000000E+01  0.00000000E+00
  4.80000000E+02  4.80000000E+01  0.00000000E+00
  4.80000000E+02  4.60000000E+01  0.00000000E+00
  4.80000000E+02  4.40000000E+01  0.00000000E+00
  4.80000000E+02  4.20000000E+01  0.00000000E+00
  4.80000000E+02  4.00000000E+01  0.00000000E+00
  4.80000000E+02  3.80000000E+01  0.00000000E+00
  4.80000000E+02  3.60000000E+01  0.00000000E+00
  4.80000000E+02  3.40000000E+01  0.00000000E+00
  4.80000000E+02  3.20000000E+01  0.00000000E+00
  4.80000000E+02  3.00000000E+01  0.00000000E+00
  4.80000000E+02  2.80000000E+01  0.00000000E+00
  4.80000000E+02  2.60000000E+01  0.00000000E+00
  4.80000000E+02  2.40000000E+01  0.00000000E+00
  4.80000000E+02  2.20000000E+01  0.00000000E+00
  4.80000000E+02  2.00000000E+01  0.00000000E+00
  4.80000000E+02  1.80000000E+01  0.00000000E+00
  4.80000000E+02  1.60000000E+01  0.00000000E+00
  4.80000000E+02  1.40000000E+01  0.00000000E+00
  4.80000000E+02  1.20000000E+01  0.00000000E+00
  4.80000000E+02  1.00000000E+01  0.00000000E+00
  4.80000000E+02  8.00000000E+00  0.00000000E+00
  4.80000000E+02  6.00000000E+00  0.00000000E+00
  4.80000000E+02  4.00000000E+00  0.00000000E+00
  4.80000000E+02  2.00000000E+00  0.00000000E+00
  4.80000000E+02 -3.33066907E-14  0.00000000E+00
  4.90000000E+02  1.00000000E+02  0.00000000E+00
  4.90000000E+02  9.80000000E+01  0.00000000E+00
  4.90000000E+02  9.60000000E+01  0.00000000E+00
  4.90000000E+02  9.40000000E+01  0.00000000E+00
  4.90000000E+02  9.20000000E+01  0.00000000E+00
  4.90000000E+02  9.00000000E+01  0.00000000E+00
  4.90000000E+02  8.80000000E+01  0.00000000E+00
  4.90000000E+02  8.60000000E+01  0.00000000E+00
  4.90000000E+02  8.40000000E+01  0.00000000E+00
  4.90000000E+02  8.20000000E+01  0.00000000E+00
  4.90000000E+02  8.00000000E+01  0.00000000E+00
  4.90000000E+02  7.80000000E+01  0.00000000E+00
  4.90000000E+02  7.60000000E+01  0.00000000E+00
  4.90000000E+02  7.40000000E+01  0.00000000E+00
  4.90000000E+02  7.20000000E+01  0.00000000E+00
  4.90000000E+02  7.00000000E+01  0.00000000E+00
  4.90000000E+02  6.80000000E+01  0.00000000E+00
  4.90000000E+02  6.60000000E+01  0.00000000E+00
  4.90000000E+02  6.40000000E+01  0.00000000E+00
  4.90000000E+02  6.20000000E+01  0.00000000E+00
  4.90000000E+02  6.00000000E+01  0.00000000E+00
  4.90000000E+02  5.80000000E+01  0.00000000E+00
  4.90000000E+02  5.60000000E+01  0.00000000E+00
  4.90000000E+02  5.40000000E+01  0.00000000E+00
  4.90000000E+02  5.20000000E+01  0.00000000E+00
  4.90000000E+02  5.00000000E+01  0.00000000E+00
  4.90000000E+02  4.80000000E+01  0.00000000E+00
  4.90000000E+02  4.60000000E+01  0.00000000E+00
  4.90000000E+02  4.40000000E+01  0.00000000E+00
  4.90000000E+02  4.20000000E+01  0.00000000E+00
  4.90000000E+02  4.00000000E+01  0.00000000E+00
  4.90000000E+02  3.80000000E+01  0.00000000E+00
  4.90000000E+02  3.60000000E+01  0.00000000E+00
  4.90000000E+02  3.40000000E+01  0.00000000E+00
  4.90000000E+02  3.20000000E+01  0.00000000E+00
  4.90000000E+02  3.00000000E+01  0.00000000E+00
  4.90000000E+02  2.80000000E+01  0.00000000E+00
  4.90000000E+02  2.60000000E+01  0.00000000E+00
  4.90000000E+02  2.40000000E+01  0.00000000E+00
  4.90000000E+02  2.20000000E+01  0.00000000E+00
  4.90000000E+02  2.00000000E+01  0.00000000E+00
  4.90000000E+02  1.80000000E+01  0.00000000E+00
  4.90000000E+02  1.60000000E+01  0.00000000E+00
  4.90000000E+02  1.40000000E+01  0.00000000E+00
  4.90000000E+02  1.20000000E+01  0.00000000E+00
  4.90000000E+02  1.00000000E+01  0.00000000E+00
  4.90000000E+02  8.00000000E+00  0.00000000E+00
  4.90000000E+02  6.00000000E+00  0.00000000E+00
  4.90000000E+02  4.00000000E+00  0.00000000E+00
  4.90000000E+02  2.00000000E+00  0.00000000E+00
  4.90000000E+02 -3.33066907E-14  0.00000000E+00
  5.00000000E+02  1.00000000E+02  0.00000000E+00
  5.00000000E+02  9.80000000E+01  0.00000000E+00
  5.00000000E+02  9.60000000E+01  0.00000000E+00
  5.00000000E+02  9.40000000E+01  0.00000000E+00
  5.00000000E+02  9.20000000E+01  0.00000000E+00
  5.00000000E+02  9.00000000E+01  0.00000000E+00
  5.00000000E+02  8.80000000E+01  0.00000000E+00
  5.00000000E+02  8.60000000E+01  0.00000000E+00
  5.00000000E+02  8.40000000E+01  0.00000000E+00
  5.00000000E+02  8.20000000E+01  0.00000000E+00
  5.00000000E+02  8.00000000E+01  0.00000000E+00
  5.00000000E+02  7.80000000E+01  0.00000000E+00
  5.00000000E+02  7.60000000E+01  0.00000000E+00
  5.00000000E+02  7.40000000E+01  0.00000000E+00
  5.00000000E+02  7.20000000E+01  0.00000000E+00
  5.00000000E+02  7.00000000E+01  0.00000000E+00
  5.00000000E+02  6.80000000E+01  0.00000000E+00
  5.00000000E+02  6.60000000E+01  0.00000000E+00
  5.00000000E+02  6.40000000E+01  0.00000000E+00
  5.00000000E+02  6.20000000E+01  0.00000000E+00
  5.00000000E+02  6.00000000E+01  0.00000000E+00
  5.00000000E+02  5.80000000E+01  0.00000000E+00
  5.00000000E+02  5.60000000E+01  0.00000000E+00
  5.00000000E+02  5.40000000E+01  0.00000000E+00
  5.00000000E+02  5.20000000E+01  0.00000000E+00
  5.00000000E+02  5.00000000E+01  0.00000000E+00
  5.00000000E+02  4.80000000E+01  0.00000000E+00
  5.00000000E+02  4.60000000E+01  0.00000000E+00
  5.00000000E+02  4.40000000E+01  0.00000000E+00
  5.00000000E+02  4.20000000E+01  0.00000000E+00
  5.00000000E+02  4.00000000E+01  0.00000000E+00
  5.00000000E+02  3.80000000E+01  0.00000000E+00
  5.00000000E+02  3.60000000E+01  0.00000000E+00
  5.00000000E+02  3.40000000E+01  0.00000000E+00
  5.00000000E+02  3.20000000E+01  0.00000000E+00
  5.00000000E+02  3.00000000E+01  0.00000000E+00
  5.00000000E+02  2.80000000E+01  0.00000000E+00
  5.00000000E+02  2.60000000E+01  0.00000000E+00
  5.00000000E+02  2.40000000E+01  0.00000000E+00
  5.00000000E+02  2.20000000E+01  0.00000000E+00
  5.00000000E+02  2.00000000E+01  0.00000000E+00
  5.00000000E+02  1.80000000E+01  0.00000000E+00
  5.00000000E+02  1.60000000E+01  0.00000000E+00
  5.00000000E+02  1.40000000E+01  0.00000000E+00
  5.00000000E+02  1.20000000E+01  0.00000000E+00
  5.00000000E+02  1.00000000E+01  0.00000000E+00
  5.00000000E+02  8.00000000E+00  0.00000000E+00
  5.00000000E+02  6.00000000E+00  0.00000000E+00
  5.00000000E+02  4.00000000E+00  0.00000000E+00
  5.00000000E+02  2.00000000E+00  0.00000000E+00
  5.00000000E+02 -3.33066907E-14  0.00000000E+00
  5.10000000E+02  1.00000000E+02  0.00000000E+00
  5.10000000E+02  9.80000000E+01  0.00000000E+00
  5.10000000E+02  9.60000000E+01  0.00000000E+00
  5.10000000E+02  9.40000000E+01  0.00000000E+00
  5.10000000E+02  9.20000000E+01  0.00000000E+00
  5.10000000E+02  9.00000000E+01  0.00000000E+00
  5.10000000E+02  8.80000000E+01  0.00000000E+00
  5.10000000E+02  8.60000000E+01  0.00000000E+00
  5.10000000E+02  8.40000000E+01  0.00000000E+00
  5.10000000E+02  8.20000000E+01  0.00000000E+00
  5.10000000E+02  8.00000000E+01  0.00000000E+00
  5.10000000E+02  7.80000000E+01  0.00000000E+00
  5.10000000E+02  7.60000000E+01  0.00000000E+00
  5.10000000E+02  7.40000000E+01  0.00000000E+00
  5.10000000E+02  7.20000000E+01  0.00000000E+00
  5.10000000E+02  7.00000000E+01  0.00000000E+00
  5.10000000E+02  6.80000000E+01  0.00000000E+00
  5.10000000E+02  6.60000000E+01  0.00000000E+00
  5.10000000E+02  6.40000000E+01  0.00000000E+00
  5.10000000E+02  6.20000000E+01  0.00000000E+00
  5.10000000E+02  6.00000000E+01  0.00000000E+00
  5.10000000E+02  5.80000000E+01  0.00000000E+00
  5.10000000E+02  5.60000000E+01  0.00000000E+00
  5.10000000E+02  5.40000000E+01  0.00000000E+00
  5.10000000E+02  5.20000000E+01  0.00000000E+00
  5.10000000E+02  5.00000000E+01  0.00000000E+00
  5.10000000E+02  4.80000000E+01  0.00000000E+00
  5.10000000E+02  4.60000000E+01  0.00000000E+00
  5.10000000E+02  4.40000000E+01  0.00000000E+00
  5.10000000E+02  4.20000000E+01  0.00000000E+00
  5.10000000E+02  4.00000000E+01  0.00000000E+00
  5.10000000E+02  3.80000000E+01  0.00000000E+00
  5.10000000E+02  3.60000000E+01  0.00000000E+00
  5.10000000E+02  3.40000000E+01  0.00000000E+00
  5.10000000E+02  3.20000000E+01  0.00000000E+00
  5.10000000E+02  3.00000000E+01  0.00000000E+00
  5.10000000E+02  2.80000000E+01  0.00000000E+00
  5.10000000E+02  2.60000000E+01  0.00000000E+00
  5.10000000E+02  2.40000000E+01  0.00000000E+00
  5.10000000E+02  2.20000000E+01  0.00000000E+00
  5.10000000E+02  2.00000000E+01  0.00000000E+00
  5.10000000E+02  1.80000000E+01  0.00000000E+00
  5.10000000E+02  1.60000000E+01  0.00000000E+00
  5.10000000E+02  1.40000000E+01  0.00000000E+00
  5.10000000E+02  1.20000000E+01  0.00000000E+00
  5.10000000E+02  1.00000000E+01  0.00000000E+00
  5.10000000E+02  8.00000000E+00  0.00000000E+00
  5.10000000E+02  6.00000000E+00  0.00000000E+00
  5.10000000E+02  4.00000000E+00  0.00000000E+00
  5.10000000E+02  2.00000000E+00  0.00000000E+00
  5.10000000E+02 -3.33066907E-14  0.00000000E+00
  5.20000000E+02  1.00000000E+02  0.00000000E+00
  5.20000000E+02  9.80000000E+01  0.00000000E+00
  5.20000000E+02  9.60000000E+01  0.00000000E+00
  5.20000000E+02  9.40000000E+01  0.00000000E+00
  5.20000000E+02  9.20000000E+01  0.00000000E+00
  5.20000000E+02  9.00000000E+01  0.00000000E+00
  5.20000000E+02  8.80000000E+01  0.00000000E+00
  5.20000000E+02  8.60000000E+01  0.00000000E+00
  5.20000000E+02  8.40000000E+01  0.00000000E+00
  5.20000000E+02  8.20000000E+01  0.00000000E+00
  5.20000000E+02  8.00000000E+01  0.00000000E+00
  5.20000000E+02  7.80000000E+01  0.00000000E+00
  5.20000000E+02  7.60000000E+01  0.00000000E+00
  5.20000000E+02  7.40000000E+01  0.00000000E+00
  5.20000000E+02  7.20000000E+01  0.00000000E+00
  5.20000000E+02  7.00000000E+01  0.00000000E+00
  5.20000000E+02  6.80000000E+01  0.00000000E+00
  5.20000000E+02  6.60000000E+01  0.00000000E+00
  5.20000000E+02  6.40000000E+01  0.00000000E+00
  5.20000000E+02  6.20000000E+01  0.00000000E+00
  5.20000000E+02  6.00000000E+01  0.00000000E+00
  5.20000000E+02  5.80000000E+01  0.00000000E+00
  5.20000000E+02  5.60000000E+01  0.00000000E+00
  5.20000000E+02  5.40000000E+01  0.00000000E+00
  5.20000000E+02  5.20000000E+01  0.00000000E+00
  5.20000000E+02  5.00000000E+01  0.00000000E+00
  5.20000000E+02  4.80000000E+01  0.00000000E+00
  5.20000000E+02  4.60000000E+01  0.00000000E+00
  5.20000000E+02  4.40000000E+01  0.00000000E+00
  5.20000000E+02  4.20000000E+01  0.00000000E+00
  5.20000000E+02  4.00000000E+01  0.00000000E+00
  5.20000000E+02  3.80000000E+01  0.00000000E+00
  5.20000000E+02  3.60000000E+01  0.00000000E+00
  5.20000000E+02  3.40000000E+01  0.00000000E+00
  5.20000000E+02  3.20000000E+01  0.00000000E+00
  5.20000000E+02  3.00000000E+01  0.00000000E+00
  5.20000000E+02  2.80000000E+01  0.00000000E+00
  5.20000000E+02  2.60000000E+01  0.00000000E+00
  5.20000000E+02  2.40000000E+01  0.00000000E+00
  5.20000000E+02  2.20000000E+01  0.00000000E+00
  5.20000000E+02  2.00000000E+01  0.00000000E+00
  5.20000000E+02  1.80000000E+01  0.00000000E+00
  5.20000000E+02  1.60000000E+01  0.00000000E+00
  5.20000000E+02  1.40000000E+01  0.00000000E+00
  5.20000000E+02  1.20000000E+01  0.00000000E+00
  5.20000000E+02  1.00000000E+01  0.00000000E+00
  5.20000000E+02  8.00000000E+00  0.00000000E+00
  5.20000000E+02  6.00000000E+00  0.00000000E+00
  5.20000000E+02  4.00000000E+00  0.00000000E+00
  5.20000000E+02  2.00000000E+00  0.00000000E+00
  5.20000000E+02 -3.33066907E-14  0.00000000E+00
  5.30000000E+02  1.00000000E+02  0.00000000E+00
  5.30000000E+02  9.80000000E+01  0.00000000E+00
  5.30000000E+02  9.60000000E+01  0.00000000E+00
  5.30000000E+02  9.40000000E+01  0.00000000E+00
  5.30000000E+02  9.20000000E+01  0.00000000E+00
  5.30000000E+02  9.00000000E+01  0.00000000E+00
  5.30000000E+02  8.80000000E+01  0.00000000E+00
  5.30000000E+02  8.60000000E+01  0.00000000E+00
  5.30000000E+02  8.40000000E+01  0.00000000E+00
  5.30000000E+02  8.20000000E+01  0.00000000E+00
  5.30000000E+02  8.00000000E+01  0.00000000E+00
  5.30000000E+02  7.80000000E+01  0.00000000E+00
  5.30000000E+02  7.60000000E+01  0.00000000E+00
  5.30000000E+02  7.40000000E+01  0.00000000E+00
  5.30000000E+02  7.20000000E+01  0.00000000E+00
  5.30000000E+02  7.00000000E+01  0.00000000E+00
  5.30000000E+02  6.80000000E+01  0.00000000E+00
  5.30000000E+02  6.60000000E+01  0.00000000E+00
  5.30000000E+02  6.40000000E+01  0.00000000E+00
  5.30000000E+02  6.20000000E+01  0.00000000E+00
  5.30000000E+02  6.00000000E+01  0.00000000E+00
  5.30000000E+02  5.80000000E+01  0.00000000E+00
  5.30000000E+02  5.60000000E+01  0.00000000E+00
  5.30000000E+02  5.40000000E+01  0.00000000E+00
  5.30000000E+02  5.20000000E+01  0.00000000E+00
  5.30000000E+02  5.00000000E+01  0.00000000E+00
  5.30000000E+02  4.80000000E+01  0.00000000E+00
  5.30000000E+02  4.60000000E+01  0.00000000E+00
  5.30000000E+02  4.40000000E+01  0.00000000E+00
  5.30000000E+02  4.20000000E+01  0.00000000E+00
  5.30000000E+02  4.00000000E+01  0.00000000E+00
  5.30000000E+02  3.80000000E+01  0.00000000E+00
  5.30000000E+02  3.60000000E+01  0.00000000E+00
  5.30000000E+02  3.40000000E+01  0.00000000E+00
  5.30000000E+02  3.20000000E+01  0.00000000E+00
  5.30000000E+02  3.00000000E+01  0.00000000E+00
  5.30000000E+02  2.80000000E+01  0.00000000E+00
  5.30000000E+02  2.60000000E+01  0.00000000E+00
  5.30000000E+02  2.40000000E+01  0.00000000E+00
  5.30000000E+02  2.20000000E+01  0.00000000E+00
  5.30000000E+02  2.00000000E+01  0.00000000E+00
  5.30000000E+02  1.80000000E+01  0.00000000E+00
  5.30000000E+02  1.60000000E+01  0.00000000E+00
  5.30000000E+02  1.40000000E+01  0.00000000E+00
  5.30000000E+02  1.20000000E+01  0.00000000E+00
  5.30000000E+02  1.00000000E+01  0.00000000E+00
  5.30000000E+02  8.00000000E+00  0.00000000E+00
  5.30000000E+02  6.00000000E+00  0.00000000E+00
  5.30000000E+02  4.00000000E+00  0.00000000E+00
  5.30000000E+02  2.00000000E+00  0.00000000E+00
  5.30000000E+02 -3.33066907E-14  0.00000000E+00
  5.40000000E+02  1.00000000E+02  0.00000000E+00
  5.40000000E+02  9.80000000E+01  0.00000000E+00
  5.40000000E+02  9.60000000E+01  0.00000000E+00
  5.40000000E+02  9.40000000E+01  0.00000000E+00
  5.40000000E+02  9.20000000E+01  0.00000000E+00
  5.40000000E+02  9.00000000E+01  0.00000000E+00
  5.40000000E+02  8.80000000E+01  0.00000000E+00
  5.40000000E+02  8.60000000E+01  0.00000000E+00
  5.40000000E+02  8.40000000E+01  0.00000000E+00
  5.40000000E+02  8.20000000E+01  0.00000000E+00
  5.40000000E+02  8.00000000E+01  0.00000000E+00
  5.40000000E+02  7.80000000E+01  0.00000000E+00
  5.40000000E+02  7.60000000E+01  0.00000000E+00
  5.40000000E+02  7.40000000E+01  0.00000000E+00
  5.40000000E+02  7.20000000E+01  0.00000000E+00
  5.40000000E+02  7.00000000E+01  0.00000000E+00
  5.40000000E+02  6.80000000E+01  0.00000000E+00
  5.40000000E+02  6.60000000E+01  0.00000000E+00
  5.40000000E+02  6.40000000E+01  0.00000000E+00
  5.40000000E+02  6.20000000E+01  0.00000000E+00
  5.40000000E+02  6.00000000E+01  0.00000000E+00
  5.40000000E+02  5.80000000E+01  0.00000000E+00
  5.40000000E+02  5.60000000E+01  0.00000000E+00
  5.40000000E+02  5.40000000E+01  0.00000000E+00
  5.40000000E+02  5.20000000E+01  0.00000000E+00
  5.40000000E+02  5.00000000E+01  0.00000000E+00
  5.40000000E+02  4.80000000E+01  0.00000000E+00
  5.40000000E+02  4.60000000E+01  0.00000000E+00
  5.40000000E+02  4.40000000E+01  0.00000000E+00
  5.40000000E+02  4.20000000E+01  0.00000000E+00
  5.40000000E+02  4.00000000E+01  0.00000000E+00
  5.40000000E+02  3.80000000E+01  0.00000000E+00
  5.40000000E+02  3.60000000E+01  0.00000000E+00
  5.40000000E+02  3.40000000E+01  0.00000000E+00
  5.40000000E+02  3.20000000E+01  0.00000000E+00
  5.40000000E+02  3.00000000E+01  0.00000000E+00
  5.40000000E+02  2.80000000E+01  0.00000000E+00
  5.40000000E+02  2.60000000E+01  0.00000000E+00
  5.40000000E+02  2.40000000E+01  0.00000000E+00
  5.40000000E+02  2.20000000E+01  0.00000000E+00
  5.40000000E+02  2.00000000E+01  0.00000000E+00
  5.40000000E+02  1.80000000E+01  0.00000000E+00
  5.40000000E+02  1.60000000E+01  0.00000000E+00
  5.40000000E+02  1.40000000E+01  0.00000000E+00
  5.40000000E+02  1.20000000E+01  0.00000000E+00
  5.40000000E+02  1.00000000E+01  0.00000000E+00
  5.40000000E+02  8.00000000E+00  0.00000000E+00
  5.40000000E+02  6.00000000E+00  0.00000000E+00
  5.40000000E+02  4.00000000E+00  0.00000000E+00
  5.40000000E+02  2.00000000E+00  0.00000000E+00
  5.40000000E+02 -3.33066907E-14  0.00000000E+00
  5.50000000E+02  1.00000000E+02  0.00000000E+00
  5.50000000E+02  9.80000000E+01  0.00000000E+00
  5.50000000E+02  9.60000000E+01  0.00000000E+00
  5.50000000E+02  9.40000000E+01  0.00000000E+00
  5.50000000E+02  9.20000000E+01  0.00000000E+00
  5.50000000E+02  9.00000000E+01  0.00000000E+00
  5.50000000E+02  8.80000000E+01  0.00000000E+00
  5.50000000E+02  8.60000000E+01  0.00000000E+00
  5.50000000E+02  8.40000000E+01  0.00000000E+00
  5.50000000E+02  8.20000000E+01  0.00000000E+00
  5.50000000E+02  8.00000000E+01  0.00000000E+00
  5.50000000E+02  7.80000000E+01  0.00000000E+00
  5.50000000E+02  7.60000000E+01  0.00000000E+00
  5.50000000E+02  7.40000000E+01  0.00000000E+00
  5.50000000E+02  7.20000000E+01  0.00000000E+00
  5.50000000E+02  7.00000000E+01  0.00000000E+00
  5.50000000E+02  6.80000000E+01  0.00000000E+00
  5.50000000E+02  6.60000000E+01  0.00000000E+00
  5.50000000E+02  6.40000000E+01  0.00000000E+00
  5.50000000E+02  6.20000000E+01  0.00000000E+00
  5.50000000E+02  6.00000000E+01  0.00000000E+00
  5.50000000E+02  5.80000000E+01  0.00000000E+00
  5.50000000E+02  5.60000000E+01  0.00000000E+00
  5.50000000E+02  5.40000000E+01  0.00000000E+00
  5.50000000E+02  5.20000000E+01  0.00000000E+00
  5.50000000E+02  5.00000000E+01  0.00000000E+00
  5.50000000E+02  4.80000000E+01  0.00000000E+00
  5.50000000E+02  4.60000000E+01  0.00000000E+00
  5.50000000E+02  4.40000000E+01  0.00000000E+00
  5.50000000E+02  4.20000000E+01  0.00000000E+00
  5.50000000E+02  4.00000000E+01  0.00000000E+00
  5.50000000E+02  3.80000000E+01  0.00000000E+00
  5.50000000E+02  3.60000000E+01  0.00000000E+00
  5.50000000E+02  3.40000000E+01  0.00000000E+00
  5.50000000E+02  3.20000000E+01  0.00000000E+00
  5.50000000E+02  3.00000000E+01  0.00000000E+00
  5.50000000E+02  2.80000000E+01  0.00000000E+00
  5.50000000E+02  2.60000000E+01  0.00000000E+00
  5.50000000E+02  2.40000000E+01  0.00000000E+00
  5.50000000E+02  2.20000000E+01  0.00000000E+00
  5.50000000E+02  2.00000000E+01  0.00000000E+00
  5.50000000E+02  1.80000000E+01  0.00000000E+00
  5.50000000E+02  1.60000000E+01  0.00000000E+00
  5.50000000E+02  1.40000000E+01  0.00000000E+00
  5.50000000E+02  1.20000000E+01  0.00000000E+00
  5.50000000E+02  1.00000000E+01  0.00000000E+00
  5.50000000E+02  8.00000000E+00  0.00000000E+00
  5.50000000E+02  6.00000000E+00  0.00000000E+00
  5.50000000E+02  4.00000000E+00  0.00000000E+00
  5.50000000E+02  2.00000000E+00  0.00000000E+00
  5.50000000E+02 -3.33066907E-14  0.00000000E+00
  5.60000000E+02  1.00000000E+02  0.00000000E+00
  5.60000000E+02  9.80000000E+01  0.00000000E+00
  5.60000000E+02  9.60000000E+01  0.00000000E+00
  5.60000000E+02  9.40000000E+01  0.00000000E+00
  5.60000000E+02  9.20000000E+01  0.00000000E+00
  5.60000000E+02  9.00000000E+01  0.00000000E+00
  5.60000000E+02  8.80000000E+01  0.00000000E+00
  5.60000000E+02  8.60000000E+01  0.00000000E+00
  5.60000000E+02  8.40000000E+01  0.00000000E+00
  5.60000000E+02  8.20000000E+01  0.00000000E+00
  5.60000000E+02  8.00000000E+01  0.00000000E+00
  5.60000000E+02  7.80000000E+01  0.00000000E+00
  5.60000000E+02  7.60000000E+01  0.00000000E+00
  5.60000000E+02  7.40000000E+01  0.00000000E+00
  5.60000000E+02  7.20000000E+01  0.00000000E+00
  5.60000000E+02  7.00000000E+01  0.00000000E+00
  5.60000000E+02  6.80000000E+01  0.00000000E+00
  5.60000000E+02  6.60000000E+01  0.00000000E+00
  5.60000000E+02  6.40000000E+01  0.00000000E+00
  5.60000000E+02  6.20000000E+01  0.00000000E+00
  5.60000000E+02  6.00000000E+01  0.00000000E+00
  5.60000000E+02  5.80000000E+01  0.00000000E+00
  5.60000000E+02  5.60000000E+01  0.00000000E+00
  5.60000000E+02  5.40000000E+01  0.00000000E+00
  5.60000000E+02  5.20000000E+01  0.00000000E+00
  5.60000000E+02  5.00000000E+01  0.00000000E+00
  5.60000000E+02  4.80000000E+01  0.00000000E+00
  5.60000000E+02  4.60000000E+01  0.00000000E+00
  5.60000000E+02  4.40000000E+01  0.00000000E+00
  5.60000000E+02  4.20000000E+01  0.00000000E+00
  5.60000000E+02  4.00000000E+01  0.00000000E+00
  5.60000000E+02  3.80000000E+01  0.00000000E+00
  5.60000000E+02  3.60000000E+01  0.00000000E+00
  5.60000000E+02  3.40000000E+01  0.00000000E+00
  5.60000000E+02  3.20000000E+01  0.00000000E+00
  5.60000000E+02  3.00000000E+01  0.00000000E+00
  5.60000000E+02  2.80000000E+01  0.00000000E+00
  5.60000000E+02  2.60000000E+01  0.00000000E+00
  5.60000000E+02  2.40000000E+01  0.00000000E+00
  5.60000000E+02  2.20000000E+01  0.00000000E+00
  5.60000000E+02  2.00000000E+01  0.00000000E+00
  5.60000000E+02  1.80000000E+01  0.00000000E+00
  5.60000000E+02  1.60000000E+01  0.00000000E+00
  5.60000000E+02  1.40000000E+01  0.00000000E+00
  5.60000000E+02  1.20000000E+01  0.00000000E+00
  5.60000000E+02  1.00000000E+01  0.00000000E+00
  5.60000000E+02  8.00000000E+00  0.00000000E+00
  5.60000000E+02  6.00000000E+00  0.00000000E+00
  5.60000000E+02  4.00000000E+00  0.00000000E+00
  5.60000000E+02  2.00000000E+00  0.00000000E+00
  5.60000000E+02 -3.33066907E-14  0.00000000E+00
  5.70000000E+02  1.00000000E+02  0.00000000E+00
  5.70000000E+02  9.80000000E+01  0.00000000E+00
  5.70000000E+02  9.60000000E+01  0.00000000E+00
  5.70000000E+02  9.40000000E+01  0.00000000E+00
  5.70000000E+02  9.20000000E+01  0.00000000E+00
  5.70000000E+02  9.00000000E+01  0.00000000E+00
  5.70000000E+02  8.80000000E+01  0.00000000E+00
  5.70000000E+02  8.60000000E+01  0.00000000E+00
  5.70000000E+02  8.40000000E+01  0.00000000E+00
  5.70000000E+02  8.20000000E+01  0.00000000E+00
  5.70000000E+02  8.00000000E+01  0.00000000E+00
  5.70000000E+02  7.80000000E+01  0.00000000E+00
  5.70000000E+02  7.60000000E+01  0.00000000E+00
  5.70000000E+02  7.40000000E+01  0.00000000E+00
  5.70000000E+02  7.20000000E+01  0.00000000E+00
  5.70000000E+02  7.00000000E+01  0.00000000E+00
  5.70000000E+02  6.80000000E+01  0.00000000E+00
  5.70000000E+02  6.60000000E+01  0.00000000E+00
  5.70000000E+02  6.40000000E+01  0.00000000E+00
  5.70000000E+02  6.20000000E+01  0.00000000E+00
  5.70000000E+02  6.00000000E+01  0.00000000E+00
  5.70000000E+02  5.80000000E+01  0.00000000E+00
  5.70000000E+02  5.60000000E+01  0.00000000E+00
  5.70000000E+02  5.40000000E+01  0.00000000E+00
  5.70000000E+02  5.20000000E+01  0.00000000E+00
  5.70000000E+02  5.00000000E+01  0.00000000E+00
  5.70000000E+02  4.80000000E+01  0.00000000E+00
  5.70000000E+02  4.60000000E+01  0.00000000E+00
  5.70000000E+02  4.40000000E+01  0.00000000E+00
  5.70000000E+02  4.20000000E+01  0.00000000E+00
  5.70000000E+02  4.00000000E+01  0.00000000E+00
  5.70000000E+02  3.80000000E+01  0.00000000E+00
  5.70000000E+02  3.60000000E+01  0.00000000E+00
  5.70000000E+02  3.40000000E+01  0.00000000E+00
  5.70000000E+02  3.20000000E+01  0.00000000E+00
  5.70000000E+02  3.00000000E+01  0.00000000E+00
  5.70000000E+02  2.80000000E+01  0.00000000E+00
  5.70000000E+02  2.60000000E+01  0.00000000E+00
  5.70000000E+02  2.40000000E+01  0.00000000E+00
  5.70000000E+02  2.20000000E+01  0.00000000E+00
  5.70000000E+02  2.00000000E+01  0.00000000E+00
  5.70000000E+02  1.80000000E+01  0.00000000E+00
  5.70000000E+02  1.60000000E+01  0.00000000E+00
  5.70000000E+02  1.40000000E+01  0.00000000E+00
  5.70000000E+02  1.20000000E+01  0.00000000E+00
  5.70000000E+02  1.00000000E+01  0.00000000E+00
  5.70000000E+02  8.00000000E+00  0.00000000E+00
  5.70000000E+02  6.00000000E+00  0.00000000E+00
  5.70000000E+02  4.00000000E+00  0.00000000E+00
  5.70000000E+02  2.00000000E+00  0.00000000E+00
  5.70000000E+02 -3.33066907E-14  0.00000000E+00
  5.80000000E+02  1.00000000E+02  0.00000000E+00
  5.80000000E+02  9.80000000E+01  0.00000000E+00
  5.80000000E+02  9.60000000E+01  0.00000000E+00
  5.80000000E+02  9.40000000E+01  0.00000000E+00
  5.80000000E+02  9.20000000E+01  0.00000000E+00
  5.80000000E+02  9.00000000E+01  0.00000000E+00
  5.80000000E+02  8.80000000E+01  0.00000000E+00
  5.80000000E+02  8.60000000E+01  0.00000000E+00
  5.80000000E+02  8.40000000E+01  0.00000000E+00
  5.80000000E+02  8.20000000E+01  0.00000000E+00
  5.80000000E+02  8.00000000E+01  0.00000000E+00
  5.80000000E+02  7.80000000E+01  0.00000000E+00
  5.80000000E+02  7.60000000E+01  0.00000000E+00
  5.80000000E+02  7.40000000E+01  0.00000000E+00
  5.80000000E+02  7.20000000E+01  0.00000000E+00
  5.80000000E+02  7.00000000E+01  0.00000000E+00
  5.80000000E+02  6.80000000E+01  0.00000000E+00
  5.80000000E+02  6.60000000E+01  0.00000000E+00
  5.80000000E+02  6.40000000E+01  0.00000000E+00
  5.80000000E+02  6.20000000E+01  0.00000000E+00
  5.80000000E+02  6.00000000E+01  0.00000000E+00
  5.80000000E+02  5.80000000E+01  0.00000000E+00
  5.80000000E+02  5.60000000E+01  0.00000000E+00
  5.80000000E+02  5.40000000E+01  0.00000000E+00
  5.80000000E+02  5.20000000E+01  0.00000000E+00
  5.80000000E+02  5.00000000E+01  0.00000000E+00
  5.80000000E+02  4.80000000E+01  0.00000000E+00
  5.80000000E+02  4.60000000E+01  0.00000000E+00
  5.80000000E+02  4.40000000E+01  0.00000000E+00
  5.80000000E+02  4.20000000E+01  0.00000000E+00
  5.80000000E+02  4.00000000E+01  0.00000000E+00
  5.80000000E+02  3.80000000E+01  0.00000000E+00
  5.80000000E+02  3.60000000E+01  0.00000000E+00
  5.80000000E+02  3.40000000E+01  0.00000000E+00
  5.80000000E+02  3.20000000E+01  0.00000000E+00
  5.80000000E+02  3.00000000E+01  0.00000000E+00
  5.80000000E+02  2.80000000E+01  0.00000000E+00
  5.80000000E+02  2.60000000E+01  0.00000000E+00
  5.80000000E+02  2.40000000E+01  0.00000000E+00
  5.80000000E+02  2.20000000E+01  0.00000000E+00
  5.80000000E+02  2.00000000E+01  0.00000000E+00
  5.80000000E+02  1.80000000E+01  0.00000000E+00
  5.80000000E+02  1.60000000E+01  0.00000000E+00
  5.80000000E+02  1.40000000E+01  0.00000000E+00
  5.80000000E+02  1.20000000E+01  0.00000000E+00
  5.80000000E+02  1.00000000E+01  0.00000000E+00
  5.80000000E+02  8.00000000E+00  0.00000000E+00
  5.80000000E+02  6.00000000E+00  0.00000000E+00
  5.80000000E+02  4.00000000E+00  0.00000000E+00
  5.80000000E+02  2.00000000E+00  0.00000000E+00
  5.80000000E+02 -3.33066907E-14  0.00000000E+00
  5.90000000E+02  1.00000000E+02  0.00000000E+00
  5.90000000E+02  9.80000000E+01  0.00000000E+00
  5.90000000E+02  9.60000000E+01  0.00000000E+00
  5.90000000E+02  9.40000000E+01  0.00000000E+00
  5.90000000E+02  9.20000000E+01  0.00000000E+00
  5.90000000E+02  9.00000000E+01  0.00000000E+00
  5.90000000E+02  8.80000000E+01  0.00000000E+00
  5.90000000E+02  8.60000000E+01  0.00000000E+00
  5.90000000E+02  8.40000000E+01  0.00000000E+00
  5.90000000E+02  8.20000000E+01  0.00000000E+00
  5.90000000E+02  8.00000000E+01  0.00000000E+00
  5.90000000E+02  7.80000000E+01  0.00000000E+00
  5.90000000E+02  7.60000000E+01  0.00000000E+00
  5.90000000E+02  7.40000000E+01  0.00000000E+00
  5.90000000E+02  7.20000000E+01  0.00000000E+00
  5.90000000E+02  7.00000000E+01  0.00000000E+00
  5.90000000E+02  6.80000000E+01  0.00000000E+00
  5.90000000E+02  6.60000000E+01  0.00000000E+00
  5.90000000E+02  6.40000000E+01  0.00000000E+00
  5.90000000E+02  6.20000000E+01  0.00000000E+00
  5.90000000E+02  6.00000000E+01  0.00000000E+00
  5.90000000E+02  5.80000000E+01  0.00000000E+00
  5.90000000E+02  5.60000000E+01  0.00000000E+00
  5.90000000E+02  5.40000000E+01  0.00000000E+00
  5.90000000E+02  5.20000000E+01  0.00000000E+00
  5.90000000E+02  5.00000000E+01  0.00000000E+00
  5.90000000E+02  4.80000000E+01  0.00000000E+00
  5.90000000E+02  4.60000000E+01  0.00000000E+00
  5.90000000E+02  4.40000000E+01  0.00000000E+00
  5.90000000E+02  4.20000000E+01  0.00000000E+00
  5.90000000E+02  4.00000000E+01  0.00000000E+00
  5.90000000E+02  3.80000000E+01  0.00000000E+00
  5.90000000E+02  3.60000000E+01  0.00000000E+00
  5.90000000E+02  3.40000000E+01  0.00000000E+00
  5.90000000E+02  3.20000000E+01  0.00000000E+00
  5.90000000E+02  3.00000000E+01  0.00000000E+00
  5.90000000E+02  2.80000000E+01  0.00000000E+00
  5.90000000E+02  2.60000000E+01  0.00000000E+00
  5.90000000E+02  2.40000000E+01  0.00000000E+00
  5.90000000E+02  2.20000000E+01  0.00000000E+00
  5.90000000E+02  2.00000000E+01  0.00000000E+00
  5.90000000E+02  1.80000000E+01  0.00000000E+00
  5.90000000E+02  1.60000000E+01  0.00000000E+00
  5.90000000E+02  1.40000000E+01  0.00000000E+00
  5.90000000E+02  1.20000000E+01  0.00000000E+00
  5.90000000E+02  1.00000000E+01  0.00000000E+00
  5.90000000E+02  8.00000000E+00  0.00000000E+00
  5.90000000E+02  6.00000000E+00  0.00000000E+00
  5.90000000E+02  4.00000000E+00  0.00000000E+00
  5.90000000E+02  2.00000000E+00  0.00000000E+00
  5.90000000E+02 -3.33066907E-14  0.00000000E+00
  6.00000000E+02  1.00000000E+02  0.00000000E+00
  6.00000000E+02  9.80000000E+01  0.00000000E+00
  6.00000000E+02  9.60000000E+01  0.00000000E+00
  6.00000000E+02  9.40000000E+01  0.00000000E+00
  6.00000000E+02  9.20000000E+01  0.00000000E+00
  6.00000000E+02  9.00000000E+01  0.00000000E+00
  6.00000000E+02  8.80000000E+01  0.00000000E+00
  6.00000000E+02  8.60000000E+01  0.00000000E+00
  6.00000000E+02  8.40000000E+01  0.00000000E+00
  6.00000000E+02  8.20000000E+01  0.00000000E+00
  6.00000000E+02  8.00000000E+01  0.00000000E+00
  6.00000000E+02  7.80000000E+01  0.00000000E+00
  6.00000000E+02  7.60000000E+01  0.00000000E+00
  6.00000000E+02  7.40000000E+01  0.00000000E+00
  6.00000000E+02  7.20000000E+01  0.00000000E+00
  6.00000000E+02  7.00000000E+01  0.00000000E+00
  6.00000000E+02  6.80000000E+01  0.00000000E+00
  6.00000000E+02  6.60000000E+01  0.00000000E+00
  6.00000000E+02  6.40000000E+01  0.00000000E+00
  6.00000000E+02  6.20000000E+01  0.00000000E+00
  6.00000000E+02  6.00000000E+01  0.00000000E+00
  6.00000000E+02  5.80000000E+01  0.00000000E+00
  6.00000000E+02  5.60000000E+01  0.00000000E+00
  6.00000000E+02  5.40000000E+01  0.00000000E+00
  6.00000000E+02  5.20000000E+01  0.00000000E+00
  6.00000000E+02  5.00000000E+01  0.00000000E+00
  6.00000000E+02  4.80000000E+01  0.00000000E+00
  6.00000000E+02  4.60000000E+01  0.00000000E+00
  6.00000000E+02  4.40000000E+01  0.00000000E+00
  6.00000000E+02  4.20000000E+01  0.00000000E+00
  6.00000000E+02  4.00000000E+01  0.00000000E+00
  6.00000000E+02  3.80000000E+01  0.00000000E+00
  6.00000000E+02  3.60000000E+01  0.00000000E+00
  6.00000000E+02  3.40000000E+01  0.00000000E+00
  6.00000000E+02  3.20000000E+01  0.00000000E+00
  6.00000000E+02  3.00000000E+01  0.00000000E+00
  6.00000000E+02  2.80000000E+01  0.00000000E+00
  6.00000000E+02  2.60000000E+01  0.00000000E+00
  6.00000000E+02  2.40000000E+01  0.00000000E+00
  6.00000000E+02  2.20000000E+01  0.00000000E+00
  6.00000000E+02  2.00000000E+01  0.00000000E+00
  6.00000000E+02  1.80000000E+01  0.00000000E+00
  6.00000000E+02  1.60000000E+01  0.00000000E+00
  6.00000000E+02  1.40000000E+01  0.00000000E+00
  6.00000000E+02  1.20000000E+01  0.00000000E+00
  6.00000000E+02  1.00000000E+01  0.00000000E+00
  6.00000000E+02  8.00000000E+00  0.00000000E+00
  6.00000000E+02  6.00000000E+00  0.00000000E+00
  6.00000000E+02  4.00000000E+00  0.00000000E+00
  6.00000000E+02  2.00000000E+00  0.00000000E+00
  6.00000000E+02 -3.33066907E-14  0.00000000E+00
  6.10000000E+02  1.00000000E+02  0.00000000E+00
  6.10000000E+02  9.80000000E+01  0.00000000E+00
  6.10000000E+02  9.60000000E+01  0.00000000E+00
  6.10000000E+02  9.40000000E+01  0.00000000E+00
  6.10000000E+02  9.20000000E+01  0.00000000E+00
  6.10000000E+02  9.00000000E+01  0.00000000E+00
  6.10000000E+02  8.80000000E+01  0.00000000E+00
  6.10000000E+02  8.60000000E+01  0.00000000E+00
  6.10000000E+02  8.40000000E+01  0.00000000E+00
  6.10000000E+02  8.20000000E+01  0.00000000E+00
  6.10000000E+02  8.00000000E+01  0.00000000E+00
  6.10000000E+02  7.80000000E+01  0.00000000E+00
  6.10000000E+02  7.60000000E+01  0.00000000E+00
  6.10000000E+02  7.40000000E+01  0.00000000E+00
  6.10000000E+02  7.20000000E+01  0.00000000E+00
  6.10000000E+02  7.00000000E+01  0.00000000E+00
  6.10000000E+02  6.80000000E+01  0.00000000E+00
  6.10000000E+02  6.60000000E+01  0.00000000E+00
  6.10000000E+02  6.40000000E+01  0.00000000E+00
  6.10000000E+02  6.20000000E+01  0.00000000E+00
  6.10000000E+02  6.00000000E+01  0.00000000E+00
  6.10000000E+02  5.80000000E+01  0.00000000E+00
  6.10000000E+02  5.60000000E+01  0.00000000E+00
  6.10000000E+02  5.40000000E+01  0.00000000E+00
  6.10000000E+02  5.20000000E+01  0.00000000E+00
  6.10000000E+02  5.00000000E+01  0.00000000E+00
  6.10000000E+02  4.80000000E+01  0.00000000E+00
  6.10000000E+02  4.60000000E+01  0.00000000E+00
  6.10000000E+02  4.40000000E+01  0.00000000E+00
  6.10000000E+02  4.20000000E+01  0.00000000E+00
  6.10000000E+02  4.00000000E+01  0.00000000E+00
  6.10000000E+02  3.80000000E+01  0.00000000E+00
  6.10000000E+02  3.60000000E+01  0.00000000E+00
  6.10000000E+02  3.40000000E+01  0.00000000E+00
  6.10000000E+02  3.20000000E+01  0.00000000E+00
  6.10000000E+02  3.00000000E+01  0.00000000E+00
  6.10000000E+02  2.80000000E+01  0.00000000E+00
  6.10000000E+02  2.60000000E+01  0.00000000E+00
  6.10000000E+02  2.40000000E+01  0.00000000E+00
  6.10000000E+02  2.20000000E+01  0.00000000E+00
  6.10000000E+02  2.00000000E+01  0.00000000E+00
  6.10000000E+02  1.80000000E+01  0.00000000E+00
  6.10000000E+02  1.60000000E+01  0.00000000E+00
  6.10000000E+02  1.40000000E+01  0.00000000E+00
  6.10000000E+02  1.20000000E+01  0.00000000E+00
  6.10000000E+02  1.00000000E+01  0.00000000E+00
  6.10000000E+02  8.00000000E+00  0.00000000E+00
  6.10000000E+02  6.00000000E+00  0.00000000E+00
  6.10000000E+02  4.00000000E+00  0.00000000E+00
  6.10000000E+02  2.00000000E+00  0.00000000E+00
  6.10000000E+02 -3.33066907E-14  0.00000000E+00
  6.20000000E+02  1.00000000E+02  0.00000000E+00
  6.20000000E+02  9.80000000E+01  0.00000000E+00
  6.20000000E+02  9.60000000E+01  0.00000000E+00
  6.20000000E+02  9.40000000E+01  0.00000000E+00
  6.20000000E+02  9.20000000E+01  0.00000000E+00
  6.20000000E+02  9.00000000E+01  0.00000000E+00
  6.20000000E+02  8.80000000E+01  0.00000000E+00
  6.20000000E+02  8.60000000E+01  0.00000000E+00
  6.20000000E+02  8.40000000E+01  0.00000000E+00
  6.20000000E+02  8.20000000E+01  0.00000000E+00
  6.20000000E+02  8.00000000E+01  0.00000000E+00
  6.20000000E+02  7.80000000E+01  0.00000000E+00
  6.20000000E+02  7.60000000E+01  0.00000000E+00
  6.20000000E+02  7.40000000E+01  0.00000000E+00
  6.20000000E+02  7.20000000E+01  0.00000000E+00
  6.20000000E+02  7.00000000E+01  0.00000000E+00
  6.20000000E+02  6.80000000E+01  0.00000000E+00
  6.20000000E+02  6.60000000E+01  0.00000000E+00
  6.20000000E+02  6.40000000E+01  0.00000000E+00
  6.20000000E+02  6.20000000E+01  0.00000000E+00
  6.20000000E+02  6.00000000E+01  0.00000000E+00
  6.20000000E+02  5.80000000E+01  0.00000000E+00
  6.20000000E+02  5.60000000E+01  0.00000000E+00
  6.20000000E+02  5.40000000E+01  0.00000000E+00
  6.20000000E+02  5.20000000E+01  0.00000000E+00
  6.20000000E+02  5.00000000E+01  0.00000000E+00
  6.20000000E+02  4.80000000E+01  0.00000000E+00
  6.20000000E+02  4.60000000E+01  0.00000000E+00
  6.20000000E+02  4.40000000E+01  0.00000000E+00
  6.20000000E+02  4.20000000E+01  0.00000000E+00
  6.20000000E+02  4.00000000E+01  0.00000000E+00
  6.20000000E+02  3.80000000E+01  0.00000000E+00
  6.20000000E+02  3.60000000E+01  0.00000000E+00
  6.20000000E+02  3.40000000E+01  0.00000000E+00
  6.20000000E+02  3.20000000E+01  0.00000000E+00
  6.20000000E+02  3.00000000E+01  0.00000000E+00
  6.20000000E+02  2.80000000E+01  0.00000000E+00
  6.20000000E+02  2.60000000E+01  0.00000000E+00
  6.20000000E+02  2.40000000E+01  0.00000000E+00
  6.20000000E+02  2.20000000E+01  0.00000000E+00
  6.20000000E+02  2.00000000E+01  0.00000000E+00
  6.20000000E+02  1.80000000E+01  0.00000000E+00
  6.20000000E+02  1.60000000E+01  0.00000000E+00
  6.20000000E+02  1.40000000E+01  0.00000000E+00
  6.20000000E+02  1.20000000E+01  0.00000000E+00
  6.20000000E+02  1.00000000E+01  0.00000000E+00
  6.20000000E+02  8.00000000E+00  0.00000000E+00
  6.20000000E+02  6.00000000E+00  0.00000000E+00
  6.20000000E+02  4.00000000E+00  0.00000000E+00
  6.20000000E+02  2.00000000E+00  0.00000000E+00
  6.20000000E+02 -3.33066907E-14  0.00000000E+00
  6.30000000E+02  1.00000000E+02  0.00000000E+00
  6.30000000E+02  9.80000000E+01  0.00000000E+00
  6.30000000E+02  9.60000000E+01  0.00000000E+00
  6.30000000E+02  9.40000000E+01  0.00000000E+00
  6.30000000E+02  9.20000000E+01  0.00000000E+00
  6.30000000E+02  9.00000000E+01  0.00000000E+00
  6.30000000E+02  8.80000000E+01  0.00000000E+00
  6.30000000E+02  8.60000000E+01  0.00000000E+00
  6.30000000E+02  8.40000000E+01  0.00000000E+00
  6.30000000E+02  8.20000000E+01  0.00000000E+00
  6.30000000E+02  8.00000000E+01  0.00000000E+00
  6.30000000E+02  7.80000000E+01  0.00000000E+00
  6.30000000E+02  7.60000000E+01  0.00000000E+00
  6.30000000E+02  7.40000000E+01  0.00000000E+00
  6.30000000E+02  7.20000000E+01  0.00000000E+00
  6.30000000E+02  7.00000000E+01  0.00000000E+00
  6.30000000E+02  6.80000000E+01  0.00000000E+00
  6.30000000E+02  6.60000000E+01  0.00000000E+00
  6.30000000E+02  6.40000000E+01  0.00000000E+00
  6.30000000E+02  6.20000000E+01  0.00000000E+00
  6.30000000E+02  6.00000000E+01  0.00000000E+00
  6.30000000E+02  5.80000000E+01  0.00000000E+00
  6.30000000E+02  5.60000000E+01  0.00000000E+00
  6.30000000E+02  5.40000000E+01  0.00000000E+00
  6.30000000E+02  5.20000000E+01  0.00000000E+00
  6.30000000E+02  5.00000000E+01  0.00000000E+00
  6.30000000E+02  4.80000000E+01  0.00000000E+00
  6.30000000E+02  4.60000000E+01  0.00000000E+00
  6.30000000E+02  4.40000000E+01  0.00000000E+00
  6.30000000E+02  4.20000000E+01  0.00000000E+00
  6.30000000E+02  4.00000000E+01  0.00000000E+00
  6.30000000E+02  3.80000000E+01  0.00000000E+00
  6.30000000E+02  3.60000000E+01  0.00000000E+00
  6.30000000E+02  3.40000000E+01  0.00000000E+00
  6.30000000E+02  3.20000000E+01  0.00000000E+00
  6.30000000E+02  3.00000000E+01  0.00000000E+00
  6.30000000E+02  2.80000000E+01  0.00000000E+00
  6.30000000E+02  2.60000000E+01  0.00000000E+00
  6.30000000E+02  2.40000000E+01  0.00000000E+00
  6.30000000E+02  2.20000000E+01  0.00000000E+00
  6.30000000E+02  2.00000000E+01  0.00000000E+00
  6.30000000E+02  1.80000000E+01  0.00000000E+00
  6.30000000E+02  1.60000000E+01  0.00000000E+00
  6.30000000E+02  1.40000000E+01  0.00000000E+00
  6.30000000E+02  1.20000000E+01  0.00000000E+00
  6.30000000E+02  1.00000000E+01  0.00000000E+00
  6.30000000E+02  8.00000000E+00  0.00000000E+00
  6.30000000E+02  6.00000000E+00  0.00000000E+00
  6.30000000E+02  4.00000000E+00  0.00000000E+00
  6.30000000E+02  2.00000000E+00  0.00000000E+00
  6.30000000E+02 -3.33066907E-14  0.00000000E+00
  6.40000000E+02  1.00000000E+02  0.00000000E+00
  6.40000000E+02  9.80000000E+01  0.00000000E+00
  6.40000000E+02  9.60000000E+01  0.00000000E+00
  6.40000000E+02  9.40000000E+01  0.00000000E+00
  6.40000000E+02  9.20000000E+01  0.00000000E+00
  6.40000000E+02  9.00000000E+01  0.00000000E+00
  6.40000000E+02  8.80000000E+01  0.00000000E+00
  6.40000000E+02  8.60000000E+01  0.00000000E+00
  6.40000000E+02  8.40000000E+01  0.00000000E+00
  6.40000000E+02  8.20000000E+01  0.00000000E+00
  6.40000000E+02  8.00000000E+01  0.00000000E+00
  6.40000000E+02  7.80000000E+01  0.00000000E+00
  6.40000000E+02  7.60000000E+01  0.00000000E+00
  6.40000000E+02  7.40000000E+01  0.00000000E+00
  6.40000000E+02  7.20000000E+01  0.00000000E+00
  6.40000000E+02  7.00000000E+01  0.00000000E+00
  6.40000000E+02  6.80000000E+01  0.00000000E+00
  6.40000000E+02  6.60000000E+01  0.00000000E+00
  6.40000000E+02  6.40000000E+01  0.00000000E+00
  6.40000000E+02  6.20000000E+01  0.00000000E+00
  6.40000000E+02  6.00000000E+01  0.00000000E+00
  6.40000000E+02  5.80000000E+01  0.00000000E+00
  6.40000000E+02  5.60000000E+01  0.00000000E+00
  6.40000000E+02  5.40000000E+01  0.00000000E+00
  6.40000000E+02  5.20000000E+01  0.00000000E+00
  6.40000000E+02  5.00000000E+01  0.00000000E+00
  6.40000000E+02  4.80000000E+01  0.00000000E+00
  6.40000000E+02  4.60000000E+01  0.00000000E+00
  6.40000000E+02  4.40000000E+01  0.00000000E+00
  6.40000000E+02  4.20000000E+01  0.00000000E+00
  6.40000000E+02  4.00000000E+01  0.00000000E+00
  6.40000000E+02  3.80000000E+01  0.00000000E+00
  6.40000000E+02  3.60000000E+01  0.00000000E+00
  6.40000000E+02  3.40000000E+01  0.00000000E+00
  6.40000000E+02  3.20000000E+01  0.00000000E+00
  6.40000000E+02  3.00000000E+01  0.00000000E+00
  6.40000000E+02  2.80000000E+01  0.00000000E+00
  6.40000000E+02  2.60000000E+01  0.00000000E+00
  6.40000000E+02  2.40000000E+01  0.00000000E+00
  6.40000000E+02  2.20000000E+01  0.00000000E+00
  6.40000000E+02  2.00000000E+01  0.00000000E+00
  6.40000000E+02  1.80000000E+01  0.00000000E+00
  6.40000000E+02  1.60000000E+01  0.00000000E+00
  6.40000000E+02  1.40000000E+01  0.00000000E+00
  6.40000000E+02  1.20000000E+01  0.00000000E+00
  6.40000000E+02  1.00000000E+01  0.00000000E+00
  6.40000000E+02  8.00000000E+00  0.00000000E+00
  6.40000000E+02  6.00000000E+00  0.00000000E+00
  6.40000000E+02  4.00000000E+00  0.00000000E+00
  6.40000000E+02  2.00000000E+00  0.00000000E+00
  6.40000000E+02 -3.33066907E-14  0.00000000E+00
  6.50000000E+02  1.00000000E+02  0.00000000E+00
  6.50000000E+02  9.80000000E+01  0.00000000E+00
  6.50000000E+02  9.60000000E+01  0.00000000E+00
  6.50000000E+02  9.40000000E+01  0.00000000E+00
  6.50000000E+02  9.20000000E+01  0.00000000E+00
  6.50000000E+02  9.00000000E+01  0.00000000E+00
  6.50000000E+02  8.80000000E+01  0.00000000E+00
  6.50000000E+02  8.60000000E+01  0.00000000E+00
  6.50000000E+02  8.40000000E+01  0.00000000E+00
  6.50000000E+02  8.20000000E+01  0.00000000E+00
  6.50000000E+02  8.00000000E+01  0.00000000E+00
  6.50000000E+02  7.80000000E+01  0.00000000E+00
  6.50000000E+02  7.60000000E+01  0.00000000E+00
  6.50000000E+02  7.40000000E+01  0.00000000E+00
  6.50000000E+02  7.20000000E+01  0.00000000E+00
  6.50000000E+02  7.00000000E+01  0.00000000E+00
  6.50000000E+02  6.80000000E+01  0.00000000E+00
  6.50000000E+02  6.60000000E+01  0.00000000E+00
  6.50000000E+02  6.40000000E+01  0.00000000E+00
  6.50000000E+02  6.20000000E+01  0.00000000E+00
  6.50000000E+02  6.00000000E+01  0.00000000E+00
  6.50000000E+02  5.80000000E+01  0.00000000E+00
  6.50000000E+02  5.60000000E+01  0.00000000E+00
  6.50000000E+02  5.40000000E+01  0.00000000E+00
  6.50000000E+02  5.20000000E+01  0.00000000E+00
  6.50000000E+02  5.00000000E+01  0.00000000E+00
  6.50000000E+02  4.80000000E+01  0.00000000E+00
  6.50000000E+02  4.60000000E+01  0.00000000E+00
  6.50000000E+02  4.40000000E+01  0.00000000E+00
  6.50000000E+02  4.20000000E+01  0.00000000E+00
  6.50000000E+02  4.00000000E+01  0.00000000E+00
  6.50000000E+02  3.80000000E+01  0.00000000E+00
  6.50000000E+02  3.60000000E+01  0.00000000E+00
  6.50000000E+02  3.40000000E+01  0.00000000E+00
  6.50000000E+02  3.20000000E+01  0.00000000E+00
  6.50000000E+02  3.00000000E+01  0.00000000E+00
  6.50000000E+02  2.80000000E+01  0.00000000E+00
  6.50000000E+02  2.60000000E+01  0.00000000E+00
  6.50000000E+02  2.40000000E+01  0.00000000E+00
  6.50000000E+02  2.20000000E+01  0.00000000E+00
  6.50000000E+02  2.00000000E+01  0.00000000E+00
  6.50000000E+02  1.80000000E+01  0.00000000E+00
  6.50000000E+02  1.60000000E+01  0.00000000E+00
  6.50000000E+02  1.40000000E+01  0.00000000E+00
  6.50000000E+02  1.20000000E+01  0.00000000E+00
  6.50000000E+02  1.00000000E+01  0.00000000E+00
  6.50000000E+02  8.00000000E+00  0.00000000E+00
  6.50000000E+02  6.00000000E+00  0.00000000E+00
  6.50000000E+02  4.00000000E+00  0.00000000E+00
  6.50000000E+02  2.00000000E+00  0.00000000E+00
  6.50000000E+02 -3.33066907E-14  0.00000000E+00
  6.60000000E+02  1.00000000E+02  0.00000000E+00
  6.60000000E+02  9.80000000E+01  0.00000000E+00
  6.60000000E+02  9.60000000E+01  0.00000000E+00
  6.60000000E+02  9.40000000E+01  0.00000000E+00
  6.60000000E+02  9.20000000E+01  0.00000000E+00
  6.60000000E+02  9.00000000E+01  0.00000000E+00
  6.60000000E+02  8.80000000E+01  0.00000000E+00
  6.60000000E+02  8.60000000E+01  0.00000000E+00
  6.60000000E+02  8.40000000E+01  0.00000000E+00
  6.60000000E+02  8.20000000E+01  0.00000000E+00
  6.60000000E+02  8.00000000E+01  0.00000000E+00
  6.60000000E+02  7.80000000E+01  0.00000000E+00
  6.60000000E+02  7.60000000E+01  0.00000000E+00
  6.60000000E+02  7.40000000E+01  0.00000000E+00
  6.60000000E+02  7.20000000E+01  0.00000000E+00
  6.60000000E+02  7.00000000E+01  0.00000000E+00
  6.60000000E+02  6.80000000E+01  0.00000000E+00
  6.60000000E+02  6.60000000E+01  0.00000000E+00
  6.60000000E+02  6.40000000E+01  0.00000000E+00
  6.60000000E+02  6.20000000E+01  0.00000000E+00
  6.60000000E+02  6.00000000E+01  0.00000000E+00
  6.60000000E+02  5.80000000E+01  0.00000000E+00
  6.60000000E+02  5.60000000E+01  0.00000000E+00
  6.60000000E+02  5.40000000E+01  0.00000000E+00
  6.60000000E+02  5.20000000E+01  0.00000000E+00
  6.60000000E+02  5.00000000E+01  0.00000000E+00
  6.60000000E+02  4.80000000E+01  0.00000000E+00
  6.60000000E+02  4.60000000E+01  0.00000000E+00
  6.60000000E+02  4.40000000E+01  0.00000000E+00
  6.60000000E+02  4.20000000E+01  0.00000000E+00
  6.60000000E+02  4.00000000E+01  0.00000000E+00
  6.60000000E+02  3.80000000E+01  0.00000000E+00
  6.60000000E+02  3.60000000E+01  0.00000000E+00
  6.60000000E+02  3.40000000E+01  0.00000000E+00
  6.60000000E+02  3.20000000E+01  0.00000000E+00
  6.60000000E+02  3.00000000E+01  0.00000000E+00
  6.60000000E+02  2.80000000E+01  0.00000000E+00
  6.60000000E+02  2.60000000E+01  0.00000000E+00
  6.60000000E+02  2.40000000E+01  0.00000000E+00
  6.60000000E+02  2.20000000E+01  0.00000000E+00
  6.60000000E+02  2.00000000E+01  0.00000000E+00
  6.60000000E+02  1.80000000E+01  0.00000000E+00
  6.60000000E+02  1.60000000E+01  0.00000000E+00
  6.60000000E+02  1.40000000E+01  0.00000000E+00
  6.60000000E+02  1.20000000E+01  0.00000000E+00
  6.60000000E+02  1.00000000E+01  0.00000000E+00
  6.60000000E+02  8.00000000E+00  0.00000000E+00
  6.60000000E+02  6.00000000E+00  0.00000000E+00
  6.60000000E+02  4.00000000E+00  0.00000000E+00
  6.60000000E+02  2.00000000E+00  0.00000000E+00
  6.60000000E+02 -3.33066907E-14  0.00000000E+00
  6.70000000E+02  1.00000000E+02  0.00000000E+00
  6.70000000E+02  9.80000000E+01  0.00000000E+00
  6.70000000E+02  9.60000000E+01  0.00000000E+00
  6.70000000E+02  9.40000000E+01  0.00000000E+00
  6.70000000E+02  9.20000000E+01  0.00000000E+00
  6.70000000E+02  9.00000000E+01  0.00000000E+00
  6.70000000E+02  8.80000000E+01  0.00000000E+00
  6.70000000E+02  8.60000000E+01  0.00000000E+00
  6.70000000E+02  8.40000000E+01  0.00000000E+00
  6.70000000E+02  8.20000000E+01  0.00000000E+00
  6.70000000E+02  8.00000000E+01  0.00000000E+00
  6.70000000E+02  7.80000000E+01  0.00000000E+00
  6.70000000E+02  7.60000000E+01  0.00000000E+00
  6.70000000E+02  7.40000000E+01  0.00000000E+00
  6.70000000E+02  7.20000000E+01  0.00000000E+00
  6.70000000E+02  7.00000000E+01  0.00000000E+00
  6.70000000E+02  6.80000000E+01  0.00000000E+00
  6.70000000E+02  6.60000000E+01  0.00000000E+00
  6.70000000E+02  6.40000000E+01  0.00000000E+00
  6.70000000E+02  6.20000000E+01  0.00000000E+00
  6.70000000E+02  6.00000000E+01  0.00000000E+00
  6.70000000E+02  5.80000000E+01  0.00000000E+00
  6.70000000E+02  5.60000000E+01  0.00000000E+00
  6.70000000E+02  5.40000000E+01  0.00000000E+00
  6.70000000E+02  5.20000000E+01  0.00000000E+00
  6.70000000E+02  5.00000000E+01  0.00000000E+00
  6.70000000E+02  4.80000000E+01  0.00000000E+00
  6.70000000E+02  4.60000000E+01  0.00000000E+00
  6.70000000E+02  4.40000000E+01  0.00000000E+00
  6.70000000E+02  4.20000000E+01  0.00000000E+00
  6.70000000E+02  4.00000000E+01  0.00000000E+00
  6.70000000E+02  3.80000000E+01  0.00000000E+00
  6.70000000E+02  3.60000000E+01  0.00000000E+00
  6.70000000E+02  3.40000000E+01  0.00000000E+00
  6.70000000E+02  3.20000000E+01  0.00000000E+00
  6.70000000E+02  3.00000000E+01  0.00000000E+00
  6.70000000E+02  2.80000000E+01  0.00000000E+00
  6.70000000E+02  2.60000000E+01  0.00000000E+00
  6.70000000E+02  2.40000000E+01  0.00000000E+00
  6.70000000E+02  2.20000000E+01  0.00000000E+00
  6.70000000E+02  2.00000000E+01  0.00000000E+00
  6.70000000E+02  1.80000000E+01  0.00000000E+00
  6.70000000E+02  1.60000000E+01  0.00000000E+00
  6.70000000E+02  1.40000000E+01  0.00000000E+00
  6.70000000E+02  1.20000000E+01  0.00000000E+00
  6.70000000E+02  1.00000000E+01  0.00000000E+00
  6.70000000E+02  8.00000000E+00  0.00000000E+00
  6.70000000E+02  6.00000000E+00  0.00000000E+00
  6.70000000E+02  4.00000000E+00  0.00000000E+00
  6.70000000E+02  2.00000000E+00  0.00000000E+00
  6.70000000E+02 -3.33066907E-14  0.00000000E+00
  6.80000000E+02  1.00000000E+02  0.00000000E+00
  6.80000000E+02  9.80000000E+01  0.00000000E+00
  6.80000000E+02  9.60000000E+01  0.00000000E+00
  6.80000000E+02  9.40000000E+01  0.00000000E+00
  6.80000000E+02  9.20000000E+01  0.00000000E+00
  6.80000000E+02  9.00000000E+01  0.00000000E+00
  6.80000000E+02  8.80000000E+01  0.00000000E+00
  6.80000000E+02  8.60000000E+01  0.00000000E+00
  6.80000000E+02  8.40000000E+01  0.00000000E+00
  6.80000000E+02  8.20000000E+01  0.00000000E+00
  6.80000000E+02  8.00000000E+01  0.00000000E+00
  6.80000000E+02  7.80000000E+01  0.00000000E+00
  6.80000000E+02  7.60000000E+01  0.00000000E+00
  6.80000000E+02  7.40000000E+01  0.00000000E+00
  6.80000000E+02  7.20000000E+01  0.00000000E+00
  6.80000000E+02  7.00000000E+01  0.00000000E+00
  6.80000000E+02  6.80000000E+01  0.00000000E+00
  6.80000000E+02  6.60000000E+01  0.00000000E+00
  6.80000000E+02  6.40000000E+01  0.00000000E+00
  6.80000000E+02  6.20000000E+01  0.00000000E+00
  6.80000000E+02  6.00000000E+01  0.00000000E+00
  6.80000000E+02  5.80000000E+01  0.00000000E+00
  6.80000000E+02  5.60000000E+01  0.00000000E+00
  6.80000000E+02  5.40000000E+01  0.00000000E+00
  6.80000000E+02  5.20000000E+01  0.00000000E+00
  6.80000000E+02  5.00000000E+01  0.00000000E+00
  6.80000000E+02  4.80000000E+01  0.00000000E+00
  6.80000000E+02  4.60000000E+01  0.00000000E+00
  6.80000000E+02  4.40000000E+01  0.00000000E+00
  6.80000000E+02  4.20000000E+01  0.00000000E+00
  6.80000000E+02  4.00000000E+01  0.00000000E+00
  6.80000000E+02  3.80000000E+01  0.00000000E+00
  6.80000000E+02  3.60000000E+01  0.00000000E+00
  6.80000000E+02  3.40000000E+01  0.00000000E+00
  6.80000000E+02  3.20000000E+01  0.00000000E+00
  6.80000000E+02  3.00000000E+01  0.00000000E+00
  6.80000000E+02  2.80000000E+01  0.00000000E+00
  6.80000000E+02  2.60000000E+01  0.00000000E+00
  6.80000000E+02  2.40000000E+01  0.00000000E+00
  6.80000000E+02  2.20000000E+01  0.00000000E+00
  6.80000000E+02  2.00000000E+01  0.00000000E+00
  6.80000000E+02  1.80000000E+01  0.00000000E+00
  6.80000000E+02  1.60000000E+01  0.00000000E+00
  6.80000000E+02  1.40000000E+01  0.00000000E+00
  6.80000000E+02  1.20000000E+01  0.00000000E+00
  6.80000000E+02  1.00000000E+01  0.00000000E+00
  6.80000000E+02  8.00000000E+00  0.00000000E+00
  6.80000000E+02  6.00000000E+00  0.00000000E+00
  6.80000000E+02  4.00000000E+00  0.00000000E+00
  6.80000000E+02  2.00000000E+00  0.00000000E+00
  6.80000000E+02 -3.33066907E-14  0.00000000E+00
  6.90000000E+02  1.00000000E+02  0.00000000E+00
  6.90000000E+02  9.80000000E+01  0.00000000E+00
  6.90000000E+02  9.60000000E+01  0.00000000E+00
  6.90000000E+02  9.40000000E+01  0.00000000E+00
  6.90000000E+02  9.20000000E+01  0.00000000E+00
  6.90000000E+02  9.00000000E+01  0.00000000E+00
  6.90000000E+02  8.80000000E+01  0.00000000E+00
  6.90000000E+02  8.60000000E+01  0.00000000E+00
  6.90000000E+02  8.40000000E+01  0.00000000E+00
  6.90000000E+02  8.20000000E+01  0.00000000E+00
  6.90000000E+02  8.00000000E+01  0.00000000E+00
  6.90000000E+02  7.80000000E+01  0.00000000E+00
  6.90000000E+02  7.60000000E+01  0.00000000E+00
  6.90000000E+02  7.40000000E+01  0.00000000E+00
  6.90000000E+02  7.20000000E+01  0.00000000E+00
  6.90000000E+02  7.00000000E+01  0.00000000E+00
  6.90000000E+02  6.80000000E+01  0.00000000E+00
  6.90000000E+02  6.60000000E+01  0.00000000E+00
  6.90000000E+02  6.40000000E+01  0.00000000E+00
  6.90000000E+02  6.20000000E+01  0.00000000E+00
  6.90000000E+02  6.00000000E+01  0.00000000E+00
  6.90000000E+02  5.80000000E+01  0.00000000E+00
  6.90000000E+02  5.60000000E+01  0.00000000E+00
  6.90000000E+02  5.40000000E+01  0.00000000E+00
  6.90000000E+02  5.20000000E+01  0.00000000E+00
  6.90000000E+02  5.00000000E+01  0.00000000E+00
  6.90000000E+02  4.80000000E+01  0.00000000E+00
  6.90000000E+02  4.60000000E+01  0.00000000E+00
  6.90000000E+02  4.40000000E+01  0.00000000E+00
  6.90000000E+02  4.20000000E+01  0.00000000E+00
  6.90000000E+02  4.00000000E+01  0.00000000E+00
  6.90000000E+02  3.80000000E+01  0.00000000E+00
  6.90000000E+02  3.60000000E+01  0.00000000E+00
  6.90000000E+02  3.40000000E+01  0.00000000E+00
  6.90000000E+02  3.20000000E+01  0.00000000E+00
  6.90000000E+02  3.00000000E+01  0.00000000E+00
  6.90000000E+02  2.80000000E+01  0.00000000E+00
  6.90000000E+02  2.60000000E+01  0.00000000E+00
  6.90000000E+02  2.40000000E+01  0.00000000E+00
  6.90000000E+02  2.20000000E+01  0.00000000E+00
  6.90000000E+02  2.00000000E+01  0.00000000E+00
  6.90000000E+02  1.80000000E+01  0.00000000E+00
  6.90000000E+02  1.60000000E+01  0.00000000E+00
  6.90000000E+02  1.40000000E+01  0.00000000E+00
  6.90000000E+02  1.20000000E+01  0.00000000E+00
  6.90000000E+02  1.00000000E+01  0.00000000E+00
  6.90000000E+02  8.00000000E+00  0.00000000E+00
  6.90000000E+02  6.00000000E+00  0.00000000E+00
  6.90000000E+02  4.00000000E+00  0.00000000E+00
  6.90000000E+02  2.00000000E+00  0.00000000E+00
  6.90000000E+02 -3.33066907E-14  0.00000000E+00
  7.00000000E+02  1.00000000E+02  0.00000000E+00
  7.00000000E+02  9.80000000E+01  0.00000000E+00
  7.00000000E+02  9.60000000E+01  0.00000000E+00
  7.00000000E+02  9.40000000E+01  0.00000000E+00
  7.00000000E+02  9.20000000E+01  0.00000000E+00
  7.00000000E+02  9.00000000E+01  0.00000000E+00
  7.00000000E+02  8.80000000E+01  0.00000000E+00
  7.00000000E+02  8.60000000E+01  0.00000000E+00
  7.00000000E+02  8.40000000E+01  0.00000000E+00
  7.00000000E+02  8.20000000E+01  0.00000000E+00
  7.00000000E+02  8.00000000E+01  0.00000000E+00
  7.00000000E+02  7.80000000E+01  0.00000000E+00
  7.00000000E+02  7.60000000E+01  0.00000000E+00
  7.00000000E+02  7.40000000E+01  0.00000000E+00
  7.00000000E+02  7.20000000E+01  0.00000000E+00
  7.00000000E+02  7.00000000E+01  0.00000000E+00
  7.00000000E+02  6.80000000E+01  0.00000000E+00
  7.00000000E+02  6.60000000E+01  0.00000000E+00
  7.00000000E+02  6.40000000E+01  0.00000000E+00
  7.00000000E+02  6.20000000E+01  0.00000000E+00
  7.00000000E+02  6.00000000E+01  0.00000000E+00
  7.00000000E+02  5.80000000E+01  0.00000000E+00
  7.00000000E+02  5.60000000E+01  0.00000000E+00
  7.00000000E+02  5.40000000E+01  0.00000000E+00
  7.00000000E+02  5.20000000E+01  0.00000000E+00
  7.00000000E+02  5.00000000E+01  0.00000000E+00
  7.00000000E+02  4.80000000E+01  0.00000000E+00
  7.00000000E+02  4.60000000E+01  0.00000000E+00
  7.00000000E+02  4.40000000E+01  0.00000000E+00
  7.00000000E+02  4.20000000E+01  0.00000000E+00
  7.00000000E+02  4.00000000E+01  0.00000000E+00
  7.00000000E+02  3.80000000E+01  0.00000000E+00
  7.00000000E+02  3.60000000E+01  0.00000000E+00
  7.00000000E+02  3.40000000E+01  0.00000000E+00
  7.00000000E+02  3.20000000E+01  0.00000000E+00
  7.00000000E+02  3.00000000E+01  0.00000000E+00
  7.00000000E+02  2.80000000E+01  0.00000000E+00
  7.00000000E+02  2.60000000E+01  0.00000000E+00
  7.00000000E+02  2.40000000E+01  0.00000000E+00
  7.00000000E+02  2.20000000E+01  0.00000000E+00
  7.00000000E+02  2.00000000E+01  0.00000000E+00
  7.00000000E+02  1.80000000E+01  0.00000000E+00
  7.00000000E+02  1.60000000E+01  0.00000000E+00
  7.00000000E+02  1.40000000E+01  0.00000000E+00
  7.00000000E+02  1.20000000E+01  0.00000000E+00
  7.00000000E+02  1.00000000E+01  0.00000000E+00
  7.00000000E+02  8.00000000E+00  0.00000000E+00
  7.00000000E+02  6.00000000E+00  0.00000000E+00
  7.00000000E+02  4.00000000E+00  0.00000000E+00
  7.00000000E+02  2.00000000E+00  0.00000000E+00
  7.00000000E+02 -3.33066907E-14  0.00000000E+00
  7.10000000E+02  1.00000000E+02  0.00000000E+00
  7.10000000E+02  9.80000000E+01  0.00000000E+00
  7.10000000E+02  9.60000000E+01  0.00000000E+00
  7.10000000E+02  9.40000000E+01  0.00000000E+00
  7.10000000E+02  9.20000000E+01  0.00000000E+00
  7.10000000E+02  9.00000000E+01  0.00000000E+00
  7.10000000E+02  8.80000000E+01  0.00000000E+00
  7.10000000E+02  8.60000000E+01  0.00000000E+00
  7.10000000E+02  8.40000000E+01  0.00000000E+00
  7.10000000E+02  8.20000000E+01  0.00000000E+00
  7.10000000E+02  8.00000000E+01  0.00000000E+00
  7.10000000E+02  7.80000000E+01  0.00000000E+00
  7.10000000E+02  7.60000000E+01  0.00000000E+00
  7.10000000E+02  7.40000000E+01  0.00000000E+00
  7.10000000E+02  7.20000000E+01  0.00000000E+00
  7.10000000E+02  7.00000000E+01  0.00000000E+00
  7.10000000E+02  6.80000000E+01  0.00000000E+00
  7.10000000E+02  6.60000000E+01  0.00000000E+00
  7.10000000E+02  6.40000000E+01  0.00000000E+00
  7.10000000E+02  6.20000000E+01  0.00000000E+00
  7.10000000E+02  6.00000000E+01  0.00000000E+00
  7.10000000E+02  5.80000000E+01  0.00000000E+00
  7.10000000E+02  5.60000000E+01  0.00000000E+00
  7.10000000E+02  5.40000000E+01  0.00000000E+00
  7.10000000E+02  5.20000000E+01  0.00000000E+00
  7.10000000E+02  5.00000000E+01  0.00000000E+00
  7.10000000E+02  4.80000000E+01  0.00000000E+00
  7.10000000E+02  4.60000000E+01  0.00000000E+00
  7.10000000E+02  4.40000000E+01  0.00000000E+00
  7.10000000E+02  4.20000000E+01  0.00000000E+00
  7.10000000E+02  4.00000000E+01  0.00000000E+00
  7.10000000E+02  3.80000000E+01  0.00000000E+00
  7.10000000E+02  3.60000000E+01  0.00000000E+00
  7.10000000E+02  3.40000000E+01  0.00000000E+00
  7.10000000E+02  3.20000000E+01  0.00000000E+00
  7.10000000E+02  3.00000000E+01  0.00000000E+00
  7.10000000E+02  2.80000000E+01  0.00000000E+00
  7.10000000E+02  2.60000000E+01  0.00000000E+00
  7.10000000E+02  2.40000000E+01  0.00000000E+00
  7.10000000E+02  2.20000000E+01  0.00000000E+00
  7.10000000E+02  2.00000000E+01  0.00000000E+00
  7.10000000E+02  1.80000000E+01  0.00000000E+00
  7.10000000E+02  1.60000000E+01  0.00000000E+00
  7.10000000E+02  1.40000000E+01  0.00000000E+00
  7.10000000E+02  1.20000000E+01  0.00000000E+00
  7.10000000E+02  1.00000000E+01  0.00000000E+00
  7.10000000E+02  8.00000000E+00  0.00000000E+00
  7.10000000E+02  6.00000000E+00  0.00000000E+00
  7.10000000E+02  4.00000000E+00  0.00000000E+00
  7.10000000E+02  2.00000000E+00  0.00000000E+00
  7.10000000E+02 -3.33066907E-14  0.00000000E+00
  7.20000000E+02  1.00000000E+02  0.00000000E+00
  7.20000000E+02  9.80000000E+01  0.00000000E+00
  7.20000000E+02  9.60000000E+01  0.00000000E+00
  7.20000000E+02  9.40000000E+01  0.00000000E+00
  7.20000000E+02  9.20000000E+01  0.00000000E+00
  7.20000000E+02  9.00000000E+01  0.00000000E+00
  7.20000000E+02  8.80000000E+01  0.00000000E+00
  7.20000000E+02  8.60000000E+01  0.00000000E+00
  7.20000000E+02  8.40000000E+01  0.00000000E+00
  7.20000000E+02  8.20000000E+01  0.00000000E+00
  7.20000000E+02  8.00000000E+01  0.00000000E+00
  7.20000000E+02  7.80000000E+01  0.00000000E+00
  7.20000000E+02  7.60000000E+01  0.00000000E+00
  7.20000000E+02  7.40000000E+01  0.00000000E+00
  7.20000000E+02  7.20000000E+01  0.00000000E+00
  7.20000000E+02  7.00000000E+01  0.00000000E+00
  7.20000000E+02  6.80000000E+01  0.00000000E+00
  7.20000000E+02  6.60000000E+01  0.00000000E+00
  7.20000000E+02  6.40000000E+01  0.00000000E+00
  7.20000000E+02  6.20000000E+01  0.00000000E+00
  7.20000000E+02  6.00000000E+01  0.00000000E+00
  7.20000000E+02  5.80000000E+01  0.00000000E+00
  7.20000000E+02  5.60000000E+01  0.00000000E+00
  7.20000000E+02  5.40000000E+01  0.00000000E+00
  7.20000000E+02  5.20000000E+01  0.00000000E+00
  7.20000000E+02  5.00000000E+01  0.00000000E+00
  7.20000000E+02  4.80000000E+01  0.00000000E+00
  7.20000000E+02  4.60000000E+01  0.00000000E+00
  7.20000000E+02  4.40000000E+01  0.00000000E+00
  7.20000000E+02  4.20000000E+01  0.00000000E+00
  7.20000000E+02  4.00000000E+01  0.00000000E+00
  7.20000000E+02  3.80000000E+01  0.00000000E+00
  7.20000000E+02  3.60000000E+01  0.00000000E+00
  7.20000000E+02  3.40000000E+01  0.00000000E+00
  7.20000000E+02  3.20000000E+01  0.00000000E+00
  7.20000000E+02  3.00000000E+01  0.00000000E+00
  7.20000000E+02  2.80000000E+01  0.00000000E+00
  7.20000000E+02  2.60000000E+01  0.00000000E+00
  7.20000000E+02  2.40000000E+01  0.00000000E+00
  7.20000000E+02  2.20000000E+01  0.00000000E+00
  7.20000000E+02  2.00000000E+01  0.00000000E+00
  7.20000000E+02  1.80000000E+01  0.00000000E+00
  7.20000000E+02  1.60000000E+01  0.00000000E+00
  7.20000000E+02  1.40000000E+01  0.00000000E+00
  7.20000000E+02  1.20000000E+01  0.00000000E+00
  7.20000000E+02  1.00000000E+01  0.00000000E+00
  7.20000000E+02  8.00000000E+00  0.00000000E+00
  7.20000000E+02  6.00000000E+00  0.00000000E+00
  7.20000000E+02  4.00000000E+00  0.00000000E+00
  7.20000000E+02  2.00000000E+00  0.00000000E+00
  7.20000000E+02 -3.33066907E-14  0.00000000E+00
  7.30000000E+02  1.00000000E+02  0.00000000E+00
  7.30000000E+02  9.80000000E+01  0.00000000E+00
  7.30000000E+02  9.60000000E+01  0.00000000E+00
  7.30000000E+02  9.40000000E+01  0.00000000E+00
  7.30000000E+02  9.20000000E+01  0.00000000E+00
  7.30000000E+02  9.00000000E+01  0.00000000E+00
  7.30000000E+02  8.80000000E+01  0.00000000E+00
  7.30000000E+02  8.60000000E+01  0.00000000E+00
  7.30000000E+02  8.40000000E+01  0.00000000E+00
  7.30000000E+02  8.20000000E+01  0.00000000E+00
  7.30000000E+02  8.00000000E+01  0.00000000E+00
  7.30000000E+02  7.80000000E+01  0.00000000E+00
  7.30000000E+02  7.60000000E+01  0.00000000E+00
  7.30000000E+02  7.40000000E+01  0.00000000E+00
  7.30000000E+02  7.20000000E+01  0.00000000E+00
  7.30000000E+02  7.00000000E+01  0.00000000E+00
  7.30000000E+02  6.80000000E+01  0.00000000E+00
  7.30000000E+02  6.60000000E+01  0.00000000E+00
  7.30000000E+02  6.40000000E+01  0.00000000E+00
  7.30000000E+02  6.20000000E+01  0.00000000E+00
  7.30000000E+02  6.00000000E+01  0.00000000E+00
  7.30000000E+02  5.80000000E+01  0.00000000E+00
  7.30000000E+02  5.60000000E+01  0.00000000E+00
  7.30000000E+02  5.40000000E+01  0.00000000E+00
  7.30000000E+02  5.20000000E+01  0.00000000E+00
  7.30000000E+02  5.00000000E+01  0.00000000E+00
  7.30000000E+02  4.80000000E+01  0.00000000E+00
  7.30000000E+02  4.60000000E+01  0.00000000E+00
  7.30000000E+02  4.40000000E+01  0.00000000E+00
  7.30000000E+02  4.20000000E+01  0.00000000E+00
  7.30000000E+02  4.00000000E+01  0.00000000E+00
  7.30000000E+02  3.80000000E+01  0.00000000E+00
  7.30000000E+02  3.60000000E+01  0.00000000E+00
  7.30000000E+02  3.40000000E+01  0.00000000E+00
  7.30000000E+02  3.20000000E+01  0.00000000E+00
  7.30000000E+02  3.00000000E+01  0.00000000E+00
  7.30000000E+02  2.80000000E+01  0.00000000E+00
  7.30000000E+02  2.60000000E+01  0.00000000E+00
  7.30000000E+02  2.40000000E+01  0.00000000E+00
  7.30000000E+02  2.20000000E+01  0.00000000E+00
  7.30000000E+02  2.00000000E+01  0.00000000E+00
  7.30000000E+02  1.80000000E+01  0.00000000E+00
  7.30000000E+02  1.60000000E+01  0.00000000E+00
  7.30000000E+02  1.40000000E+01  0.00000000E+00
  7.30000000E+02  1.20000000E+01  0.00000000E+00
  7.30000000E+02  1.00000000E+01  0.00000000E+00
  7.30000000E+02  8.00000000E+00  0.00000000E+00
  7.30000000E+02  6.00000000E+00  0.00000000E+00
  7.30000000E+02  4.00000000E+00  0.00000000E+00
  7.30000000E+02  2.00000000E+00  0.00000000E+00
  7.30000000E+02 -3.33066907E-14  0.00000000E+00
  7.40000000E+02  1.00000000E+02  0.00000000E+00
  7.40000000E+02  9.80000000E+01  0.00000000E+00
  7.40000000E+02  9.60000000E+01  0.00000000E+00
  7.40000000E+02  9.40000000E+01  0.00000000E+00
  7.40000000E+02  9.20000000E+01  0.00000000E+00
  7.40000000E+02  9.00000000E+01  0.00000000E+00
  7.40000000E+02  8.80000000E+01  0.00000000E+00
  7.40000000E+02  8.60000000E+01  0.00000000E+00
  7.40000000E+02  8.40000000E+01  0.00000000E+00
  7.40000000E+02  8.20000000E+01  0.00000000E+00
  7.40000000E+02  8.00000000E+01  0.00000000E+00
  7.40000000E+02  7.80000000E+01  0.00000000E+00
  7.40000000E+02  7.60000000E+01  0.00000000E+00
  7.40000000E+02  7.40000000E+01  0.00000000E+00
  7.40000000E+02  7.20000000E+01  0.00000000E+00
  7.40000000E+02  7.00000000E+01  0.00000000E+00
  7.40000000E+02  6.80000000E+01  0.00000000E+00
  7.40000000E+02  6.60000000E+01  0.00000000E+00
  7.40000000E+02  6.40000000E+01  0.00000000E+00
  7.40000000E+02  6.20000000E+01  0.00000000E+00
  7.40000000E+02  6.00000000E+01  0.00000000E+00
  7.40000000E+02  5.80000000E+01  0.00000000E+00
  7.40000000E+02  5.60000000E+01  0.00000000E+00
  7.40000000E+02  5.40000000E+01  0.00000000E+00
  7.40000000E+02  5.20000000E+01  0.00000000E+00
  7.40000000E+02  5.00000000E+01  0.00000000E+00
  7.40000000E+02  4.80000000E+01  0.00000000E+00
  7.40000000E+02  4.60000000E+01  0.00000000E+00
  7.40000000E+02  4.40000000E+01  0.00000000E+00
  7.40000000E+02  4.20000000E+01  0.00000000E+00
  7.40000000E+02  4.00000000E+01  0.00000000E+00
  7.40000000E+02  3.80000000E+01  0.00000000E+00
  7.40000000E+02  3.60000000E+01  0.00000000E+00
  7.40000000E+02  3.40000000E+01  0.00000000E+00
  7.40000000E+02  3.20000000E+01  0.00000000E+00
  7.40000000E+02  3.00000000E+01  0.00000000E+00
  7.40000000E+02  2.80000000E+01  0.00000000E+00
  7.40000000E+02  2.60000000E+01  0.00000000E+00
  7.40000000E+02  2.40000000E+01  0.00000000E+00
  7.40000000E+02  2.20000000E+01  0.00000000E+00
  7.40000000E+02  2.00000000E+01  0.00000000E+00
  7.40000000E+02  1.80000000E+01  0.00000000E+00
  7.40000000E+02  1.60000000E+01  0.00000000E+00
  7.40000000E+02  1.40000000E+01  0.00000000E+00
  7.40000000E+02  1.20000000E+01  0.00000000E+00
  7.40000000E+02  1.00000000E+01  0.00000000E+00
  7.40000000E+02  8.00000000E+00  0.00000000E+00
  7.40000000E+02  6.00000000E+00  0.00000000E+00
  7.40000000E+02  4.00000000E+00  0.00000000E+00
  7.40000000E+02  2.00000000E+00  0.00000000E+00
  7.40000000E+02 -3.33066907E-14  0.00000000E+00
  7.50000000E+02  1.00000000E+02  0.00000000E+00
  7.50000000E+02  9.80000000E+01  0.00000000E+00
  7.50000000E+02  9.60000000E+01  0.00000000E+00
  7.50000000E+02  9.40000000E+01  0.00000000E+00
  7.50000000E+02  9.20000000E+01  0.00000000E+00
  7.50000000E+02  9.00000000E+01  0.00000000E+00
  7.50000000E+02  8.80000000E+01  0.00000000E+00
  7.50000000E+02  8.60000000E+01  0.00000000E+00
  7.50000000E+02  8.40000000E+01  0.00000000E+00
  7.50000000E+02  8.20000000E+01  0.00000000E+00
  7.50000000E+02  8.00000000E+01  0.00000000E+00
  7.50000000E+02  7.80000000E+01  0.00000000E+00
  7.50000000E+02  7.60000000E+01  0.00000000E+00
  7.50000000E+02  7.40000000E+01  0.00000000E+00
  7.50000000E+02  7.20000000E+01  0.00000000E+00
  7.50000000E+02  7.00000000E+01  0.00000000E+00
  7.50000000E+02  6.80000000E+01  0.00000000E+00
  7.50000000E+02  6.60000000E+01  0.00000000E+00
  7.50000000E+02  6.40000000E+01  0.00000000E+00
  7.50000000E+02  6.20000000E+01  0.00000000E+00
  7.50000000E+02  6.00000000E+01  0.00000000E+00
  7.50000000E+02  5.80000000E+01  0.00000000E+00
  7.50000000E+02  5.60000000E+01  0.00000000E+00
  7.50000000E+02  5.40000000E+01  0.00000000E+00
  7.50000000E+02  5.20000000E+01  0.00000000E+00
  7.50000000E+02  5.00000000E+01  0.00000000E+00
  7.50000000E+02  4.80000000E+01  0.00000000E+00
  7.50000000E+02  4.60000000E+01  0.00000000E+00
  7.50000000E+02  4.40000000E+01  0.00000000E+00
  7.50000000E+02  4.20000000E+01  0.00000000E+00
  7.50000000E+02  4.00000000E+01  0.00000000E+00
  7.50000000E+02  3.80000000E+01  0.00000000E+00
  7.50000000E+02  3.60000000E+01  0.00000000E+00
  7.50000000E+02  3.40000000E+01  0.00000000E+00
  7.50000000E+02  3.20000000E+01  0.00000000E+00
  7.50000000E+02  3.00000000E+01  0.00000000E+00
  7.50000000E+02  2.80000000E+01  0.00000000E+00
  7.50000000E+02  2.60000000E+01  0.00000000E+00
  7.50000000E+02  2.40000000E+01  0.00000000E+00
  7.50000000E+02  2.20000000E+01  0.00000000E+00
  7.50000000E+02  2.00000000E+01  0.00000000E+00
  7.50000000E+02  1.80000000E+01  0.00000000E+00
  7.50000000E+02  1.60000000E+01  0.00000000E+00
  7.50000000E+02  1.40000000E+01  0.00000000E+00
  7.50000000E+02  1.20000000E+01  0.00000000E+00
  7.50000000E+02  1.00000000E+01  0.00000000E+00
  7.50000000E+02  8.00000000E+00  0.00000000E+00
  7.50000000E+02  6.00000000E+00  0.00000000E+00
  7.50000000E+02  4.00000000E+00  0.00000000E+00
  7.50000000E+02  2.00000000E+00  0.00000000E+00
  7.50000000E+02 -3.33066907E-14  0.00000000E+00
  7.60000000E+02  1.00000000E+02  0.00000000E+00
  7.60000000E+02  9.80000000E+01  0.00000000E+00
  7.60000000E+02  9.60000000E+01  0.00000000E+00
  7.60000000E+02  9.40000000E+01  0.00000000E+00
  7.60000000E+02  9.20000000E+01  0.00000000E+00
  7.60000000E+02  9.00000000E+01  0.00000000E+00
  7.60000000E+02  8.80000000E+01  0.00000000E+00
  7.60000000E+02  8.60000000E+01  0.00000000E+00
  7.60000000E+02  8.40000000E+01  0.00000000E+00
  7.60000000E+02  8.20000000E+01  0.00000000E+00
  7.60000000E+02  8.00000000E+01  0.00000000E+00
  7.60000000E+02  7.80000000E+01  0.00000000E+00
  7.60000000E+02  7.60000000E+01  0.00000000E+00
  7.60000000E+02  7.40000000E+01  0.00000000E+00
  7.60000000E+02  7.20000000E+01  0.00000000E+00
  7.60000000E+02  7.00000000E+01  0.00000000E+00
  7.60000000E+02  6.80000000E+01  0.00000000E+00
  7.60000000E+02  6.60000000E+01  0.00000000E+00
  7.60000000E+02  6.40000000E+01  0.00000000E+00
  7.60000000E+02  6.20000000E+01  0.00000000E+00
  7.60000000E+02  6.00000000E+01  0.00000000E+00
  7.60000000E+02  5.80000000E+01  0.00000000E+00
  7.60000000E+02  5.60000000E+01  0.00000000E+00
  7.60000000E+02  5.40000000E+01  0.00000000E+00
  7.60000000E+02  5.20000000E+01  0.00000000E+00
  7.60000000E+02  5.00000000E+01  0.00000000E+00
  7.60000000E+02  4.80000000E+01  0.00000000E+00
  7.60000000E+02  4.60000000E+01  0.00000000E+00
  7.60000000E+02  4.40000000E+01  0.00000000E+00
  7.60000000E+02  4.20000000E+01  0.00000000E+00
  7.60000000E+02  4.00000000E+01  0.00000000E+00
  7.60000000E+02  3.80000000E+01  0.00000000E+00
  7.60000000E+02  3.60000000E+01  0.00000000E+00
  7.60000000E+02  3.40000000E+01  0.00000000E+00
  7.60000000E+02  3.20000000E+01  0.00000000E+00
  7.60000000E+02  3.00000000E+01  0.00000000E+00
  7.60000000E+02  2.80000000E+01  0.00000000E+00
  7.60000000E+02  2.60000000E+01  0.00000000E+00
  7.60000000E+02  2.40000000E+01  0.00000000E+00
  7.60000000E+02  2.20000000E+01  0.00000000E+00
  7.60000000E+02  2.00000000E+01  0.00000000E+00
  7.60000000E+02  1.80000000E+01  0.00000000E+00
  7.60000000E+02  1.60000000E+01  0.00000000E+00
  7.60000000E+02  1.40000000E+01  0.00000000E+00
  7.60000000E+02  1.20000000E+01  0.00000000E+00
  7.60000000E+02  1.00000000E+01  0.00000000E+00
  7.60000000E+02  8.00000000E+00  0.00000000E+00
  7.60000000E+02  6.00000000E+00  0.00000000E+00
  7.60000000E+02  4.00000000E+00  0.00000000E+00
  7.60000000E+02  2.00000000E+00  0.00000000E+00
  7.60000000E+02 -3.33066907E-14  0.00000000E+00
  7.70000000E+02  1.00000000E+02  0.00000000E+00
  7.70000000E+02  9.80000000E+01  0.00000000E+00
  7.70000000E+02  9.60000000E+01  0.00000000E+00
  7.70000000E+02  9.40000000E+01  0.00000000E+00
  7.70000000E+02  9.20000000E+01  0.00000000E+00
  7.70000000E+02  9.00000000E+01  0.00000000E+00
  7.70000000E+02  8.80000000E+01  0.00000000E+00
  7.70000000E+02  8.60000000E+01  0.00000000E+00
  7.70000000E+02  8.40000000E+01  0.00000000E+00
  7.70000000E+02  8.20000000E+01  0.00000000E+00
  7.70000000E+02  8.00000000E+01  0.00000000E+00
  7.70000000E+02  7.80000000E+01  0.00000000E+00
  7.70000000E+02  7.60000000E+01  0.00000000E+00
  7.70000000E+02  7.40000000E+01  0.00000000E+00
  7.70000000E+02  7.20000000E+01  0.00000000E+00
  7.70000000E+02  7.00000000E+01  0.00000000E+00
  7.70000000E+02  6.80000000E+01  0.00000000E+00
  7.70000000E+02  6.60000000E+01  0.00000000E+00
  7.70000000E+02  6.40000000E+01  0.00000000E+00
  7.70000000E+02  6.20000000E+01  0.00000000E+00
  7.70000000E+02  6.00000000E+01  0.00000000E+00
  7.70000000E+02  5.80000000E+01  0.00000000E+00
  7.70000000E+02  5.60000000E+01  0.00000000E+00
  7.70000000E+02  5.40000000E+01  0.00000000E+00
  7.70000000E+02  5.20000000E+01  0.00000000E+00
  7.70000000E+02  5.00000000E+01  0.00000000E+00
  7.70000000E+02  4.80000000E+01  0.00000000E+00
  7.70000000E+02  4.60000000E+01  0.00000000E+00
  7.70000000E+02  4.40000000E+01  0.00000000E+00
  7.70000000E+02  4.20000000E+01  0.00000000E+00
  7.70000000E+02  4.00000000E+01  0.00000000E+00
  7.70000000E+02  3.80000000E+01  0.00000000E+00
  7.70000000E+02  3.60000000E+01  0.00000000E+00
  7.70000000E+02  3.40000000E+01  0.00000000E+00
  7.70000000E+02  3.20000000E+01  0.00000000E+00
  7.70000000E+02  3.00000000E+01  0.00000000E+00
  7.70000000E+02  2.80000000E+01  0.00000000E+00
  7.70000000E+02  2.60000000E+01  0.00000000E+00
  7.70000000E+02  2.40000000E+01  0.00000000E+00
  7.70000000E+02  2.20000000E+01  0.00000000E+00
  7.70000000E+02  2.00000000E+01  0.00000000E+00
  7.70000000E+02  1.80000000E+01  0.00000000E+00
  7.70000000E+02  1.60000000E+01  0.00000000E+00
  7.70000000E+02  1.40000000E+01  0.00000000E+00
  7.70000000E+02  1.20000000E+01  0.00000000E+00
  7.70000000E+02  1.00000000E+01  0.00000000E+00
  7.70000000E+02  8.00000000E+00  0.00000000E+00
  7.70000000E+02  6.00000000E+00  0.00000000E+00
  7.70000000E+02  4.00000000E+00  0.00000000E+00
  7.70000000E+02  2.00000000E+00  0.00000000E+00
  7.70000000E+02 -3.33066907E-14  0.00000000E+00
  7.80000000E+02  1.00000000E+02  0.00000000E+00
  7.80000000E+02  9.80000000E+01  0.00000000E+00
  7.80000000E+02  9.60000000E+01  0.00000000E+00
  7.80000000E+02  9.40000000E+01  0.00000000E+00
  7.80000000E+02  9.20000000E+01  0.00000000E+00
  7.80000000E+02  9.00000000E+01  0.00000000E+00
  7.80000000E+02  8.80000000E+01  0.00000000E+00
  7.80000000E+02  8.60000000E+01  0.00000000E+00
  7.80000000E+02  8.40000000E+01  0.00000000E+00
  7.80000000E+02  8.20000000E+01  0.00000000E+00
  7.80000000E+02  8.00000000E+01  0.00000000E+00
  7.80000000E+02  7.80000000E+01  0.00000000E+00
  7.80000000E+02  7.60000000E+01  0.00000000E+00
  7.80000000E+02  7.40000000E+01  0.00000000E+00
  7.80000000E+02  7.20000000E+01  0.00000000E+00
  7.80000000E+02  7.00000000E+01  0.00000000E+00
  7.80000000E+02  6.80000000E+01  0.00000000E+00
  7.80000000E+02  6.60000000E+01  0.00000000E+00
  7.80000000E+02  6.40000000E+01  0.00000000E+00
  7.80000000E+02  6.20000000E+01  0.00000000E+00
  7.80000000E+02  6.00000000E+01  0.00000000E+00
  7.80000000E+02  5.80000000E+01  0.00000000E+00
  7.80000000E+02  5.60000000E+01  0.00000000E+00
  7.80000000E+02  5.40000000E+01  0.00000000E+00
  7.80000000E+02  5.20000000E+01  0.00000000E+00
  7.80000000E+02  5.00000000E+01  0.00000000E+00
  7.80000000E+02  4.80000000E+01  0.00000000E+00
  7.80000000E+02  4.60000000E+01  0.00000000E+00
  7.80000000E+02  4.40000000E+01  0.00000000E+00
  7.80000000E+02  4.20000000E+01  0.00000000E+00
  7.80000000E+02  4.00000000E+01  0.00000000E+00
  7.80000000E+02  3.80000000E+01  0.00000000E+00
  7.80000000E+02  3.60000000E+01  0.00000000E+00
  7.80000000E+02  3.40000000E+01  0.00000000E+00
  7.80000000E+02  3.20000000E+01  0.00000000E+00
  7.80000000E+02  3.00000000E+01  0.00000000E+00
  7.80000000E+02  2.80000000E+01  0.00000000E+00
  7.80000000E+02  2.60000000E+01  0.00000000E+00
  7.80000000E+02  2.40000000E+01  0.00000000E+00
  7.80000000E+02  2.20000000E+01  0.00000000E+00
  7.80000000E+02  2.00000000E+01  0.00000000E+00
  7.80000000E+02  1.80000000E+01  0.00000000E+00
  7.80000000E+02  1.60000000E+01  0.00000000E+00
  7.80000000E+02  1.40000000E+01  0.00000000E+00
  7.80000000E+02  1.20000000E+01  0.00000000E+00
  7.80000000E+02  1.00000000E+01  0.00000000E+00
  7.80000000E+02  8.00000000E+00  0.00000000E+00
  7.80000000E+02  6.00000000E+00  0.00000000E+00
  7.80000000E+02  4.00000000E+00  0.00000000E+00
  7.80000000E+02  2.00000000E+00  0.00000000E+00
  7.80000000E+02 -3.33066907E-14  0.00000000E+00
  7.90000000E+02  1.00000000E+02  0.00000000E+00
  7.90000000E+02  9.80000000E+01  0.00000000E+00
  7.90000000E+02  9.60000000E+01  0.00000000E+00
  7.90000000E+02  9.40000000E+01  0.00000000E+00
  7.90000000E+02  9.20000000E+01  0.00000000E+00
  7.90000000E+02  9.00000000E+01  0.00000000E+00
  7.90000000E+02  8.80000000E+01  0.00000000E+00
  7.90000000E+02  8.60000000E+01  0.00000000E+00
  7.90000000E+02  8.40000000E+01  0.00000000E+00
  7.90000000E+02  8.20000000E+01  0.00000000E+00
  7.90000000E+02  8.00000000E+01  0.00000000E+00
  7.90000000E+02  7.80000000E+01  0.00000000E+00
  7.90000000E+02  7.60000000E+01  0.00000000E+00
  7.90000000E+02  7.40000000E+01  0.00000000E+00
  7.90000000E+02  7.20000000E+01  0.00000000E+00
  7.90000000E+02  7.00000000E+01  0.00000000E+00
  7.90000000E+02  6.80000000E+01  0.00000000E+00
  7.90000000E+02  6.60000000E+01  0.00000000E+00
  7.90000000E+02  6.40000000E+01  0.00000000E+00
  7.90000000E+02  6.20000000E+01  0.00000000E+00
  7.90000000E+02  6.00000000E+01  0.00000000E+00
  7.90000000E+02  5.80000000E+01  0.00000000E+00
  7.90000000E+02  5.60000000E+01  0.00000000E+00
  7.90000000E+02  5.40000000E+01  0.00000000E+00
  7.90000000E+02  5.20000000E+01  0.00000000E+00
  7.90000000E+02  5.00000000E+01  0.00000000E+00
  7.90000000E+02  4.80000000E+01  0.00000000E+00
  7.90000000E+02  4.60000000E+01  0.00000000E+00
  7.90000000E+02  4.40000000E+01  0.00000000E+00
  7.90000000E+02  4.20000000E+01  0.00000000E+00
  7.90000000E+02  4.00000000E+01  0.00000000E+00
  7.90000000E+02  3.80000000E+01  0.00000000E+00
  7.90000000E+02  3.60000000E+01  0.00000000E+00
  7.90000000E+02  3.40000000E+01  0.00000000E+00
  7.90000000E+02  3.20000000E+01  0.00000000E+00
  7.90000000E+02  3.00000000E+01  0.00000000E+00
  7.90000000E+02  2.80000000E+01  0.00000000E+00
  7.90000000E+02  2.60000000E+01  0.00000000E+00
  7.90000000E+02  2.40000000E+01  0.00000000E+00
  7.90000000E+02  2.20000000E+01  0.00000000E+00
  7.90000000E+02  2.00000000E+01  0.00000000E+00
  7.90000000E+02  1.80000000E+01  0.00000000E+00
  7.90000000E+02  1.60000000E+01  0.00000000E+00
  7.90000000E+02  1.40000000E+01  0.00000000E+00
  7.90000000E+02  1.20000000E+01  0.00000000E+00
  7.90000000E+02  1.00000000E+01  0.00000000E+00
  7.90000000E+02  8.00000000E+00  0.00000000E+00
  7.90000000E+02  6.00000000E+00  0.00000000E+00
  7.90000000E+02  4.00000000E+00  0.00000000E+00
  7.90000000E+02  2.00000000E+00  0.00000000E+00
  7.90000000E+02 -3.33066907E-14  0.00000000E+00
  8.00000000E+02  1.00000000E+02  0.00000000E+00
  8.00000000E+02  9.80000000E+01  0.00000000E+00
  8.00000000E+02  9.60000000E+01  0.00000000E+00
  8.00000000E+02  9.40000000E+01  0.00000000E+00
  8.00000000E+02  9.20000000E+01  0.00000000E+00
  8.00000000E+02  9.00000000E+01  0.00000000E+00
  8.00000000E+02  8.80000000E+01  0.00000000E+00
  8.00000000E+02  8.60000000E+01  0.00000000E+00
  8.00000000E+02  8.40000000E+01  0.00000000E+00
  8.00000000E+02  8.20000000E+01  0.00000000E+00
  8.00000000E+02  8.00000000E+01  0.00000000E+00
  8.00000000E+02  7.80000000E+01  0.00000000E+00
  8.00000000E+02  7.60000000E+01  0.00000000E+00
  8.00000000E+02  7.40000000E+01  0.00000000E+00
  8.00000000E+02  7.20000000E+01  0.00000000E+00
  8.00000000E+02  7.00000000E+01  0.00000000E+00
  8.00000000E+02  6.80000000E+01  0.00000000E+00
  8.00000000E+02  6.60000000E+01  0.00000000E+00
  8.00000000E+02  6.40000000E+01  0.00000000E+00
  8.00000000E+02  6.20000000E+01  0.00000000E+00
  8.00000000E+02  6.00000000E+01  0.00000000E+00
  8.00000000E+02  5.80000000E+01  0.00000000E+00
  8.00000000E+02  5.60000000E+01  0.00000000E+00
  8.00000000E+02  5.40000000E+01  0.00000000E+00
  8.00000000E+02  5.20000000E+01  0.00000000E+00
  8.00000000E+02  5.00000000E+01  0.00000000E+00
  8.00000000E+02  4.80000000E+01  0.00000000E+00
  8.00000000E+02  4.60000000E+01  0.00000000E+00
  8.00000000E+02  4.40000000E+01  0.00000000E+00
  8.00000000E+02  4.20000000E+01  0.00000000E+00
  8.00000000E+02  4.00000000E+01  0.00000000E+00
  8.00000000E+02  3.80000000E+01  0.00000000E+00
  8.00000000E+02  3.60000000E+01  0.00000000E+00
  8.00000000E+02  3.40000000E+01  0.00000000E+00
  8.00000000E+02  3.20000000E+01  0.00000000E+00
  8.00000000E+02  3.00000000E+01  0.00000000E+00
  8.00000000E+02  2.80000000E+01  0.00000000E+00
  8.00000000E+02  2.60000000E+01  0.00000000E+00
  8.00000000E+02  2.40000000E+01  0.00000000E+00
  8.00000000E+02  2.20000000E+01  0.00000000E+00
  8.00000000E+02  2.00000000E+01  0.00000000E+00
  8.00000000E+02  1.80000000E+01  0.00000000E+00
  8.00000000E+02  1.60000000E+01  0.00000000E+00
  8.00000000E+02  1.40000000E+01  0.00000000E+00
  8.00000000E+02  1.20000000E+01  0.00000000E+00
  8.00000000E+02  1.00000000E+01  0.00000000E+00
  8.00000000E+02  8.00000000E+00  0.00000000E+00
  8.00000000E+02  6.00000000E+00  0.00000000E+00
  8.00000000E+02  4.00000000E+00  0.00000000E+00
  8.00000000E+02  2.00000000E+00  0.00000000E+00
  8.00000000E+02 -3.33066907E-14  0.00000000E+00
  8.10000000E+02  1.00000000E+02  0.00000000E+00
  8.10000000E+02  9.80000000E+01  0.00000000E+00
  8.10000000E+02  9.60000000E+01  0.00000000E+00
  8.10000000E+02  9.40000000E+01  0.00000000E+00
  8.10000000E+02  9.20000000E+01  0.00000000E+00
  8.10000000E+02  9.00000000E+01  0.00000000E+00
  8.10000000E+02  8.80000000E+01  0.00000000E+00
  8.10000000E+02  8.60000000E+01  0.00000000E+00
  8.10000000E+02  8.40000000E+01  0.00000000E+00
  8.10000000E+02  8.20000000E+01  0.00000000E+00
  8.10000000E+02  8.00000000E+01  0.00000000E+00
  8.10000000E+02  7.80000000E+01  0.00000000E+00
  8.10000000E+02  7.60000000E+01  0.00000000E+00
  8.10000000E+02  7.40000000E+01  0.00000000E+00
  8.10000000E+02  7.20000000E+01  0.00000000E+00
  8.10000000E+02  7.00000000E+01  0.00000000E+00
  8.10000000E+02  6.80000000E+01  0.00000000E+00
  8.10000000E+02  6.60000000E+01  0.00000000E+00
  8.10000000E+02  6.40000000E+01  0.00000000E+00
  8.10000000E+02  6.20000000E+01  0.00000000E+00
  8.10000000E+02  6.00000000E+01  0.00000000E+00
  8.10000000E+02  5.80000000E+01  0.00000000E+00
  8.10000000E+02  5.60000000E+01  0.00000000E+00
  8.10000000E+02  5.40000000E+01  0.00000000E+00
  8.10000000E+02  5.20000000E+01  0.00000000E+00
  8.10000000E+02  5.00000000E+01  0.00000000E+00
  8.10000000E+02  4.80000000E+01  0.00000000E+00
  8.10000000E+02  4.60000000E+01  0.00000000E+00
  8.10000000E+02  4.40000000E+01  0.00000000E+00
  8.10000000E+02  4.20000000E+01  0.00000000E+00
  8.10000000E+02  4.00000000E+01  0.00000000E+00
  8.10000000E+02  3.80000000E+01  0.00000000E+00
  8.10000000E+02  3.60000000E+01  0.00000000E+00
  8.10000000E+02  3.40000000E+01  0.00000000E+00
  8.10000000E+02  3.20000000E+01  0.00000000E+00
  8.10000000E+02  3.00000000E+01  0.00000000E+00
  8.10000000E+02  2.80000000E+01  0.00000000E+00
  8.10000000E+02  2.60000000E+01  0.00000000E+00
  8.10000000E+02  2.40000000E+01  0.00000000E+00
  8.10000000E+02  2.20000000E+01  0.00000000E+00
  8.10000000E+02  2.00000000E+01  0.00000000E+00
  8.10000000E+02  1.80000000E+01  0.00000000E+00
  8.10000000E+02  1.60000000E+01  0.00000000E+00
  8.10000000E+02  1.40000000E+01  0.00000000E+00
  8.10000000E+02  1.20000000E+01  0.00000000E+00
  8.10000000E+02  1.00000000E+01  0.00000000E+00
  8.10000000E+02  8.00000000E+00  0.00000000E+00
  8.10000000E+02  6.00000000E+00  0.00000000E+00
  8.10000000E+02  4.00000000E+00  0.00000000E+00
  8.10000000E+02  2.00000000E+00  0.00000000E+00
  8.10000000E+02 -3.33066907E-14  0.00000000E+00
  8.20000000E+02  1.00000000E+02  0.00000000E+00
  8.20000000E+02  9.80000000E+01  0.00000000E+00
  8.20000000E+02  9.60000000E+01  0.00000000E+00
  8.20000000E+02  9.40000000E+01  0.00000000E+00
  8.20000000E+02  9.20000000E+01  0.00000000E+00
  8.20000000E+02  9.00000000E+01  0.00000000E+00
  8.20000000E+02  8.80000000E+01  0.00000000E+00
  8.20000000E+02  8.60000000E+01  0.00000000E+00
  8.20000000E+02  8.40000000E+01  0.00000000E+00
  8.20000000E+02  8.20000000E+01  0.00000000E+00
  8.20000000E+02  8.00000000E+01  0.00000000E+00
  8.20000000E+02  7.80000000E+01  0.00000000E+00
  8.20000000E+02  7.60000000E+01  0.00000000E+00
  8.20000000E+02  7.40000000E+01  0.00000000E+00
  8.20000000E+02  7.20000000E+01  0.00000000E+00
  8.20000000E+02  7.00000000E+01  0.00000000E+00
  8.20000000E+02  6.80000000E+01  0.00000000E+00
  8.20000000E+02  6.60000000E+01  0.00000000E+00
  8.20000000E+02  6.40000000E+01  0.00000000E+00
  8.20000000E+02  6.20000000E+01  0.00000000E+00
  8.20000000E+02  6.00000000E+01  0.00000000E+00
  8.20000000E+02  5.80000000E+01  0.00000000E+00
  8.20000000E+02  5.60000000E+01  0.00000000E+00
  8.20000000E+02  5.40000000E+01  0.00000000E+00
  8.20000000E+02  5.20000000E+01  0.00000000E+00
  8.20000000E+02  5.00000000E+01  0.00000000E+00
  8.20000000E+02  4.80000000E+01  0.00000000E+00
  8.20000000E+02  4.60000000E+01  0.00000000E+00
  8.20000000E+02  4.40000000E+01  0.00000000E+00
  8.20000000E+02  4.20000000E+01  0.00000000E+00
  8.20000000E+02  4.00000000E+01  0.00000000E+00
  8.20000000E+02  3.80000000E+01  0.00000000E+00
  8.20000000E+02  3.60000000E+01  0.00000000E+00
  8.20000000E+02  3.40000000E+01  0.00000000E+00
  8.20000000E+02  3.20000000E+01  0.00000000E+00
  8.20000000E+02  3.00000000E+01  0.00000000E+00
  8.20000000E+02  2.80000000E+01  0.00000000E+00
  8.20000000E+02  2.60000000E+01  0.00000000E+00
  8.20000000E+02  2.40000000E+01  0.00000000E+00
  8.20000000E+02  2.20000000E+01  0.00000000E+00
  8.20000000E+02  2.00000000E+01  0.00000000E+00
  8.20000000E+02  1.80000000E+01  0.00000000E+00
  8.20000000E+02  1.60000000E+01  0.00000000E+00
  8.20000000E+02  1.40000000E+01  0.00000000E+00
  8.20000000E+02  1.20000000E+01  0.00000000E+00
  8.20000000E+02  1.00000000E+01  0.00000000E+00
  8.20000000E+02  8.00000000E+00  0.00000000E+00
  8.20000000E+02  6.00000000E+00  0.00000000E+00
  8.20000000E+02  4.00000000E+00  0.00000000E+00
  8.20000000E+02  2.00000000E+00  0.00000000E+00
  8.20000000E+02 -3.33066907E-14  0.00000000E+00
  8.30000000E+02  1.00000000E+02  0.00000000E+00
  8.30000000E+02  9.80000000E+01  0.00000000E+00
  8.30000000E+02  9.60000000E+01  0.00000000E+00
  8.30000000E+02  9.40000000E+01  0.00000000E+00
  8.30000000E+02  9.20000000E+01  0.00000000E+00
  8.30000000E+02  9.00000000E+01  0.00000000E+00
  8.30000000E+02  8.80000000E+01  0.00000000E+00
  8.30000000E+02  8.60000000E+01  0.00000000E+00
  8.30000000E+02  8.40000000E+01  0.00000000E+00
  8.30000000E+02  8.20000000E+01  0.00000000E+00
  8.30000000E+02  8.00000000E+01  0.00000000E+00
  8.30000000E+02  7.80000000E+01  0.00000000E+00
  8.30000000E+02  7.60000000E+01  0.00000000E+00
  8.30000000E+02  7.40000000E+01  0.00000000E+00
  8.30000000E+02  7.20000000E+01  0.00000000E+00
  8.30000000E+02  7.00000000E+01  0.00000000E+00
  8.30000000E+02  6.80000000E+01  0.00000000E+00
  8.30000000E+02  6.60000000E+01  0.00000000E+00
  8.30000000E+02  6.40000000E+01  0.00000000E+00
  8.30000000E+02  6.20000000E+01  0.00000000E+00
  8.30000000E+02  6.00000000E+01  0.00000000E+00
  8.30000000E+02  5.80000000E+01  0.00000000E+00
  8.30000000E+02  5.60000000E+01  0.00000000E+00
  8.30000000E+02  5.40000000E+01  0.00000000E+00
  8.30000000E+02  5.20000000E+01  0.00000000E+00
  8.30000000E+02  5.00000000E+01  0.00000000E+00
  8.30000000E+02  4.80000000E+01  0.00000000E+00
  8.30000000E+02  4.60000000E+01  0.00000000E+00
  8.30000000E+02  4.40000000E+01  0.00000000E+00
  8.30000000E+02  4.20000000E+01  0.00000000E+00
  8.30000000E+02  4.00000000E+01  0.00000000E+00
  8.30000000E+02  3.80000000E+01  0.00000000E+00
  8.30000000E+02  3.60000000E+01  0.00000000E+00
  8.30000000E+02  3.40000000E+01  0.00000000E+00
  8.30000000E+02  3.20000000E+01  0.00000000E+00
  8.30000000E+02  3.00000000E+01  0.00000000E+00
  8.30000000E+02  2.80000000E+01  0.00000000E+00
  8.30000000E+02  2.60000000E+01  0.00000000E+00
  8.30000000E+02  2.40000000E+01  0.00000000E+00
  8.30000000E+02  2.20000000E+01  0.00000000E+00
  8.30000000E+02  2.00000000E+01  0.00000000E+00
  8.30000000E+02  1.80000000E+01  0.00000000E+00
  8.30000000E+02  1.60000000E+01  0.00000000E+00
  8.30000000E+02  1.40000000E+01  0.00000000E+00
  8.30000000E+02  1.20000000E+01  0.00000000E+00
  8.30000000E+02  1.00000000E+01  0.00000000E+00
  8.30000000E+02  8.00000000E+00  0.00000000E+00
  8.30000000E+02  6.00000000E+00  0.00000000E+00
  8.30000000E+02  4.00000000E+00  0.00000000E+00
  8.30000000E+02  2.00000000E+00  0.00000000E+00
  8.30000000E+02 -3.33066907E-14  0.00000000E+00
  8.40000000E+02  1.00000000E+02  0.00000000E+00
  8.40000000E+02  9.80000000E+01  0.00000000E+00
  8.40000000E+02  9.60000000E+01  0.00000000E+00
  8.40000000E+02  9.40000000E+01  0.00000000E+00
  8.40000000E+02  9.20000000E+01  0.00000000E+00
  8.40000000E+02  9.00000000E+01  0.00000000E+00
  8.40000000E+02  8.80000000E+01  0.00000000E+00
  8.40000000E+02  8.60000000E+01  0.00000000E+00
  8.40000000E+02  8.40000000E+01  0.00000000E+00
  8.40000000E+02  8.20000000E+01  0.00000000E+00
  8.40000000E+02  8.00000000E+01  0.00000000E+00
  8.40000000E+02  7.80000000E+01  0.00000000E+00
  8.40000000E+02  7.60000000E+01  0.00000000E+00
  8.40000000E+02  7.40000000E+01  0.00000000E+00
  8.40000000E+02  7.20000000E+01  0.00000000E+00
  8.40000000E+02  7.00000000E+01  0.00000000E+00
  8.40000000E+02  6.80000000E+01  0.00000000E+00
  8.40000000E+02  6.60000000E+01  0.00000000E+00
  8.40000000E+02  6.40000000E+01  0.00000000E+00
  8.40000000E+02  6.20000000E+01  0.00000000E+00
  8.40000000E+02  6.00000000E+01  0.00000000E+00
  8.40000000E+02  5.80000000E+01  0.00000000E+00
  8.40000000E+02  5.60000000E+01  0.00000000E+00
  8.40000000E+02  5.40000000E+01  0.00000000E+00
  8.40000000E+02  5.20000000E+01  0.00000000E+00
  8.40000000E+02  5.00000000E+01  0.00000000E+00
  8.40000000E+02  4.80000000E+01  0.00000000E+00
  8.40000000E+02  4.60000000E+01  0.00000000E+00
  8.40000000E+02  4.40000000E+01  0.00000000E+00
  8.40000000E+02  4.20000000E+01  0.00000000E+00
  8.40000000E+02  4.00000000E+01  0.00000000E+00
  8.40000000E+02  3.80000000E+01  0.00000000E+00
  8.40000000E+02  3.60000000E+01  0.00000000E+00
  8.40000000E+02  3.40000000E+01  0.00000000E+00
  8.40000000E+02  3.20000000E+01  0.00000000E+00
  8.40000000E+02  3.00000000E+01  0.00000000E+00
  8.40000000E+02  2.80000000E+01  0.00000000E+00
  8.40000000E+02  2.60000000E+01  0.00000000E+00
  8.40000000E+02  2.40000000E+01  0.00000000E+00
  8.40000000E+02  2.20000000E+01  0.00000000E+00
  8.40000000E+02  2.00000000E+01  0.00000000E+00
  8.40000000E+02  1.80000000E+01  0.00000000E+00
  8.40000000E+02  1.60000000E+01  0.00000000E+00
  8.40000000E+02  1.40000000E+01  0.00000000E+00
  8.40000000E+02  1.20000000E+01  0.00000000E+00
  8.40000000E+02  1.00000000E+01  0.00000000E+00
  8.40000000E+02  8.00000000E+00  0.00000000E+00
  8.40000000E+02  6.00000000E+00  0.00000000E+00
  8.40000000E+02  4.00000000E+00  0.00000000E+00
  8.40000000E+02  2.00000000E+00  0.00000000E+00
  8.40000000E+02 -3.33066907E-14  0.00000000E+00
  8.50000000E+02  1.00000000E+02  0.00000000E+00
  8.50000000E+02  9.80000000E+01  0.00000000E+00
  8.50000000E+02  9.60000000E+01  0.00000000E+00
  8.50000000E+02  9.40000000E+01  0.00000000E+00
  8.50000000E+02  9.20000000E+01  0.00000000E+00
  8.50000000E+02  9.00000000E+01  0.00000000E+00
  8.50000000E+02  8.80000000E+01  0.00000000E+00
  8.50000000E+02  8.60000000E+01  0.00000000E+00
  8.50000000E+02  8.40000000E+01  0.00000000E+00
  8.50000000E+02  8.20000000E+01  0.00000000E+00
  8.50000000E+02  8.00000000E+01  0.00000000E+00
  8.50000000E+02  7.80000000E+01  0.00000000E+00
  8.50000000E+02  7.60000000E+01  0.00000000E+00
  8.50000000E+02  7.40000000E+01  0.00000000E+00
  8.50000000E+02  7.20000000E+01  0.00000000E+00
  8.50000000E+02  7.00000000E+01  0.00000000E+00
  8.50000000E+02  6.80000000E+01  0.00000000E+00
  8.50000000E+02  6.60000000E+01  0.00000000E+00
  8.50000000E+02  6.40000000E+01  0.00000000E+00
  8.50000000E+02  6.20000000E+01  0.00000000E+00
  8.50000000E+02  6.00000000E+01  0.00000000E+00
  8.50000000E+02  5.80000000E+01  0.00000000E+00
  8.50000000E+02  5.60000000E+01  0.00000000E+00
  8.50000000E+02  5.40000000E+01  0.00000000E+00
  8.50000000E+02  5.20000000E+01  0.00000000E+00
  8.50000000E+02  5.00000000E+01  0.00000000E+00
  8.50000000E+02  4.80000000E+01  0.00000000E+00
  8.50000000E+02  4.60000000E+01  0.00000000E+00
  8.50000000E+02  4.40000000E+01  0.00000000E+00
  8.50000000E+02  4.20000000E+01  0.00000000E+00
  8.50000000E+02  4.00000000E+01  0.00000000E+00
  8.50000000E+02  3.80000000E+01  0.00000000E+00
  8.50000000E+02  3.60000000E+01  0.00000000E+00
  8.50000000E+02  3.40000000E+01  0.00000000E+00
  8.50000000E+02  3.20000000E+01  0.00000000E+00
  8.50000000E+02  3.00000000E+01  0.00000000E+00
  8.50000000E+02  2.80000000E+01  0.00000000E+00
  8.50000000E+02  2.60000000E+01  0.00000000E+00
  8.50000000E+02  2.40000000E+01  0.00000000E+00
  8.50000000E+02  2.20000000E+01  0.00000000E+00
  8.50000000E+02  2.00000000E+01  0.00000000E+00
  8.50000000E+02  1.80000000E+01  0.00000000E+00
  8.50000000E+02  1.60000000E+01  0.00000000E+00
  8.50000000E+02  1.40000000E+01  0.00000000E+00
  8.50000000E+02  1.20000000E+01  0.00000000E+00
  8.50000000E+02  1.00000000E+01  0.00000000E+00
  8.50000000E+02  8.00000000E+00  0.00000000E+00
  8.50000000E+02  6.00000000E+00  0.00000000E+00
  8.50000000E+02  4.00000000E+00  0.00000000E+00
  8.50000000E+02  2.00000000E+00  0.00000000E+00
  8.50000000E+02 -3.33066907E-14  0.00000000E+00
  8.60000000E+02  1.00000000E+02  0.00000000E+00
  8.60000000E+02  9.80000000E+01  0.00000000E+00
  8.60000000E+02  9.60000000E+01  0.00000000E+00
  8.60000000E+02  9.40000000E+01  0.00000000E+00
  8.60000000E+02  9.20000000E+01  0.00000000E+00
  8.60000000E+02  9.00000000E+01  0.00000000E+00
  8.60000000E+02  8.80000000E+01  0.00000000E+00
  8.60000000E+02  8.60000000E+01  0.00000000E+00
  8.60000000E+02  8.40000000E+01  0.00000000E+00
  8.60000000E+02  8.20000000E+01  0.00000000E+00
  8.60000000E+02  8.00000000E+01  0.00000000E+00
  8.60000000E+02  7.80000000E+01  0.00000000E+00
  8.60000000E+02  7.60000000E+01  0.00000000E+00
  8.60000000E+02  7.40000000E+01  0.00000000E+00
  8.60000000E+02  7.20000000E+01  0.00000000E+00
  8.60000000E+02  7.00000000E+01  0.00000000E+00
  8.60000000E+02  6.80000000E+01  0.00000000E+00
  8.60000000E+02  6.60000000E+01  0.00000000E+00
  8.60000000E+02  6.40000000E+01  0.00000000E+00
  8.60000000E+02  6.20000000E+01  0.00000000E+00
  8.60000000E+02  6.00000000E+01  0.00000000E+00
  8.60000000E+02  5.80000000E+01  0.00000000E+00
  8.60000000E+02  5.60000000E+01  0.00000000E+00
  8.60000000E+02  5.40000000E+01  0.00000000E+00
  8.60000000E+02  5.20000000E+01  0.00000000E+00
  8.60000000E+02  5.00000000E+01  0.00000000E+00
  8.60000000E+02  4.80000000E+01  0.00000000E+00
  8.60000000E+02  4.60000000E+01  0.00000000E+00
  8.60000000E+02  4.40000000E+01  0.00000000E+00
  8.60000000E+02  4.20000000E+01  0.00000000E+00
  8.60000000E+02  4.00000000E+01  0.00000000E+00
  8.60000000E+02  3.80000000E+01  0.00000000E+00
  8.60000000E+02  3.60000000E+01  0.00000000E+00
  8.60000000E+02  3.40000000E+01  0.00000000E+00
  8.60000000E+02  3.20000000E+01  0.00000000E+00
  8.60000000E+02  3.00000000E+01  0.00000000E+00
  8.60000000E+02  2.80000000E+01  0.00000000E+00
  8.60000000E+02  2.60000000E+01  0.00000000E+00
  8.60000000E+02  2.40000000E+01  0.00000000E+00
  8.60000000E+02  2.20000000E+01  0.00000000E+00
  8.60000000E+02  2.00000000E+01  0.00000000E+00
  8.60000000E+02  1.80000000E+01  0.00000000E+00
  8.60000000E+02  1.60000000E+01  0.00000000E+00
  8.60000000E+02  1.40000000E+01  0.00000000E+00
  8.60000000E+02  1.20000000E+01  0.00000000E+00
  8.60000000E+02  1.00000000E+01  0.00000000E+00
  8.60000000E+02  8.00000000E+00  0.00000000E+00
  8.60000000E+02  6.00000000E+00  0.00000000E+00
  8.60000000E+02  4.00000000E+00  0.00000000E+00
  8.60000000E+02  2.00000000E+00  0.00000000E+00
  8.60000000E+02 -3.33066907E-14  0.00000000E+00
  8.70000000E+02  1.00000000E+02  0.00000000E+00
  8.70000000E+02  9.80000000E+01  0.00000000E+00
  8.70000000E+02  9.60000000E+01  0.00000000E+00
  8.70000000E+02  9.40000000E+01  0.00000000E+00
  8.70000000E+02  9.20000000E+01  0.00000000E+00
  8.70000000E+02  9.00000000E+01  0.00000000E+00
  8.70000000E+02  8.80000000E+01  0.00000000E+00
  8.70000000E+02  8.60000000E+01  0.00000000E+00
  8.70000000E+02  8.40000000E+01  0.00000000E+00
  8.70000000E+02  8.20000000E+01  0.00000000E+00
  8.70000000E+02  8.00000000E+01  0.00000000E+00
  8.70000000E+02  7.80000000E+01  0.00000000E+00
  8.70000000E+02  7.60000000E+01  0.00000000E+00
  8.70000000E+02  7.40000000E+01  0.00000000E+00
  8.70000000E+02  7.20000000E+01  0.00000000E+00
  8.70000000E+02  7.00000000E+01  0.00000000E+00
  8.70000000E+02  6.80000000E+01  0.00000000E+00
  8.70000000E+02  6.60000000E+01  0.00000000E+00
  8.70000000E+02  6.40000000E+01  0.00000000E+00
  8.70000000E+02  6.20000000E+01  0.00000000E+00
  8.70000000E+02  6.00000000E+01  0.00000000E+00
  8.70000000E+02  5.80000000E+01  0.00000000E+00
  8.70000000E+02  5.60000000E+01  0.00000000E+00
  8.70000000E+02  5.40000000E+01  0.00000000E+00
  8.70000000E+02  5.20000000E+01  0.00000000E+00
  8.70000000E+02  5.00000000E+01  0.00000000E+00
  8.70000000E+02  4.80000000E+01  0.00000000E+00
  8.70000000E+02  4.60000000E+01  0.00000000E+00
  8.70000000E+02  4.40000000E+01  0.00000000E+00
  8.70000000E+02  4.20000000E+01  0.00000000E+00
  8.70000000E+02  4.00000000E+01  0.00000000E+00
  8.70000000E+02  3.80000000E+01  0.00000000E+00
  8.70000000E+02  3.60000000E+01  0.00000000E+00
  8.70000000E+02  3.40000000E+01  0.00000000E+00
  8.70000000E+02  3.20000000E+01  0.00000000E+00
  8.70000000E+02  3.00000000E+01  0.00000000E+00
  8.70000000E+02  2.80000000E+01  0.00000000E+00
  8.70000000E+02  2.60000000E+01  0.00000000E+00
  8.70000000E+02  2.40000000E+01  0.00000000E+00
  8.70000000E+02  2.20000000E+01  0.00000000E+00
  8.70000000E+02  2.00000000E+01  0.00000000E+00
  8.70000000E+02  1.80000000E+01  0.00000000E+00
  8.70000000E+02  1.60000000E+01  0.00000000E+00
  8.70000000E+02  1.40000000E+01  0.00000000E+00
  8.70000000E+02  1.20000000E+01  0.00000000E+00
  8.70000000E+02  1.00000000E+01  0.00000000E+00
  8.70000000E+02  8.00000000E+00  0.00000000E+00
  8.70000000E+02  6.00000000E+00  0.00000000E+00
  8.70000000E+02  4.00000000E+00  0.00000000E+00
  8.70000000E+02  2.00000000E+00  0.00000000E+00
  8.70000000E+02 -3.33066907E-14  0.00000000E+00
  8.80000000E+02  1.00000000E+02  0.00000000E+00
  8.80000000E+02  9.80000000E+01  0.00000000E+00
  8.80000000E+02  9.60000000E+01  0.00000000E+00
  8.80000000E+02  9.40000000E+01  0.00000000E+00
  8.80000000E+02  9.20000000E+01  0.00000000E+00
  8.80000000E+02  9.00000000E+01  0.00000000E+00
  8.80000000E+02  8.80000000E+01  0.00000000E+00
  8.80000000E+02  8.60000000E+01  0.00000000E+00
  8.80000000E+02  8.40000000E+01  0.00000000E+00
  8.80000000E+02  8.20000000E+01  0.00000000E+00
  8.80000000E+02  8.00000000E+01  0.00000000E+00
  8.80000000E+02  7.80000000E+01  0.00000000E+00
  8.80000000E+02  7.60000000E+01  0.00000000E+00
  8.80000000E+02  7.40000000E+01  0.00000000E+00
  8.80000000E+02  7.20000000E+01  0.00000000E+00
  8.80000000E+02  7.00000000E+01  0.00000000E+00
  8.80000000E+02  6.80000000E+01  0.00000000E+00
  8.80000000E+02  6.60000000E+01  0.00000000E+00
  8.80000000E+02  6.40000000E+01  0.00000000E+00
  8.80000000E+02  6.20000000E+01  0.00000000E+00
  8.80000000E+02  6.00000000E+01  0.00000000E+00
  8.80000000E+02  5.80000000E+01  0.00000000E+00
  8.80000000E+02  5.60000000E+01  0.00000000E+00
  8.80000000E+02  5.40000000E+01  0.00000000E+00
  8.80000000E+02  5.20000000E+01  0.00000000E+00
  8.80000000E+02  5.00000000E+01  0.00000000E+00
  8.80000000E+02  4.80000000E+01  0.00000000E+00
  8.80000000E+02  4.60000000E+01  0.00000000E+00
  8.80000000E+02  4.40000000E+01  0.00000000E+00
  8.80000000E+02  4.20000000E+01  0.00000000E+00
  8.80000000E+02  4.00000000E+01  0.00000000E+00
  8.80000000E+02  3.80000000E+01  0.00000000E+00
  8.80000000E+02  3.60000000E+01  0.00000000E+00
  8.80000000E+02  3.40000000E+01  0.00000000E+00
  8.80000000E+02  3.20000000E+01  0.00000000E+00
  8.80000000E+02  3.00000000E+01  0.00000000E+00
  8.80000000E+02  2.80000000E+01  0.00000000E+00
  8.80000000E+02  2.60000000E+01  0.00000000E+00
  8.80000000E+02  2.40000000E+01  0.00000000E+00
  8.80000000E+02  2.20000000E+01  0.00000000E+00
  8.80000000E+02  2.00000000E+01  0.00000000E+00
  8.80000000E+02  1.80000000E+01  0.00000000E+00
  8.80000000E+02  1.60000000E+01  0.00000000E+00
  8.80000000E+02  1.40000000E+01  0.00000000E+00
  8.80000000E+02  1.20000000E+01  0.00000000E+00
  8.80000000E+02  1.00000000E+01  0.00000000E+00
  8.80000000E+02  8.00000000E+00  0.00000000E+00
  8.80000000E+02  6.00000000E+00  0.00000000E+00
  8.80000000E+02  4.00000000E+00  0.00000000E+00
  8.80000000E+02  2.00000000E+00  0.00000000E+00
  8.80000000E+02 -3.33066907E-14  0.00000000E+00
  8.90000000E+02  1.00000000E+02  0.00000000E+00
  8.90000000E+02  9.80000000E+01  0.00000000E+00
  8.90000000E+02  9.60000000E+01  0.00000000E+00
  8.90000000E+02  9.40000000E+01  0.00000000E+00
  8.90000000E+02  9.20000000E+01  0.00000000E+00
  8.90000000E+02  9.00000000E+01  0.00000000E+00
  8.90000000E+02  8.80000000E+01  0.00000000E+00
  8.90000000E+02  8.60000000E+01  0.00000000E+00
  8.90000000E+02  8.40000000E+01  0.00000000E+00
  8.90000000E+02  8.20000000E+01  0.00000000E+00
  8.90000000E+02  8.00000000E+01  0.00000000E+00
  8.90000000E+02  7.80000000E+01  0.00000000E+00
  8.90000000E+02  7.60000000E+01  0.00000000E+00
  8.90000000E+02  7.40000000E+01  0.00000000E+00
  8.90000000E+02  7.20000000E+01  0.00000000E+00
  8.90000000E+02  7.00000000E+01  0.00000000E+00
  8.90000000E+02  6.80000000E+01  0.00000000E+00
  8.90000000E+02  6.60000000E+01  0.00000000E+00
  8.90000000E+02  6.40000000E+01  0.00000000E+00
  8.90000000E+02  6.20000000E+01  0.00000000E+00
  8.90000000E+02  6.00000000E+01  0.00000000E+00
  8.90000000E+02  5.80000000E+01  0.00000000E+00
  8.90000000E+02  5.60000000E+01  0.00000000E+00
  8.90000000E+02  5.40000000E+01  0.00000000E+00
  8.90000000E+02  5.20000000E+01  0.00000000E+00
  8.90000000E+02  5.00000000E+01  0.00000000E+00
  8.90000000E+02  4.80000000E+01  0.00000000E+00
  8.90000000E+02  4.60000000E+01  0.00000000E+00
  8.90000000E+02  4.40000000E+01  0.00000000E+00
  8.90000000E+02  4.20000000E+01  0.00000000E+00
  8.90000000E+02  4.00000000E+01  0.00000000E+00
  8.90000000E+02  3.80000000E+01  0.00000000E+00
  8.90000000E+02  3.60000000E+01  0.00000000E+00
  8.90000000E+02  3.40000000E+01  0.00000000E+00
  8.90000000E+02  3.20000000E+01  0.00000000E+00
  8.90000000E+02  3.00000000E+01  0.00000000E+00
  8.90000000E+02  2.80000000E+01  0.00000000E+00
  8.90000000E+02  2.60000000E+01  0.00000000E+00
  8.90000000E+02  2.40000000E+01  0.00000000E+00
  8.90000000E+02  2.20000000E+01  0.00000000E+00
  8.90000000E+02  2.00000000E+01  0.00000000E+00
  8.90000000E+02  1.80000000E+01  0.00000000E+00
  8.90000000E+02  1.60000000E+01  0.00000000E+00
  8.90000000E+02  1.40000000E+01  0.00000000E+00
  8.90000000E+02  1.20000000E+01  0.00000000E+00
  8.90000000E+02  1.00000000E+01  0.00000000E+00
  8.90000000E+02  8.00000000E+00  0.00000000E+00
  8.90000000E+02  6.00000000E+00  0.00000000E+00
  8.90000000E+02  4.00000000E+00  0.00000000E+00
  8.90000000E+02  2.00000000E+00  0.00000000E+00
  8.90000000E+02 -3.33066907E-14  0.00000000E+00
  9.00000000E+02  1.00000000E+02  0.00000000E+00
  9.00000000E+02  9.80000000E+01  0.00000000E+00
  9.00000000E+02  9.60000000E+01  0.00000000E+00
  9.00000000E+02  9.40000000E+01  0.00000000E+00
  9.00000000E+02  9.20000000E+01  0.00000000E+00
  9.00000000E+02  9.00000000E+01  0.00000000E+00
  9.00000000E+02  8.80000000E+01  0.00000000E+00
  9.00000000E+02  8.60000000E+01  0.00000000E+00
  9.00000000E+02  8.40000000E+01  0.00000000E+00
  9.00000000E+02  8.20000000E+01  0.00000000E+00
  9.00000000E+02  8.00000000E+01  0.00000000E+00
  9.00000000E+02  7.80000000E+01  0.00000000E+00
  9.00000000E+02  7.60000000E+01  0.00000000E+00
  9.00000000E+02  7.40000000E+01  0.00000000E+00
  9.00000000E+02  7.20000000E+01  0.00000000E+00
  9.00000000E+02  7.00000000E+01  0.00000000E+00
  9.00000000E+02  6.80000000E+01  0.00000000E+00
  9.00000000E+02  6.60000000E+01  0.00000000E+00
  9.00000000E+02  6.40000000E+01  0.00000000E+00
  9.00000000E+02  6.20000000E+01  0.00000000E+00
  9.00000000E+02  6.00000000E+01  0.00000000E+00
  9.00000000E+02  5.80000000E+01  0.00000000E+00
  9.00000000E+02  5.60000000E+01  0.00000000E+00
  9.00000000E+02  5.40000000E+01  0.00000000E+00
  9.00000000E+02  5.20000000E+01  0.00000000E+00
  9.00000000E+02  5.00000000E+01  0.00000000E+00
  9.00000000E+02  4.80000000E+01  0.00000000E+00
  9.00000000E+02  4.60000000E+01  0.00000000E+00
  9.00000000E+02  4.40000000E+01  0.00000000E+00
  9.00000000E+02  4.20000000E+01  0.00000000E+00
  9.00000000E+02  4.00000000E+01  0.00000000E+00
  9.00000000E+02  3.80000000E+01  0.00000000E+00
  9.00000000E+02  3.60000000E+01  0.00000000E+00
  9.00000000E+02  3.40000000E+01  0.00000000E+00
  9.00000000E+02  3.20000000E+01  0.00000000E+00
  9.00000000E+02  3.00000000E+01  0.00000000E+00
  9.00000000E+02  2.80000000E+01  0.00000000E+00
  9.00000000E+02  2.60000000E+01  0.00000000E+00
  9.00000000E+02  2.40000000E+01  0.00000000E+00
  9.00000000E+02  2.20000000E+01  0.00000000E+00
  9.00000000E+02  2.00000000E+01  0.00000000E+00
  9.00000000E+02  1.80000000E+01  0.00000000E+00
  9.00000000E+02  1.60000000E+01  0.00000000E+00
  9.00000000E+02  1.40000000E+01  0.00000000E+00
  9.00000000E+02  1.20000000E+01  0.00000000E+00
  9.00000000E+02  1.00000000E+01  0.00000000E+00
  9.00000000E+02  8.00000000E+00  0.00000000E+00
  9.00000000E+02  6.00000000E+00  0.00000000E+00
  9.00000000E+02  4.00000000E+00  0.00000000E+00
  9.00000000E+02  2.00000000E+00  0.00000000E+00
  9.00000000E+02 -3.33066907E-14  0.00000000E+00
  9.10000000E+02  1.00000000E+02  0.00000000E+00
  9.10000000E+02  9.80000000E+01  0.00000000E+00
  9.10000000E+02  9.60000000E+01  0.00000000E+00
  9.10000000E+02  9.40000000E+01  0.00000000E+00
  9.10000000E+02  9.20000000E+01  0.00000000E+00
  9.10000000E+02  9.00000000E+01  0.00000000E+00
  9.10000000E+02  8.80000000E+01  0.00000000E+00
  9.10000000E+02  8.60000000E+01  0.00000000E+00
  9.10000000E+02  8.40000000E+01  0.00000000E+00
  9.10000000E+02  8.20000000E+01  0.00000000E+00
  9.10000000E+02  8.00000000E+01  0.00000000E+00
  9.10000000E+02  7.80000000E+01  0.00000000E+00
  9.10000000E+02  7.60000000E+01  0.00000000E+00
  9.10000000E+02  7.40000000E+01  0.00000000E+00
  9.10000000E+02  7.20000000E+01  0.00000000E+00
  9.10000000E+02  7.00000000E+01  0.00000000E+00
  9.10000000E+02  6.80000000E+01  0.00000000E+00
  9.10000000E+02  6.60000000E+01  0.00000000E+00
  9.10000000E+02  6.40000000E+01  0.00000000E+00
  9.10000000E+02  6.20000000E+01  0.00000000E+00
  9.10000000E+02  6.00000000E+01  0.00000000E+00
  9.10000000E+02  5.80000000E+01  0.00000000E+00
  9.10000000E+02  5.60000000E+01  0.00000000E+00
  9.10000000E+02  5.40000000E+01  0.00000000E+00
  9.10000000E+02  5.20000000E+01  0.00000000E+00
  9.10000000E+02  5.00000000E+01  0.00000000E+00
  9.10000000E+02  4.80000000E+01  0.00000000E+00
  9.10000000E+02  4.60000000E+01  0.00000000E+00
  9.10000000E+02  4.40000000E+01  0.00000000E+00
  9.10000000E+02  4.20000000E+01  0.00000000E+00
  9.10000000E+02  4.00000000E+01  0.00000000E+00
  9.10000000E+02  3.80000000E+01  0.00000000E+00
  9.10000000E+02  3.60000000E+01  0.00000000E+00
  9.10000000E+02  3.40000000E+01  0.00000000E+00
  9.10000000E+02  3.20000000E+01  0.00000000E+00
  9.10000000E+02  3.00000000E+01  0.00000000E+00
  9.10000000E+02  2.80000000E+01  0.00000000E+00
  9.10000000E+02  2.60000000E+01  0.00000000E+00
  9.10000000E+02  2.40000000E+01  0.00000000E+00
  9.10000000E+02  2.20000000E+01  0.00000000E+00
  9.10000000E+02  2.00000000E+01  0.00000000E+00
  9.10000000E+02  1.80000000E+01  0.00000000E+00
  9.10000000E+02  1.60000000E+01  0.00000000E+00
  9.10000000E+02  1.40000000E+01  0.00000000E+00
  9.10000000E+02  1.20000000E+01  0.00000000E+00
  9.10000000E+02  1.00000000E+01  0.00000000E+00
  9.10000000E+02  8.00000000E+00  0.00000000E+00
  9.10000000E+02  6.00000000E+00  0.00000000E+00
  9.10000000E+02  4.00000000E+00  0.00000000E+00
  9.10000000E+02  2.00000000E+00  0.00000000E+00
  9.10000000E+02 -3.33066907E-14  0.00000000E+00
  9.20000000E+02  1.00000000E+02  0.00000000E+00
  9.20000000E+02  9.80000000E+01  0.00000000E+00
  9.20000000E+02  9.60000000E+01  0.00000000E+00
  9.20000000E+02  9.40000000E+01  0.00000000E+00
  9.20000000E+02  9.20000000E+01  0.00000000E+00
  9.20000000E+02  9.00000000E+01  0.00000000E+00
  9.20000000E+02  8.80000000E+01  0.00000000E+00
  9.20000000E+02  8.60000000E+01  0.00000000E+00
  9.20000000E+02  8.40000000E+01  0.00000000E+00
  9.20000000E+02  8.20000000E+01  0.00000000E+00
  9.20000000E+02  8.00000000E+01  0.00000000E+00
  9.20000000E+02  7.80000000E+01  0.00000000E+00
  9.20000000E+02  7.60000000E+01  0.00000000E+00
  9.20000000E+02  7.40000000E+01  0.00000000E+00
  9.20000000E+02  7.20000000E+01  0.00000000E+00
  9.20000000E+02  7.00000000E+01  0.00000000E+00
  9.20000000E+02  6.80000000E+01  0.00000000E+00
  9.20000000E+02  6.60000000E+01  0.00000000E+00
  9.20000000E+02  6.40000000E+01  0.00000000E+00
  9.20000000E+02  6.20000000E+01  0.00000000E+00
  9.20000000E+02  6.00000000E+01  0.00000000E+00
  9.20000000E+02  5.80000000E+01  0.00000000E+00
  9.20000000E+02  5.60000000E+01  0.00000000E+00
  9.20000000E+02  5.40000000E+01  0.00000000E+00
  9.20000000E+02  5.20000000E+01  0.00000000E+00
  9.20000000E+02  5.00000000E+01  0.00000000E+00
  9.20000000E+02  4.80000000E+01  0.00000000E+00
  9.20000000E+02  4.60000000E+01  0.00000000E+00
  9.20000000E+02  4.40000000E+01  0.00000000E+00
  9.20000000E+02  4.20000000E+01  0.00000000E+00
  9.20000000E+02  4.00000000E+01  0.00000000E+00
  9.20000000E+02  3.80000000E+01  0.00000000E+00
  9.20000000E+02  3.60000000E+01  0.00000000E+00
  9.20000000E+02  3.40000000E+01  0.00000000E+00
  9.20000000E+02  3.20000000E+01  0.00000000E+00
  9.20000000E+02  3.00000000E+01  0.00000000E+00
  9.20000000E+02  2.80000000E+01  0.00000000E+00
  9.20000000E+02  2.60000000E+01  0.00000000E+00
  9.20000000E+02  2.40000000E+01  0.00000000E+00
  9.20000000E+02  2.20000000E+01  0.00000000E+00
  9.20000000E+02  2.00000000E+01  0.00000000E+00
  9.20000000E+02  1.80000000E+01  0.00000000E+00
  9.20000000E+02  1.60000000E+01  0.00000000E+00
  9.20000000E+02  1.40000000E+01  0.00000000E+00
  9.20000000E+02  1.20000000E+01  0.00000000E+00
  9.20000000E+02  1.00000000E+01  0.00000000E+00
  9.20000000E+02  8.00000000E+00  0.00000000E+00
  9.20000000E+02  6.00000000E+00  0.00000000E+00
  9.20000000E+02  4.00000000E+00  0.00000000E+00
  9.20000000E+02  2.00000000E+00  0.00000000E+00
  9.20000000E+02 -3.33066907E-14  0.00000000E+00
  9.30000000E+02  1.00000000E+02  0.00000000E+00
  9.30000000E+02  9.80000000E+01  0.00000000E+00
  9.30000000E+02  9.60000000E+01  0.00000000E+00
  9.30000000E+02  9.40000000E+01  0.00000000E+00
  9.30000000E+02  9.20000000E+01  0.00000000E+00
  9.30000000E+02  9.00000000E+01  0.00000000E+00
  9.30000000E+02  8.80000000E+01  0.00000000E+00
  9.30000000E+02  8.60000000E+01  0.00000000E+00
  9.30000000E+02  8.40000000E+01  0.00000000E+00
  9.30000000E+02  8.20000000E+01  0.00000000E+00
  9.30000000E+02  8.00000000E+01  0.00000000E+00
  9.30000000E+02  7.80000000E+01  0.00000000E+00
  9.30000000E+02  7.60000000E+01  0.00000000E+00
  9.30000000E+02  7.40000000E+01  0.00000000E+00
  9.30000000E+02  7.20000000E+01  0.00000000E+00
  9.30000000E+02  7.00000000E+01  0.00000000E+00
  9.30000000E+02  6.80000000E+01  0.00000000E+00
  9.30000000E+02  6.60000000E+01  0.00000000E+00
  9.30000000E+02  6.40000000E+01  0.00000000E+00
  9.30000000E+02  6.20000000E+01  0.00000000E+00
  9.30000000E+02  6.00000000E+01  0.00000000E+00
  9.30000000E+02  5.80000000E+01  0.00000000E+00
  9.30000000E+02  5.60000000E+01  0.00000000E+00
  9.30000000E+02  5.40000000E+01  0.00000000E+00
  9.30000000E+02  5.20000000E+01  0.00000000E+00
  9.30000000E+02  5.00000000E+01  0.00000000E+00
  9.30000000E+02  4.80000000E+01  0.00000000E+00
  9.30000000E+02  4.60000000E+01  0.00000000E+00
  9.30000000E+02  4.40000000E+01  0.00000000E+00
  9.30000000E+02  4.20000000E+01  0.00000000E+00
  9.30000000E+02  4.00000000E+01  0.00000000E+00
  9.30000000E+02  3.80000000E+01  0.00000000E+00
  9.30000000E+02  3.60000000E+01  0.00000000E+00
  9.30000000E+02  3.40000000E+01  0.00000000E+00
  9.30000000E+02  3.20000000E+01  0.00000000E+00
  9.30000000E+02  3.00000000E+01  0.00000000E+00
  9.30000000E+02  2.80000000E+01  0.00000000E+00
  9.30000000E+02  2.60000000E+01  0.00000000E+00
  9.30000000E+02  2.40000000E+01  0.00000000E+00
  9.30000000E+02  2.20000000E+01  0.00000000E+00
  9.30000000E+02  2.00000000E+01  0.00000000E+00
  9.30000000E+02  1.80000000E+01  0.00000000E+00
  9.30000000E+02  1.60000000E+01  0.00000000E+00
  9.30000000E+02  1.40000000E+01  0.00000000E+00
  9.30000000E+02  1.20000000E+01  0.00000000E+00
  9.30000000E+02  1.00000000E+01  0.00000000E+00
  9.30000000E+02  8.00000000E+00  0.00000000E+00
  9.30000000E+02  6.00000000E+00  0.00000000E+00
  9.30000000E+02  4.00000000E+00  0.00000000E+00
  9.30000000E+02  2.00000000E+00  0.00000000E+00
  9.30000000E+02 -3.33066907E-14  0.00000000E+00
  9.40000000E+02  1.00000000E+02  0.00000000E+00
  9.40000000E+02  9.80000000E+01  0.00000000E+00
  9.40000000E+02  9.60000000E+01  0.00000000E+00
  9.40000000E+02  9.40000000E+01  0.00000000E+00
  9.40000000E+02  9.20000000E+01  0.00000000E+00
  9.40000000E+02  9.00000000E+01  0.00000000E+00
  9.40000000E+02  8.80000000E+01  0.00000000E+00
  9.40000000E+02  8.60000000E+01  0.00000000E+00
  9.40000000E+02  8.40000000E+01  0.00000000E+00
  9.40000000E+02  8.20000000E+01  0.00000000E+00
  9.40000000E+02  8.00000000E+01  0.00000000E+00
  9.40000000E+02  7.80000000E+01  0.00000000E+00
  9.40000000E+02  7.60000000E+01  0.00000000E+00
  9.40000000E+02  7.40000000E+01  0.00000000E+00
  9.40000000E+02  7.20000000E+01  0.00000000E+00
  9.40000000E+02  7.00000000E+01  0.00000000E+00
  9.40000000E+02  6.80000000E+01  0.00000000E+00
  9.40000000E+02  6.60000000E+01  0.00000000E+00
  9.40000000E+02  6.40000000E+01  0.00000000E+00
  9.40000000E+02  6.20000000E+01  0.00000000E+00
  9.40000000E+02  6.00000000E+01  0.00000000E+00
  9.40000000E+02  5.80000000E+01  0.00000000E+00
  9.40000000E+02  5.60000000E+01  0.00000000E+00
  9.40000000E+02  5.40000000E+01  0.00000000E+00
  9.40000000E+02  5.20000000E+01  0.00000000E+00
  9.40000000E+02  5.00000000E+01  0.00000000E+00
  9.40000000E+02  4.80000000E+01  0.00000000E+00
  9.40000000E+02  4.60000000E+01  0.00000000E+00
  9.40000000E+02  4.40000000E+01  0.00000000E+00
  9.40000000E+02  4.20000000E+01  0.00000000E+00
  9.40000000E+02  4.00000000E+01  0.00000000E+00
  9.40000000E+02  3.80000000E+01  0.00000000E+00
  9.40000000E+02  3.60000000E+01  0.00000000E+00
  9.40000000E+02  3.40000000E+01  0.00000000E+00
  9.40000000E+02  3.20000000E+01  0.00000000E+00
  9.40000000E+02  3.00000000E+01  0.00000000E+00
  9.40000000E+02  2.80000000E+01  0.00000000E+00
  9.40000000E+02  2.60000000E+01  0.00000000E+00
  9.40000000E+02  2.40000000E+01  0.00000000E+00
  9.40000000E+02  2.20000000E+01  0.00000000E+00
  9.40000000E+02  2.00000000E+01  0.00000000E+00
  9.40000000E+02  1.80000000E+01  0.00000000E+00
  9.40000000E+02  1.60000000E+01  0.00000000E+00
  9.40000000E+02  1.40000000E+01  0.00000000E+00
  9.40000000E+02  1.20000000E+01  0.00000000E+00
  9.40000000E+02  1.00000000E+01  0.00000000E+00
  9.40000000E+02  8.00000000E+00  0.00000000E+00
  9.40000000E+02  6.00000000E+00  0.00000000E+00
  9.40000000E+02  4.00000000E+00  0.00000000E+00
  9.40000000E+02  2.00000000E+00  0.00000000E+00
  9.40000000E+02 -3.33066907E-14  0.00000000E+00
  9.50000000E+02  1.00000000E+02  0.00000000E+00
  9.50000000E+02  9.80000000E+01  0.00000000E+00
  9.50000000E+02  9.60000000E+01  0.00000000E+00
  9.50000000E+02  9.40000000E+01  0.00000000E+00
  9.50000000E+02  9.20000000E+01  0.00000000E+00
  9.50000000E+02  9.00000000E+01  0.00000000E+00
  9.50000000E+02  8.80000000E+01  0.00000000E+00
  9.50000000E+02  8.60000000E+01  0.00000000E+00
  9.50000000E+02  8.40000000E+01  0.00000000E+00
  9.50000000E+02  8.20000000E+01  0.00000000E+00
  9.50000000E+02  8.00000000E+01  0.00000000E+00
  9.50000000E+02  7.80000000E+01  0.00000000E+00
  9.50000000E+02  7.60000000E+01  0.00000000E+00
  9.50000000E+02  7.40000000E+01  0.00000000E+00
  9.50000000E+02  7.20000000E+01  0.00000000E+00
  9.50000000E+02  7.00000000E+01  0.00000000E+00
  9.50000000E+02  6.80000000E+01  0.00000000E+00
  9.50000000E+02  6.60000000E+01  0.00000000E+00
  9.50000000E+02  6.40000000E+01  0.00000000E+00
  9.50000000E+02  6.20000000E+01  0.00000000E+00
  9.50000000E+02  6.00000000E+01  0.00000000E+00
  9.50000000E+02  5.80000000E+01  0.00000000E+00
  9.50000000E+02  5.60000000E+01  0.00000000E+00
  9.50000000E+02  5.40000000E+01  0.00000000E+00
  9.50000000E+02  5.20000000E+01  0.00000000E+00
  9.50000000E+02  5.00000000E+01  0.00000000E+00
  9.50000000E+02  4.80000000E+01  0.00000000E+00
  9.50000000E+02  4.60000000E+01  0.00000000E+00
  9.50000000E+02  4.40000000E+01  0.00000000E+00
  9.50000000E+02  4.20000000E+01  0.00000000E+00
  9.50000000E+02  4.00000000E+01  0.00000000E+00
  9.50000000E+02  3.80000000E+01  0.00000000E+00
  9.50000000E+02  3.60000000E+01  0.00000000E+00
  9.50000000E+02  3.40000000E+01  0.00000000E+00
  9.50000000E+02  3.20000000E+01  0.00000000E+00
  9.50000000E+02  3.00000000E+01  0.00000000E+00
  9.50000000E+02  2.80000000E+01  0.00000000E+00
  9.50000000E+02  2.60000000E+01  0.00000000E+00
  9.50000000E+02  2.40000000E+01  0.00000000E+00
  9.50000000E+02  2.20000000E+01  0.00000000E+00
  9.50000000E+02  2.00000000E+01  0.00000000E+00
  9.50000000E+02  1.80000000E+01  0.00000000E+00
  9.50000000E+02  1.60000000E+01  0.00000000E+00
  9.50000000E+02  1.40000000E+01  0.00000000E+00
  9.50000000E+02  1.20000000E+01  0.00000000E+00
  9.50000000E+02  1.00000000E+01  0.00000000E+00
  9.50000000E+02  8.00000000E+00  0.00000000E+00
  9.50000000E+02  6.00000000E+00  0.00000000E+00
  9.50000000E+02  4.00000000E+00  0.00000000E+00
  9.50000000E+02  2.00000000E+00  0.00000000E+00
  9.50000000E+02 -3.33066907E-14  0.00000000E+00
  9.60000000E+02  1.00000000E+02  0.00000000E+00
  9.60000000E+02  9.80000000E+01  0.00000000E+00
  9.60000000E+02  9.60000000E+01  0.00000000E+00
  9.60000000E+02  9.40000000E+01  0.00000000E+00
  9.60000000E+02  9.20000000E+01  0.00000000E+00
  9.60000000E+02  9.00000000E+01  0.00000000E+00
  9.60000000E+02  8.80000000E+01  0.00000000E+00
  9.60000000E+02  8.60000000E+01  0.00000000E+00
  9.60000000E+02  8.40000000E+01  0.00000000E+00
  9.60000000E+02  8.20000000E+01  0.00000000E+00
  9.60000000E+02  8.00000000E+01  0.00000000E+00
  9.60000000E+02  7.80000000E+01  0.00000000E+00
  9.60000000E+02  7.60000000E+01  0.00000000E+00
  9.60000000E+02  7.40000000E+01  0.00000000E+00
  9.60000000E+02  7.20000000E+01  0.00000000E+00
  9.60000000E+02  7.00000000E+01  0.00000000E+00
  9.60000000E+02  6.80000000E+01  0.00000000E+00
  9.60000000E+02  6.60000000E+01  0.00000000E+00
  9.60000000E+02  6.40000000E+01  0.00000000E+00
  9.60000000E+02  6.20000000E+01  0.00000000E+00
  9.60000000E+02  6.00000000E+01  0.00000000E+00
  9.60000000E+02  5.80000000E+01  0.00000000E+00
  9.60000000E+02  5.60000000E+01  0.00000000E+00
  9.60000000E+02  5.40000000E+01  0.00000000E+00
  9.60000000E+02  5.20000000E+01  0.00000000E+00
  9.60000000E+02  5.00000000E+01  0.00000000E+00
  9.60000000E+02  4.80000000E+01  0.00000000E+00
  9.60000000E+02  4.60000000E+01  0.00000000E+00
  9.60000000E+02  4.40000000E+01  0.00000000E+00
  9.60000000E+02  4.20000000E+01  0.00000000E+00
  9.60000000E+02  4.00000000E+01  0.00000000E+00
  9.60000000E+02  3.80000000E+01  0.00000000E+00
  9.60000000E+02  3.60000000E+01  0.00000000E+00
  9.60000000E+02  3.40000000E+01  0.00000000E+00
  9.60000000E+02  3.20000000E+01  0.00000000E+00
  9.60000000E+02  3.00000000E+01  0.00000000E+00
  9.60000000E+02  2.80000000E+01  0.00000000E+00
  9.60000000E+02  2.60000000E+01  0.00000000E+00
  9.60000000E+02  2.40000000E+01  0.00000000E+00
  9.60000000E+02  2.20000000E+01  0.00000000E+00
  9.60000000E+02  2.00000000E+01  0.00000000E+00
  9.60000000E+02  1.80000000E+01  0.00000000E+00
  9.60000000E+02  1.60000000E+01  0.00000000E+00
  9.60000000E+02  1.40000000E+01  0.00000000E+00
  9.60000000E+02  1.20000000E+01  0.00000000E+00
  9.60000000E+02  1.00000000E+01  0.00000000E+00
  9.60000000E+02  8.00000000E+00  0.00000000E+00
  9.60000000E+02  6.00000000E+00  0.00000000E+00
  9.60000000E+02  4.00000000E+00  0.00000000E+00
  9.60000000E+02  2.00000000E+00  0.00000000E+00
  9.60000000E+02 -3.33066907E-14  0.00000000E+00
  9.70000000E+02  1.00000000E+02  0.00000000E+00
  9.70000000E+02  9.80000000E+01  0.00000000E+00
  9.70000000E+02  9.60000000E+01  0.00000000E+00
  9.70000000E+02  9.40000000E+01  0.00000000E+00
  9.70000000E+02  9.20000000E+01  0.00000000E+00
  9.70000000E+02  9.00000000E+01  0.00000000E+00
  9.70000000E+02  8.80000000E+01  0.00000000E+00
  9.70000000E+02  8.60000000E+01  0.00000000E+00
  9.70000000E+02  8.40000000E+01  0.00000000E+00
  9.70000000E+02  8.20000000E+01  0.00000000E+00
  9.70000000E+02  8.00000000E+01  0.00000000E+00
  9.70000000E+02  7.80000000E+01  0.00000000E+00
  9.70000000E+02  7.60000000E+01  0.00000000E+00
  9.70000000E+02  7.40000000E+01  0.00000000E+00
  9.70000000E+02  7.20000000E+01  0.00000000E+00
  9.70000000E+02  7.00000000E+01  0.00000000E+00
  9.70000000E+02  6.80000000E+01  0.00000000E+00
  9.70000000E+02  6.60000000E+01  0.00000000E+00
  9.70000000E+02  6.40000000E+01  0.00000000E+00
  9.70000000E+02  6.20000000E+01  0.00000000E+00
  9.70000000E+02  6.00000000E+01  0.00000000E+00
  9.70000000E+02  5.80000000E+01  0.00000000E+00
  9.70000000E+02  5.60000000E+01  0.00000000E+00
  9.70000000E+02  5.40000000E+01  0.00000000E+00
  9.70000000E+02  5.20000000E+01  0.00000000E+00
  9.70000000E+02  5.00000000E+01  0.00000000E+00
  9.70000000E+02  4.80000000E+01  0.00000000E+00
  9.70000000E+02  4.60000000E+01  0.00000000E+00
  9.70000000E+02  4.40000000E+01  0.00000000E+00
  9.70000000E+02  4.20000000E+01  0.00000000E+00
  9.70000000E+02  4.00000000E+01  0.00000000E+00
  9.70000000E+02  3.80000000E+01  0.00000000E+00
  9.70000000E+02  3.60000000E+01  0.00000000E+00
  9.70000000E+02  3.40000000E+01  0.00000000E+00
  9.70000000E+02  3.20000000E+01  0.00000000E+00
  9.70000000E+02  3.00000000E+01  0.00000000E+00
  9.70000000E+02  2.80000000E+01  0.00000000E+00
  9.70000000E+02  2.60000000E+01  0.00000000E+00
  9.70000000E+02  2.40000000E+01  0.00000000E+00
  9.70000000E+02  2.20000000E+01  0.00000000E+00
  9.70000000E+02  2.00000000E+01  0.00000000E+00
  9.70000000E+02  1.80000000E+01  0.00000000E+00
  9.70000000E+02  1.60000000E+01  0.00000000E+00
  9.70000000E+02  1.40000000E+01  0.00000000E+00
  9.70000000E+02  1.20000000E+01  0.00000000E+00
  9.70000000E+02  1.00000000E+01  0.00000000E+00
  9.70000000E+02  8.00000000E+00  0.00000000E+00
  9.70000000E+02  6.00000000E+00  0.00000000E+00
  9.70000000E+02  4.00000000E+00  0.00000000E+00
  9.70000000E+02  2.00000000E+00  0.00000000E+00
  9.70000000E+02 -3.33066907E-14  0.00000000E+00
  9.80000000E+02  1.00000000E+02  0.00000000E+00
  9.80000000E+02  9.80000000E+01  0.00000000E+00
  9.80000000E+02  9.60000000E+01  0.00000000E+00
  9.80000000E+02  9.40000000E+01  0.00000000E+00
  9.80000000E+02  9.20000000E+01  0.00000000E+00
  9.80000000E+02  9.00000000E+01  0.00000000E+00
  9.80000000E+02  8.80000000E+01  0.00000000E+00
  9.80000000E+02  8.60000000E+01  0.00000000E+00
  9.80000000E+02  8.40000000E+01  0.00000000E+00
  9.80000000E+02  8.20000000E+01  0.00000000E+00
  9.80000000E+02  8.00000000E+01  0.00000000E+00
  9.80000000E+02  7.80000000E+01  0.00000000E+00
  9.80000000E+02  7.60000000E+01  0.00000000E+00
  9.80000000E+02  7.40000000E+01  0.00000000E+00
  9.80000000E+02  7.20000000E+01  0.00000000E+00
  9.80000000E+02  7.00000000E+01  0.00000000E+00
  9.80000000E+02  6.80000000E+01  0.00000000E+00
  9.80000000E+02  6.60000000E+01  0.00000000E+00
  9.80000000E+02  6.40000000E+01  0.00000000E+00
  9.80000000E+02  6.20000000E+01  0.00000000E+00
  9.80000000E+02  6.00000000E+01  0.00000000E+00
  9.80000000E+02  5.80000000E+01  0.00000000E+00
  9.80000000E+02  5.60000000E+01  0.00000000E+00
  9.80000000E+02  5.40000000E+01  0.00000000E+00
  9.80000000E+02  5.20000000E+01  0.00000000E+00
  9.80000000E+02  5.00000000E+01  0.00000000E+00
  9.80000000E+02  4.80000000E+01  0.00000000E+00
  9.80000000E+02  4.60000000E+01  0.00000000E+00
  9.80000000E+02  4.40000000E+01  0.00000000E+00
  9.80000000E+02  4.20000000E+01  0.00000000E+00
  9.80000000E+02  4.00000000E+01  0.00000000E+00
  9.80000000E+02  3.80000000E+01  0.00000000E+00
  9.80000000E+02  3.60000000E+01  0.00000000E+00
  9.80000000E+02  3.40000000E+01  0.00000000E+00
  9.80000000E+02  3.20000000E+01  0.00000000E+00
  9.80000000E+02  3.00000000E+01  0.00000000E+00
  9.80000000E+02  2.80000000E+01  0.00000000E+00
  9.80000000E+02  2.60000000E+01  0.00000000E+00
  9.80000000E+02  2.40000000E+01  0.00000000E+00
  9.80000000E+02  2.20000000E+01  0.00000000E+00
  9.80000000E+02  2.00000000E+01  0.00000000E+00
  9.80000000E+02  1.80000000E+01  0.00000000E+00
  9.80000000E+02  1.60000000E+01  0.00000000E+00
  9.80000000E+02  1.40000000E+01  0.00000000E+00
  9.80000000E+02  1.20000000E+01  0.00000000E+00
  9.80000000E+02  1.00000000E+01  0.00000000E+00
  9.80000000E+02  8.00000000E+00  0.00000000E+00
  9.80000000E+02  6.00000000E+00  0.00000000E+00
  9.80000000E+02  4.00000000E+00  0.00000000E+00
  9.80000000E+02  2.00000000E+00  0.00000000E+00
  9.80000000E+02 -3.33066907E-14  0.00000000E+00
  9.90000000E+02  1.00000000E+02  0.00000000E+00
  9.90000000E+02  9.80000000E+01  0.00000000E+00
  9.90000000E+02  9.60000000E+01  0.00000000E+00
  9.90000000E+02  9.40000000E+01  0.00000000E+00
  9.90000000E+02  9.20000000E+01  0.00000000E+00
  9.90000000E+02  9.00000000E+01  0.00000000E+00
  9.90000000E+02  8.80000000E+01  0.00000000E+00
  9.90000000E+02  8.60000000E+01  0.00000000E+00
  9.90000000E+02  8.40000000E+01  0.00000000E+00
  9.90000000E+02  8.20000000E+01  0.00000000E+00
  9.90000000E+02  8.00000000E+01  0.00000000E+00
  9.90000000E+02  7.80000000E+01  0.00000000E+00
  9.90000000E+02  7.60000000E+01  0.00000000E+00
  9.90000000E+02  7.40000000E+01  0.00000000E+00
  9.90000000E+02  7.20000000E+01  0.00000000E+00
  9.90000000E+02  7.00000000E+01  0.00000000E+00
  9.90000000E+02  6.80000000E+01  0.00000000E+00
  9.90000000E+02  6.60000000E+01  0.00000000E+00
  9.90000000E+02  6.40000000E+01  0.00000000E+00
  9.90000000E+02  6.20000000E+01  0.00000000E+00
  9.90000000E+02  6.00000000E+01  0.00000000E+00
  9.90000000E+02  5.80000000E+01  0.00000000E+00
  9.90000000E+02  5.60000000E+01  0.00000000E+00
  9.90000000E+02  5.40000000E+01  0.00000000E+00
  9.90000000E+02  5.20000000E+01  0.00000000E+00
  9.90000000E+02  5.00000000E+01  0.00000000E+00
  9.90000000E+02  4.80000000E+01  0.00000000E+00
  9.90000000E+02  4.60000000E+01  0.00000000E+00
  9.90000000E+02  4.40000000E+01  0.00000000E+00
  9.90000000E+02  4.20000000E+01  0.00000000E+00
  9.90000000E+02  4.00000000E+01  0.00000000E+00
  9.90000000E+02  3.80000000E+01  0.00000000E+00
  9.90000000E+02  3.60000000E+01  0.00000000E+00
  9.90000000E+02  3.40000000E+01  0.00000000E+00
  9.90000000E+02  3.20000000E+01  0.00000000E+00
  9.90000000E+02  3.00000000E+01  0.00000000E+00
  9.90000000E+02  2.80000000E+01  0.00000000E+00
  9.90000000E+02  2.60000000E+01  0.00000000E+00
  9.90000000E+02  2.40000000E+01  0.00000000E+00
  9.90000000E+02  2.20000000E+01  0.00000000E+00
  9.90000000E+02  2.00000000E+01  0.00000000E+00
  9.90000000E+02  1.80000000E+01  0.00000000E+00
  9.90000000E+02  1.60000000E+01  0.00000000E+00
  9.90000000E+02  1.40000000E+01  0.00000000E+00
  9.90000000E+02  1.20000000E+01  0.00000000E+00
  9.90000000E+02  1.00000000E+01  0.00000000E+00
  9.90000000E+02  8.00000000E+00  0.00000000E+00
  9.90000000E+02  6.00000000E+00  0.00000000E+00
  9.90000000E+02  4.00000000E+00  0.00000000E+00
  9.90000000E+02  2.00000000E+00  0.00000000E+00
  9.90000000E+02 -3.33066907E-14  0.00000000E+00
  1.00000000E+03  1.00000000E+02  0.00000000E+00
  1.00000000E+03  9.80000000E+01  0.00000000E+00
  1.00000000E+03  9.60000000E+01  0.00000000E+00
  1.00000000E+03  9.40000000E+01  0.00000000E+00
  1.00000000E+03  9.20000000E+01  0.00000000E+00
  1.00000000E+03  9.00000000E+01  0.00000000E+00
  1.00000000E+03  8.80000000E+01  0.00000000E+00
  1.00000000E+03  8.60000000E+01  0.00000000E+00
  1.00000000E+03  8.40000000E+01  0.00000000E+00
  1.00000000E+03  8.20000000E+01  0.00000000E+00
  1.00000000E+03  8.00000000E+01  0.00000000E+00
  1.00000000E+03  7.80000000E+01  0.00000000E+00
  1.00000000E+03  7.60000000E+01  0.00000000E+00
  1.00000000E+03  7.40000000E+01  0.00000000E+00
  1.00000000E+03  7.20000000E+01  0.00000000E+00
  1.00000000E+03  7.00000000E+01  0.00000000E+00
  1.00000000E+03  6.80000000E+01  0.00000000E+00
  1.00000000E+03  6.60000000E+01  0.00000000E+00
  1.00000000E+03  6.40000000E+01  0.00000000E+00
  1.00000000E+03  6.20000000E+01  0.00000000E+00
  1.00000000E+03  6.00000000E+01  0.00000000E+00
  1.00000000E+03  5.80000000E+01  0.00000000E+00
  1.00000000E+03  5.60000000E+01  0.00000000E+00
  1.00000000E+03  5.40000000E+01  0.00000000E+00
  1.00000000E+03  5.20000000E+01  0.00000000E+00
  1.00000000E+03  5.00000000E+01  0.00000000E+00
  1.00000000E+03  4.80000000E+01  0.00000000E+00
  1.00000000E+03  4.60000000E+01  0.00000000E+00
  1.00000000E+03  4.40000000E+01  0.00000000E+00
  1.00000000E+03  4.20000000E+01  0.00000000E+00
  1.00000000E+03  4.00000000E+01  0.00000000E+00
  1.00000000E+03  3.80000000E+01  0.00000000E+00
  1.00000000E+03  3.60000000E+01  0.00000000E+00
  1.00000000E+03  3.40000000E+01  0.00000000E+00
  1.00000000E+03  3.20000000E+01  0.00000000E+00
  1.00000000E+03  3.00000000E+01  0.00000000E+00
  1.00000000E+03  2.80000000E+01  0.00000000E+00
  1.00000000E+03  2.60000000E+01  0.00000000E+00
  1.00000000E+03  2.40000000E+01  0.00000000E+00
  1.00000000E+03  2.20000000E+01  0.00000000E+00
  1.00000000E+03  2.00000000E+01  0.00000000E+00
  1.00000000E+03  1.80000000E+01  0.00000000E+00
  1.00000000E+03  1.60000000E+01  0.00000000E+00
  1.00000000E+03  1.40000000E+01  0.00000000E+00
  1.00000000E+03  1.20000000E+01  0.00000000E+00
  1.00000000E+03  1.00000000E+01  0.00000000E+00
  1.00000000E+03  8.00000000E+00  0.00000000E+00
  1.00000000E+03  6.00000000E+00  0.00000000E+00
  1.00000000E+03  4.00000000E+00  0.00000000E+00
  1.00000000E+03  2.00000000E+00  0.00000000E+00
  1.00000000E+03 -3.33066907E-14  0.00000000E+00
CELLS      5000     25000
         4           0           1          52          51
         4           1           2          53          52
         4           2           3          54          53
         4           3           4          55          54
         4           4           5          56          55
         4           5           6          57          56
         4           6           7          58          57
         4           7           8          59          58
         4           8           9          60          59
         4           9          10          61          60
         4          10          11          62          61
         4          11          12          63          62
         4          12          13          64          63
         4          13          14          65          64
         4          14          15          66          65
         4          15          16          67          66
         4          16          17          68          67
         4          17          18          69          68
         4          18          19          70          69
         4          19          20          71          70
         4          20          21          72          71
         4          21          22          73          72
         4          22          23          74          73
         4          23          24          75          74
         4          24          25          76          75
         4          25          26          77          76
         4          26          27          78          77
         4          27          28          79          78
         4          28          29          80          79
         4          29          30          81          80
         4          30          31          82          81
         4          31          32          83          82
         4          32          33          84          83
         4          33          34          85          84
         4          34          35          86          85
         4          35          36          87          86
         4          36          37          88          87
         4          37          38          89          88
         4          38          39          90          89
         4          39          40          91          90
         4          40          41          92          91
         4          41          42          93          92
         4          42          43          94          93
         4          43          44          95          94
         4          44          45          96          95
         4          45          46          97          96
         4          46          47          98          97
         4          47          48          99          98
         4          48          49         100          99
         4          49          50         101         100
         4          51          52         103         102
         4          52          53         104         103
         4          53          54         105         104
         4          54          55         106         105
         4          55          56         107         106
         4          56          57         108         107
         4          57          58         109         108
         4          58          59         110         109
         4          59          60         111         110
         4          60          61         112         111
         4          61          62         113         112
         4          62          63         114         113
         4          63          64         115         114
         4          64          65         116         115
         4          65          66         117         116
         4          66          67         118         117
         4          67          68         119         118
         4          68          69         120         119
         4          69          70         121         120
         4          70          71         122         121
         4          71          72         123         122
         4          72          73         124         123
         4          73          74         125         124
         4          74          75         126         125
         4          75          76         127         126
         4          76          77         128         127
         4          77          78         129         128
         4          78          79         130         129
         4          79          80         131         130
         4          80          81         132         131
         4          81          82         133         132
         4          82          83         134         133
         4          83          84         135         134
         4          84          85         136         135
         4          85          86         137         136
         4          86          87         138         137
         4          87          88         139         138
         4          88          89         140         139
         4          89          90         141         140
         4          90          91         142         141
         4          91          92         143         142
         4          92          93         144         143
         4          93          94         145         144
         4          94          95         146         145
         4          95          96         147         146
         4          96          97         148         147
         4          97          98         149         148
         4          98          99         150         149
         4          99         100         151         150
         4         100         101         152         151
         4         102         103         154         153
         4         103         104         155         154
         4         104         105         156         155
         4         105         106         157         156
         4         106         107         158         157
         4         107         108         159         158
         4         108         109         160         159
         4         109         110         161         160
         4         110         111         162         161
         4         111         112         163         162
         4         112         113         164         163
         4         113         114         165         164
         4         114         115         166         165
         4         115         116         167         166
         4         116         117         168         167
         4         117         118         169         168
         4         118         119         170         169
         4         119         120         171         170
         4         120         121         172         171
         4         121         122         173         172
         4         122         123         174         173
         4         123         124         175         174
         4         124         125         176         175
         4         125         126         177         176
         4         126         127         178         177
         4         127         128         179         178
         4         128         129         180         179
         4         129         130         181         180
         4         130         131         182         181
         4         131         132         183         182
         4         132         133         184         183
         4         133         134         185         184
         4         134         135         186         185
         4         135         136         187         186
         4         136         137         188         187
         4         137         138         189         188
         4         138         139         190         189
         4         139         140         191         190
         4         140         141         192         191
         4         141         142         193         192
         4         142         143         194         193
         4         143         144         195         194
         4         144         145         196         195
         4         145         146         197         196
         4         146         147         198         197
         4         147         148         199         198
         4         148         149         200         199
         4         149         150         201         200
         4         150         151         202         201
         4         151         152         203         202
         4         153         154         205         204
         4         154         155         206         205
         4         155         156         207         206
         4         156         157         208         207
         4         157         158         209         208
         4         158         159         210         209
         4         159         160         211         210
         4         160         161         212         211
         4         161         162         213         212
         4         162         163         214         213
         4         163         164         215         214
         4         164         165         216         215
         4         165         166         217         216
         4         166         167         218         217
         4         167         168         219         218
         4         168         169         220         219
         4         169         170         221         220
         4         170         171         222         221
         4         171         172         223         222
         4         172         173         224         223
         4         173         174         225         224
         4         174         175         226         225
         4         175         176         227         226
         4         176         177         228         227
         4         177         178         229         228
         4         178         179         230         229
         4         179         180         231         230
         4         180         181         232         231
         4         181         182         233         232
         4         182         183         234         233
         4         183         184         235         234
         4         184         185         236         235
         4         185         186         237         236
         4         186         187         238         237
         4         187         188         239         238
         4         188         189         240         239
         4         189         190         241         240
         4         190         191         242         241
         4         191         192         243         242
         4         192         193         244         243
         4         193         194         245         244
         4         194         195         246         245
         4         195         196         247         246
         4         196         197         248         247
         4         197         198         249         248
         4         198         199         250         249
         4         199         200         251         250
         4         200         201         252         251
         4         201         202         253         252
         4         202         203         254         253
         4         204         205         256         255
         4         205         206         257         256
         4         206         207         258         257
         4         207         208         259         258
         4         208         209         260         259
         4         209         210         261         260
         4         210         211         262         261
         4         211         212         263         262
         4         212         213         264         263
         4         213         214         265         264
         4         214         215         266         265
         4         215         216         267         266
         4         216         217         268         267
         4         217         218         269         268
         4         218         219         270         269
         4         219         220         271         270
         4         220         221         272         271
         4         221         222         273         272
         4         222         223         274         273
         4         223         224         275         274
         4         224         225         276         275
         4         225         226         277         276
         4         226         227         278         277
         4         227         228         279         278
         4         228         229         280         279
         4         229         230         281         280
         4         230         231         282         281
         4         231         232         283         282
         4         232         233         284         283
         4         233         234         285         284
         4         234         235         286         285
         4         235         236         287         286
         4         236         237         288         287
         4         237         238         289         288
         4         238         239         290         289
         4         239         240         291         290
         4         240         241         292         291
         4         241         242         293         292
         4         242         243         294         293
         4         243         244         295         294
         4         244         245         296         295
         4         245         246         297         296
         4         246         247         298         297
         4         247         248         299         298
         4         248         249         300         299
         4         249         250         301         300
         4         250         251         302         301
         4         251         252         303         302
         4         252         253         304         303
         4         253         254         305         304
         4         255         256         307         306
         4         256         257         308         307
         4         257         258         309         308
         4         258         259         310         309
         4         259         260         311         310
         4         260         261         312         311
         4         261         262         313         312
         4         262         263         314         313
         4         263         264         315         314
         4         264         265         316         315
         4         265         266         317         316
         4         266         267         318         317
         4         267         268         319         318
         4         268         269         320         319
         4         269         270         321         320
         4         270         271         322         321
         4         271         272         323         322
         4         272         273         324         323
         4         273         274         325         324
         4         274         275         326         325
         4         275         276         327         326
         4         276         277         328         327
         4         277         278         329         328
         4         278         279         330         329
         4         279         280         331         330
         4         280         281         332         331
         4         281         282         333         332
         4         282         283         334         333
         4         283         284         335         334
         4         284         285         336         335
         4         285         286         337         336
         4         286         287         338         337
         4         287         288         339         338
         4         288         289         340         339
         4         289         290         341         340
         4         290         291         342         341
         4         291         292         343         342
         4         292         293         344         343
         4         293         294         345         344
         4         294         295         346         345
         4         295         296         347         346
         4         296         297         348         347
         4         297         298         349         348
         4         298         299         350         349
         4         299         300         351         350
         4         300         301         352         351
         4         301         302         353         352
         4         302         303         354         353
         4         303         304         355         354
         4         304         305         356         355
         4         306         307         358         357
         4         307         308         359         358
         4         308         309         360         359
         4         309         310         361         360
         4         310         311         362         361
         4         311         312         363         362
         4         312         313         364         363
         4         313         314         365         364
         4         314         315         366         365
         4         315         316         367         366
         4         316         317         368         367
         4         317         318         369         368
         4         318         319         370         369
         4         319         320         371         370
         4         320         321         372         371
         4         321         322         373         372
         4         322         323         374         373
         4         323         324         375         374
         4         324         325         376         375
         4         325         326         377         376
         4         326         327         378         377
         4         327         328         379         378
         4         328         329         380         379
         4         329         330         381         380
         4         330         331         382         381
         4         331         332         383         382
         4         332         333         384         383
         4         333         334         385         384
         4         334         335         386         385
         4         335         336         387         386
         4         336         337         388         387
         4         337         338         389         388
         4         338         339         390         389
         4         339         340         391         390
         4         340         341         392         391
         4         341         342         393         392
         4         342         343         394         393
         4         343         344         395         394
         4         344         345         396         395
         4         345         346         397         396
         4         346         347         398         397
         4         347         348         399         398
         4         348         349         400         399
         4         349         350         401         400
         4         350         351         402         401
         4         351         352         403         402
         4         352         353         404         403
         4         353         354         405         404
         4         354         355         406         405
         4         355         356         407         406
         4         357         358         409         408
         4         358         359         410         409
         4         359         360         411         410
         4         360         361         412         411
         4         361         362         413         412
         4         362         363         414         413
         4         363         364         415         414
         4         364         365         416         415
         4         365         366         417         416
         4         366         367         418         417
         4         367         368         419         418
         4         368         369         420         419
         4         369         370         421         420
         4         370         371         422         421
         4         371         372         423         422
         4         372         373         424         423
         4         373         374         425         424
         4         374         375         426         425
         4         375         376         427         426
         4         376         377         428         427
         4         377         378         429         428
         4         378         379         430         429
         4         379         380         431         430
         4         380         381         432         431
         4         381         382         433         432
         4         382         383         434         433
         4         383         384         435         434
         4         384         385         436         435
         4         385         386         437         436
         4         386         387         438         437
         4         387         388         439         438
         4         388         389         440         439
         4         389         390         441         440
         4         390         391         442         441
         4         391         392         443         442
         4         392         393         444         443
         4         393         394         445         444
         4         394         395         446         445
         4         395         396         447         446
         4         396         397         448         447
         4         397         398         449         448
         4         398         399         450         449
         4         399         400         451         450
         4         400         401         452         451
         4         401         402         453         452
         4         402         403         454         453
         4         403         404         455         454
         4         404         405         456         455
         4         405         406         457         456
         4         406         407         458         457
         4         408         409         460         459
         4         409         410         461         460
         4         410         411         462         461
         4         411         412         463         462
         4         412         413         464         463
         4         413         414         465         464
         4         414         415         466         465
         4         415         416         467         466
         4         416         417         468         467
         4         417         418         469         468
         4         418         419         470         469
         4         419         420         471         470
         4         420         421         472         471
         4         421         422         473         472
         4         422         423         474         473
         4         423         424         475         474
         4         424         425         476         475
         4         425         426         477         476
         4         426         427         478         477
         4         427         428         479         478
         4         428         429         480         479
         4         429         430         481         480
         4         430         431         482         481
         4         431         432         483         482
         4         432         433         484         483
         4         433         434         485         484
         4         434         435         486         485
         4         435         436         487         486
         4         436         437         488         487
         4         437         438         489         488
         4         438         439         490         489
         4         439         440         491         490
         4         440         441         492         491
         4         441         442         493         492
         4         442         443         494         493
         4         443         444         495         494
         4         444         445         496         495
         4         445         446         497         496
         4         446         447         498         497
         4         447         448         499         498
         4         448         449         500         499
         4         449         450         501         500
         4         450         451         502         501
         4         451         452         503         502
         4         452         453         504         503
         4         453         454         505         504
         4         454         455         506         505
         4         455         456         507         506
         4         456         457         508         507
         4         457         458         509         508
         4         459         460         511         510
         4         460         461         512         511
         4         461         462         513         512
         4         462         463         514         513
         4         463         464         515         514
         4         464         465         516         515
         4         465         466         517         516
         4         466         467         518         517
         4         467         468         519         518
         4         468         469         520         519
         4         469         470         521         520
         4         470         471         522         521
         4         471         472         523         522
         4         472         473         524         523
         4         473         474         525         524
         4         474         475         526         525
         4         475         476         527         526
         4         476         477         528         527
         4         477         478         529         528
         4         478         479         530         529
         4         479         480         531         530
         4         480         481         532         531
         4         481         482         533         532
         4         482         483         534         533
         4         483         484         535         534
         4         484         485         536         535
         4         485         486         537         536
         4         486         487         538         537
         4         487         488         539         538
         4         488         489         540         539
         4         489         490         541         540
         4         490         491         542         541
         4         491         492         543         542
         4         492         493         544         543
         4         493         494         545         544
         4         494         495         546         545
         4         495         496         547         546
         4         496         497         548         547
         4         497         498         549         548
         4         498         499         550         549
         4         499         500         551         550
         4         500         501         552         551
         4         501         502         553         552
         4         502         503         554         553
         4         503         504         555         554
         4         504         505         556         555
         4         505         506         557         556
         4         506         507         558         557
         4         507         508         559         558
         4         508         509         560         559
         4         510         511         562         561
         4         511         512         563         562
         4         512         513         564         563
         4         513         514         565         564
         4         514         515         566         565
         4         515         516         567         566
         4         516         517         568         567
         4         517         518         569         568
         4         518         519         570         569
         4         519         520         571         570
         4         520         521         572         571
         4         521         522         573         572
         4         522         523         574         573
         4         523         524         575         574
         4         524         525         576         575
         4         525         526         577         576
         4         526         527         578         577
         4         527         528         579         578
         4         528         529         580         579
         4         529         530         581         580
         4         530         531         582         581
         4         531         532         583         582
         4         532         533         584         583
         4         533         534         585         584
         4         534         535         586         585
         4         535         536         587         586
         4         536         537         588         587
         4         537         538         589         588
         4         538         539         590         589
         4         539         540         591         590
         4         540         541         592         591
         4         541         542         593         592
         4         542         543         594         593
         4         543         544         595         594
         4         544         545         596         595
         4         545         546         597         596
         4         546         547         598         597
         4         547         548         599         598
         4         548         549         600         599
         4         549         550         601         600
         4         550         551         602         601
         4         551         552         603         602
         4         552         553         604         603
         4         553         554         605         604
         4         554         555         606         605
         4         555         556         607         606
         4         556         557         608         607
         4         557         558         609         608
         4         558         559         610         609
         4         559         560         611         610
         4         561         562         613         612
         4         562         563         614         613
         4         563         564         615         614
         4         564         565         616         615
         4         565         566         617         616
         4         566         567         618         617
         4         567         568         619         618
         4         568         569         620         619
         4         569         570         621         620
         4         570         571         622         621
         4         571         572         623         622
         4         572         573         624         623
         4         573         574         625         624
         4         574         575         626         625
         4         575         576         627         626
         4         576         577         628         627
         4         577         578         629         628
         4         578         579         630         629
         4         579         580         631         630
         4         580         581         632         631
         4         581         582         633         632
         4         582         583         634         633
         4         583         584         635         634
         4         584         585         636         635
         4         585         586         637         636
         4         586         587         638         637
         4         587         588         639         638
         4         588         589         640         639
         4         589         590         641         640
         4         590         591         642         641
         4         591         592         643         642
         4         592         593         644         643
         4         593         594         645         644
         4         594         595         646         645
         4         595         596         647         646
         4         596         597         648         647
         4         597         598         649         648
         4         598         599         650         649
         4         599         600         651         650
         4         600         601         652         651
         4         601         602         653         652
         4         602         603         654         653
         4         603         604         655         654
         4         604         605         656         655
         4         605         606         657         656
         4         606         607         658         657
         4         607         608         659         658
         4         608         609         660         659
         4         609         610         661         660
         4         610         611         662         661
         4         612         613         664         663
         4         613         614         665         664
         4         614         615         666         665
         4         615         616         667         666
         4         616         617         668         667
         4         617         618         669         668
         4         618         619         670         669
         4         619         620         671         670
         4         620         621         672         671
         4         621         622         673         672
         4         622         623         674         673
         4         623         624         675         674
         4         624         625         676         675
         4         625         626         677         676
         4         626         627         678         677
         4         627         628         679         678
         4         628         629         680         679
         4         629         630         681         680
         4         630         631         682         681
         4         631         632         683         682
         4         632         633         684         683
         4         633         634         685         684
         4         634         635         686         685
         4         635         636         687         686
         4         636         637         688         687
         4         637         638         689         688
         4         638         639         690         689
         4         639         640         691         690
         4         640         641         692         691
         4         641         642         693         692
         4         642         643         694         693
         4         643         644         695         694
         4         644         645         696         695
         4         645         646         697         696
         4         646         647         698         697
         4         647         648         699         698
         4         648         649         700         699
         4         649         650         701         700
         4         650         651         702         701
         4         651         652         703         702
         4         652         653         704         703
         4         653         654         705         704
         4         654         655         706         705
         4         655         656         707         706
         4         656         657         708         707
         4         657         658         709         708
         4         658         659         710         709
         4         659         660         711         710
         4         660         661         712         711
         4         661         662         713         712
         4         663         664         715         714
         4         664         665         716         715
         4         665         666         717         716
         4         666         667         718         717
         4         667         668         719         718
         4         668         669         720         719
         4         669         670         721         720
         4         670         671         722         721
         4         671         672         723         722
         4         672         673         724         723
         4         673         674         725         724
         4         674         675         726         725
         4         675         676         727         726
         4         676         677         728         727
         4         677         678         729         728
         4         678         679         730         729
         4         679         680         731         730
         4         680         681         732         731
         4         681         682         733         732
         4         682         683         734         733
         4         683         684         735         734
         4         684         685         736         735
         4         685         686         737         736
         4         686         687         738         737
         4         687         688         739         738
         4         688         689         740         739
         4         689         690         741         740
         4         690         691         742         741
         4         691         692         743         742
         4         692         693         744         743
         4         693         694         745         744
         4         694         695         746         745
         4         695         696         747         746
         4         696         697         748         747
         4         697         698         749         748
         4         698         699         750         749
         4         699         700         751         750
         4         700         701         752         751
         4         701         702         753         752
         4         702         703         754         753
         4         703         704         755         754
         4         704         705         756         755
         4         705         706         757         756
         4         706         707         758         757
         4         707         708         759         758
         4         708         709         760         759
         4         709         710         761         760
         4         710         711         762         761
         4         711         712         763         762
         4         712         713         764         763
         4         714         715         766         765
         4         715         716         767         766
         4         716         717         768         767
         4         717         718         769         768
         4         718         719         770         769
         4         719         720         771         770
         4         720         721         772         771
         4         721         722         773         772
         4         722         723         774         773
         4         723         724         775         774
         4         724         725         776         775
         4         725         726         777         776
         4         726         727         778         777
         4         727         728         779         778
         4         728         729         780         779
         4         729         730         781         780
         4         730         731         782         781
         4         731         732         783         782
         4         732         733         784         783
         4         733         734         785         784
         4         734         735         786         785
         4         735         736         787         786
         4         736         737         788         787
         4         737         738         789         788
         4         738         739         790         789
         4         739         740         791         790
         4         740         741         792         791
         4         741         742         793         792
         4         742         743         794         793
         4         743         744         795         794
         4         744         745         796         795
         4         745         746         797         796
         4         746         747         798         797
         4         747         748         799         798
         4         748         749         800         799
         4         749         750         801         800
         4         750         751         802         801
         4         751         752         803         802
         4         752         753         804         803
         4         753         754         805         804
         4         754         755         806         805
         4         755         756         807         806
         4         756         757         808         807
         4         757         758         809         808
         4         758         759         810         809
         4         759         760         811         810
         4         760         761         812         811
         4         761         762         813         812
         4         762         763         814         813
         4         763         764         815         814
         4         765         766         817         816
         4         766         767         818         817
         4         767         768         819         818
         4         768         769         820         819
         4         769         770         821         820
         4         770         771         822         821
         4         771         772         823         822
         4         772         773         824         823
         4         773         774         825         824
         4         774         775         826         825
         4         775         776         827         826
         4         776         777         828         827
         4         777         778         829         828
         4         778         779         830         829
         4         779         780         831         830
         4         780         781         832         831
         4         781         782         833         832
         4         782         783         834         833
         4         783         784         835         834
         4         784         785         836         835
         4         785         786         837         836
         4         786         787         838         837
         4         787         788         839         838
         4         788         789         840         839
         4         789         790         841         840
         4         790         791         842         841
         4         791         792         843         842
         4         792         793         844         843
         4         793         794         845         844
         4         794         795         846         845
         4         795         796         847         846
         4         796         797         848         847
         4         797         798         849         848
         4         798         799         850         849
         4         799         800         851         850
         4         800         801         852         851
         4         801         802         853         852
         4         802         803         854         853
         4         803         804         855         854
         4         804         805         856         855
         4         805         806         857         856
         4         806         807         858         857
         4         807         808         859         858
         4         808         809         860         859
         4         809         810         861         860
         4         810         811         862         861
         4         811         812         863         862
         4         812         813         864         863
         4         813         814         865         864
         4         814         815         866         865
         4         816         817         868         867
         4         817         818         869         868
         4         818         819         870         869
         4         819         820         871         870
         4         820         821         872         871
         4         821         822         873         872
         4         822         823         874         873
         4         823         824         875         874
         4         824         825         876         875
         4         825         826         877         876
         4         826         827         878         877
         4         827         828         879         878
         4         828         829         880         879
         4         829         830         881         880
         4         830         831         882         881
         4         831         832         883         882
         4         832         833         884         883
         4         833         834         885         884
         4         834         835         886         885
         4         835         836         887         886
         4         836         837         888         887
         4         837         838         889         888
         4         838         839         890         889
         4         839         840         891         890
         4         840         841         892         891
         4         841         842         893         892
         4         842         843         894         893
         4         843         844         895         894
         4         844         845         896         895
         4         845         846         897         896
         4         846         847         898         897
         4         847         848         899         898
         4         848         849         900         899
         4         849         850         901         900
         4         850         851         902         901
         4         851         852         903         902
         4         852         853         904         903
         4         853         854         905         904
         4         854         855         906         905
         4         855         856         907         906
         4         856         857         908         907
         4         857         858         909         908
         4         858         859         910         909
         4         859         860         911         910
         4         860         861         912         911
         4         861         862         913         912
         4         862         863         914         913
         4         863         864         915         914
         4         864         865         916         915
         4         865         866         917         916
         4         867         868         919         918
         4         868         869         920         919
         4         869         870         921         920
         4         870         871         922         921
         4         871         872         923         922
         4         872         873         924         923
         4         873         874         925         924
         4         874         875         926         925
         4         875         876         927         926
         4         876         877         928         927
         4         877         878         929         928
         4         878         879         930         929
         4         879         880         931         930
         4         880         881         932         931
         4         881         882         933         932
         4         882         883         934         933
         4         883         884         935         934
         4         884         885         936         935
         4         885         886         937         936
         4         886         887         938         937
         4         887         888         939         938
         4         888         889         940         939
         4         889         890         941         940
         4         890         891         942         941
         4         891         892         943         942
         4         892         893         944         943
         4         893         894         945         944
         4         894         895         946         945
         4         895         896         947         946
         4         896         897         948         947
         4         897         898         949         948
         4         898         899         950         949
         4         899         900         951         950
         4         900         901         952         951
         4         901         902         953         952
         4         902         903         954         953
         4         903         904         955         954
         4         904         905         956         955
         4         905         906         957         956
         4         906         907         958         957
         4         907         908         959         958
         4         908         909         960         959
         4         909         910         961         960
         4         910         911         962         961
         4         911         912         963         962
         4         912         913         964         963
         4         913         914         965         964
         4         914         915         966         965
         4         915         916         967         966
         4         916         917         968         967
         4         918         919         970         969
         4         919         920         971         970
         4         920         921         972         971
         4         921         922         973         972
         4         922         923         974         973
         4         923         924         975         974
         4         924         925         976         975
         4         925         926         977         976
         4         926         927         978         977
         4         927         928         979         978
         4         928         929         980         979
         4         929         930         981         980
         4         930         931         982         981
         4         931         932         983         982
         4         932         933         984         983
         4         933         934         985         984
         4         934         935         986         985
         4         935         936         987         986
         4         936         937         988         987
         4         937         938         989         988
         4         938         939         990         989
         4         939         940         991         990
         4         940         941         992         991
         4         941         942         993         992
         4         942         943         994         993
         4         943         944         995         994
         4         944         945         996         995
         4         945         946         997         996
         4         946         947         998         997
         4         947         948         999         998
         4         948         949        1000         999
         4         949         950        1001        1000
         4         950         951        1002        1001
         4         951         952        1003        1002
         4         952         953        1004        1003
         4         953         954        1005        1004
         4         954         955        1006        1005
         4         955         956        1007        1006
         4         956         957        1008        1007
         4         957         958        1009        1008
         4         958         959        1010        1009
         4         959         960        1011        1010
         4         960         961        1012        1011
         4         961         962        1013        1012
         4         962         963        1014        1013
         4         963         964        1015        1014
         4         964         965        1016        1015
         4         965         966        1017        1016
         4         966         967        1018        1017
         4         967         968        1019        1018
         4         969         970        1021        1020
         4         970         971        1022        1021
         4         971         972        1023        1022
         4         972         973        1024        1023
         4         973         974        1025        1024
         4         974         975        1026        1025
         4         975         976        1027        1026
         4         976         977        1028        1027
         4         977         978        1029        1028
         4         978         979        1030        1029
         4         979         980        1031        1030
         4         980         981        1032        1031
         4         981         982        1033        1032
         4         982         983        1034        1033
         4         983         984        1035        1034
         4         984         985        1036        1035
         4         985         986        1037        1036
         4         986         987        1038        1037
         4         987         988        1039        1038
         4         988         989        1040        1039
         4         989         990        1041        1040
         4         990         991        1042        1041
         4         991         992        1043        1042
         4         992         993        1044        1043
         4         993         994        1045        1044
         4         994         995        1046        1045
         4         995         996        1047        1046
         4         996         997        1048        1047
         4         997         998        1049        1048
         4         998         999        1050        1049
         4         999        1000        1051        1050
         4        1000        1001        1052        1051
         4        1001        1002        1053        1052
         4        1002        1003        1054        1053
         4        1003        1004        1055        1054
         4        1004        1005        1056        1055
         4        1005        1006        1057        1056
         4        1006        1007        1058        1057
         4        1007        1008        1059        1058
         4        1008        1009        1060        1059
         4        1009        1010        1061        1060
         4        1010        1011        1062        1061
         4        1011        1012        1063        1062
         4        1012        1013        1064        1063
         4        1013        1014        1065        1064
         4        1014        1015        1066        1065
         4        1015        1016        1067        1066
         4        1016        1017        1068        1067
         4        1017        1018        1069        1068
         4        1018        1019        1070        1069
         4        1020        1021        1072        1071
         4        1021        1022        1073        1072
         4        1022        1023        1074        1073
         4        1023        1024        1075        1074
         4        1024        1025        1076        1075
         4        1025        1026        1077        1076
         4        1026        1027        1078        1077
         4        1027        1028        1079        1078
         4        1028        1029        1080        1079
         4        1029        1030        1081        1080
         4        1030        1031        1082        1081
         4        1031        1032        1083        1082
         4        1032        1033        1084        1083
         4        1033        1034        1085        1084
         4        1034        1035        1086        1085
         4        1035        1036        1087        1086
         4        1036        1037        1088        1087
         4        1037        1038        1089        1088
         4        1038        1039        1090        1089
         4        1039        1040        1091        1090
         4        1040        1041        1092        1091
         4        1041        1042        1093        1092
         4        1042        1043        1094        1093
         4        1043        1044        1095        1094
         4        1044        1045        1096        1095
         4        1045        1046        1097        1096
         4        1046        1047        1098        1097
         4        1047        1048        1099        1098
         4        1048        1049        1100        1099
         4        1049        1050        1101        1100
         4        1050        1051        1102        1101
         4        1051        1052        1103        1102
         4        1052        1053        1104        1103
         4        1053        1054        1105        1104
         4        1054        1055        1106        1105
         4        1055        1056        1107        1106
         4        1056        1057        1108        1107
         4        1057        1058        1109        1108
         4        1058        1059        1110        1109
         4        1059        1060        1111        1110
         4        1060        1061        1112        1111
         4        1061        1062        1113        1112
         4        1062        1063        1114        1113
         4        1063        1064        1115        1114
         4        1064        1065        1116        1115
         4        1065        1066        1117        1116
         4        1066        1067        1118        1117
         4        1067        1068        1119        1118
         4        1068        1069        1120        1119
         4        1069        1070        1121        1120
         4        1071        1072        1123        1122
         4        1072        1073        1124        1123
         4        1073        1074        1125        1124
         4        1074        1075        1126        1125
         4        1075        1076        1127        1126
         4        1076        1077        1128        1127
         4        1077        1078        1129        1128
         4        1078        1079        1130        1129
         4        1079        1080        1131        1130
         4        1080        1081        1132        1131
         4        1081        1082        1133        1132
         4        1082        1083        1134        1133
         4        1083        1084        1135        1134
         4        1084        1085        1136        1135
         4        1085        1086        1137        1136
         4        1086        1087        1138        1137
         4        1087        1088        1139        1138
         4        1088        1089        1140        1139
         4        1089        1090        1141        1140
         4        1090        1091        1142        1141
         4        1091        1092        1143        1142
         4        1092        1093        1144        1143
         4        1093        1094        1145        1144
         4        1094        1095        1146        1145
         4        1095        1096        1147        1146
         4        1096        1097        1148        1147
         4        1097        1098        1149        1148
         4        1098        1099        1150        1149
         4        1099        1100        1151        1150
         4        1100        1101        1152        1151
         4        1101        1102        1153        1152
         4        1102        1103        1154        1153
         4        1103        1104        1155        1154
         4        1104        1105        1156        1155
         4        1105        1106        1157        1156
         4        1106        1107        1158        1157
         4        1107        1108        1159        1158
         4        1108        1109        1160        1159
         4        1109        1110        1161        1160
         4        1110        1111        1162        1161
         4        1111        1112        1163        1162
         4        1112        1113        1164        1163
         4        1113        1114        1165        1164
         4        1114        1115        1166        1165
         4        1115        1116        1167        1166
         4        1116        1117        1168        1167
         4        1117        1118        1169        1168
         4        1118        1119        1170        1169
         4        1119        1120        1171        1170
         4        1120        1121        1172        1171
         4        1122        1123        1174        1173
         4        1123        1124        1175        1174
         4        1124        1125        1176        1175
         4        1125        1126        1177        1176
         4        1126        1127        1178        1177
         4        1127        1128        1179        1178
         4        1128        1129        1180        1179
         4        1129        1130        1181        1180
         4        1130        1131        1182        1181
         4        1131        1132        1183        1182
         4        1132        1133        1184        1183
         4        1133        1134        1185        1184
         4        1134        1135        1186        1185
         4        1135        1136        1187        1186
         4        1136        1137        1188        1187
         4        1137        1138        1189        1188
         4        1138        1139        1190        1189
         4        1139        1140        1191        1190
         4        1140        1141        1192        1191
         4        1141        1142        1193        1192
         4        1142        1143        1194        1193
         4        1143        1144        1195        1194
         4        1144        1145        1196        1195
         4        1145        1146        1197        1196
         4        1146        1147        1198        1197
         4        1147        1148        1199        1198
         4        1148        1149        1200        1199
         4        1149        1150        1201        1200
         4        1150        1151        1202        1201
         4        1151        1152        1203        1202
         4        1152        1153        1204        1203
         4        1153        1154        1205        1204
         4        1154        1155        1206        1205
         4        1155        1156        1207        1206
         4        1156        1157        1208        1207
         4        1157        1158        1209        1208
         4        1158        1159        1210        1209
         4        1159        1160        1211        1210
         4        1160        1161        1212        1211
         4        1161        1162        1213        1212
         4        1162        1163        1214        1213
         4        1163        1164        1215        1214
         4        1164        1165        1216        1215
         4        1165        1166        1217        1216
         4        1166        1167        1218        1217
         4        1167        1168        1219        1218
         4        1168        1169        1220        1219
         4        1169        1170        1221        1220
         4        1170        1171        1222        1221
         4        1171        1172        1223        1222
         4        1173        1174        1225        1224
         4        1174        1175        1226        1225
         4        1175        1176        1227        1226
         4        1176        1177        1228        1227
         4        1177        1178        1229        1228
         4        1178        1179        1230        1229
         4        1179        1180        1231        1230
         4        1180        1181        1232        1231
         4        1181        1182        1233        1232
         4        1182        1183        1234        1233
         4        1183        1184        1235        1234
         4        1184        1185        1236        1235
         4        1185        1186        1237        1236
         4        1186        1187        1238        1237
         4        1187        1188        1239        1238
         4        1188        1189        1240        1239
         4        1189        1190        1241        1240
         4        1190        1191        1242        1241
         4        1191        1192        1243        1242
         4        1192        1193        1244        1243
         4        1193        1194        1245        1244
         4        1194        1195        1246        1245
         4        1195        1196        1247        1246
         4        1196        1197        1248        1247
         4        1197        1198        1249        1248
         4        1198        1199        1250        1249
         4        1199        1200        1251        1250
         4        1200        1201        1252        1251
         4        1201        1202        1253        1252
         4        1202        1203        1254        1253
         4        1203        1204        1255        1254
         4        1204        1205        1256        1255
         4        1205        1206        1257        1256
         4        1206        1207        1258        1257
         4        1207        1208        1259        1258
         4        1208        1209        1260        1259
         4        1209        1210        1261        1260
         4        1210        1211        1262        1261
         4        1211        1212        1263        1262
         4        1212        1213        1264        1263
         4        1213        1214        1265        1264
         4        1214        1215        1266        1265
         4        1215        1216        1267        1266
         4        1216        1217        1268        1267
         4        1217        1218        1269        1268
         4        1218        1219        1270        1269
         4        1219        1220        1271        1270
         4        1220        1221        1272        1271
         4        1221        1222        1273        1272
         4        1222        1223        1274        1273
         4        1224        1225        1276        1275
         4        1225        1226        1277        1276
         4        1226        1227        1278        1277
         4        1227        1228        1279        1278
         4        1228        1229        1280        1279
         4        1229        1230        1281        1280
         4        1230        1231        1282        1281
         4        1231        1232        1283        1282
         4        1232        1233        1284        1283
         4        1233        1234        1285        1284
         4        1234        1235        1286        1285
         4        1235        1236        1287        1286
         4        1236        1237        1288        1287
         4        1237        1238        1289        1288
         4        1238        1239        1290        1289
         4        1239        1240        1291        1290
         4        1240        1241        1292        1291
         4        1241        1242        1293        1292
         4        1242        1243        1294        1293
         4        1243        1244        1295        1294
         4        1244        1245        1296        1295
         4        1245        1246        1297        1296
         4        1246        1247        1298        1297
         4        1247        1248        1299        1298
         4        1248        1249        1300        1299
         4        1249        1250        1301        1300
         4        1250        1251        1302        1301
         4        1251        1252        1303        1302
         4        1252        1253        1304        1303
         4        1253        1254        1305        1304
         4        1254        1255        1306        1305
         4        1255        1256        1307        1306
         4        1256        1257        1308        1307
         4        1257        1258        1309        1308
         4        1258        1259        1310        1309
         4        1259        1260        1311        1310
         4        1260        1261        1312        1311
         4        1261        1262        1313        1312
         4        1262        1263        1314        1313
         4        1263        1264        1315        1314
         4        1264        1265        1316        1315
         4        1265        1266        1317        1316
         4        1266        1267        1318        1317
         4        1267        1268        1319        1318
         4        1268        1269        1320        1319
         4        1269        1270        1321        1320
         4        1270        1271        1322        1321
         4        1271        1272        1323        1322
         4        1272        1273        1324        1323
         4        1273        1274        1325        1324
         4        1275        1276        1327        1326
         4        1276        1277        1328        1327
         4        1277        1278        1329        1328
         4        1278        1279        1330        1329
         4        1279        1280        1331        1330
         4        1280        1281        1332        1331
         4        1281        1282        1333        1332
         4        1282        1283        1334        1333
         4        1283        1284        1335        1334
         4        1284        1285        1336        1335
         4        1285        1286        1337        1336
         4        1286        1287        1338        1337
         4        1287        1288        1339        1338
         4        1288        1289        1340        1339
         4        1289        1290        1341        1340
         4        1290        1291        1342        1341
         4        1291        1292        1343        1342
         4        1292        1293        1344        1343
         4        1293        1294        1345        1344
         4        1294        1295        1346        1345
         4        1295        1296        1347        1346
         4        1296        1297        1348        1347
         4        1297        1298        1349        1348
         4        1298        1299        1350        1349
         4        1299        1300        1351        1350
         4        1300        1301        1352        1351
         4        1301        1302        1353        1352
         4        1302        1303        1354        1353
         4        1303        1304        1355        1354
         4        1304        1305        1356        1355
         4        1305        1306        1357        1356
         4        1306        1307        1358        1357
         4        1307        1308        1359        1358
         4        1308        1309        1360        1359
         4        1309        1310        1361        1360
         4        1310        1311        1362        1361
         4        1311        1312        1363        1362
         4        1312        1313        1364        1363
         4        1313        1314        1365        1364
         4        1314        1315        1366        1365
         4        1315        1316        1367        1366
         4        1316        1317        1368        1367
         4        1317        1318        1369        1368
         4        1318        1319        1370        1369
         4        1319        1320        1371        1370
         4        1320        1321        1372        1371
         4        1321        1322        1373        1372
         4        1322        1323        1374        1373
         4        1323        1324        1375        1374
         4        1324        1325        1376        1375
         4        1326        1327        1378        1377
         4        1327        1328        1379        1378
         4        1328        1329        1380        1379
         4        1329        1330        1381        1380
         4        1330        1331        1382        1381
         4        1331        1332        1383        1382
         4        1332        1333        1384        1383
         4        1333        1334        1385        1384
         4        1334        1335        1386        1385
         4        1335        1336        1387        1386
         4        1336        1337        1388        1387
         4        1337        1338        1389        1388
         4        1338        1339        1390        1389
         4        1339        1340        1391        1390
         4        1340        1341        1392        1391
         4        1341        1342        1393        1392
         4        1342        1343        1394        1393
         4        1343        1344        1395        1394
         4        1344        1345        1396        1395
         4        1345        1346        1397        1396
         4        1346        1347        1398        1397
         4        1347        1348        1399        1398
         4        1348        1349        1400        1399
         4        1349        1350        1401        1400
         4        1350        1351        1402        1401
         4        1351        1352        1403        1402
         4        1352        1353        1404        1403
         4        1353        1354        1405        1404
         4        1354        1355        1406        1405
         4        1355        1356        1407        1406
         4        1356        1357        1408        1407
         4        1357        1358        1409        1408
         4        1358        1359        1410        1409
         4        1359        1360        1411        1410
         4        1360        1361        1412        1411
         4        1361        1362        1413        1412
         4        1362        1363        1414        1413
         4        1363        1364        1415        1414
         4        1364        1365        1416        1415
         4        1365        1366        1417        1416
         4        1366        1367        1418        1417
         4        1367        1368        1419        1418
         4        1368        1369        1420        1419
         4        1369        1370        1421        1420
         4        1370        1371        1422        1421
         4        1371        1372        1423        1422
         4        1372        1373        1424        1423
         4        1373        1374        1425        1424
         4        1374        1375        1426        1425
         4        1375        1376        1427        1426
         4        1377        1378        1429        1428
         4        1378        1379        1430        1429
         4        1379        1380        1431        1430
         4        1380        1381        1432        1431
         4        1381        1382        1433        1432
         4        1382        1383        1434        1433
         4        1383        1384        1435        1434
         4        1384        1385        1436        1435
         4        1385        1386        1437        1436
         4        1386        1387        1438        1437
         4        1387        1388        1439        1438
         4        1388        1389        1440        1439
         4        1389        1390        1441        1440
         4        1390        1391        1442        1441
         4        1391        1392        1443        1442
         4        1392        1393        1444        1443
         4        1393        1394        1445        1444
         4        1394        1395        1446        1445
         4        1395        1396        1447        1446
         4        1396        1397        1448        1447
         4        1397        1398        1449        1448
         4        1398        1399        1450        1449
         4        1399        1400        1451        1450
         4        1400        1401        1452        1451
         4        1401        1402        1453        1452
         4        1402        1403        1454        1453
         4        1403        1404        1455        1454
         4        1404        1405        1456        1455
         4        1405        1406        1457        1456
         4        1406        1407        1458        1457
         4        1407        1408        1459        1458
         4        1408        1409        1460        1459
         4        1409        1410        1461        1460
         4        1410        1411        1462        1461
         4        1411        1412        1463        1462
         4        1412        1413        1464        1463
         4        1413        1414        1465        1464
         4        1414        1415        1466        1465
         4        1415        1416        1467        1466
         4        1416        1417        1468        1467
         4        1417        1418        1469        1468
         4        1418        1419        1470        1469
         4        1419        1420        1471        1470
         4        1420        1421        1472        1471
         4        1421        1422        1473        1472
         4        1422        1423        1474        1473
         4        1423        1424        1475        1474
         4        1424        1425        1476        1475
         4        1425        1426        1477        1476
         4        1426        1427        1478        1477
         4        1428        1429        1480        1479
         4        1429        1430        1481        1480
         4        1430        1431        1482        1481
         4        1431        1432        1483        1482
         4        1432        1433        1484        1483
         4        1433        1434        1485        1484
         4        1434        1435        1486        1485
         4        1435        1436        1487        1486
         4        1436        1437        1488        1487
         4        1437        1438        1489        1488
         4        1438        1439        1490        1489
         4        1439        1440        1491        1490
         4        1440        1441        1492        1491
         4        1441        1442        1493        1492
         4        1442        1443        1494        1493
         4        1443        1444        1495        1494
         4        1444        1445        1496        1495
         4        1445        1446        1497        1496
         4        1446        1447        1498        1497
         4        1447        1448        1499        1498
         4        1448        1449        1500        1499
         4        1449        1450        1501        1500
         4        1450        1451        1502        1501
         4        1451        1452        1503        1502
         4        1452        1453        1504        1503
         4        1453        1454        1505        1504
         4        1454        1455        1506        1505
         4        1455        1456        1507        1506
         4        1456        1457        1508        1507
         4        1457        1458        1509        1508
         4        1458        1459        1510        1509
         4        1459        1460        1511        1510
         4        1460        1461        1512        1511
         4        1461        1462        1513        1512
         4        1462        1463        1514        1513
         4        1463        1464        1515        1514
         4        1464        1465        1516        1515
         4        1465        1466        1517        1516
         4        1466        1467        1518        1517
         4        1467        1468        1519        1518
         4        1468        1469        1520        1519
         4        1469        1470        1521        1520
         4        1470        1471        1522        1521
         4        1471        1472        1523        1522
         4        1472        1473        1524        1523
         4        1473        1474        1525        1524
         4        1474        1475        1526        1525
         4        1475        1476        1527        1526
         4        1476        1477        1528        1527
         4        1477        1478        1529        1528
         4        1479        1480        1531        1530
         4        1480        1481        1532        1531
         4        1481        1482        1533        1532
         4        1482        1483        1534        1533
         4        1483        1484        1535        1534
         4        1484        1485        1536        1535
         4        1485        1486        1537        1536
         4        1486        1487        1538        1537
         4        1487        1488        1539        1538
         4        1488        1489        1540        1539
         4        1489        1490        1541        1540
         4        1490        1491        1542        1541
         4        1491        1492        1543        1542
         4        1492        1493        1544        1543
         4        1493        1494        1545        1544
         4        1494        1495        1546        1545
         4        1495        1496        1547        1546
         4        1496        1497        1548        1547
         4        1497        1498        1549        1548
         4        1498        1499        1550        1549
         4        1499        1500        1551        1550
         4        1500        1501        1552        1551
         4        1501        1502        1553        1552
         4        1502        1503        1554        1553
         4        1503        1504        1555        1554
         4        1504        1505        1556        1555
         4        1505        1506        1557        1556
         4        1506        1507        1558        1557
         4        1507        1508        1559        1558
         4        1508        1509        1560        1559
         4        1509        1510        1561        1560
         4        1510        1511        1562        1561
         4        1511        1512        1563        1562
         4        1512        1513        1564        1563
         4        1513        1514        1565        1564
         4        1514        1515        1566        1565
         4        1515        1516        1567        1566
         4        1516        1517        1568        1567
         4        1517        1518        1569        1568
         4        1518        1519        1570        1569
         4        1519        1520        1571        1570
         4        1520        1521        1572        1571
         4        1521        1522        1573        1572
         4        1522        1523        1574        1573
         4        1523        1524        1575        1574
         4        1524        1525        1576        1575
         4        1525        1526        1577        1576
         4        1526        1527        1578        1577
         4        1527        1528        1579        1578
         4        1528        1529        1580        1579
         4        1530        1531        1582        1581
         4        1531        1532        1583        1582
         4        1532        1533        1584        1583
         4        1533        1534        1585        1584
         4        1534        1535        1586        1585
         4        1535        1536        1587        1586
         4        1536        1537        1588        1587
         4        1537        1538        1589        1588
         4        1538        1539        1590        1589
         4        1539        1540        1591        1590
         4        1540        1541        1592        1591
         4        1541        1542        1593        1592
         4        1542        1543        1594        1593
         4        1543        1544        1595        1594
         4        1544        1545        1596        1595
         4        1545        1546        1597        1596
         4        1546        1547        1598        1597
         4        1547        1548        1599        1598
         4        1548        1549        1600        1599
         4        1549        1550        1601        1600
         4        1550        1551        1602        1601
         4        1551        1552        1603        1602
         4        1552        1553        1604        1603
         4        1553        1554        1605        1604
         4        1554        1555        1606        1605
         4        1555        1556        1607        1606
         4        1556        1557        1608        1607
         4        1557        1558        1609        1608
         4        1558        1559        1610        1609
         4        1559        1560        1611        1610
         4        1560        1561        1612        1611
         4        1561        1562        1613        1612
         4        1562        1563        1614        1613
         4        1563        1564        1615        1614
         4        1564        1565        1616        1615
         4        1565        1566        1617        1616
         4        1566        1567        1618        1617
         4        1567        1568        1619        1618
         4        1568        1569        1620        1619
         4        1569        1570        1621        1620
         4        1570        1571        1622        1621
         4        1571        1572        1623        1622
         4        1572        1573        1624        1623
         4        1573        1574        1625        1624
         4        1574        1575        1626        1625
         4        1575        1576        1627        1626
         4        1576        1577        1628        1627
         4        1577        1578        1629        1628
         4        1578        1579        1630        1629
         4        1579        1580        1631        1630
         4        1581        1582        1633        1632
         4        1582        1583        1634        1633
         4        1583        1584        1635        1634
         4        1584        1585        1636        1635
         4        1585        1586        1637        1636
         4        1586        1587        1638        1637
         4        1587        1588        1639        1638
         4        1588        1589        1640        1639
         4        1589        1590        1641        1640
         4        1590        1591        1642        1641
         4        1591        1592        1643        1642
         4        1592        1593        1644        1643
         4        1593        1594        1645        1644
         4        1594        1595        1646        1645
         4        1595        1596        1647        1646
         4        1596        1597        1648        1647
         4        1597        1598        1649        1648
         4        1598        1599        1650        1649
         4        1599        1600        1651        1650
         4        1600        1601        1652        1651
         4        1601        1602        1653        1652
         4        1602        1603        1654        1653
         4        1603        1604        1655        1654
         4        1604        1605        1656        1655
         4        1605        1606        1657        1656
         4        1606        1607        1658        1657
         4        1607        1608        1659        1658
         4        1608        1609        1660        1659
         4        1609        1610        1661        1660
         4        1610        1611        1662        1661
         4        1611        1612        1663        1662
         4        1612        1613        1664        1663
         4        1613        1614        1665        1664
         4        1614        1615        1666        1665
         4        1615        1616        1667        1666
         4        1616        1617        1668        1667
         4        1617        1618        1669        1668
         4        1618        1619        1670        1669
         4        1619        1620        1671        1670
         4        1620        1621        1672        1671
         4        1621        1622        1673        1672
         4        1622        1623        1674        1673
         4        1623        1624        1675        1674
         4        1624        1625        1676        1675
         4        1625        1626        1677        1676
         4        1626        1627        1678        1677
         4        1627        1628        1679        1678
         4        1628        1629        1680        1679
         4        1629        1630        1681        1680
         4        1630        1631        1682        1681
         4        1632        1633        1684        1683
         4        1633        1634        1685        1684
         4        1634        1635        1686        1685
         4        1635        1636        1687        1686
         4        1636        1637        1688        1687
         4        1637        1638        1689        1688
         4        1638        1639        1690        1689
         4        1639        1640        1691        1690
         4        1640        1641        1692        1691
         4        1641        1642        1693        1692
         4        1642        1643        1694        1693
         4        1643        1644        1695        1694
         4        1644        1645        1696        1695
         4        1645        1646        1697        1696
         4        1646        1647        1698        1697
         4        1647        1648        1699        1698
         4        1648        1649        1700        1699
         4        1649        1650        1701        1700
         4        1650        1651        1702        1701
         4        1651        1652        1703        1702
         4        1652        1653        1704        1703
         4        1653        1654        1705        1704
         4        1654        1655        1706        1705
         4        1655        1656        1707        1706
         4        1656        1657        1708        1707
         4        1657        1658        1709        1708
         4        1658        1659        1710        1709
         4        1659        1660        1711        1710
         4        1660        1661        1712        1711
         4        1661        1662        1713        1712
         4        1662        1663        1714        1713
         4        1663        1664        1715        1714
         4        1664        1665        1716        1715
         4        1665        1666        1717        1716
         4        1666        1667        1718        1717
         4        1667        1668        1719        1718
         4        1668        1669        1720        1719
         4        1669        1670        1721        1720
         4        1670        1671        1722        1721
         4        1671        1672        1723        1722
         4        1672        1673        1724        1723
         4        1673        1674        1725        1724
         4        1674        1675        1726        1725
         4        1675        1676        1727        1726
         4        1676        1677        1728        1727
         4        1677        1678        1729        1728
         4        1678        1679        1730        1729
         4        1679        1680        1731        1730
         4        1680        1681        1732        1731
         4        1681        1682        1733        1732
         4        1683        1684        1735        1734
         4        1684        1685        1736        1735
         4        1685        1686        1737        1736
         4        1686        1687        1738        1737
         4        1687        1688        1739        1738
         4        1688        1689        1740        1739
         4        1689        1690        1741        1740
         4        1690        1691        1742        1741
         4        1691        1692        1743        1742
         4        1692        1693        1744        1743
         4        1693        1694        1745        1744
         4        1694        1695        1746        1745
         4        1695        1696        1747        1746
         4        1696        1697        1748        1747
         4        1697        1698        1749        1748
         4        1698        1699        1750        1749
         4        1699        1700        1751        1750
         4        1700        1701        1752        1751
         4        1701        1702        1753        1752
         4        1702        1703        1754        1753
         4        1703        1704        1755        1754
         4        1704        1705        1756        1755
         4        1705        1706        1757        1756
         4        1706        1707        1758        1757
         4        1707        1708        1759        1758
         4        1708        1709        1760        1759
         4        1709        1710        1761        1760
         4        1710        1711        1762        1761
         4        1711        1712        1763        1762
         4        1712        1713        1764        1763
         4        1713        1714        1765        1764
         4        1714        1715        1766        1765
         4        1715        1716        1767        1766
         4        1716        1717        1768        1767
         4        1717        1718        1769        1768
         4        1718        1719        1770        1769
         4        1719        1720        1771        1770
         4        1720        1721        1772        1771
         4        1721        1722        1773        1772
         4        1722        1723        1774        1773
         4        1723        1724        1775        1774
         4        1724        1725        1776        1775
         4        1725        1726        1777        1776
         4        1726        1727        1778        1777
         4        1727        1728        1779        1778
         4        1728        1729        1780        1779
         4        1729        1730        1781        1780
         4        1730        1731        1782        1781
         4        1731        1732        1783        1782
         4        1732        1733        1784        1783
         4        1734        1735        1786        1785
         4        1735        1736        1787        1786
         4        1736        1737        1788        1787
         4        1737        1738        1789        1788
         4        1738        1739        1790        1789
         4        1739        1740        1791        1790
         4        1740        1741        1792        1791
         4        1741        1742        1793        1792
         4        1742        1743        1794        1793
         4        1743        1744        1795        1794
         4        1744        1745        1796        1795
         4        1745        1746        1797        1796
         4        1746        1747        1798        1797
         4        1747        1748        1799        1798
         4        1748        1749        1800        1799
         4        1749        1750        1801        1800
         4        1750        1751        1802        1801
         4        1751        1752        1803        1802
         4        1752        1753        1804        1803
         4        1753        1754        1805        1804
         4        1754        1755        1806        1805
         4        1755        1756        1807        1806
         4        1756        1757        1808        1807
         4        1757        1758        1809        1808
         4        1758        1759        1810        1809
         4        1759        1760        1811        1810
         4        1760        1761        1812        1811
         4        1761        1762        1813        1812
         4        1762        1763        1814        1813
         4        1763        1764        1815        1814
         4        1764        1765        1816        1815
         4        1765        1766        1817        1816
         4        1766        1767        1818        1817
         4        1767        1768        1819        1818
         4        1768        1769        1820        1819
         4        1769        1770        1821        1820
         4        1770        1771        1822        1821
         4        1771        1772        1823        1822
         4        1772        1773        1824        1823
         4        1773        1774        1825        1824
         4        1774        1775        1826        1825
         4        1775        1776        1827        1826
         4        1776        1777        1828        1827
         4        1777        1778        1829        1828
         4        1778        1779        1830        1829
         4        1779        1780        1831        1830
         4        1780        1781        1832        1831
         4        1781        1782        1833        1832
         4        1782        1783        1834        1833
         4        1783        1784        1835        1834
         4        1785        1786        1837        1836
         4        1786        1787        1838        1837
         4        1787        1788        1839        1838
         4        1788        1789        1840        1839
         4        1789        1790        1841        1840
         4        1790        1791        1842        1841
         4        1791        1792        1843        1842
         4        1792        1793        1844        1843
         4        1793        1794        1845        1844
         4        1794        1795        1846        1845
         4        1795        1796        1847        1846
         4        1796        1797        1848        1847
         4        1797        1798        1849        1848
         4        1798        1799        1850        1849
         4        1799        1800        1851        1850
         4        1800        1801        1852        1851
         4        1801        1802        1853        1852
         4        1802        1803        1854        1853
         4        1803        1804        1855        1854
         4        1804        1805        1856        1855
         4        1805        1806        1857        1856
         4        1806        1807        1858        1857
         4        1807        1808        1859        1858
         4        1808        1809        1860        1859
         4        1809        1810        1861        1860
         4        1810        1811        1862        1861
         4        1811        1812        1863        1862
         4        1812        1813        1864        1863
         4        1813        1814        1865        1864
         4        1814        1815        1866        1865
         4        1815        1816        1867        1866
         4        1816        1817        1868        1867
         4        1817        1818        1869        1868
         4        1818        1819        1870        1869
         4        1819        1820        1871        1870
         4        1820        1821        1872        1871
         4        1821        1822        1873        1872
         4        1822        1823        1874        1873
         4        1823        1824        1875        1874
         4        1824        1825        1876        1875
         4        1825        1826        1877        1876
         4        1826        1827        1878        1877
         4        1827        1828        1879        1878
         4        1828        1829        1880        1879
         4        1829        1830        1881        1880
         4        1830        1831        1882        1881
         4        1831        1832        1883        1882
         4        1832        1833        1884        1883
         4        1833        1834        1885        1884
         4        1834        1835        1886        1885
         4        1836        1837        1888        1887
         4        1837        1838        1889        1888
         4        1838        1839        1890        1889
         4        1839        1840        1891        1890
         4        1840        1841        1892        1891
         4        1841        1842        1893        1892
         4        1842        1843        1894        1893
         4        1843        1844        1895        1894
         4        1844        1845        1896        1895
         4        1845        1846        1897        1896
         4        1846        1847        1898        1897
         4        1847        1848        1899        1898
         4        1848        1849        1900        1899
         4        1849        1850        1901        1900
         4        1850        1851        1902        1901
         4        1851        1852        1903        1902
         4        1852        1853        1904        1903
         4        1853        1854        1905        1904
         4        1854        1855        1906        1905
         4        1855        1856        1907        1906
         4        1856        1857        1908        1907
         4        1857        1858        1909        1908
         4        1858        1859        1910        1909
         4        1859        1860        1911        1910
         4        1860        1861        1912        1911
         4        1861        1862        1913        1912
         4        1862        1863        1914        1913
         4        1863        1864        1915        1914
         4        1864        1865        1916        1915
         4        1865        1866        1917        1916
         4        1866        1867        1918        1917
         4        1867        1868        1919        1918
         4        1868        1869        1920        1919
         4        1869        1870        1921        1920
         4        1870        1871        1922        1921
         4        1871        1872        1923        1922
         4        1872        1873        1924        1923
         4        1873        1874        1925        1924
         4        1874        1875        1926        1925
         4        1875        1876        1927        1926
         4        1876        1877        1928        1927
         4        1877        1878        1929        1928
         4        1878        1879        1930        1929
         4        1879        1880        1931        1930
         4        1880        1881        1932        1931
         4        1881        1882        1933        1932
         4        1882        1883        1934        1933
         4        1883        1884        1935        1934
         4        1884        1885        1936        1935
         4        1885        1886        1937        1936
         4        1887        1888        1939        1938
         4        1888        1889        1940        1939
         4        1889        1890        1941        1940
         4        1890        1891        1942        1941
         4        1891        1892        1943        1942
         4        1892        1893        1944        1943
         4        1893        1894        1945        1944
         4        1894        1895        1946        1945
         4        1895        1896        1947        1946
         4        1896        1897        1948        1947
         4        1897        1898        1949        1948
         4        1898        1899        1950        1949
         4        1899        1900        1951        1950
         4        1900        1901        1952        1951
         4        1901        1902        1953        1952
         4        1902        1903        1954        1953
         4        1903        1904        1955        1954
         4        1904        1905        1956        1955
         4        1905        1906        1957        1956
         4        1906        1907        1958        1957
         4        1907        1908        1959        1958
         4        1908        1909        1960        1959
         4        1909        1910        1961        1960
         4        1910        1911        1962        1961
         4        1911        1912        1963        1962
         4        1912        1913        1964        1963
         4        1913        1914        1965        1964
         4        1914        1915        1966        1965
         4        1915        1916        1967        1966
         4        1916        1917        1968        1967
         4        1917        1918        1969        1968
         4        1918        1919        1970        1969
         4        1919        1920        1971        1970
         4        1920        1921        1972        1971
         4        1921        1922        1973        1972
         4        1922        1923        1974        1973
         4        1923        1924        1975        1974
         4        1924        1925        1976        1975
         4        1925        1926        1977        1976
         4        1926        1927        1978        1977
         4        1927        1928        1979        1978
         4        1928        1929        1980        1979
         4        1929        1930        1981        1980
         4        1930        1931        1982        1981
         4        1931        1932        1983        1982
         4        1932        1933        1984        1983
         4        1933        1934        1985        1984
         4        1934        1935        1986        1985
         4        1935        1936        1987        1986
         4        1936        1937        1988        1987
         4        1938        1939        1990        1989
         4        1939        1940        1991        1990
         4        1940        1941        1992        1991
         4        1941        1942        1993        1992
         4        1942        1943        1994        1993
         4        1943        1944        1995        1994
         4        1944        1945        1996        1995
         4        1945        1946        1997        1996
         4        1946        1947        1998        1997
         4        1947        1948        1999        1998
         4        1948        1949        2000        1999
         4        1949        1950        2001        2000
         4        1950        1951        2002        2001
         4        1951        1952        2003        2002
         4        1952        1953        2004        2003
         4        1953        1954        2005        2004
         4        1954        1955        2006        2005
         4        1955        1956        2007        2006
         4        1956        1957        2008        2007
         4        1957        1958        2009        2008
         4        1958        1959        2010        2009
         4        1959        1960        2011        2010
         4        1960        1961        2012        2011
         4        1961        1962        2013        2012
         4        1962        1963        2014        2013
         4        1963        1964        2015        2014
         4        1964        1965        2016        2015
         4        1965        1966        2017        2016
         4        1966        1967        2018        2017
         4        1967        1968        2019        2018
         4        1968        1969        2020        2019
         4        1969        1970        2021        2020
         4        1970        1971        2022        2021
         4        1971        1972        2023        2022
         4        1972        1973        2024        2023
         4        1973        1974        2025        2024
         4        1974        1975        2026        2025
         4        1975        1976        2027        2026
         4        1976        1977        2028        2027
         4        1977        1978        2029        2028
         4        1978        1979        2030        2029
         4        1979        1980        2031        2030
         4        1980        1981        2032        2031
         4        1981        1982        2033        2032
         4        1982        1983        2034        2033
         4        1983        1984        2035        2034
         4        1984        1985        2036        2035
         4        1985        1986        2037        2036
         4        1986        1987        2038        2037
         4        1987        1988        2039        2038
         4        1989        1990        2041        2040
         4        1990        1991        2042        2041
         4        1991        1992        2043        2042
         4        1992        1993        2044        2043
         4        1993        1994        2045        2044
         4        1994        1995        2046        2045
         4        1995        1996        2047        2046
         4        1996        1997        2048        2047
         4        1997        1998        2049        2048
         4        1998        1999        2050        2049
         4        1999        2000        2051        2050
         4        2000        2001        2052        2051
         4        2001        2002        2053        2052
         4        2002        2003        2054        2053
         4        2003        2004        2055        2054
         4        2004        2005        2056        2055
         4        2005        2006        2057        2056
         4        2006        2007        2058        2057
         4        2007        2008        2059        2058
         4        2008        2009        2060        2059
         4        2009        2010        2061        2060
         4        2010        2011        2062        2061
         4        2011        2012        2063        2062
         4        2012        2013        2064        2063
         4        2013        2014        2065        2064
         4        2014        2015        2066        2065
         4        2015        2016        2067        2066
         4        2016        2017        2068        2067
         4        2017        2018        2069        2068
         4        2018        2019        2070        2069
         4        2019        2020        2071        2070
         4        2020        2021        2072        2071
         4        2021        2022        2073        2072
         4        2022        2023        2074        2073
         4        2023        2024        2075        2074
         4        2024        2025        2076        2075
         4        2025        2026        2077        2076
         4        2026        2027        2078        2077
         4        2027        2028        2079        2078
         4        2028        2029        2080        2079
         4        2029        2030        2081        2080
         4        2030        2031        2082        2081
         4        2031        2032        2083        2082
         4        2032        2033        2084        2083
         4        2033        2034        2085        2084
         4        2034        2035        2086        2085
         4        2035        2036        2087        2086
         4        2036        2037        2088        2087
         4        2037        2038        2089        2088
         4        2038        2039        2090        2089
         4        2040        2041        2092        2091
         4        2041        2042        2093        2092
         4        2042        2043        2094        2093
         4        2043        2044        2095        2094
         4        2044        2045        2096        2095
         4        2045        2046        2097        2096
         4        2046        2047        2098        2097
         4        2047        2048        2099        2098
         4        2048        2049        2100        2099
         4        2049        2050        2101        2100
         4        2050        2051        2102        2101
         4        2051        2052        2103        2102
         4        2052        2053        2104        2103
         4        2053        2054        2105        2104
         4        2054        2055        2106        2105
         4        2055        2056        2107        2106
         4        2056        2057        2108        2107
         4        2057        2058        2109        2108
         4        2058        2059        2110        2109
         4        2059        2060        2111        2110
         4        2060        2061        2112        2111
         4        2061        2062        2113        2112
         4        2062        2063        2114        2113
         4        2063        2064        2115        2114
         4        2064        2065        2116        2115
         4        2065        2066        2117        2116
         4        2066        2067        2118        2117
         4        2067        2068        2119        2118
         4        2068        2069        2120        2119
         4        2069        2070        2121        2120
         4        2070        2071        2122        2121
         4        2071        2072        2123        2122
         4        2072        2073        2124        2123
         4        2073        2074        2125        2124
         4        2074        2075        2126        2125
         4        2075        2076        2127        2126
         4        2076        2077        2128        2127
         4        2077        2078        2129        2128
         4        2078        2079        2130        2129
         4        2079        2080        2131        2130
         4        2080        2081        2132        2131
         4        2081        2082        2133        2132
         4        2082        2083        2134        2133
         4        2083        2084        2135        2134
         4        2084        2085        2136        2135
         4        2085        2086        2137        2136
         4        2086        2087        2138        2137
         4        2087        2088        2139        2138
         4        2088        2089        2140        2139
         4        2089        2090        2141        2140
         4        2091        2092        2143        2142
         4        2092        2093        2144        2143
         4        2093        2094        2145        2144
         4        2094        2095        2146        2145
         4        2095        2096        2147        2146
         4        2096        2097        2148        2147
         4        2097        2098        2149        2148
         4        2098        2099        2150        2149
         4        2099        2100        2151        2150
         4        2100        2101        2152        2151
         4        2101        2102        2153        2152
         4        2102        2103        2154        2153
         4        2103        2104        2155        2154
         4        2104        2105        2156        2155
         4        2105        2106        2157        2156
         4        2106        2107        2158        2157
         4        2107        2108        2159        2158
         4        2108        2109        2160        2159
         4        2109        2110        2161        2160
         4        2110        2111        2162        2161
         4        2111        2112        2163        2162
         4        2112        2113        2164        2163
         4        2113        2114        2165        2164
         4        2114        2115        2166        2165
         4        2115        2116        2167        2166
         4        2116        2117        2168        2167
         4        2117        2118        2169        2168
         4        2118        2119        2170        2169
         4        2119        2120        2171        2170
         4        2120        2121        2172        2171
         4        2121        2122        2173        2172
         4        2122        2123        2174        2173
         4        2123        2124        2175        2174
         4        2124        2125        2176        2175
         4        2125        2126        2177        2176
         4        2126        2127        2178        2177
         4        2127        2128        2179        2178
         4        2128        2129        2180        2179
         4        2129        2130        2181        2180
         4        2130        2131        2182        2181
         4        2131        2132        2183        2182
         4        2132        2133        2184        2183
         4        2133        2134        2185        2184
         4        2134        2135        2186        2185
         4        2135        2136        2187        2186
         4        2136        2137        2188        2187
         4        2137        2138        2189        2188
         4        2138        2139        2190        2189
         4        2139        2140        2191        2190
         4        2140        2141        2192        2191
         4        2142        2143        2194        2193
         4        2143        2144        2195        2194
         4        2144        2145        2196        2195
         4        2145        2146        2197        2196
         4        2146        2147        2198        2197
         4        2147        2148        2199        2198
         4        2148        2149        2200        2199
         4        2149        2150        2201        2200
         4        2150        2151        2202        2201
         4        2151        2152        2203        2202
         4        2152        2153        2204        2203
         4        2153        2154        2205        2204
         4        2154        2155        2206        2205
         4        2155        2156        2207        2206
         4        2156        2157        2208        2207
         4        2157        2158        2209        2208
         4        2158        2159        2210        2209
         4        2159        2160        2211        2210
         4        2160        2161        2212        2211
         4        2161        2162        2213        2212
         4        2162        2163        2214        2213
         4        2163        2164        2215        2214
         4        2164        2165        2216        2215
         4        2165        2166        2217        2216
         4        2166        2167        2218        2217
         4        2167        2168        2219        2218
         4        2168        2169        2220        2219
         4        2169        2170        2221        2220
         4        2170        2171        2222        2221
         4        2171        2172        2223        2222
         4        2172        2173        2224        2223
         4        2173        2174        2225        2224
         4        2174        2175        2226        2225
         4        2175        2176        2227        2226
         4        2176        2177        2228        2227
         4        2177        2178        2229        2228
         4        2178        2179        2230        2229
         4        2179        2180        2231        2230
         4        2180        2181        2232        2231
         4        2181        2182        2233        2232
         4        2182        2183        2234        2233
         4        2183        2184        2235        2234
         4        2184        2185        2236        2235
         4        2185        2186        2237        2236
         4        2186        2187        2238        2237
         4        2187        2188        2239        2238
         4        2188        2189        2240        2239
         4        2189        2190        2241        2240
         4        2190        2191        2242        2241
         4        2191        2192        2243        2242
         4        2193        2194        2245        2244
         4        2194        2195        2246        2245
         4        2195        2196        2247        2246
         4        2196        2197        2248        2247
         4        2197        2198        2249        2248
         4        2198        2199        2250        2249
         4        2199        2200        2251        2250
         4        2200        2201        2252        2251
         4        2201        2202        2253        2252
         4        2202        2203        2254        2253
         4        2203        2204        2255        2254
         4        2204        2205        2256        2255
         4        2205        2206        2257        2256
         4        2206        2207        2258        2257
         4        2207        2208        2259        2258
         4        2208        2209        2260        2259
         4        2209        2210        2261        2260
         4        2210        2211        2262        2261
         4        2211        2212        2263        2262
         4        2212        2213        2264        2263
         4        2213        2214        2265        2264
         4        2214        2215        2266        2265
         4        2215        2216        2267        2266
         4        2216        2217        2268        2267
         4        2217        2218        2269        2268
         4        2218        2219        2270        2269
         4        2219        2220        2271        2270
         4        2220        2221        2272        2271
         4        2221        2222        2273        2272
         4        2222        2223        2274        2273
         4        2223        2224        2275        2274
         4        2224        2225        2276        2275
         4        2225        2226        2277        2276
         4        2226        2227        2278        2277
         4        2227        2228        2279        2278
         4        2228        2229        2280        2279
         4        2229        2230        2281        2280
         4        2230        2231        2282        2281
         4        2231        2232        2283        2282
         4        2232        2233        2284        2283
         4        2233        2234        2285        2284
         4        2234        2235        2286        2285
         4        2235        2236        2287        2286
         4        2236        2237        2288        2287
         4        2237        2238        2289        2288
         4        2238        2239        2290        2289
         4        2239        2240        2291        2290
         4        2240        2241        2292        2291
         4        2241        2242        2293        2292
         4        2242        2243        2294        2293
         4        2244        2245        2296        2295
         4        2245        2246        2297        2296
         4        2246        2247        2298        2297
         4        2247        2248        2299        2298
         4        2248        2249        2300        2299
         4        2249        2250        2301        2300
         4        2250        2251        2302        2301
         4        2251        2252        2303        2302
         4        2252        2253        2304        2303
         4        2253        2254        2305        2304
         4        2254        2255        2306        2305
         4        2255        2256        2307        2306
         4        2256        2257        2308        2307
         4        2257        2258        2309        2308
         4        2258        2259        2310        2309
         4        2259        2260        2311        2310
         4        2260        2261        2312        2311
         4        2261        2262        2313        2312
         4        2262        2263        2314        2313
         4        2263        2264        2315        2314
         4        2264        2265        2316        2315
         4        2265        2266        2317        2316
         4        2266        2267        2318        2317
         4        2267        2268        2319        2318
         4        2268        2269        2320        2319
         4        2269        2270        2321        2320
         4        2270        2271        2322        2321
         4        2271        2272        2323        2322
         4        2272        2273        2324        2323
         4        2273        2274        2325        2324
         4        2274        2275        2326        2325
         4        2275        2276        2327        2326
         4        2276        2277        2328        2327
         4        2277        2278        2329        2328
         4        2278        2279        2330        2329
         4        2279        2280        2331        2330
         4        2280        2281        2332        2331
         4        2281        2282        2333        2332
         4        2282        2283        2334        2333
         4        2283        2284        2335        2334
         4        2284        2285        2336        2335
         4        2285        2286        2337        2336
         4        2286        2287        2338        2337
         4        2287        2288        2339        2338
         4        2288        2289        2340        2339
         4        2289        2290        2341        2340
         4        2290        2291        2342        2341
         4        2291        2292        2343        2342
         4        2292        2293        2344        2343
         4        2293        2294        2345        2344
         4        2295        2296        2347        2346
         4        2296        2297        2348        2347
         4        2297        2298        2349        2348
         4        2298        2299        2350        2349
         4        2299        2300        2351        2350
         4        2300        2301        2352        2351
         4        2301        2302        2353        2352
         4        2302        2303        2354        2353
         4        2303        2304        2355        2354
         4        2304        2305        2356        2355
         4        2305        2306        2357        2356
         4        2306        2307        2358        2357
         4        2307        2308        2359        2358
         4        2308        2309        2360        2359
         4        2309        2310        2361        2360
         4        2310        2311        2362        2361
         4        2311        2312        2363        2362
         4        2312        2313        2364        2363
         4        2313        2314        2365        2364
         4        2314        2315        2366        2365
         4        2315        2316        2367        2366
         4        2316        2317        2368        2367
         4        2317        2318        2369        2368
         4        2318        2319        2370        2369
         4        2319        2320        2371        2370
         4        2320        2321        2372        2371
         4        2321        2322        2373        2372
         4        2322        2323        2374        2373
         4        2323        2324        2375        2374
         4        2324        2325        2376        2375
         4        2325        2326        2377        2376
         4        2326        2327        2378        2377
         4        2327        2328        2379        2378
         4        2328        2329        2380        2379
         4        2329        2330        2381        2380
         4        2330        2331        2382        2381
         4        2331        2332        2383        2382
         4        2332        2333        2384        2383
         4        2333        2334        2385        2384
         4        2334        2335        2386        2385
         4        2335        2336        2387        2386
         4        2336        2337        2388        2387
         4        2337        2338        2389        2388
         4        2338        2339        2390        2389
         4        2339        2340        2391        2390
         4        2340        2341        2392        2391
         4        2341        2342        2393        2392
         4        2342        2343        2394        2393
         4        2343        2344        2395        2394
         4        2344        2345        2396        2395
         4        2346        2347        2398        2397
         4        2347        2348        2399        2398
         4        2348        2349        2400        2399
         4        2349        2350        2401        2400
         4        2350        2351        2402        2401
         4        2351        2352        2403        2402
         4        2352        2353        2404        2403
         4        2353        2354        2405        2404
         4        2354        2355        2406        2405
         4        2355        2356        2407        2406
         4        2356        2357        2408        2407
         4        2357        2358        2409        2408
         4        2358        2359        2410        2409
         4        2359        2360        2411        2410
         4        2360        2361        2412        2411
         4        2361        2362        2413        2412
         4        2362        2363        2414        2413
         4        2363        2364        2415        2414
         4        2364        2365        2416        2415
         4        2365        2366        2417        2416
         4        2366        2367        2418        2417
         4        2367        2368        2419        2418
         4        2368        2369        2420        2419
         4        2369        2370        2421        2420
         4        2370        2371        2422        2421
         4        2371        2372        2423        2422
         4        2372        2373        2424        2423
         4        2373        2374        2425        2424
         4        2374        2375        2426        2425
         4        2375        2376        2427        2426
         4        2376        2377        2428        2427
         4        2377        2378        2429        2428
         4        2378        2379        2430        2429
         4        2379        2380        2431        2430
         4        2380        2381        2432        2431
         4        2381        2382        2433        2432
         4        2382        2383        2434        2433
         4        2383        2384        2435        2434
         4        2384        2385        2436        2435
         4        2385        2386        2437        2436
         4        2386        2387        2438        2437
         4        2387        2388        2439        2438
         4        2388        2389        2440        2439
         4        2389        2390        2441        2440
         4        2390        2391        2442        2441
         4        2391        2392        2443        2442
         4        2392        2393        2444        2443
         4        2393        2394        2445        2444
         4        2394        2395        2446        2445
         4        2395        2396        2447        2446
         4        2397        2398        2449        2448
         4        2398        2399        2450        2449
         4        2399        2400        2451        2450
         4        2400        2401        2452        2451
         4        2401        2402        2453        2452
         4        2402        2403        2454        2453
         4        2403        2404        2455        2454
         4        2404        2405        2456        2455
         4        2405        2406        2457        2456
         4        2406        2407        2458        2457
         4        2407        2408        2459        2458
         4        2408        2409        2460        2459
         4        2409        2410        2461        2460
         4        2410        2411        2462        2461
         4        2411        2412        2463        2462
         4        2412        2413        2464        2463
         4        2413        2414        2465        2464
         4        2414        2415        2466        2465
         4        2415        2416        2467        2466
         4        2416        2417        2468        2467
         4        2417        2418        2469        2468
         4        2418        2419        2470        2469
         4        2419        2420        2471        2470
         4        2420        2421        2472        2471
         4        2421        2422        2473        2472
         4        2422        2423        2474        2473
         4        2423        2424        2475        2474
         4        2424        2425        2476        2475
         4        2425        2426        2477        2476
         4        2426        2427        2478        2477
         4        2427        2428        2479        2478
         4        2428        2429        2480        2479
         4        2429        2430        2481        2480
         4        2430        2431        2482        2481
         4        2431        2432        2483        2482
         4        2432        2433        2484        2483
         4        2433        2434        2485        2484
         4        2434        2435        2486        2485
         4        2435        2436        2487        2486
         4        2436        2437        2488        2487
         4        2437        2438        2489        2488
         4        2438        2439        2490        2489
         4        2439        2440        2491        2490
         4        2440        2441        2492        2491
         4        2441        2442        2493        2492
         4        2442        2443        2494        2493
         4        2443        2444        2495        2494
         4        2444        2445        2496        2495
         4        2445        2446        2497        2496
         4        2446        2447        2498        2497
         4        2448        2449        2500        2499
         4        2449        2450        2501        2500
         4        2450        2451        2502        2501
         4        2451        2452        2503        2502
         4        2452        2453        2504        2503
         4        2453        2454        2505        2504
         4        2454        2455        2506        2505
         4        2455        2456        2507        2506
         4        2456        2457        2508        2507
         4        2457        2458        2509        2508
         4        2458        2459        2510        2509
         4        2459        2460        2511        2510
         4        2460        2461        2512        2511
         4        2461        2462        2513        2512
         4        2462        2463        2514        2513
         4        2463        2464        2515        2514
         4        2464        2465        2516        2515
         4        2465        2466        2517        2516
         4        2466        2467        2518        2517
         4        2467        2468        2519        2518
         4        2468        2469        2520        2519
         4        2469        2470        2521        2520
         4        2470        2471        2522        2521
         4        2471        2472        2523        2522
         4        2472        2473        2524        2523
         4        2473        2474        2525        2524
         4        2474        2475        2526        2525
         4        2475        2476        2527        2526
         4        2476        2477        2528        2527
         4        2477        2478        2529        2528
         4        2478        2479        2530        2529
         4        2479        2480        2531        2530
         4        2480        2481        2532        2531
         4        2481        2482        2533        2532
         4        2482        2483        2534        2533
         4        2483        2484        2535        2534
         4        2484        2485        2536        2535
         4        2485        2486        2537        2536
         4        2486        2487        2538        2537
         4        2487        2488        2539        2538
         4        2488        2489        2540        2539
         4        2489        2490        2541        2540
         4        2490        2491        2542        2541
         4        2491        2492        2543        2542
         4        2492        2493        2544        2543
         4        2493        2494        2545        2544
         4        2494        2495        2546        2545
         4        2495        2496        2547        2546
         4        2496        2497        2548        2547
         4        2497        2498        2549        2548
         4        2499        2500        2551        2550
         4        2500        2501        2552        2551
         4        2501        2502        2553        2552
         4        2502        2503        2554        2553
         4        2503        2504        2555        2554
         4        2504        2505        2556        2555
         4        2505        2506        2557        2556
         4        2506        2507        2558        2557
         4        2507        2508        2559        2558
         4        2508        2509        2560        2559
         4        2509        2510        2561        2560
         4        2510        2511        2562        2561
         4        2511        2512        2563        2562
         4        2512        2513        2564        2563
         4        2513        2514        2565        2564
         4        2514        2515        2566        2565
         4        2515        2516        2567        2566
         4        2516        2517        2568        2567
         4        2517        2518        2569        2568
         4        2518        2519        2570        2569
         4        2519        2520        2571        2570
         4        2520        2521        2572        2571
         4        2521        2522        2573        2572
         4        2522        2523        2574        2573
         4        2523        2524        2575        2574
         4        2524        2525        2576        2575
         4        2525        2526        2577        2576
         4        2526        2527        2578        2577
         4        2527        2528        2579        2578
         4        2528        2529        2580        2579
         4        2529        2530        2581        2580
         4        2530        2531        2582        2581
         4        2531        2532        2583        2582
         4        2532        2533        2584        2583
         4        2533        2534        2585        2584
         4        2534        2535        2586        2585
         4        2535        2536        2587        2586
         4        2536        2537        2588        2587
         4        2537        2538        2589        2588
         4        2538        2539        2590        2589
         4        2539        2540        2591        2590
         4        2540        2541        2592        2591
         4        2541        2542        2593        2592
         4        2542        2543        2594        2593
         4        2543        2544        2595        2594
         4        2544        2545        2596        2595
         4        2545        2546        2597        2596
         4        2546        2547        2598        2597
         4        2547        2548        2599        2598
         4        2548        2549        2600        2599
         4        2550        2551        2602        2601
         4        2551        2552        2603        2602
         4        2552        2553        2604        2603
         4        2553        2554        2605        2604
         4        2554        2555        2606        2605
         4        2555        2556        2607        2606
         4        2556        2557        2608        2607
         4        2557        2558        2609        2608
         4        2558        2559        2610        2609
         4        2559        2560        2611        2610
         4        2560        2561        2612        2611
         4        2561        2562        2613        2612
         4        2562        2563        2614        2613
         4        2563        2564        2615        2614
         4        2564        2565        2616        2615
         4        2565        2566        2617        2616
         4        2566        2567        2618        2617
         4        2567        2568        2619        2618
         4        2568        2569        2620        2619
         4        2569        2570        2621        2620
         4        2570        2571        2622        2621
         4        2571        2572        2623        2622
         4        2572        2573        2624        2623
         4        2573        2574        2625        2624
         4        2574        2575        2626        2625
         4        2575        2576        2627        2626
         4        2576        2577        2628        2627
         4        2577        2578        2629        2628
         4        2578        2579        2630        2629
         4        2579        2580        2631        2630
         4        2580        2581        2632        2631
         4        2581        2582        2633        2632
         4        2582        2583        2634        2633
         4        2583        2584        2635        2634
         4        2584        2585        2636        2635
         4        2585        2586        2637        2636
         4        2586        2587        2638        2637
         4        2587        2588        2639        2638
         4        2588        2589        2640        2639
         4        2589        2590        2641        2640
         4        2590        2591        2642        2641
         4        2591        2592        2643        2642
         4        2592        2593        2644        2643
         4        2593        2594        2645        2644
         4        2594        2595        2646        2645
         4        2595        2596        2647        2646
         4        2596        2597        2648        2647
         4        2597        2598        2649        2648
         4        2598        2599        2650        2649
         4        2599        2600        2651        2650
         4        2601        2602        2653        2652
         4        2602        2603        2654        2653
         4        2603        2604        2655        2654
         4        2604        2605        2656        2655
         4        2605        2606        2657        2656
         4        2606        2607        2658        2657
         4        2607        2608        2659        2658
         4        2608        2609        2660        2659
         4        2609        2610        2661        2660
         4        2610        2611        2662        2661
         4        2611        2612        2663        2662
         4        2612        2613        2664        2663
         4        2613        2614        2665        2664
         4        2614        2615        2666        2665
         4        2615        2616        2667        2666
         4        2616        2617        2668        2667
         4        2617        2618        2669        2668
         4        2618        2619        2670        2669
         4        2619        2620        2671        2670
         4        2620        2621        2672        2671
         4        2621        2622        2673        2672
         4        2622        2623        2674        2673
         4        2623        2624        2675        2674
         4        2624        2625        2676        2675
         4        2625        2626        2677        2676
         4        2626        2627        2678        2677
         4        2627        2628        2679        2678
         4        2628        2629        2680        2679
         4        2629        2630        2681        2680
         4        2630        2631        2682        2681
         4        2631        2632        2683        2682
         4        2632        2633        2684        2683
         4        2633        2634        2685        2684
         4        2634        2635        2686        2685
         4        2635        2636        2687        2686
         4        2636        2637        2688        2687
         4        2637        2638        2689        2688
         4        2638        2639        2690        2689
         4        2639        2640        2691        2690
         4        2640        2641        2692        2691
         4        2641        2642        2693        2692
         4        2642        2643        2694        2693
         4        2643        2644        2695        2694
         4        2644        2645        2696        2695
         4        2645        2646        2697        2696
         4        2646        2647        2698        2697
         4        2647        2648        2699        2698
         4        2648        2649        2700        2699
         4        2649        2650        2701        2700
         4        2650        2651        2702        2701
         4        2652        2653        2704        2703
         4        2653        2654        2705        2704
         4        2654        2655        2706        2705
         4        2655        2656        2707        2706
         4        2656        2657        2708        2707
         4        2657        2658        2709        2708
         4        2658        2659        2710        2709
         4        2659        2660        2711        2710
         4        2660        2661        2712        2711
         4        2661        2662        2713        2712
         4        2662        2663        2714        2713
         4        2663        2664        2715        2714
         4        2664        2665        2716        2715
         4        2665        2666        2717        2716
         4        2666        2667        2718        2717
         4        2667        2668        2719        2718
         4        2668        2669        2720        2719
         4        2669        2670        2721        2720
         4        2670        2671        2722        2721
         4        2671        2672        2723        2722
         4        2672        2673        2724        2723
         4        2673        2674        2725        2724
         4        2674        2675        2726        2725
         4        2675        2676        2727        2726
         4        2676        2677        2728        2727
         4        2677        2678        2729        2728
         4        2678        2679        2730        2729
         4        2679        2680        2731        2730
         4        2680        2681        2732        2731
         4        2681        2682        2733        2732
         4        2682        2683        2734        2733
         4        2683        2684        2735        2734
         4        2684        2685        2736        2735
         4        2685        2686        2737        2736
         4        2686        2687        2738        2737
         4        2687        2688        2739        2738
         4        2688        2689        2740        2739
         4        2689        2690        2741        2740
         4        2690        2691        2742        2741
         4        2691        2692        2743        2742
         4        2692        2693        2744        2743
         4        2693        2694        2745        2744
         4        2694        2695        2746        2745
         4        2695        2696        2747        2746
         4        2696        2697        2748        2747
         4        2697        2698        2749        2748
         4        2698        2699        2750        2749
         4        2699        2700        2751        2750
         4        2700        2701        2752        2751
         4        2701        2702        2753        2752
         4        2703        2704        2755        2754
         4        2704        2705        2756        2755
         4        2705        2706        2757        2756
         4        2706        2707        2758        2757
         4        2707        2708        2759        2758
         4        2708        2709        2760        2759
         4        2709        2710        2761        2760
         4        2710        2711        2762        2761
         4        2711        2712        2763        2762
         4        2712        2713        2764        2763
         4        2713        2714        2765        2764
         4        2714        2715        2766        2765
         4        2715        2716        2767        2766
         4        2716        2717        2768        2767
         4        2717        2718        2769        2768
         4        2718        2719        2770        2769
         4        2719        2720        2771        2770
         4        2720        2721        2772        2771
         4        2721        2722        2773        2772
         4        2722        2723        2774        2773
         4        2723        2724        2775        2774
         4        2724        2725        2776        2775
         4        2725        2726        2777        2776
         4        2726        2727        2778        2777
         4        2727        2728        2779        2778
         4        2728        2729        2780        2779
         4        2729        2730        2781        2780
         4        2730        2731        2782        2781
         4        2731        2732        2783        2782
         4        2732        2733        2784        2783
         4        2733        2734        2785        2784
         4        2734        2735        2786        2785
         4        2735        2736        2787        2786
         4        2736        2737        2788        2787
         4        2737        2738        2789        2788
         4        2738        2739        2790        2789
         4        2739        2740        2791        2790
         4        2740        2741        2792        2791
         4        2741        2742        2793        2792
         4        2742        2743        2794        2793
         4        2743        2744        2795        2794
         4        2744        2745        2796        2795
         4        2745        2746        2797        2796
         4        2746        2747        2798        2797
         4        2747        2748        2799        2798
         4        2748        2749        2800        2799
         4        2749        2750        2801        2800
         4        2750        2751        2802        2801
         4        2751        2752        2803        2802
         4        2752        2753        2804        2803
         4        2754        2755        2806        2805
         4        2755        2756        2807        2806
         4        2756        2757        2808        2807
         4        2757        2758        2809        2808
         4        2758        2759        2810        2809
         4        2759        2760        2811        2810
         4        2760        2761        2812        2811
         4        2761        2762        2813        2812
         4        2762        2763        2814        2813
         4        2763        2764        2815        2814
         4        2764        2765        2816        2815
         4        2765        2766        2817        2816
         4        2766        2767        2818        2817
         4        2767        2768        2819        2818
         4        2768        2769        2820        2819
         4        2769        2770        2821        2820
         4        2770        2771        2822        2821
         4        2771        2772        2823        2822
         4        2772        2773        2824        2823
         4        2773        2774        2825        2824
         4        2774        2775        2826        2825
         4        2775        2776        2827        2826
         4        2776        2777        2828        2827
         4        2777        2778        2829        2828
         4        2778        2779        2830        2829
         4        2779        2780        2831        2830
         4        2780        2781        2832        2831
         4        2781        2782        2833        2832
         4        2782        2783        2834        2833
         4        2783        2784        2835        2834
         4        2784        2785        2836        2835
         4        2785        2786        2837        2836
         4        2786        2787        2838        2837
         4        2787        2788        2839        2838
         4        2788        2789        2840        2839
         4        2789        2790        2841        2840
         4        2790        2791        2842        2841
         4        2791        2792        2843        2842
         4        2792        2793        2844        2843
         4        2793        2794        2845        2844
         4        2794        2795        2846        2845
         4        2795        2796        2847        2846
         4        2796        2797        2848        2847
         4        2797        2798        2849        2848
         4        2798        2799        2850        2849
         4        2799        2800        2851        2850
         4        2800        2801        2852        2851
         4        2801        2802        2853        2852
         4        2802        2803        2854        2853
         4        2803        2804        2855        2854
         4        2805        2806        2857        2856
         4        2806        2807        2858        2857
         4        2807        2808        2859        2858
         4        2808        2809        2860        2859
         4        2809        2810        2861        2860
         4        2810        2811        2862        2861
         4        2811        2812        2863        2862
         4        2812        2813        2864        2863
         4        2813        2814        2865        2864
         4        2814        2815        2866        2865
         4        2815        2816        2867        2866
         4        2816        2817        2868        2867
         4        2817        2818        2869        2868
         4        2818        2819        2870        2869
         4        2819        2820        2871        2870
         4        2820        2821        2872        2871
         4        2821        2822        2873        2872
         4        2822        2823        2874        2873
         4        2823        2824        2875        2874
         4        2824        2825        2876        2875
         4        2825        2826        2877        2876
         4        2826        2827        2878        2877
         4        2827        2828        2879        2878
         4        2828        2829        2880        2879
         4        2829        2830        2881        2880
         4        2830        2831        2882        2881
         4        2831        2832        2883        2882
         4        2832        2833        2884        2883
         4        2833        2834        2885        2884
         4        2834        2835        2886        2885
         4        2835        2836        2887        2886
         4        2836        2837        2888        2887
         4        2837        2838        2889        2888
         4        2838        2839        2890        2889
         4        2839        2840        2891        2890
         4        2840        2841        2892        2891
         4        2841        2842        2893        2892
         4        2842        2843        2894        2893
         4        2843        2844        2895        2894
         4        2844        2845        2896        2895
         4        2845        2846        2897        2896
         4        2846        2847        2898        2897
         4        2847        2848        2899        2898
         4        2848        2849        2900        2899
         4        2849        2850        2901        2900
         4        2850        2851        2902        2901
         4        2851        2852        2903        2902
         4        2852        2853        2904        2903
         4        2853        2854        2905        2904
         4        2854        2855        2906        2905
         4        2856        2857        2908        2907
         4        2857        2858        2909        2908
         4        2858        2859        2910        2909
         4        2859        2860        2911        2910
         4        2860        2861        2912        2911
         4        2861        2862        2913        2912
         4        2862        2863        2914        2913
         4        2863        2864        2915        2914
         4        2864        2865        2916        2915
         4        2865        2866        2917        2916
         4        2866        2867        2918        2917
         4        2867        2868        2919        2918
         4        2868        2869        2920        2919
         4        2869        2870        2921        2920
         4        2870        2871        2922        2921
         4        2871        2872        2923        2922
         4        2872        2873        2924        2923
         4        2873        2874        2925        2924
         4        2874        2875        2926        2925
         4        2875        2876        2927        2926
         4        2876        2877        2928        2927
         4        2877        2878        2929        2928
         4        2878        2879        2930        2929
         4        2879        2880        2931        2930
         4        2880        2881        2932        2931
         4        2881        2882        2933        2932
         4        2882        2883        2934        2933
         4        2883        2884        2935        2934
         4        2884        2885        2936        2935
         4        2885        2886        2937        2936
         4        2886        2887        2938        2937
         4        2887        2888        2939        2938
         4        2888        2889        2940        2939
         4        2889        2890        2941        2940
         4        2890        2891        2942        2941
         4        2891        2892        2943        2942
         4        2892        2893        2944        2943
         4        2893        2894        2945        2944
         4        2894        2895        2946        2945
         4        2895        2896        2947        2946
         4        2896        2897        2948        2947
         4        2897        2898        2949        2948
         4        2898        2899        2950        2949
         4        2899        2900        2951        2950
         4        2900        2901        2952        2951
         4        2901        2902        2953        2952
         4        2902        2903        2954        2953
         4        2903        2904        2955        2954
         4        2904        2905        2956        2955
         4        2905        2906        2957        2956
         4        2907        2908        2959        2958
         4        2908        2909        2960        2959
         4        2909        2910        2961        2960
         4        2910        2911        2962        2961
         4        2911        2912        2963        2962
         4        2912        2913        2964        2963
         4        2913        2914        2965        2964
         4        2914        2915        2966        2965
         4        2915        2916        2967        2966
         4        2916        2917        2968        2967
         4        2917        2918        2969        2968
         4        2918        2919        2970        2969
         4        2919        2920        2971        2970
         4        2920        2921        2972        2971
         4        2921        2922        2973        2972
         4        2922        2923        2974        2973
         4        2923        2924        2975        2974
         4        2924        2925        2976        2975
         4        2925        2926        2977        2976
         4        2926        2927        2978        2977
         4        2927        2928        2979        2978
         4        2928        2929        2980        2979
         4        2929        2930        2981        2980
         4        2930        2931        2982        2981
         4        2931        2932        2983        2982
         4        2932        2933        2984        2983
         4        2933        2934        2985        2984
         4        2934        2935        2986        2985
         4        2935        2936        2987        2986
         4        2936        2937        2988        2987
         4        2937        2938        2989        2988
         4        2938        2939        2990        2989
         4        2939        2940        2991        2990
         4        2940        2941        2992        2991
         4        2941        2942        2993        2992
         4        2942        2943        2994        2993
         4        2943        2944        2995        2994
         4        2944        2945        2996        2995
         4        2945        2946        2997        2996
         4        2946        2947        2998        2997
         4        2947        2948        2999        2998
         4        2948        2949        3000        2999
         4        2949        2950        3001        3000
         4        2950        2951        3002        3001
         4        2951        2952        3003        3002
         4        2952        2953        3004        3003
         4        2953        2954        3005        3004
         4        2954        2955        3006        3005
         4        2955        2956        3007        3006
         4        2956        2957        3008        3007
         4        2958        2959        3010        3009
         4        2959        2960        3011        3010
         4        2960        2961        3012        3011
         4        2961        2962        3013        3012
         4        2962        2963        3014        3013
         4        2963        2964        3015        3014
         4        2964        2965        3016        3015
         4        2965        2966        3017        3016
         4        2966        2967        3018        3017
         4        2967        2968        3019        3018
         4        2968        2969        3020        3019
         4        2969        2970        3021        3020
         4        2970        2971        3022        3021
         4        2971        2972        3023        3022
         4        2972        2973        3024        3023
         4        2973        2974        3025        3024
         4        2974        2975        3026        3025
         4        2975        2976        3027        3026
         4        2976        2977        3028        3027
         4        2977        2978        3029        3028
         4        2978        2979        3030        3029
         4        2979        2980        3031        3030
         4        2980        2981        3032        3031
         4        2981        2982        3033        3032
         4        2982        2983        3034        3033
         4        2983        2984        3035        3034
         4        2984        2985        3036        3035
         4        2985        2986        3037        3036
         4        2986        2987        3038        3037
         4        2987        2988        3039        3038
         4        2988        2989        3040        3039
         4        2989        2990        3041        3040
         4        2990        2991        3042        3041
         4        2991        2992        3043        3042
         4        2992        2993        3044        3043
         4        2993        2994        3045        3044
         4        2994        2995        3046        3045
         4        2995        2996        3047        3046
         4        2996        2997        3048        3047
         4        2997        2998        3049        3048
         4        2998        2999        3050        3049
         4        2999        3000        3051        3050
         4        3000        3001        3052        3051
         4        3001        3002        3053        3052
         4        3002        3003        3054        3053
         4        3003        3004        3055        3054
         4        3004        3005        3056        3055
         4        3005        3006        3057        3056
         4        3006        3007        3058        3057
         4        3007        3008        3059        3058
         4        3009        3010        3061        3060
         4        3010        3011        3062        3061
         4        3011        3012        3063        3062
         4        3012        3013        3064        3063
         4        3013        3014        3065        3064
         4        3014        3015        3066        3065
         4        3015        3016        3067        3066
         4        3016        3017        3068        3067
         4        3017        3018        3069        3068
         4        3018        3019        3070        3069
         4        3019        3020        3071        3070
         4        3020        3021        3072        3071
         4        3021        3022        3073        3072
         4        3022        3023        3074        3073
         4        3023        3024        3075        3074
         4        3024        3025        3076        3075
         4        3025        3026        3077        3076
         4        3026        3027        3078        3077
         4        3027        3028        3079        3078
         4        3028        3029        3080        3079
         4        3029        3030        3081        3080
         4        3030        3031        3082        3081
         4        3031        3032        3083        3082
         4        3032        3033        3084        3083
         4        3033        3034        3085        3084
         4        3034        3035        3086        3085
         4        3035        3036        3087        3086
         4        3036        3037        3088        3087
         4        3037        3038        3089        3088
         4        3038        3039        3090        3089
         4        3039        3040        3091        3090
         4        3040        3041        3092        3091
         4        3041        3042        3093        3092
         4        3042        3043        3094        3093
         4        3043        3044        3095        3094
         4        3044        3045        3096        3095
         4        3045        3046        3097        3096
         4        3046        3047        3098        3097
         4        3047        3048        3099        3098
         4        3048        3049        3100        3099
         4        3049        3050        3101        3100
         4        3050        3051        3102        3101
         4        3051        3052        3103        3102
         4        3052        3053        3104        3103
         4        3053        3054        3105        3104
         4        3054        3055        3106        3105
         4        3055        3056        3107        3106
         4        3056        3057        3108        3107
         4        3057        3058        3109        3108
         4        3058        3059        3110        3109
         4        3060        3061        3112        3111
         4        3061        3062        3113        3112
         4        3062        3063        3114        3113
         4        3063        3064        3115        3114
         4        3064        3065        3116        3115
         4        3065        3066        3117        3116
         4        3066        3067        3118        3117
         4        3067        3068        3119        3118
         4        3068        3069        3120        3119
         4        3069        3070        3121        3120
         4        3070        3071        3122        3121
         4        3071        3072        3123        3122
         4        3072        3073        3124        3123
         4        3073        3074        3125        3124
         4        3074        3075        3126        3125
         4        3075        3076        3127        3126
         4        3076        3077        3128        3127
         4        3077        3078        3129        3128
         4        3078        3079        3130        3129
         4        3079        3080        3131        3130
         4        3080        3081        3132        3131
         4        3081        3082        3133        3132
         4        3082        3083        3134        3133
         4        3083        3084        3135        3134
         4        3084        3085        3136        3135
         4        3085        3086        3137        3136
         4        3086        3087        3138        3137
         4        3087        3088        3139        3138
         4        3088        3089        3140        3139
         4        3089        3090        3141        3140
         4        3090        3091        3142        3141
         4        3091        3092        3143        3142
         4        3092        3093        3144        3143
         4        3093        3094        3145        3144
         4        3094        3095        3146        3145
         4        3095        3096        3147        3146
         4        3096        3097        3148        3147
         4        3097        3098        3149        3148
         4        3098        3099        3150        3149
         4        3099        3100        3151        3150
         4        3100        3101        3152        3151
         4        3101        3102        3153        3152
         4        3102        3103        3154        3153
         4        3103        3104        3155        3154
         4        3104        3105        3156        3155
         4        3105        3106        3157        3156
         4        3106        3107        3158        3157
         4        3107        3108        3159        3158
         4        3108        3109        3160        3159
         4        3109        3110        3161        3160
         4        3111        3112        3163        3162
         4        3112        3113        3164        3163
         4        3113        3114        3165        3164
         4        3114        3115        3166        3165
         4        3115        3116        3167        3166
         4        3116        3117        3168        3167
         4        3117        3118        3169        3168
         4        3118        3119        3170        3169
         4        3119        3120        3171        3170
         4        3120        3121        3172        3171
         4        3121        3122        3173        3172
         4        3122        3123        3174        3173
         4        3123        3124        3175        3174
         4        3124        3125        3176        3175
         4        3125        3126        3177        3176
         4        3126        3127        3178        3177
         4        3127        3128        3179        3178
         4        3128        3129        3180        3179
         4        3129        3130        3181        3180
         4        3130        3131        3182        3181
         4        3131        3132        3183        3182
         4        3132        3133        3184        3183
         4        3133        3134        3185        3184
         4        3134        3135        3186        3185
         4        3135        3136        3187        3186
         4        3136        3137        3188        3187
         4        3137        3138        3189        3188
         4        3138        3139        3190        3189
         4        3139        3140        3191        3190
         4        3140        3141        3192        3191
         4        3141        3142        3193        3192
         4        3142        3143        3194        3193
         4        3143        3144        3195        3194
         4        3144        3145        3196        3195
         4        3145        3146        3197        3196
         4        3146        3147        3198        3197
         4        3147        3148        3199        3198
         4        3148        3149        3200        3199
         4        3149        3150        3201        3200
         4        3150        3151        3202        3201
         4        3151        3152        3203        3202
         4        3152        3153        3204        3203
         4        3153        3154        3205        3204
         4        3154        3155        3206        3205
         4        3155        3156        3207        3206
         4        3156        3157        3208        3207
         4        3157        3158        3209        3208
         4        3158        3159        3210        3209
         4        3159        3160        3211        3210
         4        3160        3161        3212        3211
         4        3162        3163        3214        3213
         4        3163        3164        3215        3214
         4        3164        3165        3216        3215
         4        3165        3166        3217        3216
         4        3166        3167        3218        3217
         4        3167        3168        3219        3218
         4        3168        3169        3220        3219
         4        3169        3170        3221        3220
         4        3170        3171        3222        3221
         4        3171        3172        3223        3222
         4        3172        3173        3224        3223
         4        3173        3174        3225        3224
         4        3174        3175        3226        3225
         4        3175        3176        3227        3226
         4        3176        3177        3228        3227
         4        3177        3178        3229        3228
         4        3178        3179        3230        3229
         4        3179        3180        3231        3230
         4        3180        3181        3232        3231
         4        3181        3182        3233        3232
         4        3182        3183        3234        3233
         4        3183        3184        3235        3234
         4        3184        3185        3236        3235
         4        3185        3186        3237        3236
         4        3186        3187        3238        3237
         4        3187        3188        3239        3238
         4        3188        3189        3240        3239
         4        3189        3190        3241        3240
         4        3190        3191        3242        3241
         4        3191        3192        3243        3242
         4        3192        3193        3244        3243
         4        3193        3194        3245        3244
         4        3194        3195        3246        3245
         4        3195        3196        3247        3246
         4        3196        3197        3248        3247
         4        3197        3198        3249        3248
         4        3198        3199        3250        3249
         4        3199        3200        3251        3250
         4        3200        3201        3252        3251
         4        3201        3202        3253        3252
         4        3202        3203        3254        3253
         4        3203        3204        3255        3254
         4        3204        3205        3256        3255
         4        3205        3206        3257        3256
         4        3206        3207        3258        3257
         4        3207        3208        3259        3258
         4        3208        3209        3260        3259
         4        3209        3210        3261        3260
         4        3210        3211        3262        3261
         4        3211        3212        3263        3262
         4        3213        3214        3265        3264
         4        3214        3215        3266        3265
         4        3215        3216        3267        3266
         4        3216        3217        3268        3267
         4        3217        3218        3269        3268
         4        3218        3219        3270        3269
         4        3219        3220        3271        3270
         4        3220        3221        3272        3271
         4        3221        3222        3273        3272
         4        3222        3223        3274        3273
         4        3223        3224        3275        3274
         4        3224        3225        3276        3275
         4        3225        3226        3277        3276
         4        3226        3227        3278        3277
         4        3227        3228        3279        3278
         4        3228        3229        3280        3279
         4        3229        3230        3281        3280
         4        3230        3231        3282        3281
         4        3231        3232        3283        3282
         4        3232        3233        3284        3283
         4        3233        3234        3285        3284
         4        3234        3235        3286        3285
         4        3235        3236        3287        3286
         4        3236        3237        3288        3287
         4        3237        3238        3289        3288
         4        3238        3239        3290        3289
         4        3239        3240        3291        3290
         4        3240        3241        3292        3291
         4        3241        3242        3293        3292
         4        3242        3243        3294        3293
         4        3243        3244        3295        3294
         4        3244        3245        3296        3295
         4        3245        3246        3297        3296
         4        3246        3247        3298        3297
         4        3247        3248        3299        3298
         4        3248        3249        3300        3299
         4        3249        3250        3301        3300
         4        3250        3251        3302        3301
         4        3251        3252        3303        3302
         4        3252        3253        3304        3303
         4        3253        3254        3305        3304
         4        3254        3255        3306        3305
         4        3255        3256        3307        3306
         4        3256        3257        3308        3307
         4        3257        3258        3309        3308
         4        3258        3259        3310        3309
         4        3259        3260        3311        3310
         4        3260        3261        3312        3311
         4        3261        3262        3313        3312
         4        3262        3263        3314        3313
         4        3264        3265        3316        3315
         4        3265        3266        3317        3316
         4        3266        3267        3318        3317
         4        3267        3268        3319        3318
         4        3268        3269        3320        3319
         4        3269        3270        3321        3320
         4        3270        3271        3322        3321
         4        3271        3272        3323        3322
         4        3272        3273        3324        3323
         4        3273        3274        3325        3324
         4        3274        3275        3326        3325
         4        3275        3276        3327        3326
         4        3276        3277        3328        3327
         4        3277        3278        3329        3328
         4        3278        3279        3330        3329
         4        3279        3280        3331        3330
         4        3280        3281        3332        3331
         4        3281        3282        3333        3332
         4        3282        3283        3334        3333
         4        3283        3284        3335        3334
         4        3284        3285        3336        3335
         4        3285        3286        3337        3336
         4        3286        3287        3338        3337
         4        3287        3288        3339        3338
         4        3288        3289        3340        3339
         4        3289        3290        3341        3340
         4        3290        3291        3342        3341
         4        3291        3292        3343        3342
         4        3292        3293        3344        3343
         4        3293        3294        3345        3344
         4        3294        3295        3346        3345
         4        3295        3296        3347        3346
         4        3296        3297        3348        3347
         4        3297        3298        3349        3348
         4        3298        3299        3350        3349
         4        3299        3300        3351        3350
         4        3300        3301        3352        3351
         4        3301        3302        3353        3352
         4        3302        3303        3354        3353
         4        3303        3304        3355        3354
         4        3304        3305        3356        3355
         4        3305        3306        3357        3356
         4        3306        3307        3358        3357
         4        3307        3308        3359        3358
         4        3308        3309        3360        3359
         4        3309        3310        3361        3360
         4        3310        3311        3362        3361
         4        3311        3312        3363        3362
         4        3312        3313        3364        3363
         4        3313        3314        3365        3364
         4        3315        3316        3367        3366
         4        3316        3317        3368        3367
         4        3317        3318        3369        3368
         4        3318        3319        3370        3369
         4        3319        3320        3371        3370
         4        3320        3321        3372        3371
         4        3321        3322        3373        3372
         4        3322        3323        3374        3373
         4        3323        3324        3375        3374
         4        3324        3325        3376        3375
         4        3325        3326        3377        3376
         4        3326        3327        3378        3377
         4        3327        3328        3379        3378
         4        3328        3329        3380        3379
         4        3329        3330        3381        3380
         4        3330        3331        3382        3381
         4        3331        3332        3383        3382
         4        3332        3333        3384        3383
         4        3333        3334        3385        3384
         4        3334        3335        3386        3385
         4        3335        3336        3387        3386
         4        3336        3337        3388        3387
         4        3337        3338        3389        3388
         4        3338        3339        3390        3389
         4        3339        3340        3391        3390
         4        3340        3341        3392        3391
         4        3341        3342        3393        3392
         4        3342        3343        3394        3393
         4        3343        3344        3395        3394
         4        3344        3345        3396        3395
         4        3345        3346        3397        3396
         4        3346        3347        3398        3397
         4        3347        3348        3399        3398
         4        3348        3349        3400        3399
         4        3349        3350        3401        3400
         4        3350        3351        3402        3401
         4        3351        3352        3403        3402
         4        3352        3353        3404        3403
         4        3353        3354        3405        3404
         4        3354        3355        3406        3405
         4        3355        3356        3407        3406
         4        3356        3357        3408        3407
         4        3357        3358        3409        3408
         4        3358        3359        3410        3409
         4        3359        3360        3411        3410
         4        3360        3361        3412        3411
         4        3361        3362        3413        3412
         4        3362        3363        3414        3413
         4        3363        3364        3415        3414
         4        3364        3365        3416        3415
         4        3366        3367        3418        3417
         4        3367        3368        3419        3418
         4        3368        3369        3420        3419
         4        3369        3370        3421        3420
         4        3370        3371        3422        3421
         4        3371        3372        3423        3422
         4        3372        3373        3424        3423
         4        3373        3374        3425        3424
         4        3374        3375        3426        3425
         4        3375        3376        3427        3426
         4        3376        3377        3428        3427
         4        3377        3378        3429        3428
         4        3378        3379        3430        3429
         4        3379        3380        3431        3430
         4        3380        3381        3432        3431
         4        3381        3382        3433        3432
         4        3382        3383        3434        3433
         4        3383        3384        3435        3434
         4        3384        3385        3436        3435
         4        3385        3386        3437        3436
         4        3386        3387        3438        3437
         4        3387        3388        3439        3438
         4        3388        3389        3440        3439
         4        3389        3390        3441        3440
         4        3390        3391        3442        3441
         4        3391        3392        3443        3442
         4        3392        3393        3444        3443
         4        3393        3394        3445        3444
         4        3394        3395        3446        3445
         4        3395        3396        3447        3446
         4        3396        3397        3448        3447
         4        3397        3398        3449        3448
         4        3398        3399        3450        3449
         4        3399        3400        3451        3450
         4        3400        3401        3452        3451
         4        3401        3402        3453        3452
         4        3402        3403        3454        3453
         4        3403        3404        3455        3454
         4        3404        3405        3456        3455
         4        3405        3406        3457        3456
         4        3406        3407        3458        3457
         4        3407        3408        3459        3458
         4        3408        3409        3460        3459
         4        3409        3410        3461        3460
         4        3410        3411        3462        3461
         4        3411        3412        3463        3462
         4        3412        3413        3464        3463
         4        3413        3414        3465        3464
         4        3414        3415        3466        3465
         4        3415        3416        3467        3466
         4        3417        3418        3469        3468
         4        3418        3419        3470        3469
         4        3419        3420        3471        3470
         4        3420        3421        3472        3471
         4        3421        3422        3473        3472
         4        3422        3423        3474        3473
         4        3423        3424        3475        3474
         4        3424        3425        3476        3475
         4        3425        3426        3477        3476
         4        3426        3427        3478        3477
         4        3427        3428        3479        3478
         4        3428        3429        3480        3479
         4        3429        3430        3481        3480
         4        3430        3431        3482        3481
         4        3431        3432        3483        3482
         4        3432        3433        3484        3483
         4        3433        3434        3485        3484
         4        3434        3435        3486        3485
         4        3435        3436        3487        3486
         4        3436        3437        3488        3487
         4        3437        3438        3489        3488
         4        3438        3439        3490        3489
         4        3439        3440        3491        3490
         4        3440        3441        3492        3491
         4        3441        3442        3493        3492
         4        3442        3443        3494        3493
         4        3443        3444        3495        3494
         4        3444        3445        3496        3495
         4        3445        3446        3497        3496
         4        3446        3447        3498        3497
         4        3447        3448        3499        3498
         4        3448        3449        3500        3499
         4        3449        3450        3501        3500
         4        3450        3451        3502        3501
         4        3451        3452        3503        3502
         4        3452        3453        3504        3503
         4        3453        3454        3505        3504
         4        3454        3455        3506        3505
         4        3455        3456        3507        3506
         4        3456        3457        3508        3507
         4        3457        3458        3509        3508
         4        3458        3459        3510        3509
         4        3459        3460        3511        3510
         4        3460        3461        3512        3511
         4        3461        3462        3513        3512
         4        3462        3463        3514        3513
         4        3463        3464        3515        3514
         4        3464        3465        3516        3515
         4        3465        3466        3517        3516
         4        3466        3467        3518        3517
         4        3468        3469        3520        3519
         4        3469        3470        3521        3520
         4        3470        3471        3522        3521
         4        3471        3472        3523        3522
         4        3472        3473        3524        3523
         4        3473        3474        3525        3524
         4        3474        3475        3526        3525
         4        3475        3476        3527        3526
         4        3476        3477        3528        3527
         4        3477        3478        3529        3528
         4        3478        3479        3530        3529
         4        3479        3480        3531        3530
         4        3480        3481        3532        3531
         4        3481        3482        3533        3532
         4        3482        3483        3534        3533
         4        3483        3484        3535        3534
         4        3484        3485        3536        3535
         4        3485        3486        3537        3536
         4        3486        3487        3538        3537
         4        3487        3488        3539        3538
         4        3488        3489        3540        3539
         4        3489        3490        3541        3540
         4        3490        3491        3542        3541
         4        3491        3492        3543        3542
         4        3492        3493        3544        3543
         4        3493        3494        3545        3544
         4        3494        3495        3546        3545
         4        3495        3496        3547        3546
         4        3496        3497        3548        3547
         4        3497        3498        3549        3548
         4        3498        3499        3550        3549
         4        3499        3500        3551        3550
         4        3500        3501        3552        3551
         4        3501        3502        3553        3552
         4        3502        3503        3554        3553
         4        3503        3504        3555        3554
         4        3504        3505        3556        3555
         4        3505        3506        3557        3556
         4        3506        3507        3558        3557
         4        3507        3508        3559        3558
         4        3508        3509        3560        3559
         4        3509        3510        3561        3560
         4        3510        3511        3562        3561
         4        3511        3512        3563        3562
         4        3512        3513        3564        3563
         4        3513        3514        3565        3564
         4        3514        3515        3566        3565
         4        3515        3516        3567        3566
         4        3516        3517        3568        3567
         4        3517        3518        3569        3568
         4        3519        3520        3571        3570
         4        3520        3521        3572        3571
         4        3521        3522        3573        3572
         4        3522        3523        3574        3573
         4        3523        3524        3575        3574
         4        3524        3525        3576        3575
         4        3525        3526        3577        3576
         4        3526        3527        3578        3577
         4        3527        3528        3579        3578
         4        3528        3529        3580        3579
         4        3529        3530        3581        3580
         4        3530        3531        3582        3581
         4        3531        3532        3583        3582
         4        3532        3533        3584        3583
         4        3533        3534        3585        3584
         4        3534        3535        3586        3585
         4        3535        3536        3587        3586
         4        3536        3537        3588        3587
         4        3537        3538        3589        3588
         4        3538        3539        3590        3589
         4        3539        3540        3591        3590
         4        3540        3541        3592        3591
         4        3541        3542        3593        3592
         4        3542        3543        3594        3593
         4        3543        3544        3595        3594
         4        3544        3545        3596        3595
         4        3545        3546        3597        3596
         4        3546        3547        3598        3597
         4        3547        3548        3599        3598
         4        3548        3549        3600        3599
         4        3549        3550        3601        3600
         4        3550        3551        3602        3601
         4        3551        3552        3603        3602
         4        3552        3553        3604        3603
         4        3553        3554        3605        3604
         4        3554        3555        3606        3605
         4        3555        3556        3607        3606
         4        3556        3557        3608        3607
         4        3557        3558        3609        3608
         4        3558        3559        3610        3609
         4        3559        3560        3611        3610
         4        3560        3561        3612        3611
         4        3561        3562        3613        3612
         4        3562        3563        3614        3613
         4        3563        3564        3615        3614
         4        3564        3565        3616        3615
         4        3565        3566        3617        3616
         4        3566        3567        3618        3617
         4        3567        3568        3619        3618
         4        3568        3569        3620        3619
         4        3570        3571        3622        3621
         4        3571        3572        3623        3622
         4        3572        3573        3624        3623
         4        3573        3574        3625        3624
         4        3574        3575        3626        3625
         4        3575        3576        3627        3626
         4        3576        3577        3628        3627
         4        3577        3578        3629        3628
         4        3578        3579        3630        3629
         4        3579        3580        3631        3630
         4        3580        3581        3632        3631
         4        3581        3582        3633        3632
         4        3582        3583        3634        3633
         4        3583        3584        3635        3634
         4        3584        3585        3636        3635
         4        3585        3586        3637        3636
         4        3586        3587        3638        3637
         4        3587        3588        3639        3638
         4        3588        3589        3640        3639
         4        3589        3590        3641        3640
         4        3590        3591        3642        3641
         4        3591        3592        3643        3642
         4        3592        3593        3644        3643
         4        3593        3594        3645        3644
         4        3594        3595        3646        3645
         4        3595        3596        3647        3646
         4        3596        3597        3648        3647
         4        3597        3598        3649        3648
         4        3598        3599        3650        3649
         4        3599        3600        3651        3650
         4        3600        3601        3652        3651
         4        3601        3602        3653        3652
         4        3602        3603        3654        3653
         4        3603        3604        3655        3654
         4        3604        3605        3656        3655
         4        3605        3606        3657        3656
         4        3606        3607        3658        3657
         4        3607        3608        3659        3658
         4        3608        3609        3660        3659
         4        3609        3610        3661        3660
         4        3610        3611        3662        3661
         4        3611        3612        3663        3662
         4        3612        3613        3664        3663
         4        3613        3614        3665        3664
         4        3614        3615        3666        3665
         4        3615        3616        3667        3666
         4        3616        3617        3668        3667
         4        3617        3618        3669        3668
         4        3618        3619        3670        3669
         4        3619        3620        3671        3670
         4        3621        3622        3673        3672
         4        3622        3623        3674        3673
         4        3623        3624        3675        3674
         4        3624        3625        3676        3675
         4        3625        3626        3677        3676
         4        3626        3627        3678        3677
         4        3627        3628        3679        3678
         4        3628        3629        3680        3679
         4        3629        3630        3681        3680
         4        3630        3631        3682        3681
         4        3631        3632        3683        3682
         4        3632        3633        3684        3683
         4        3633        3634        3685        3684
         4        3634        3635        3686        3685
         4        3635        3636        3687        3686
         4        3636        3637        3688        3687
         4        3637        3638        3689        3688
         4        3638        3639        3690        3689
         4        3639        3640        3691        3690
         4        3640        3641        3692        3691
         4        3641        3642        3693        3692
         4        3642        3643        3694        3693
         4        3643        3644        3695        3694
         4        3644        3645        3696        3695
         4        3645        3646        3697        3696
         4        3646        3647        3698        3697
         4        3647        3648        3699        3698
         4        3648        3649        3700        3699
         4        3649        3650        3701        3700
         4        3650        3651        3702        3701
         4        3651        3652        3703        3702
         4        3652        3653        3704        3703
         4        3653        3654        3705        3704
         4        3654        3655        3706        3705
         4        3655        3656        3707        3706
         4        3656        3657        3708        3707
         4        3657        3658        3709        3708
         4        3658        3659        3710        3709
         4        3659        3660        3711        3710
         4        3660        3661        3712        3711
         4        3661        3662        3713        3712
         4        3662        3663        3714        3713
         4        3663        3664        3715        3714
         4        3664        3665        3716        3715
         4        3665        3666        3717        3716
         4        3666        3667        3718        3717
         4        3667        3668        3719        3718
         4        3668        3669        3720        3719
         4        3669        3670        3721        3720
         4        3670        3671        3722        3721
         4        3672        3673        3724        3723
         4        3673        3674        3725        3724
         4        3674        3675        3726        3725
         4        3675        3676        3727        3726
         4        3676        3677        3728        3727
         4        3677        3678        3729        3728
         4        3678        3679        3730        3729
         4        3679        3680        3731        3730
         4        3680        3681        3732        3731
         4        3681        3682        3733        3732
         4        3682        3683        3734        3733
         4        3683        3684        3735        3734
         4        3684        3685        3736        3735
         4        3685        3686        3737        3736
         4        3686        3687        3738        3737
         4        3687        3688        3739        3738
         4        3688        3689        3740        3739
         4        3689        3690        3741        3740
         4        3690        3691        3742        3741
         4        3691        3692        3743        3742
         4        3692        3693        3744        3743
         4        3693        3694        3745        3744
         4        3694        3695        3746        3745
         4        3695        3696        3747        3746
         4        3696        3697        3748        3747
         4        3697        3698        3749        3748
         4        3698        3699        3750        3749
         4        3699        3700        3751        3750
         4        3700        3701        3752        3751
         4        3701        3702        3753        3752
         4        3702        3703        3754        3753
         4        3703        3704        3755        3754
         4        3704        3705        3756        3755
         4        3705        3706        3757        3756
         4        3706        3707        3758        3757
         4        3707        3708        3759        3758
         4        3708        3709        3760        3759
         4        3709        3710        3761        3760
         4        3710        3711        3762        3761
         4        3711        3712        3763        3762
         4        3712        3713        3764        3763
         4        3713        3714        3765        3764
         4        3714        3715        3766        3765
         4        3715        3716        3767        3766
         4        3716        3717        3768        3767
         4        3717        3718        3769        3768
         4        3718        3719        3770        3769
         4        3719        3720        3771        3770
         4        3720        3721        3772        3771
         4        3721        3722        3773        3772
         4        3723        3724        3775        3774
         4        3724        3725        3776        3775
         4        3725        3726        3777        3776
         4        3726        3727        3778        3777
         4        3727        3728        3779        3778
         4        3728        3729        3780        3779
         4        3729        3730        3781        3780
         4        3730        3731        3782        3781
         4        3731        3732        3783        3782
         4        3732        3733        3784        3783
         4        3733        3734        3785        3784
         4        3734        3735        3786        3785
         4        3735        3736        3787        3786
         4        3736        3737        3788        3787
         4        3737        3738        3789        3788
         4        3738        3739        3790        3789
         4        3739        3740        3791        3790
         4        3740        3741        3792        3791
         4        3741        3742        3793        3792
         4        3742        3743        3794        3793
         4        3743        3744        3795        3794
         4        3744        3745        3796        3795
         4        3745        3746        3797        3796
         4        3746        3747        3798        3797
         4        3747        3748        3799        3798
         4        3748        3749        3800        3799
         4        3749        3750        3801        3800
         4        3750        3751        3802        3801
         4        3751        3752        3803        3802
         4        3752        3753        3804        3803
         4        3753        3754        3805        3804
         4        3754        3755        3806        3805
         4        3755        3756        3807        3806
         4        3756        3757        3808        3807
         4        3757        3758        3809        3808
         4        3758        3759        3810        3809
         4        3759        3760        3811        3810
         4        3760        3761        3812        3811
         4        3761        3762        3813        3812
         4        3762        3763        3814        3813
         4        3763        3764        3815        3814
         4        3764        3765        3816        3815
         4        3765        3766        3817        3816
         4        3766        3767        3818        3817
         4        3767        3768        3819        3818
         4        3768        3769        3820        3819
         4        3769        3770        3821        3820
         4        3770        3771        3822        3821
         4        3771        3772        3823        3822
         4        3772        3773        3824        3823
         4        3774        3775        3826        3825
         4        3775        3776        3827        3826
         4        3776        3777        3828        3827
         4        3777        3778        3829        3828
         4        3778        3779        3830        3829
         4        3779        3780        3831        3830
         4        3780        3781        3832        3831
         4        3781        3782        3833        3832
         4        3782        3783        3834        3833
         4        3783        3784        3835        3834
         4        3784        3785        3836        3835
         4        3785        3786        3837        3836
         4        3786        3787        3838        3837
         4        3787        3788        3839        3838
         4        3788        3789        3840        3839
         4        3789        3790        3841        3840
         4        3790        3791        3842        3841
         4        3791        3792        3843        3842
         4        3792        3793        3844        3843
         4        3793        3794        3845        3844
         4        3794        3795        3846        3845
         4        3795        3796        3847        3846
         4        3796        3797        3848        3847
         4        3797        3798        3849        3848
         4        3798        3799        3850        3849
         4        3799        3800        3851        3850
         4        3800        3801        3852        3851
         4        3801        3802        3853        3852
         4        3802        3803        3854        3853
         4        3803        3804        3855        3854
         4        3804        3805        3856        3855
         4        3805        3806        3857        3856
         4        3806        3807        3858        3857
         4        3807        3808        3859        3858
         4        3808        3809        3860        3859
         4        3809        3810        3861        3860
         4        3810        3811        3862        3861
         4        3811        3812        3863        3862
         4        3812        3813        3864        3863
         4        3813        3814        3865        3864
         4        3814        3815        3866        3865
         4        3815        3816        3867        3866
         4        3816        3817        3868        3867
         4        3817        3818        3869        3868
         4        3818        3819        3870        3869
         4        3819        3820        3871        3870
         4        3820        3821        3872        3871
         4        3821        3822        3873        3872
         4        3822        3823        3874        3873
         4        3823        3824        3875        3874
         4        3825        3826        3877        3876
         4        3826        3827        3878        3877
         4        3827        3828        3879        3878
         4        3828        3829        3880        3879
         4        3829        3830        3881        3880
         4        3830        3831        3882        3881
         4        3831        3832        3883        3882
         4        3832        3833        3884        3883
         4        3833        3834        3885        3884
         4        3834        3835        3886        3885
         4        3835        3836        3887        3886
         4        3836        3837        3888        3887
         4        3837        3838        3889        3888
         4        3838        3839        3890        3889
         4        3839        3840        3891        3890
         4        3840        3841        3892        3891
         4        3841        3842        3893        3892
         4        3842        3843        3894        3893
         4        3843        3844        3895        3894
         4        3844        3845        3896        3895
         4        3845        3846        3897        3896
         4        3846        3847        3898        3897
         4        3847        3848        3899        3898
         4        3848        3849        3900        3899
         4        3849        3850        3901        3900
         4        3850        3851        3902        3901
         4        3851        3852        3903        3902
         4        3852        3853        3904        3903
         4        3853        3854        3905        3904
         4        3854        3855        3906        3905
         4        3855        3856        3907        3906
         4        3856        3857        3908        3907
         4        3857        3858        3909        3908
         4        3858        3859        3910        3909
         4        3859        3860        3911        3910
         4        3860        3861        3912        3911
         4        3861        3862        3913        3912
         4        3862        3863        3914        3913
         4        3863        3864        3915        3914
         4        3864        3865        3916        3915
         4        3865        3866        3917        3916
         4        3866        3867        3918        3917
         4        3867        3868        3919        3918
         4        3868        3869        3920        3919
         4        3869        3870        3921        3920
         4        3870        3871        3922        3921
         4        3871        3872        3923        3922
         4        3872        3873        3924        3923
         4        3873        3874        3925        3924
         4        3874        3875        3926        3925
         4        3876        3877        3928        3927
         4        3877        3878        3929        3928
         4        3878        3879        3930        3929
         4        3879        3880        3931        3930
         4        3880        3881        3932        3931
         4        3881        3882        3933        3932
         4        3882        3883        3934        3933
         4        3883        3884        3935        3934
         4        3884        3885        3936        3935
         4        3885        3886        3937        3936
         4        3886        3887        3938        3937
         4        3887        3888        3939        3938
         4        3888        3889        3940        3939
         4        3889        3890        3941        3940
         4        3890        3891        3942        3941
         4        3891        3892        3943        3942
         4        3892        3893        3944        3943
         4        3893        3894        3945        3944
         4        3894        3895        3946        3945
         4        3895        3896        3947        3946
         4        3896        3897        3948        3947
         4        3897        3898        3949        3948
         4        3898        3899        3950        3949
         4        3899        3900        3951        3950
         4        3900        3901        3952        3951
         4        3901        3902        3953        3952
         4        3902        3903        3954        3953
         4        3903        3904        3955        3954
         4        3904        3905        3956        3955
         4        3905        3906        3957        3956
         4        3906        3907        3958        3957
         4        3907        3908        3959        3958
         4        3908        3909        3960        3959
         4        3909        3910        3961        3960
         4        3910        3911        3962        3961
         4        3911        3912        3963        3962
         4        3912        3913        3964        3963
         4        3913        3914        3965        3964
         4        3914        3915        3966        3965
         4        3915        3916        3967        3966
         4        3916        3917        3968        3967
         4        3917        3918        3969        3968
         4        3918        3919        3970        3969
         4        3919        3920        3971        3970
         4        3920        3921        3972        3971
         4        3921        3922        3973        3972
         4        3922        3923        3974        3973
         4        3923        3924        3975        3974
         4        3924        3925        3976        3975
         4        3925        3926        3977        3976
         4        3927        3928        3979        3978
         4        3928        3929        3980        3979
         4        3929        3930        3981        3980
         4        3930        3931        3982        3981
         4        3931        3932        3983        3982
         4        3932        3933        3984        3983
         4        3933        3934        3985        3984
         4        3934        3935        3986        3985
         4        3935        3936        3987        3986
         4        3936        3937        3988        3987
         4        3937        3938        3989        3988
         4        3938        3939        3990        3989
         4        3939        3940        3991        3990
         4        3940        3941        3992        3991
         4        3941        3942        3993        3992
         4        3942        3943        3994        3993
         4        3943        3944        3995        3994
         4        3944        3945        3996        3995
         4        3945        3946        3997        3996
         4        3946        3947        3998        3997
         4        3947        3948        3999        3998
         4        3948        3949        4000        3999
         4        3949        3950        4001        4000
         4        3950        3951        4002        4001
         4        3951        3952        4003        4002
         4        3952        3953        4004        4003
         4        3953        3954        4005        4004
         4        3954        3955        4006        4005
         4        3955        3956        4007        4006
         4        3956        3957        4008        4007
         4        3957        3958        4009        4008
         4        3958        3959        4010        4009
         4        3959        3960        4011        4010
         4        3960        3961        4012        4011
         4        3961        3962        4013        4012
         4        3962        3963        4014        4013
         4        3963        3964        4015        4014
         4        3964        3965        4016        4015
         4        3965        3966        4017        4016
         4        3966        3967        4018        4017
         4        3967        3968        4019        4018
         4        3968        3969        4020        4019
         4        3969        3970        4021        4020
         4        3970        3971        4022        4021
         4        3971        3972        4023        4022
         4        3972        3973        4024        4023
         4        3973        3974        4025        4024
         4        3974        3975        4026        4025
         4        3975        3976        4027        4026
         4        3976        3977        4028        4027
         4        3978        3979        4030        4029
         4        3979        3980        4031        4030
         4        3980        3981        4032        4031
         4        3981        3982        4033        4032
         4        3982        3983        4034        4033
         4        3983        3984        4035        4034
         4        3984        3985        4036        4035
         4        3985        3986        4037        4036
         4        3986        3987        4038        4037
         4        3987        3988        4039        4038
         4        3988        3989        4040        4039
         4        3989        3990        4041        4040
         4        3990        3991        4042        4041
         4        3991        3992        4043        4042
         4        3992        3993        4044        4043
         4        3993        3994        4045        4044
         4        3994        3995        4046        4045
         4        3995        3996        4047        4046
         4        3996        3997        4048        4047
         4        3997        3998        4049        4048
         4        3998        3999        4050        4049
         4        3999        4000        4051        4050
         4        4000        4001        4052        4051
         4        4001        4002        4053        4052
         4        4002        4003        4054        4053
         4        4003        4004        4055        4054
         4        4004        4005        4056        4055
         4        4005        4006        4057        4056
         4        4006        4007        4058        4057
         4        4007        4008        4059        4058
         4        4008        4009        4060        4059
         4        4009        4010        4061        4060
         4        4010        4011        4062        4061
         4        4011        4012        4063        4062
         4        4012        4013        4064        4063
         4        4013        4014        4065        4064
         4        4014        4015        4066        4065
         4        4015        4016        4067        4066
         4        4016        4017        4068        4067
         4        4017        4018        4069        4068
         4        4018        4019        4070        4069
         4        4019        4020        4071        4070
         4        4020        4021        4072        4071
         4        4021        4022        4073        4072
         4        4022        4023        4074        4073
         4        4023        4024        4075        4074
         4        4024        4025        4076        4075
         4        4025        4026        4077        4076
         4        4026        4027        4078        4077
         4        4027        4028        4079        4078
         4        4029        4030        4081        4080
         4        4030        4031        4082        4081
         4        4031        4032        4083        4082
         4        4032        4033        4084        4083
         4        4033        4034        4085        4084
         4        4034        4035        4086        4085
         4        4035        4036        4087        4086
         4        4036        4037        4088        4087
         4        4037        4038        4089        4088
         4        4038        4039        4090        4089
         4        4039        4040        4091        4090
         4        4040        4041        4092        4091
         4        4041        4042        4093        4092
         4        4042        4043        4094        4093
         4        4043        4044        4095        4094
         4        4044        4045        4096        4095
         4        4045        4046        4097        4096
         4        4046        4047        4098        4097
         4        4047        4048        4099        4098
         4        4048        4049        4100        4099
         4        4049        4050        4101        4100
         4        4050        4051        4102        4101
         4        4051        4052        4103        4102
         4        4052        4053        4104        4103
         4        4053        4054        4105        4104
         4        4054        4055        4106        4105
         4        4055        4056        4107        4106
         4        4056        4057        4108        4107
         4        4057        4058        4109        4108
         4        4058        4059        4110        4109
         4        4059        4060        4111        4110
         4        4060        4061        4112        4111
         4        4061        4062        4113        4112
         4        4062        4063        4114        4113
         4        4063        4064        4115        4114
         4        4064        4065        4116        4115
         4        4065        4066        4117        4116
         4        4066        4067        4118        4117
         4        4067        4068        4119        4118
         4        4068        4069        4120        4119
         4        4069        4070        4121        4120
         4        4070        4071        4122        4121
         4        4071        4072        4123        4122
         4        4072        4073        4124        4123
         4        4073        4074        4125        4124
         4        4074        4075        4126        4125
         4        4075        4076        4127        4126
         4        4076        4077        4128        4127
         4        4077        4078        4129        4128
         4        4078        4079        4130        4129
         4        4080        4081        4132        4131
         4        4081        4082        4133        4132
         4        4082        4083        4134        4133
         4        4083        4084        4135        4134
         4        4084        4085        4136        4135
         4        4085        4086        4137        4136
         4        4086        4087        4138        4137
         4        4087        4088        4139        4138
         4        4088        4089        4140        4139
         4        4089        4090        4141        4140
         4        4090        4091        4142        4141
         4        4091        4092        4143        4142
         4        4092        4093        4144        4143
         4        4093        4094        4145        4144
         4        4094        4095        4146        4145
         4        4095        4096        4147        4146
         4        4096        4097        4148        4147
         4        4097        4098        4149        4148
         4        4098        4099        4150        4149
         4        4099        4100        4151        4150
         4        4100        4101        4152        4151
         4        4101        4102        4153        4152
         4        4102        4103        4154        4153
         4        4103        4104        4155        4154
         4        4104        4105        4156        4155
         4        4105        4106        4157        4156
         4        4106        4107        4158        4157
         4        4107        4108        4159        4158
         4        4108        4109        4160        4159
         4        4109        4110        4161        4160
         4        4110        4111        4162        4161
         4        4111        4112        4163        4162
         4        4112        4113        4164        4163
         4        4113        4114        4165        4164
         4        4114        4115        4166        4165
         4        4115        4116        4167        4166
         4        4116        4117        4168        4167
         4        4117        4118        4169        4168
         4        4118        4119        4170        4169
         4        4119        4120        4171        4170
         4        4120        4121        4172        4171
         4        4121        4122        4173        4172
         4        4122        4123        4174        4173
         4        4123        4124        4175        4174
         4        4124        4125        4176        4175
         4        4125        4126        4177        4176
         4        4126        4127        4178        4177
         4        4127        4128        4179        4178
         4        4128        4129        4180        4179
         4        4129        4130        4181        4180
         4        4131        4132        4183        4182
         4        4132        4133        4184        4183
         4        4133        4134        4185        4184
         4        4134        4135        4186        4185
         4        4135        4136        4187        4186
         4        4136        4137        4188        4187
         4        4137        4138        4189        4188
         4        4138        4139        4190        4189
         4        4139        4140        4191        4190
         4        4140        4141        4192        4191
         4        4141        4142        4193        4192
         4        4142        4143        4194        4193
         4        4143        4144        4195        4194
         4        4144        4145        4196        4195
         4        4145        4146        4197        4196
         4        4146        4147        4198        4197
         4        4147        4148        4199        4198
         4        4148        4149        4200        4199
         4        4149        4150        4201        4200
         4        4150        4151        4202        4201
         4        4151        4152        4203        4202
         4        4152        4153        4204        4203
         4        4153        4154        4205        4204
         4        4154        4155        4206        4205
         4        4155        4156        4207        4206
         4        4156        4157        4208        4207
         4        4157        4158        4209        4208
         4        4158        4159        4210        4209
         4        4159        4160        4211        4210
         4        4160        4161        4212        4211
         4        4161        4162        4213        4212
         4        4162        4163        4214        4213
         4        4163        4164        4215        4214
         4        4164        4165        4216        4215
         4        4165        4166        4217        4216
         4        4166        4167        4218        4217
         4        4167        4168        4219        4218
         4        4168        4169        4220        4219
         4        4169        4170        4221        4220
         4        4170        4171        4222        4221
         4        4171        4172        4223        4222
         4        4172        4173        4224        4223
         4        4173        4174        4225        4224
         4        4174        4175        4226        4225
         4        4175        4176        4227        4226
         4        4176        4177        4228        4227
         4        4177        4178        4229        4228
         4        4178        4179        4230        4229
         4        4179        4180        4231        4230
         4        4180        4181        4232        4231
         4        4182        4183        4234        4233
         4        4183        4184        4235        4234
         4        4184        4185        4236        4235
         4        4185        4186        4237        4236
         4        4186        4187        4238        4237
         4        4187        4188        4239        4238
         4        4188        4189        4240        4239
         4        4189        4190        4241        4240
         4        4190        4191        4242        4241
         4        4191        4192        4243        4242
         4        4192        4193        4244        4243
         4        4193        4194        4245        4244
         4        4194        4195        4246        4245
         4        4195        4196        4247        4246
         4        4196        4197        4248        4247
         4        4197        4198        4249        4248
         4        4198        4199        4250        4249
         4        4199        4200        4251        4250
         4        4200        4201        4252        4251
         4        4201        4202        4253        4252
         4        4202        4203        4254        4253
         4        4203        4204        4255        4254
         4        4204        4205        4256        4255
         4        4205        4206        4257        4256
         4        4206        4207        4258        4257
         4        4207        4208        4259        4258
         4        4208        4209        4260        4259
         4        4209        4210        4261        4260
         4        4210        4211        4262        4261
         4        4211        4212        4263        4262
         4        4212        4213        4264        4263
         4        4213        4214        4265        4264
         4        4214        4215        4266        4265
         4        4215        4216        4267        4266
         4        4216        4217        4268        4267
         4        4217        4218        4269        4268
         4        4218        4219        4270        4269
         4        4219        4220        4271        4270
         4        4220        4221        4272        4271
         4        4221        4222        4273        4272
         4        4222        4223        4274        4273
         4        4223        4224        4275        4274
         4        4224        4225        4276        4275
         4        4225        4226        4277        4276
         4        4226        4227        4278        4277
         4        4227        4228        4279        4278
         4        4228        4229        4280        4279
         4        4229        4230        4281        4280
         4        4230        4231        4282        4281
         4        4231        4232        4283        4282
         4        4233        4234        4285        4284
         4        4234        4235        4286        4285
         4        4235        4236        4287        4286
         4        4236        4237        4288        4287
         4        4237        4238        4289        4288
         4        4238        4239        4290        4289
         4        4239        4240        4291        4290
         4        4240        4241        4292        4291
         4        4241        4242        4293        4292
         4        4242        4243        4294        4293
         4        4243        4244        4295        4294
         4        4244        4245        4296        4295
         4        4245        4246        4297        4296
         4        4246        4247        4298        4297
         4        4247        4248        4299        4298
         4        4248        4249        4300        4299
         4        4249        4250        4301        4300
         4        4250        4251        4302        4301
         4        4251        4252        4303        4302
         4        4252        4253        4304        4303
         4        4253        4254        4305        4304
         4        4254        4255        4306        4305
         4        4255        4256        4307        4306
         4        4256        4257        4308        4307
         4        4257        4258        4309        4308
         4        4258        4259        4310        4309
         4        4259        4260        4311        4310
         4        4260        4261        4312        4311
         4        4261        4262        4313        4312
         4        4262        4263        4314        4313
         4        4263        4264        4315        4314
         4        4264        4265        4316        4315
         4        4265        4266        4317        4316
         4        4266        4267        4318        4317
         4        4267        4268        4319        4318
         4        4268        4269        4320        4319
         4        4269        4270        4321        4320
         4        4270        4271        4322        4321
         4        4271        4272        4323        4322
         4        4272        4273        4324        4323
         4        4273        4274        4325        4324
         4        4274        4275        4326        4325
         4        4275        4276        4327        4326
         4        4276        4277        4328        4327
         4        4277        4278        4329        4328
         4        4278        4279        4330        4329
         4        4279        4280        4331        4330
         4        4280        4281        4332        4331
         4        4281        4282        4333        4332
         4        4282        4283        4334        4333
         4        4284        4285        4336        4335
         4        4285        4286        4337        4336
         4        4286        4287        4338        4337
         4        4287        4288        4339        4338
         4        4288        4289        4340        4339
         4        4289        4290        4341        4340
         4        4290        4291        4342        4341
         4        4291        4292        4343        4342
         4        4292        4293        4344        4343
         4        4293        4294        4345        4344
         4        4294        4295        4346        4345
         4        4295        4296        4347        4346
         4        4296        4297        4348        4347
         4        4297        4298        4349        4348
         4        4298        4299        4350        4349
         4        4299        4300        4351        4350
         4        4300        4301        4352        4351
         4        4301        4302        4353        4352
         4        4302        4303        4354        4353
         4        4303        4304        4355        4354
         4        4304        4305        4356        4355
         4        4305        4306        4357        4356
         4        4306        4307        4358        4357
         4        4307        4308        4359        4358
         4        4308        4309        4360        4359
         4        4309        4310        4361        4360
         4        4310        4311        4362        4361
         4        4311        4312        4363        4362
         4        4312        4313        4364        4363
         4        4313        4314        4365        4364
         4        4314        4315        4366        4365
         4        4315        4316        4367        4366
         4        4316        4317        4368        4367
         4        4317        4318        4369        4368
         4        4318        4319        4370        4369
         4        4319        4320        4371        4370
         4        4320        4321        4372        4371
         4        4321        4322        4373        4372
         4        4322        4323        4374        4373
         4        4323        4324        4375        4374
         4        4324        4325        4376        4375
         4        4325        4326        4377        4376
         4        4326        4327        4378        4377
         4        4327        4328        4379        4378
         4        4328        4329        4380        4379
         4        4329        4330        4381        4380
         4        4330        4331        4382        4381
         4        4331        4332        4383        4382
         4        4332        4333        4384        4383
         4        4333        4334        4385        4384
         4        4335        4336        4387        4386
         4        4336        4337        4388        4387
         4        4337        4338        4389        4388
         4        4338        4339        4390        4389
         4        4339        4340        4391        4390
         4        4340        4341        4392        4391
         4        4341        4342        4393        4392
         4        4342        4343        4394        4393
         4        4343        4344        4395        4394
         4        4344        4345        4396        4395
         4        4345        4346        4397        4396
         4        4346        4347        4398        4397
         4        4347        4348        4399        4398
         4        4348        4349        4400        4399
         4        4349        4350        4401        4400
         4        4350        4351        4402        4401
         4        4351        4352        4403        4402
         4        4352        4353        4404        4403
         4        4353        4354        4405        4404
         4        4354        4355        4406        4405
         4        4355        4356        4407        4406
         4        4356        4357        4408        4407
         4        4357        4358        4409        4408
         4        4358        4359        4410        4409
         4        4359        4360        4411        4410
         4        4360        4361        4412        4411
         4        4361        4362        4413        4412
         4        4362        4363        4414        4413
         4        4363        4364        4415        4414
         4        4364        4365        4416        4415
         4        4365        4366        4417        4416
         4        4366        4367        4418        4417
         4        4367        4368        4419        4418
         4        4368        4369        4420        4419
         4        4369        4370        4421        4420
         4        4370        4371        4422        4421
         4        4371        4372        4423        4422
         4        4372        4373        4424        4423
         4        4373        4374        4425        4424
         4        4374        4375        4426        4425
         4        4375        4376        4427        4426
         4        4376        4377        4428        4427
         4        4377        4378        4429        4428
         4        4378        4379        4430        4429
         4        4379        4380        4431        4430
         4        4380        4381        4432        4431
         4        4381        4382        4433        4432
         4        4382        4383        4434        4433
         4        4383        4384        4435        4434
         4        4384        4385        4436        4435
         4        4386        4387        4438        4437
         4        4387        4388        4439        4438
         4        4388        4389        4440        4439
         4        4389        4390        4441        4440
         4        4390        4391        4442        4441
         4        4391        4392        4443        4442
         4        4392        4393        4444        4443
         4        4393        4394        4445        4444
         4        4394        4395        4446        4445
         4        4395        4396        4447        4446
         4        4396        4397        4448        4447
         4        4397        4398        4449        4448
         4        4398        4399        4450        4449
         4        4399        4400        4451        4450
         4        4400        4401        4452        4451
         4        4401        4402        4453        4452
         4        4402        4403        4454        4453
         4        4403        4404        4455        4454
         4        4404        4405        4456        4455
         4        4405        4406        4457        4456
         4        4406        4407        4458        4457
         4        4407        4408        4459        4458
         4        4408        4409        4460        4459
         4        4409        4410        4461        4460
         4        4410        4411        4462        4461
         4        4411        4412        4463        4462
         4        4412        4413        4464        4463
         4        4413        4414        4465        4464
         4        4414        4415        4466        4465
         4        4415        4416        4467        4466
         4        4416        4417        4468        4467
         4        4417        4418        4469        4468
         4        4418        4419        4470        4469
         4        4419        4420        4471        4470
         4        4420        4421        4472        4471
         4        4421        4422        4473        4472
         4        4422        4423        4474        4473
         4        4423        4424        4475        4474
         4        4424        4425        4476        4475
         4        4425        4426        4477        4476
         4        4426        4427        4478        4477
         4        4427        4428        4479        4478
         4        4428        4429        4480        4479
         4        4429        4430        4481        4480
         4        4430        4431        4482        4481
         4        4431        4432        4483        4482
         4        4432        4433        4484        4483
         4        4433        4434        4485        4484
         4        4434        4435        4486        4485
         4        4435        4436        4487        4486
         4        4437        4438        4489        4488
         4        4438        4439        4490        4489
         4        4439        4440        4491        4490
         4        4440        4441        4492        4491
         4        4441        4442        4493        4492
         4        4442        4443        4494        4493
         4        4443        4444        4495        4494
         4        4444        4445        4496        4495
         4        4445        4446        4497        4496
         4        4446        4447        4498        4497
         4        4447        4448        4499        4498
         4        4448        4449        4500        4499
         4        4449        4450        4501        4500
         4        4450        4451        4502        4501
         4        4451        4452        4503        4502
         4        4452        4453        4504        4503
         4        4453        4454        4505        4504
         4        4454        4455        4506        4505
         4        4455        4456        4507        4506
         4        4456        4457        4508        4507
         4        4457        4458        4509        4508
         4        4458        4459        4510        4509
         4        4459        4460        4511        4510
         4        4460        4461        4512        4511
         4        4461        4462        4513        4512
         4        4462        4463        4514        4513
         4        4463        4464        4515        4514
         4        4464        4465        4516        4515
         4        4465        4466        4517        4516
         4        4466        4467        4518        4517
         4        4467        4468        4519        4518
         4        4468        4469        4520        4519
         4        4469        4470        4521        4520
         4        4470        4471        4522        4521
         4        4471        4472        4523        4522
         4        4472        4473        4524        4523
         4        4473        4474        4525        4524
         4        4474        4475        4526        4525
         4        4475        4476        4527        4526
         4        4476        4477        4528        4527
         4        4477        4478        4529        4528
         4        4478        4479        4530        4529
         4        4479        4480        4531        4530
         4        4480        4481        4532        4531
         4        4481        4482        4533        4532
         4        4482        4483        4534        4533
         4        4483        4484        4535        4534
         4        4484        4485        4536        4535
         4        4485        4486        4537        4536
         4        4486        4487        4538        4537
         4        4488        4489        4540        4539
         4        4489        4490        4541        4540
         4        4490        4491        4542        4541
         4        4491        4492        4543        4542
         4        4492        4493        4544        4543
         4        4493        4494        4545        4544
         4        4494        4495        4546        4545
         4        4495        4496        4547        4546
         4        4496        4497        4548        4547
         4        4497        4498        4549        4548
         4        4498        4499        4550        4549
         4        4499        4500        4551        4550
         4        4500        4501        4552        4551
         4        4501        4502        4553        4552
         4        4502        4503        4554        4553
         4        4503        4504        4555        4554
         4        4504        4505        4556        4555
         4        4505        4506        4557        4556
         4        4506        4507        4558        4557
         4        4507        4508        4559        4558
         4        4508        4509        4560        4559
         4        4509        4510        4561        4560
         4        4510        4511        4562        4561
         4        4511        4512        4563        4562
         4        4512        4513        4564        4563
         4        4513        4514        4565        4564
         4        4514        4515        4566        4565
         4        4515        4516        4567        4566
         4        4516        4517        4568        4567
         4        4517        4518        4569        4568
         4        4518        4519        4570        4569
         4        4519        4520        4571        4570
         4        4520        4521        4572        4571
         4        4521        4522        4573        4572
         4        4522        4523        4574        4573
         4        4523        4524        4575        4574
         4        4524        4525        4576        4575
         4        4525        4526        4577        4576
         4        4526        4527        4578        4577
         4        4527        4528        4579        4578
         4        4528        4529        4580        4579
         4        4529        4530        4581        4580
         4        4530        4531        4582        4581
         4        4531        4532        4583        4582
         4        4532        4533        4584        4583
         4        4533        4534        4585        4584
         4        4534        4535        4586        4585
         4        4535        4536        4587        4586
         4        4536        4537        4588        4587
         4        4537        4538        4589        4588
         4        4539        4540        4591        4590
         4        4540        4541        4592        4591
         4        4541        4542        4593        4592
         4        4542        4543        4594        4593
         4        4543        4544        4595        4594
         4        4544        4545        4596        4595
         4        4545        4546        4597        4596
         4        4546        4547        4598        4597
         4        4547        4548        4599        4598
         4        4548        4549        4600        4599
         4        4549        4550        4601        4600
         4        4550        4551        4602        4601
         4        4551        4552        4603        4602
         4        4552        4553        4604        4603
         4        4553        4554        4605        4604
         4        4554        4555        4606        4605
         4        4555        4556        4607        4606
         4        4556        4557        4608        4607
         4        4557        4558        4609        4608
         4        4558        4559        4610        4609
         4        4559        4560        4611        4610
         4        4560        4561        4612        4611
         4        4561        4562        4613        4612
         4        4562        4563        4614        4613
         4        4563        4564        4615        4614
         4        4564        4565        4616        4615
         4        4565        4566        4617        4616
         4        4566        4567        4618        4617
         4        4567        4568        4619        4618
         4        4568        4569        4620        4619
         4        4569        4570        4621        4620
         4        4570        4571        4622        4621
         4        4571        4572        4623        4622
         4        4572        4573        4624        4623
         4        4573        4574        4625        4624
         4        4574        4575        4626        4625
         4        4575        4576        4627        4626
         4        4576        4577        4628        4627
         4        4577        4578        4629        4628
         4        4578        4579        4630        4629
         4        4579        4580        4631        4630
         4        4580        4581        4632        4631
         4        4581        4582        4633        4632
         4        4582        4583        4634        4633
         4        4583        4584        4635        4634
         4        4584        4585        4636        4635
         4        4585        4586        4637        4636
         4        4586        4587        4638        4637
         4        4587        4588        4639        4638
         4        4588        4589        4640        4639
         4        4590        4591        4642        4641
         4        4591        4592        4643        4642
         4        4592        4593        4644        4643
         4        4593        4594        4645        4644
         4        4594        4595        4646        4645
         4        4595        4596        4647        4646
         4        4596        4597        4648        4647
         4        4597        4598        4649        4648
         4        4598        4599        4650        4649
         4        4599        4600        4651        4650
         4        4600        4601        4652        4651
         4        4601        4602        4653        4652
         4        4602        4603        4654        4653
         4        4603        4604        4655        4654
         4        4604        4605        4656        4655
         4        4605        4606        4657        4656
         4        4606        4607        4658        4657
         4        4607        4608        4659        4658
         4        4608        4609        4660        4659
         4        4609        4610        4661        4660
         4        4610        4611        4662        4661
         4        4611        4612        4663        4662
         4        4612        4613        4664        4663
         4        4613        4614        4665        4664
         4        4614        4615        4666        4665
         4        4615        4616        4667        4666
         4        4616        4617        4668        4667
         4        4617        4618        4669        4668
         4        4618        4619        4670        4669
         4        4619        4620        4671        4670
         4        4620        4621        4672        4671
         4        4621        4622        4673        4672
         4        4622        4623        4674        4673
         4        4623        4624        4675        4674
         4        4624        4625        4676        4675
         4        4625        4626        4677        4676
         4        4626        4627        4678        4677
         4        4627        4628        4679        4678
         4        4628        4629        4680        4679
         4        4629        4630        4681        4680
         4        4630        4631        4682        4681
         4        4631        4632        4683        4682
         4        4632        4633        4684        4683
         4        4633        4634        4685        4684
         4        4634        4635        4686        4685
         4        4635        4636        4687        4686
         4        4636        4637        4688        4687
         4        4637        4638        4689        4688
         4        4638        4639        4690        4689
         4        4639        4640        4691        4690
         4        4641        4642        4693        4692
         4        4642        4643        4694        4693
         4        4643        4644        4695        4694
         4        4644        4645        4696        4695
         4        4645        4646        4697        4696
         4        4646        4647        4698        4697
         4        4647        4648        4699        4698
         4        4648        4649        4700        4699
         4        4649        4650        4701        4700
         4        4650        4651        4702        4701
         4        4651        4652        4703        4702
         4        4652        4653        4704        4703
         4        4653        4654        4705        4704
         4        4654        4655        4706        4705
         4        4655        4656        4707        4706
         4        4656        4657        4708        4707
         4        4657        4658        4709        4708
         4        4658        4659        4710        4709
         4        4659        4660        4711        4710
         4        4660        4661        4712        4711
         4        4661        4662        4713        4712
         4        4662        4663        4714        4713
         4        4663        4664        4715        4714
         4        4664        4665        4716        4715
         4        4665        4666        4717        4716
         4        4666        4667        4718        4717
         4        4667        4668        4719        4718
         4        4668        4669        4720        4719
         4        4669        4670        4721        4720
         4        4670        4671        4722        4721
         4        4671        4672        4723        4722
         4        4672        4673        4724        4723
         4        4673        4674        4725        4724
         4        4674        4675        4726        4725
         4        4675        4676        4727        4726
         4        4676        4677        4728        4727
         4        4677        4678        4729        4728
         4        4678        4679        4730        4729
         4        4679        4680        4731        4730
         4        4680        4681        4732        4731
         4        4681        4682        4733        4732
         4        4682        4683        4734        4733
         4        4683        4684        4735        4734
         4        4684        4685        4736        4735
         4        4685        4686        4737        4736
         4        4686        4687        4738        4737
         4        4687        4688        4739        4738
         4        4688        4689        4740        4739
         4        4689        4690        4741        4740
         4        4690        4691        4742        4741
         4        4692        4693        4744        4743
         4        4693        4694        4745        4744
         4        4694        4695        4746        4745
         4        4695        4696        4747        4746
         4        4696        4697        4748        4747
         4        4697        4698        4749        4748
         4        4698        4699        4750        4749
         4        4699        4700        4751        4750
         4        4700        4701        4752        4751
         4        4701        4702        4753        4752
         4        4702        4703        4754        4753
         4        4703        4704        4755        4754
         4        4704        4705        4756        4755
         4        4705        4706        4757        4756
         4        4706        4707        4758        4757
         4        4707        4708        4759        4758
         4        4708        4709        4760        4759
         4        4709        4710        4761        4760
         4        4710        4711        4762        4761
         4        4711        4712        4763        4762
         4        4712        4713        4764        4763
         4        4713        4714        4765        4764
         4        4714        4715        4766        4765
         4        4715        4716        4767        4766
         4        4716        4717        4768        4767
         4        4717        4718        4769        4768
         4        4718        4719        4770        4769
         4        4719        4720        4771        4770
         4        4720        4721        4772        4771
         4        4721        4722        4773        4772
         4        4722        4723        4774        4773
         4        4723        4724        4775        4774
         4        4724        4725        4776        4775
         4        4725        4726        4777        4776
         4        4726        4727        4778        4777
         4        4727        4728        4779        4778
         4        4728        4729        4780        4779
         4        4729        4730        4781        4780
         4        4730        4731        4782        4781
         4        4731        4732        4783        4782
         4        4732        4733        4784        4783
         4        4733        4734        4785        4784
         4        4734        4735        4786        4785
         4        4735        4736        4787        4786
         4        4736        4737        4788        4787
         4        4737        4738        4789        4788
         4        4738        4739        4790        4789
         4        4739        4740        4791        4790
         4        4740        4741        4792        4791
         4        4741        4742        4793        4792
         4        4743        4744        4795        4794
         4        4744        4745        4796        4795
         4        4745        4746        4797        4796
         4        4746        4747        4798        4797
         4        4747        4748        4799        4798
         4        4748        4749        4800        4799
         4        4749        4750        4801        4800
         4        4750        4751        4802        4801
         4        4751        4752        4803        4802
         4        4752        4753        4804        4803
         4        4753        4754        4805        4804
         4        4754        4755        4806        4805
         4        4755        4756        4807        4806
         4        4756        4757        4808        4807
         4        4757        4758        4809        4808
         4        4758        4759        4810        4809
         4        4759        4760        4811        4810
         4        4760        4761        4812        4811
         4        4761        4762        4813        4812
         4        4762        4763        4814        4813
         4        4763        4764        4815        4814
         4        4764        4765        4816        4815
         4        4765        4766        4817        4816
         4        4766        4767        4818        4817
         4        4767        4768        4819        4818
         4        4768        4769        4820        4819
         4        4769        4770        4821        4820
         4        4770        4771        4822        4821
         4        4771        4772        4823        4822
         4        4772        4773        4824        4823
         4        4773        4774        4825        4824
         4        4774        4775        4826        4825
         4        4775        4776        4827        4826
         4        4776        4777        4828        4827
         4        4777        4778        4829        4828
         4        4778        4779        4830        4829
         4        4779        4780        4831        4830
         4        4780        4781        4832        4831
         4        4781        4782        4833        4832
         4        4782        4783        4834        4833
         4        4783        4784        4835        4834
         4        4784        4785        4836        4835
         4        4785        4786        4837        4836
         4        4786        4787        4838        4837
         4        4787        4788        4839        4838
         4        4788        4789        4840        4839
         4        4789        4790        4841        4840
         4        4790        4791        4842        4841
         4        4791        4792        4843        4842
         4        4792        4793        4844        4843
         4        4794        4795        4846        4845
         4        4795        4796        4847        4846
         4        4796        4797        4848        4847
         4        4797        4798        4849        4848
         4        4798        4799        4850        4849
         4        4799        4800        4851        4850
         4        4800        4801        4852        4851
         4        4801        4802        4853        4852
         4        4802        4803        4854        4853
         4        4803        4804        4855        4854
         4        4804        4805        4856        4855
         4        4805        4806        4857        4856
         4        4806        4807        4858        4857
         4        4807        4808        4859        4858
         4        4808        4809        4860        4859
         4        4809        4810        4861        4860
         4        4810        4811        4862        4861
         4        4811        4812        4863        4862
         4        4812        4813        4864        4863
         4        4813        4814        4865        4864
         4        4814        4815        4866        4865
         4        4815        4816        4867        4866
         4        4816        4817        4868        4867
         4        4817        4818        4869        4868
         4        4818        4819        4870        4869
         4        4819        4820        4871        4870
         4        4820        4821        4872        4871
         4        4821        4822        4873        4872
         4        4822        4823        4874        4873
         4        4823        4824        4875        4874
         4        4824        4825        4876        4875
         4        4825        4826        4877        4876
         4        4826        4827        4878        4877
         4        4827        4828        4879        4878
         4        4828        4829        4880        4879
         4        4829        4830        4881        4880
         4        4830        4831        4882        4881
         4        4831        4832        4883        4882
         4        4832        4833        4884        4883
         4        4833        4834        4885        4884
         4        4834        4835        4886        4885
         4        4835        4836        4887        4886
         4        4836        4837        4888        4887
         4        4837        4838        4889        4888
         4        4838        4839        4890        4889
         4        4839        4840        4891        4890
         4        4840        4841        4892        4891
         4        4841        4842        4893        4892
         4        4842        4843        4894        4893
         4        4843        4844        4895        4894
         4        4845        4846        4897        4896
         4        4846        4847        4898        4897
         4        4847        4848        4899        4898
         4        4848        4849        4900        4899
         4        4849        4850        4901        4900
         4        4850        4851        4902        4901
         4        4851        4852        4903        4902
         4        4852        4853        4904        4903
         4        4853        4854        4905        4904
         4        4854        4855        4906        4905
         4        4855        4856        4907        4906
         4        4856        4857        4908        4907
         4        4857        4858        4909        4908
         4        4858        4859        4910        4909
         4        4859        4860        4911        4910
         4        4860        4861        4912        4911
         4        4861        4862        4913        4912
         4        4862        4863        4914        4913
         4        4863        4864        4915        4914
         4        4864        4865        4916        4915
         4        4865        4866        4917        4916
         4        4866        4867        4918        4917
         4        4867        4868        4919        4918
         4        4868        4869        4920        4919
         4        4869        4870        4921        4920
         4        4870        4871        4922        4921
         4        4871        4872        4923        4922
         4        4872        4873        4924        4923
         4        4873        4874        4925        4924
         4        4874        4875        4926        4925
         4        4875        4876        4927        4926
         4        4876        4877        4928        4927
         4        4877        4878        4929        4928
         4        4878        4879        4930        4929
         4        4879        4880        4931        4930
         4        4880        4881        4932        4931
         4        4881        4882        4933        4932
         4        4882        4883        4934        4933
         4        4883        4884        4935        4934
         4        4884        4885        4936        4935
         4        4885        4886        4937        4936
         4        4886        4887        4938        4937
         4        4887        4888        4939        4938
         4        4888        4889        4940        4939
         4        4889        4890        4941        4940
         4        4890        4891        4942        4941
         4        4891        4892        4943        4942
         4        4892        4893        4944        4943
         4        4893        4894        4945        4944
         4        4894        4895        4946        4945
         4        4896        4897        4948        4947
         4        4897        4898        4949        4948
         4        4898        4899        4950        4949
         4        4899        4900        4951        4950
         4        4900        4901        4952        4951
         4        4901        4902        4953        4952
         4        4902        4903        4954        4953
         4        4903        4904        4955        4954
         4        4904        4905        4956        4955
         4        4905        4906        4957        4956
         4        4906        4907        4958        4957
         4        4907        4908        4959        4958
         4        4908        4909        4960        4959
         4        4909        4910        4961        4960
         4        4910        4911        4962        4961
         4        4911        4912        4963        4962
         4        4912        4913        4964        4963
         4        4913        4914        4965        4964
         4        4914        4915        4966        4965
         4        4915        4916        4967        4966
         4        4916        4917        4968        4967
         4        4917        4918        4969        4968
         4        4918        4919        4970        4969
         4        4919        4920        4971        4970
         4        4920        4921        4972        4971
         4        4921        4922        4973        4972
         4        4922        4923        4974        4973
         4        4923        4924        4975        4974
         4        4924        4925        4976        4975
         4        4925        4926        4977        4976
         4        4926        4927        4978        4977
         4        4927        4928        4979        4978
         4        4928        4929        4980        4979
         4        4929        4930        4981        4980
         4        4930        4931        4982        4981
         4        4931        4932        4983        4982
         4        4932        4933        4984        4983
         4        4933        4934        4985        4984
         4        4934        4935        4986        4985
         4        4935        4936        4987        4986
         4        4936        4937        4988        4987
         4        4937        4938        4989        4988
         4        4938        4939        4990        4989
         4        4939        4940        4991        4990
         4        4940        4941        4992        4991
         4        4941        4942        4993        4992
         4        4942        4943        4994        4993
         4        4943        4944        4995        4994
         4        4944        4945        4996        4995
         4        4945        4946        4997        4996
         4        4947        4948        4999        4998
         4        4948        4949        5000        4999
         4        4949        4950        5001        5000
         4        4950        4951        5002        5001
         4        4951        4952        5003        5002
         4        4952        4953        5004        5003
         4        4953        4954        5005        5004
         4        4954        4955        5006        5005
         4        4955        4956        5007        5006
         4        4956        4957        5008        5007
         4        4957        4958        5009        5008
         4        4958        4959        5010        5009
         4        4959        4960        5011        5010
         4        4960        4961        5012        5011
         4        4961        4962        5013        5012
         4        4962        4963        5014        5013
         4        4963        4964        5015        5014
         4        4964        4965        5016        5015
         4        4965        4966        5017        5016
         4        4966        4967        5018        5017
         4        4967        4968        5019        5018
         4        4968        4969        5020        5019
         4        4969        4970        5021        5020
         4        4970        4971        5022        5021
         4        4971        4972        5023        5022
         4        4972        4973        5024        5023
         4        4973        4974        5025        5024
         4        4974        4975        5026        5025
         4        4975        4976        5027        5026
         4        4976        4977        5028        5027
         4        4977        4978        5029        5028
         4        4978        4979        5030        5029
         4        4979        4980        5031        5030
         4        4980        4981        5032        5031
         4        4981        4982        5033        5032
         4        4982        4983        5034        5033
         4        4983        4984        5035        5034
         4        4984        4985        5036        5035
         4        4985        4986        5037        5036
         4        4986        4987        5038        5037
         4        4987        4988        5039        5038
         4        4988        4989        5040        5039
         4        4989        4990        5041        5040
         4        4990        4991        5042        5041
         4        4991        4992        5043        5042
         4        4992        4993        5044        5043
         4        4993        4994        5045        5044
         4        4994        4995        5046        5045
         4        4995        4996        5047        5046
         4        4996        4997        5048        5047
         4        4998        4999        5050        5049
         4        4999        5000        5051        5050
         4        5000        5001        5052        5051
         4        5001        5002        5053        5052
         4        5002        5003        5054        5053
         4        5003        5004        5055        5054
         4        5004        5005        5056        5055
         4        5005        5006        5057        5056
         4        5006        5007        5058        5057
         4        5007        5008        5059        5058
         4        5008        5009        5060        5059
         4        5009        5010        5061        5060
         4        5010        5011        5062        5061
         4        5011        5012        5063        5062
         4        5012        5013        5064        5063
         4        5013        5014        5065        5064
         4        5014        5015        5066        5065
         4        5015        5016        5067        5066
         4        5016        5017        5068        5067
         4        5017        5018        5069        5068
         4        5018        5019        5070        5069
         4        5019        5020        5071        5070
         4        5020        5021        5072        5071
         4        5021        5022        5073        5072
         4        5022        5023        5074        5073
         4        5023        5024        5075        5074
         4        5024        5025        5076        5075
         4        5025        5026        5077        5076
         4        5026        5027        5078        5077
         4        5027        5028        5079        5078
         4        5028        5029        5080        5079
         4        5029        5030        5081        5080
         4        5030        5031        5082        5081
         4        5031        5032        5083        5082
         4        5032        5033        5084        5083
         4        5033        5034        5085        5084
         4        5034        5035        5086        5085
         4        5035        5036        5087        5086
         4        5036        5037        5088        5087
         4        5037        5038        5089        5088
         4        5038        5039        5090        5089
         4        5039        5040        5091        5090
         4        5040        5041        5092        5091
         4        5041        5042        5093        5092
         4        5042        5043        5094        5093
         4        5043        5044        5095        5094
         4        5044        5045        5096        5095
         4        5045        5046        5097        5096
         4        5046        5047        5098        5097
         4        5047        5048        5099        5098
         4        5049        5050        5101        5100
         4        5050        5051        5102        5101
         4        5051        5052        5103        5102
         4        5052        5053        5104        5103
         4        5053        5054        5105        5104
         4        5054        5055        5106        5105
         4        5055        5056        5107        5106
         4        5056        5057        5108        5107
         4        5057        5058        5109        5108
         4        5058        5059        5110        5109
         4        5059        5060        5111        5110
         4        5060        5061        5112        5111
         4        5061        5062        5113        5112
         4        5062        5063        5114        5113
         4        5063        5064        5115        5114
         4        5064        5065        5116        5115
         4        5065        5066        5117        5116
         4        5066        5067        5118        5117
         4        5067        5068        5119        5118
         4        5068        5069        5120        5119
         4        5069        5070        5121        5120
         4        5070        5071        5122        5121
         4        5071        5072        5123        5122
         4        5072        5073        5124        5123
         4        5073        5074        5125        5124
         4        5074        5075        5126        5125
         4        5075        5076        5127        5126
         4        5076        5077        5128        5127
         4        5077        5078        5129        5128
         4        5078        5079        5130        5129
         4        5079        5080        5131        5130
         4        5080        5081        5132        5131
         4        5081        5082        5133        5132
         4        5082        5083        5134        5133
         4        5083        5084        5135        5134
         4        5084        5085        5136        5135
         4        5085        5086        5137        5136
         4        5086        5087        5138        5137
         4        5087        5088        5139        5138
         4        5088        5089        5140        5139
         4        5089        5090        5141        5140
         4        5090        5091        5142        5141
         4        5091        5092        5143        5142
         4        5092        5093        5144        5143
         4        5093        5094        5145        5144
         4        5094        5095        5146        5145
         4        5095        5096        5147        5146
         4        5096        5097        5148        5147
         4        5097        5098        5149        5148
         4        5098        5099        5150        5149
CELL_TYPES       5000
9
9
9
9
9
9
9
9
9
9
9
9
9
9
9
9
9
9
9
9
9
9
9
9
9
9
9
9
9
9
9
9
9
9
9
9
9
9
9
9
9
9
9
9
9
9
9
9
9
9
9
9
9
9
9
9
9
9
9
9
9
9
9
9
9
9
9
9
9
9
9
9
9
9
9
9
9
9
9
9
9
9
9
9
9
9
9
9
9
9
9
9
9
9
9
9
9
9
9
9
9
9
9
9
9
9
9
9
9
9
9
9
9
9
9
9
9
9
9
9
9
9
9
9
9
9
9
9
9
9
9
9
9
9
9
9
9
9
9
9
9
9
9
9
9
9
9
9
9
9
9
9
9
9
9
9
9
9
9
9
9
9
9
9
9
9
9
9
9
9
9
9
9
9
9
9
9
9
9
9
9
9
9
9
9
9
9
9
9
9
9
9
9
9
9
9
9
9
9
9
9
9
9
9
9
9
9
9
9
9
9
9
9
9
9
9
9
9
9
9
9
9
9
9
9
9
9
9
9
9
9
9
9
9
9
9
9
9
9
9
9
9
9
9
9
9
9
9
9
9
9
9
9
9
9
9
9
9
9
9
9
9
9
9
9
9
9
9
9
9
9
9
9
9
9
9
9
9
9
9
9
9
9
9
9
9
9
9
9
9
9
9
9
9
9
9
9
9
9
9
9
9
9
9
9
9
9
9
9
9
9
9
9
9
9
9
9
9
9
9
9
9
9
9
9
9
9
9
9
9
9
9
9
9
9
9
9
9
9
9
9
9
9
9
9
9
9
9
9
9
9
9
9
9
9
9
9
9
9
9
9
9
9
9
9
9
9
9
9
9
9
9
9
9
9
9
9
9
9
9
9
9
9
9
9
9
9
9
9
9
9
9
9
9
9
9
9
9
9
9
9
9
9
9
9
9
9
9
9
9
9
9
9
9
9
9
9
9
9
9
9
9
9
9
9
9
9
9
9
9
9
9
9
9
9
9
9
9
9
9
9
9
9
9
9
9
9
9
9
9
9
9
9
9
9
9
9
9
9
9
9
9
9
9
9
9
9
9
9
9
9
9
9
9
9
9
9
9
9
9
9
9
9
9
9
9
9
9
9
9
9
9
9
9
9
9
9
9
9
9
9
9
9
9
9
9
9
9
9
9
9
9
9
9
9
9
9
9
9
9
9
9
9
9
9
9
9
9
9
9
9
9
9
9
9
9
9
9
9
9
9
9
9
9
9
9
9
9
9
9
9
9
9
9
9
9
9
9
9
9
9
9
9
9
9
9
9
9
9
9
9
9
9
9
9
9
9
9
9
9
9
9
9
9
9
9
9
9
9
9
9
9
9
9
9
9
9
9
9
9
9
9
9
9
9
9
9
9
9
9
9
9
9
9
9
9
9
9
9
9
9
9
9
9
9
9
9
9
9
9
9
9
9
9
9
9
9
9
9
9
9
9
9
9
9
9
9
9
9
9
9
9
9
9
9
9
9
9
9
9
9
9
9
9
9
9
9
9
9
9
9
9
9
9
9
9
9
9
9
9
9
9
9
9
9
9
9
9
9
9
9
9
9
9
9
9
9
9
9
9
9
9
9
9
9
9
9
9
9
9
9
9
9
9
9
9
9
9
9
9
9
9
9
9
9
9
9
9
9
9
9
9
9
9
9
9
9
9
9
9
9
9
9
9
9
9
9
9
9
9
9
9
9
9
9
9
9
9
9
9
9
9
9
9
9
9
9
9
9
9
9
9
9
9
9
9
9
9
9
9
9
9
9
9
9
9
9
9
9
9
9
9
9
9
9
9
9
9
9
9
9
9
9
9
9
9
9
9
9
9
9
9
9
9
9
9
9
9
9
9
9
9
9
9
9
9
9
9
9
9
9
9
9
9
9
9
9
9
9
9
9
9
9
9
9
9
9
9
9
9
9
9
9
9
9
9
9
9
9
9
9
9
9
9
9
9
9
9
9
9
9
9
9
9
9
9
9
9
9
9
9
9
9
9
9
9
9
9
9
9
9
9
9
9
9
9
9
9
9
9
9
9
9
9
9
9
9
9
9
9
9
9
9
9
9
9
9
9
9
9
9
9
9
9
9
9
9
9
9
9
9
9
9
9
9
9
9
9
9
9
9
9
9
9
9
9
9
9
9
9
9
9
9
9
9
9
9
9
9
9
9
9
9
9
9
9
9
9
9
9
9
9
9
9
9
9
9
9
9
9
9
9
9
9
9
9
9
9
9
9
9
9
9
9
9
9
9
9
9
9
9
9
9
9
9
9
9
9
9
9
9
9
9
9
9
9
9
9
9
9
9
9
9
9
9
9
9
9
9
9
9
9
9
9
9
9
9
9
9
9
9
9
9
9
9
9
9
9
9
9
9
9
9
9
9
9
9
9
9
9
9
9
9
9
9
9
9
9
9
9
9
9
9
9
9
9
9
9
9
9
9
9
9
9
9
9
9
9
9
9
9
9
9
9
9
9
9
9
9
9
9
9
9
9
9
9
9
9
9
9
9
9
9
9
9
9
9
9
9
9
9
9
9
9
9
9
9
9
9
9
9
9
9
9
9
9
9
9
9
9
9
9
9
9
9
9
9
9
9
9
9
9
9
9
9
9
9
9
9
9
9
9
9
9
9
9
9
9
9
9
9
9
9
9
9
9
9
9
9
9
9
9
9
9
9
9
9
9
9
9
9
9
9
9
9
9
9
9
9
9
9
9
9
9
9
9
9
9
9
9
9
9
9
9
9
9
9
9
9
9
9
9
9
9
9
9
9
9
9
9
9
9
9
9
9
9
9
9
9
9
9
9
9
9
9
9
9
9
9
9
9
9
9
9
9
9
9
9
9
9
9
9
9
9
9
9
9
9
9
9
9
9
9
9
9
9
9
9
9
9
9
9
9
9
9
9
9
9
9
9
9
9
9
9
9
9
9
9
9
9
9
9
9
9
9
9
9
9
9
9
9
9
9
9
9
9
9
9
9
9
9
9
9
9
9
9
9
9
9
9
9
9
9
9
9
9
9
9
9
9
9
9
9
9
9
9
9
9
9
9
9
9
9
9
9
9
9
9
9
9
9
9
9
9
9
9
9
9
9
9
9
9
9
9
9
9
9
9
9
9
9
9
9
9
9
9
9
9
9
9
9
9
9
9
9
9
9
9
9
9
9
9
9
9
9
9
9
9
9
9
9
9
9
9
9
9
9
9
9
9
9
9
9
9
9
9
9
9
9
9
9
9
9
9
9
9
9
9
9
9
9
9
9
9
9
9
9
9
9
9
9
9
9
9
9
9
9
9
9
9
9
9
9
9
9
9
9
9
9
9
9
9
9
9
9
9
9
9
9
9
9
9
9
9
9
9
9
9
9
9
9
9
9
9
9
9
9
9
9
9
9
9
9
9
9
9
9
9
9
9
9
9
9
9
9
9
9
9
9
9
9
9
9
9
9
9
9
9
9
9
9
9
9
9
9
9
9
9
9
9
9
9
9
9
9
9
9
9
9
9
9
9
9
9
9
9
9
9
9
9
9
9
9
9
9
9
9
9
9
9
9
9
9
9
9
9
9
9
9
9
9
9
9
9
9
9
9
9
9
9
9
9
9
9
9
9
9
9
9
9
9
9
9
9
9
9
9
9
9
9
9
9
9
9
9
9
9
9
9
9
9
9
9
9
9
9
9
9
9
9
9
9
9
9
9
9
9
9
9
9
9
9
9
9
9
9
9
9
9
9
9
9
9
9
9
9
9
9
9
9
9
9
9
9
9
9
9
9
9
9
9
9
9
9
9
9
9
9
9
9
9
9
9
9
9
9
9
9
9
9
9
9
9
9
9
9
9
9
9
9
9
9
9
9
9
9
9
9
9
9
9
9
9
9
9
9
9
9
9
9
9
9
9
9
9
9
9
9
9
9
9
9
9
9
9
9
9
9
9
9
9
9
9
9
9
9
9
9
9
9
9
9
9
9
9
9
9
9
9
9
9
9
9
9
9
9
9
9
9
9
9
9
9
9
9
9
9
9
9
9
9
9
9
9
9
9
9
9
9
9
9
9
9
9
9
9
9
9
9
9
9
9
9
9
9
9
9
9
9
9
9
9
9
9
9
9
9
9
9
9
9
9
9
9
9
9
9
9
9
9
9
9
9
9
9
9
9
9
9
9
9
9
9
9
9
9
9
9
9
9
9
9
9
9
9
9
9
9
9
9
9
9
9
9
9
9
9
9
9
9
9
9
9
9
9
9
9
9
9
9
9
9
9
9
9
9
9
9
9
9
9
9
9
9
9
9
9
9
9
9
9
9
9
9
9
9
9
9
9
9
9
9
9
9
9
9
9
9
9
9
9
9
9
9
9
9
9
9
9
9
9
9
9
9
9
9
9
9
9
9
9
9
9
9
9
9
9
9
9
9
9
9
9
9
9
9
9
9
9
9
9
9
9
9
9
9
9
9
9
9
9
9
9
9
9
9
9
9
9
9
9
9
9
9
9
9
9
9
9
9
9
9
9
9
9
9
9
9
9
9
9
9
9
9
9
9
9
9
9
9
9
9
9
9
9
9
9
9
9
9
9
9
9
9
9
9
9
9
9
9
9
9
9
9
9
9
9
9
9
9
9
9
9
9
9
9
9
9
9
9
9
9
9
9
9
9
9
9
9
9
9
9
9
9
9
9
9
9
9
9
9
9
9
9
9
9
9
9
9
9
9
9
9
9
9
9
9
9
9
9
9
9
9
9
9
9
9
9
9
9
9
9
9
9
9
9
9
9
9
9
9
9
9
9
9
9
9
9
9
9
9
9
9
9
9
9
9
9
9
9
9
9
9
9
9
9
9
9
9
9
9
9
9
9
9
9
9
9
9
9
9
9
9
9
9
9
9
9
9
9
9
9
9
9
9
9
9
9
9
9
9
9
9
9
9
9
9
9
9
9
9
9
9
9
9
9
9
9
9
9
9
9
9
9
9
9
9
9
9
9
9
9
9
9
9
9
9
9
9
9
9
9
9
9
9
9
9
9
9
9
9
9
9
9
9
9
9
9
9
9
9
9
9
9
9
9
9
9
9
9
9
9
9
9
9
9
9
9
9
9
9
9
9
9
9
9
9
9
9
9
9
9
9
9
9
9
9
9
9
9
9
9
9
9
9
9
9
9
9
9
9
9
9
9
9
9
9
9
9
9
9
9
9
9
9
9
9
9
9
9
9
9
9
9
9
9
9
9
9
9
9
9
9
9
9
9
9
9
9
9
9
9
9
9
9
9
9
9
9
9
9
9
9
9
9
9
9
9
9
9
9
9
9
9
9
9
9
9
9
9
9
9
9
9
9
9
9
9
9
9
9
9
9
9
9
9
9
9
9
9
9
9
9
9
9
9
9
9
9
9
9
9
9
9
9
9
9
9
9
9
9
9
9
9
9
9
9
9
9
9
9
9
9
9
9
9
9
9
9
9
9
9
9
9
9
9
9
9
9
9
9
9
9
9
9
9
9
9
9
9
9
9
9
9
9
9
9
9
9
9
9
9
9
9
9
9
9
9
9
9
9
9
9
9
9
9
9
9
9
9
9
9
9
9
9
9
9
9
9
9
9
9
9
9
9
9
9
9
9
9
9
9
9
9
9
9
9
9
9
9
9
9
9
9
9
9
9
9
9
9
9
9
9
9
9
9
9
9
9
9
9
9
9
9
9
9
9
9
9
9
9
9
9
9
9
9
9
9
9
9
9
9
9
9
9
9
9
9
9
9
9
9
9
9
9
9
9
9
9
9
9
9
9
9
9
9
9
9
9
9
9
9
9
9
9
9
9
9
9
9
9
9
9
9
9
9
9
9
9
9
9
9
9
9
9
9
9
9
9
9
9
9
9
9
9
9
9
9
9
9
9
9
9
9
9
9
9
9
9
9
9
9
9
9
9
9
9
9
9
9
9
9
9
9
9
9
9
9
9
9
9
9
9
9
9
9
9
9
9
9
9
9
9
9
9
9
9
9
9
9
9
9
9
9
9
9
9
9
9
9
9
9
9
9
9
9
9
9
9
9
9
9
9
9
9
9
9
9
9
9
9
9
9
9
9
9
9
9
9
9
9
9
9
9
9
9
9
9
9
9
9
9
9
9
9
9
9
9
9
9
9
9
9
9
9
9
9
9
9
9
9
9
9
9
9
9
9
9
9
9
9
9
9
9
9
9
9
9
9
9
9
9
9
9
9
9
9
9
9
9
9
9
9
9
9
9
9
9
9
9
9
9
9
9
9
9
9
9
9
9
9
9
9
9
9
9
9
9
9
9
9
9
9
9
9
9
9
9
9
9
9
9
9
9
9
9
9
9
9
9
9
9
9
9
9
9
9
9
9
9
9
9
9
9
9
9
9
9
9
9
9
9
9
9
9
9
9
9
9
9
9
9
9
9
9
9
9
9
9
9
9
9
9
9
9
9
9
9
9
9
9
9
9
9
9
9
9
9
9
9
9
9
9
9
9
9
9
9
9
9
9
9
9
9
9
9
9
9
9
9
9
9
9
9
9
9
9
9
9
9
9
9
9
9
9
9
9
9
9
9
9
9
9
9
9
9
9
9
9
9
9
9
9
9
9
9
9
9
9
9
9
9
9
9
9
9
9
9
9
9
9
9
9
9
9
9
9
9
9
9
9
9
9
9
9
9
9
9
9
9
9
9
9
9
9
9
9
9
9
9
9
9
9
9
9
9
9
9
9
9
9
9
9
9
9
9
9
9
9
9
9
9
9
9
9
9
9
9
9
9
9
9
9
9
9
9
9
9
9
9
9
9
9
9
9
9
9
9
9
9
9
9
9
9
9
9
9
9
9
9
9
9
9
9
9
9
9
9
9
9
9
9
9
9
9
9
9
9
9
9
9
9
9
9
9
9
9
9
9
9
9
9
9
9
9
9
9
9
9
9
9
9
9
9
9
9
9
9
9
9
9
9
9
9
9
9
9
9
9
9
9
9
9
9
9
9
9
9
9
9
9
9
9
9
9
9
9
9
9
9
9
9
9
9
9
9
9
9
9
9
9
9
9
9
9
9
9
9
9
9
9
9
9
9
9
9
9
9
9
9
9
9
9
9
9
9
9
9
9
9
9
9
9
9
9
9
9
9
9
9
9
9
9
9
9
9
9
9
9
9
9
9
9
9
9
9
9
9
9
9
9
9
9
9
9
9
9
9
9
9
9
9
9
9
9
9
9
9
9
9
9
9
9
9
9
9
9
9
9
9
9
9
9
9
9
9
9
9
9
9
9
9
9
9
9
9
9
9
9
9
9
9
9
9
9
9
9
9
9
9
9
9
9
9
9
9
9
9
9
9
9
9
9
9
9
9
9
9
9
9
9
9
9
9
9
9
9
9
9
9
9
9
9
9
9
9
9
9
9
9
9
9
9
9
9
9
9
9
9
9
9
9
9
9
9
9
9
9
9
9
9
9
9
9
9
9
9
9
9
9
9
9
9
9
9
9
9
9
9
9
9
9
9
9
9
9
9
9
9
9
9
9
9
9
9
9
9
9
9
9
9
9
9
9
9
9
9
9
9
9
9
9
9
9
9
9
9
9
9
9
9
9
9
9
9
9
9
9
9
9
9
9
9
9
9
9
9
9
9
9
9
9
9
9
9
9
9
9
9
9
9
9
9
9
9
9
9
9
9
9
9
9
9
9
9
9
9
9
9
9
9
9
9
9
9
9
9
9
9
9
9
9
9
9
9
9
9
9
9
9
9
9
9
9
9
9
9
9
9
9
9
9
9
9
9
9
9
9
9
9
9
9
9
9
9
9
9
9
9
9
9
9
9
9
9
9
9
9
9
9
9
9
9
9
9
9
9
9
9
9
9
9
9
9
9
9
9
9
9
9
9
9
9
9
9
9
9
9
9
9
9
9
9
9
9
9
9
9
9
9
9
9
9
9
9
9
9
9
9
9
9
9
9
9
9
9
9
9
9
9
9
9
9
9
9
9
9
9
9
9
9
9
9
9
9
9
9
9
9
9
9
9
9
9
9
9
9
9
9
9
9
9
9
9
9
9
9
9
9
9
9
9
9
9
9
9
9
9
9
9
9
9
9
9
9
9
9
9
9
9
9
9
9
9
9
9
9
9
9
9
9
9
9
9
9
9
9
9
9
9
9
9
9
9
9
9
9
9
9
9
9
9
9
9
9
9
9
9
9
9
9
9
9
9
9
9
9
9
9
9
9
9
9
9
9
9
9
9
9
9
9
9
9
9
9
9
9
9
9
9
9
9
9
9
9
9
9
9
9
9
9
9
9
9
9
9
9
9
9
9
9
9
9
9
9
9
9
9
9
9
9
9
9
9
9
9
9
9
9
9
9
9
9
9
9
9
9
9
9
9
9
9
9
9
9
9
9
9
9
9
9
9
9
9
9
9
9
9
9
9
9
9
9
9
9
9
9
9
9
9
9
9
9
9
9
9
9
9
9
9
9
9
9
9
9
9
9
9
9
9
9
9
9
9
9
9
9
9
9
9
9
9
9
9
9
9
9
9
9
9
9
9
9
9
9
9
9
9
9
9
9
9
9
9
9
9
9
9
9
9
9
9
9
9
9
9
9
9
9
9
9
9
9
9
9
9
9
9
9
9
9
9
9
9
9
9
9
9
9
9
9
9
9
9
9
9
9
9
9
9
9
9
9
9
9
9
9
9
9
9
9
9
9
9
9
9
9
9
9
9
9
9
9
9
9
9
9
9
9
9
9
9
9
9
9
9
9
9
9
9
9
9
9
9
9
9
9
9
9
9
9
9
9
9
9
9
9
9
9
9
9
9
9
9
9
9
9
9
9
9
9
9
9
9
9
9
9
9
9
9
9
9
9
9
9
9
9
9
9
9
9
9
9
9
9
9
9
9
9
9
9
9
9
9
9
9
9
9
9
9
9
9
9
9
9
9
9
9
9
9
9
9
9
9
9
9
9
9
9
9
9
9
9
9
9
9
9
9
9
9
9
9
9
9
9
9
9
9
9
9
9
9
9
9
9
9
9
9
9
9
9
9
9
9
9
9
9
9
9
9
9
9
9
9
9
9
9
9
9
9
9
9
9
9
9
9
9
9
9
9
9
9
9
9
9
9
9
9
9
9
9
9
9
9
9
9
9
9
9
9
9
9
9
9
9
9
9
9
9
9
9
9
9
9
9
9
9
9
9
9
9
9
9
9
9
9
9
9
9
9
9
9
9
9
9
9
9
9
9
9
9
9
9
9
9
9
9
9
9
9
9
9
9
9
9
9
9
9
9
9
9
9
9
9
9
9
9
9
9
9
9
9
9
9
9
9
9
9
9
9
9
9
9
9
9
9
9
9
9
9
9
9
9
9
9
9
9
9
9
9
9
9
9
9
9
9
9
9
9
9
9
9
9
9
9
9
9
9
9
9
9
9
9
9
9
9
9
9
9
9
9
9
9
9
9
9
9
9
9
9
9
9
9
9
9
9
9
9
9
9
9
9
9
9
9
9
9
9
9
9
9
9
9
9
9
9
9
9
9
9
9
9
9
9
9
9
9
9
9
9
9
9
9
9
9
9
9
9
9
9
9
9
9
9
9
9
9
9
9
9
9
9
9
9
9
9
9
9
9
9
9
9
9
9
9
9
9
9
9
9
9
9
9
9
9
9
9
9
9
9
9
9
9
9
9
9
9
9
9
9
9
9
9
9
9
9
9
9
9
9
9
9
9
9
9
9
9
9
9
9
9
9
9
9
9
9
9
9
9
9
9
9
9
9
9
9
9
9
9
9
9
9
9
9
9
9
9
9
9
9
9
9
9
9
9
9
9
9
9
9
9
9
9
9
9
9
9
9
9
9
9
9
9
9
9
9
9
9
9
9
9
9
9
9
9
9
9
9
9
9
9
9
9
9
9
9
9
9
9
9
9
9
9
9
9
9
9
9
9
9
9
9
9
9
9
9
9
9
9
9
9
9
9
9
9
9
9
9
9
9
9
9
9
9
9
9
9
9
9
9
9
9
9
9
9
9
9
9
9
9
9
9
9
9
9
9
9
9
9
9
9
9
9
9
9
9
9
9
9
9
9
9
9
9
9
9
9
9
9
9
9
9
9
9
9
9
9
9
9
9
9
9
9
9
9
9
9
9
9
9
9
9
9
9
9
9
9
9
9
9
9
9
9
9
9
9
9
9
9
9
9
9
9
9
9
9
9
9
9
9
9
9
9
9
9
9
9
9
9
9
9
9
9
9
9
9
9
9
9
9
9
9
9
9
9
9
9
9
9
9
9
9
9
9
9
9
9
9
9
9
9
9
9
9
9
9
9
9
9
9
9
9
9
9
9
9
9
9
9
9
9
9
9
9
9
9
9
9
9
9
9
9
9
9
9
9
9
9
9
9
9
9
9
9
9
9
9
9
9
9
9
9
9
9
9
9
9
9
9
9
9
9
9
9
9
9
9
9
9
9
9
9
9
9
9
9
9
9
9
9
9
9
9
9
9
9
9
9
9
9
9
9
9
9
9
9
9
9
9
9
9
9
9
9
9
9
9
9
9
9
9
9
9
9
9
9
9
9
9
9
9
9
9
9
9
9
9
9
9
9
9
9
9
9
9
9
9
9
9
9
9
9
9
9
9
9
9
9
9
9
9
9
9
9
9
9
9
9
9
9
9
9
9
9
9
9
9
9
9
9
9
9
9
9
9
9
9
9
9
9
9
9
9
9
9
9
9
9
9
9
9
9
9
9
9
9
9
9
9
9
9
9
9
9
9
9
9
9
9
9
9
9
9
9
9
9
9
9
9
9
9
9
9
9
9
9
9
9
9
9
9
9
9
9
9
9
9
9
9
9
9
9
9
9
9
9
9
9
9
9
9
9
9
9
9
9
9
9
9
9
9
9
9
9
9
9
9
9
9
9
9
9
9
9
9
9
9
9
9
9
9
9
9
9
9
9
9
9
9
9
9
9
9
9
9
9
9
9
9
9
9
9
9
9
9
9
9
9
9
9
9
9
9
9
9
9
9
9
9
9
9
9
9
9
9
9
9
9
9
9
9
9
9
9
9
9
9
9
9
9
9
9
9
9
9
9
9
9
9
9
9
9
9
9
9
9
9
9
9
9
9
9
9
9
9
9
9
9
9
9
9
9
9
9
9
9
9
9
9
9
9
9
9
9
9
9
9
9
9
9
9
9
9
9
9
9
9
9
9
9
9
9
9
9
9
9
9
9
9
9
9
9
9
9
9
9
9
9
9
9
9
9
9
9
9
9
9
9
9
9
9
9
9
9
9
9
9
9
9
9
9
9
9
9
9
9
9
9
9
9
POINT_DATA      5151
SCALARS p double 
LOOKUP_TABLE default
   70000000.0000000     
   70000000.0000000     
   70000000.0000000     
   70000000.0000000     
   70000000.0000000     
   70000000.0000000     
   70000000.0000000     
   70000000.0000000     
   70000000.0000000     
   70000000.0000000     
   70000000.0000000     
   70000000.0000000     
   70000000.0000000     
   70000000.0000000     
   70000000.0000000     
   70000000.0000000     
   70000000.0000000     
   70000000.0000000     
   70000000.0000000     
   70000000.0000000     
   70000000.0000000     
   70000000.0000000     
   70000000.0000000     
   70000000.0000000     
   70000000.0000000     
   70000000.0000000     
   70000000.0000000     
   70000000.0000000     
   70000000.0000000     
   70000000.0000000     
   70000000.0000000     
   70000000.0000000     
   70000000.0000000     
   70000000.0000000     
   70000000.0000000     
   70000000.0000000     
   70000000.0000000     
   70000000.0000000     
   70000000.0000000     
   70000000.0000000     
   70000000.0000000     
   70000000.0000000     
   70000000.0000000     
   70000000.0000000     
   70000000.0000000     
   70000000.0000000     
   70000000.0000000     
   70000000.0000000     
   70000000.0000000     
   70000000.0000000     
   70000000.0000000     
   56713023.4857088     
   56752182.4758248     
   56845444.4802163     
   56962862.6026745     
   57087856.6306531     
   57213592.2377210     
   57336991.8564030     
   57456473.1957381     
   57571291.3613928     
   57681165.6443740     
   57786069.4487975     
   57886113.1132589     
   57981479.2257582     
   58072387.3273870     
   58159074.8825521     
   58241787.1294254     
   58320771.7013908     
   58396275.7683384     
   58468544.4892567     
   58537820.1442379     
   58604341.6265697     
   58668344.1401094     
   58730059.0299250     
   58789713.7127746     
   58847531.6892848     
   58903732.6230793     
   58958532.4694865     
   59012143.6306357     
   59064775.1056668     
   59116632.5942769     
   59167918.4979107     
   59218831.7438545     
   59269567.3307339     
   59320315.4557185     
   59371260.0287713     
   59422576.2998730     
   59474427.2103055     
   59526957.9130869     
   59580287.6683328     
   59634497.9759981     
   59689615.3201389     
   59745586.2141391     
   59802241.2985505     
   59859244.0085371     
   59916017.8137615     
   59971644.4301229     
   60024724.3107603     
   60073191.6196930     
   60114081.9418537     
   60143268.1754069     
   60155217.7095977     
   51314073.3700411     
   51317567.5370095     
   51326336.4933663     
   51342774.1983459     
   51367978.8668160     
   51401422.5511559     
   51442122.8717633     
   51489059.4860409     
   51541233.6671590     
   51597701.3096728     
   51657591.3084459     
   51720115.3699015     
   51784572.3386206     
   51850348.7217156     
   51916916.4637387     
   51983828.7371937     
   52050714.3611274     
   52117271.3536490     
   52183260.0311663     
   52248495.9796605     
   52312843.1421288     
   52376207.1939574     
   52438529.3162954     
   52499780.4271115     
   52559955.8900875     
   52619070.6917103     
   52677155.0554158     
   52734250.4468628     
   52790405.9149365     
   52845674.7075967     
   52900111.0991099     
   52953767.3646301     
   53006690.8387669     
   53058920.9960705     
   53110486.4926913     
   53161402.1092167     
   53211665.5340610     
   53261253.9233949     
   53310120.1646756     
   53358188.7499579     
   53405351.1172008     
   53451460.2064932     
   53496323.7176833     
   53539694.9455347     
   53581258.6455216     
   53620606.0967803     
   53657186.0256213     
   53690201.1416485     
   53718382.4429873     
   53739491.1338595     
   53749220.9963160     
   50393203.9000676     
   50379006.0031921     
   50345874.5486882     
   50302299.4639999     
   50254394.6263369     
   50206775.2610117     
   50162671.9795632     
   50124162.0319451     
   50092443.4672575     
   50068063.8226750     
   50051104.9328253     
   50041328.2385781     
   50038286.2720089     
   50041406.2062241     
   50050050.9527997     
   50063562.6015204     
   50081292.2292314     
   50102619.3651257     
   50126963.7390432     
   50153791.3749130     
   50182616.6236123     
   50213001.3502358     
   50244552.1887792     
   50276916.5406555     
   50309777.8111295     
   50342850.2398812     
   50375873.5802821     
   50408607.8099384     
   50440828.0074978     
   50472319.5038523     
   50502873.4071647     
   50532282.6091619     
   50560338.4043533     
   50586827.8944884     
   50611532.4083212     
   50634227.2421768     
   50654683.1195372     
   50672669.8749356     
   50687962.9808187     
   50700353.6383142     
   50709663.2111347     
   50715762.7398172     
   50718598.0445039     
   50718220.3963384     
   50714821.8198859     
   50708772.8855691     
   50700660.1661445     
   50691323.2173217     
   50681905.2945839     
   50673979.9988047     
   50669952.6355156     
   50508181.7323105     
   50495272.3856478     
   50460895.9333903     
   50411257.3914102     
   50351700.2392425     
   50286557.6970906     
   50219294.5875932     
   50152613.4134161     
   50088543.2685101     
   50028534.0404504     
   49973551.0410495     
   49924165.2031909     
   49880635.2521242     
   49842979.7812656     
   49811038.4697220     
   49784522.6277982     
   49763055.8587042     
   49746205.9483603     
   49733509.2193812     
   49724488.5788852     
   49718666.4059047     
   49715573.3008548     
   49714753.5822438     
   49715768.2807058     
   49718196.2570097     
   49721633.9640219     
   49725694.2849341     
   49730004.8119817     
   49734205.8810519     
   49737948.6472704     
   49740893.4739531     
   49742708.9112940     
   49743071.5607684     
   49741667.1551399     
   49738193.2301644     
   49732363.8194322     
   49723916.6632769     
   49712623.4787337     
   49698303.8793858     
   49680843.5477240     
   49660217.2330172     
   49636517.0627174     
   49609986.5168523     
   49581060.2547315     
   49550409.8813412     
   49518995.8107943     
   49488125.6182861     
   49459518.9051036     
   49435374.1464109     
   49418411.8005405     
   49411792.1938266     
   50698663.9370373     
   50688748.1664888     
   50661786.7342314     
   50621294.2960131     
   50570578.2404208     
   50512644.5601211     
   50450107.2759127     
   50385168.5557703     
   50319634.7081294     
   50254946.1400889     
   50192214.1511607     
   50132260.6555777     
   50075658.3208455     
   50022769.3548054     
   49973781.7001482     
   49928741.8317948     
   49887583.7212235     
   49850153.8295344     
   49816232.2159163     
   49785550.0049517     
   49757803.5547665     
   49732665.7205637     
   49709794.6268194     
   49688840.3572533     
   49669449.9536647     
   49651271.0898600     
   49633954.7604224     
   49617157.2996480     
   49600542.0260420     
   49583780.7937416     
   49566555.7247573     
   49548561.3949158     
   49529507.7511442     
   49509124.0468847     
   49487164.0939023     
   49463413.1397080     
   49437696.6866585     
   49409891.5671648     
   49379939.5744378     
   49347863.9144760     
   49313788.6865309     
   49277961.5076662     
   49240779.2560179     
   49202816.6795918     
   49164857.2176548     
   49127924.6354164     
   49093312.6874087     
   49062607.7166402     
   49037696.3885482     
   49020752.1228623     
   49014218.1293554     
   50812916.0738224     
   50805414.4252059     
   50784605.6360582     
   50752828.5283290     
   50712275.3731115     
   50664953.0214229     
   50612666.2107458     
   50557002.7155542     
   50499328.1233903     
   50440790.9524764     
   50382334.9164054     
   50324715.4798124     
   50268518.6098753     
   50214180.2849918     
   50162005.7935133     
   50112188.1802395     
   50064825.4262761     
   50019936.1142215     
   49977473.4562041     
   49937337.6582662     
   49899386.6672920     
   49863445.4002135     
   49829313.5929549     
   49796772.4315129     
   49765590.1426065     
   49735526.7290714     
   49706338.0379323     
   49677779.3487573     
   49649608.6679490     
   49621589.9121003     
   49593496.1610403     
   49565113.1589207     
   49536243.2394575     
   49506709.8486992     
   49476362.8345227     
   49445084.6652032     
   49412797.7281717     
   49379472.8422546     
   49345139.0892324     
   49309895.0290109     
   49273921.3003574     
   49237494.5158889     
   49201002.2216917     
   49164958.4926606     
   49130019.4664616     
   49096997.8084083     
   49066874.8562121     
   49040809.2525233     
   49020141.4265784     
   49006393.2529666     
   49001253.9141521     
   50858511.4072874     
   50852618.8905449     
   50836175.6312665     
   50810839.1700974     
   50778184.8437207     
   50739665.4554144     
   50696590.4206351     
   50650120.0759589     
   50601267.0750318     
   50550901.6678580     
   50499759.6635825     
   50448452.1955430     
   50397476.5414919     
   50347227.3904718     
   50298008.0941677     
   50250041.5737056     
   50203480.6618568     
   50158417.7445718     
   50114893.6286260     
   50072905.6088552     
   50032414.7432628     
   49993352.3703531     
   49955625.9225782     
   49919124.1042869     
   49883721.5130909     
   49849282.7909287     
   49815666.3959406     
   49782728.0890824     
   49750324.2306158     
   49718314.9815062     
   49686567.5035289     
   49654959.2495798     
   49623381.4322536     
   49591742.7539561     
   49559973.4753078     
   49528029.8897945     
   49495899.2607315     
   49463605.2605485     
   49431213.9307380     
   49398840.1518429     
   49366654.5748064     
   49334890.9166150     
   49303853.4646636     
   49273924.5683254     
   49245571.8267218     
   49219354.6051805     
   49195929.3917668     
   49176053.2158049     
   49160583.6541472     
   49150472.8388031     
   49146753.8376161     
   50858149.8541127     
   50853400.9368502     
   50840100.5795802     
   50819526.4724644     
   50792880.2140319     
   50761265.7804776     
   50725678.6963670     
   50687002.4198183     
   50646010.3108991     
   50603371.0904032     
   50559656.1486849     
   50515347.6942251     
   50470847.1442588     
   50426483.4031699     
   50382520.8180026     
   50339166.6891927     
   50296578.2723061     
   50254869.2452403     
   50214115.6414758     
   50174361.2674622     
   50135622.6337535     
   50097893.4369511     
   50061148.6342131     
   50025348.1549604     
   49990440.2960486     
   49956364.8474524     
   49923055.9956185     
   49890445.0512131     
   49858463.0470357     
   49827043.2504107     
   49796123.6323587     
   49765649.3332319     
   49735575.1611950     
   49705868.1558181     
   49676510.2439801     
   49647501.0090740     
   49618860.5869446     
   49590632.6928565     
   49562887.7728667     
   49535726.2601137     
   49509281.9015580     
   49483725.1033175     
   49459266.2218793     
   49436158.7013299     
   49414701.9173758     
   49395243.5285099     
   49378181.0489943     
   49363962.2734423     
   49353084.1994971     
   49346090.3414115     
   49343566.1301891     
   50828309.1048260     
   50824446.1912574     
   50813607.1933367     
   50796798.2111015     
   50774963.9609790     
   50748969.5610436     
   50719592.8868709     
   50687523.5420717     
   50653365.6865610     
   50617643.1523275     
   50580805.8083230     
   50543236.4473554     
   50505257.7143842     
   50467138.7828890     
   50429101.6178025     
   50391326.7505361     
   50353958.5461849     
   50317109.9755238     
   50280866.9226103     
   50245292.0679397     
   50210428.3906481     
   50176302.3334662     
   50142926.6724377     
   50110303.1307473     
   50078424.7729046     
   50047278.2123221     
   50016845.6621740     
   49987106.8563864     
   49958040.8646758     
   49929627.8226964     
   49901850.5954925     
   49874696.3895300     
   49848158.3255138     
   49822236.9809346     
   49796941.9077615     
   49772293.1268774     
   49748322.5967018     
   49725075.6489585     
   49702612.3796952     
   49681008.9784059     
   49660358.9723272     
   49640774.3564509     
   49622386.5722995     
   49605347.2901682     
   49589828.9416709     
   49576024.9456788     
   49564149.5764451     
   49554437.4366386     
   49547142.4874846     
   49542536.4717175     
   49540906.4714835     
   50780044.3710721     
   50776916.4961352     
   50768125.2987032     
   50754465.3076723     
   50736680.8742672     
   50715453.0952727     
   50691394.2556009     
   50665047.2783235     
   50636888.3494081     
   50607331.3586499     
   50576733.2483105     
   50545399.6874595     
   50513590.7060078     
   50481526.0676300     
   50449390.2597332     
   50417337.0454797     
   50385493.5666370     
   50353964.0132111     
   50322832.8913605     
   50292167.9286965     
   50262022.6585033     
   50232438.7236076     
   50203447.9379244     
   50175074.1400280     
   50147334.8689892     
   50120242.8885590     
   50093807.5817480     
   50068036.2340479     
   50042935.2199993     
   50018511.1045044     
   49994771.6671903     
   49971726.8551956     
   49949389.6669300     
   49927776.9666162     
   49906910.2267251     
   49886816.1927559     
   49867527.4622081     
   49849082.9670753     
   49831528.3468707     
   49814916.1972143     
   49799306.1776840     
   49784764.9624536     
   49771366.0190339     
   49759189.2054133     
   49748320.1855532     
   49738849.6789176     
   49730872.5824686     
   49724487.0360988     
   49719793.5599665     
   49716894.5216670     
   49715894.4064758     
   50721178.6449345     
   50718678.1416473     
   50711638.2041620     
   50700677.6598520     
   50686376.6740687     
   50669266.5458759     
   50649825.5528767     
   50628478.6717239     
   50605599.6924225     
   50581514.7264922     
   50556506.4232662     
   50530818.4361966     
   50504659.8469493     
   50478209.3716583     
   50451619.2532396     
   50425018.7966348     
   50398517.5381880     
   50372208.0617050     
   50346168.4861176     
   50320464.6559179     
   50295152.0676619     
   50270277.5653260     
   50245880.8351502     
   50221995.7275286     
   50198651.4299851     
   50175873.5116174     
   50153684.8557817     
   50132106.4943428     
   50111158.3535659     
   50090859.9186950     
   50071230.8214347     
   50052291.3519038     
   50034062.8941363     
   50016568.2818536     
   49999832.0690069     
   49983880.7075218     
   49968742.6228152     
   49954448.1761032     
   49941029.5014767     
   49928520.2054703     
   49916954.9178485     
   49906368.6852299     
   49896796.2048719     
   49888270.9057194     
   49880823.8994833     
   49874482.8488372     
   49869270.8372571     
   49865205.3820721     
   49862297.8147749     
   49860553.3563312     
   49859972.3377693     
   50657476.8753450     
   50655512.3138097     
   50649970.4572740     
   50641323.5349647     
   50630015.0878188     
   50616452.3196304     
   50601002.9024928     
   50583994.7054141     
   50565717.3497623     
   50546424.8250486     
   50526338.6459538     
   50505651.2064807     
   50484529.1098260     
   50463116.3386164     
   50441537.1897624     
   50419898.9385516     
   50398294.2231137     
   50376803.1570400     
   50355495.1877209     
   50334430.7230274     
   50313662.5508579     
   50293237.0759011     
   50273195.3964927     
   50253574.2422132     
   50234406.7902330     
   50215723.3756161     
   50197552.1079771     
   50179919.4041562     
   50162850.4439629     
   50146369.5535727     
   50130500.5188323     
   50115266.8285402     
   50100691.8457018     
   50086798.9028224     
   50073611.3155001     
   50061152.3069613     
   50049444.8348164     
   50038511.3103335     
   50028373.2001428     
   50019050.5008024     
   50010561.0785483     
   50002919.8704698     
   49996137.9502827     
   49990221.4731757     
   49985170.5318543     
   49980977.9825739     
   49977628.3391406     
   49975096.8890282     
   49973349.2656166     
   49972341.8279901     
   49972023.3776690     
   50593164.2191163     
   50591650.7959057     
   50587371.8857275     
   50580678.9488635     
   50571903.1342241     
   50561349.5838021     
   50549295.0023565     
   50535987.3618230     
   50521646.9481053     
   50506468.1987483     
   50490621.9525155     
   50474257.8570659     
   50457506.7704452     
   50440483.0550204     
   50423286.7060254     
   50406005.2864694     
   50388715.6597526     
   50371485.5238113     
   50354374.7580971     
   50337436.5987004     
   50320718.6585861     
   50304263.8099992     
   50288110.9451982     
   50272295.6301694     
   50256850.6641338     
   50241806.5556623     
   50227191.9241763     
   50213033.8335976     
   50199358.0629633     
   50186189.3169574     
   50173551.3775319     
   50161467.1961028     
   50149958.9242024     
   50139047.8789731     
   50128754.4384991     
   50119097.8607587     
   50110096.0190009     
   50101765.0457460     
   50094118.8775646     
   50087168.6936027     
   50080922.2429067     
   50075383.0595794     
   50070549.5715165     
   50066414.1191382     
   50062961.9167843     
   50060170.0135714     
   50058006.3456689     
   50056429.0226763     
   50055386.0631659     
   50054815.8952228     
   50054649.0728945     
   50531199.2755315     
   50530057.3248370     
   50526820.0932443     
   50521741.9149893     
   50515063.4312550     
   50507007.4656847     
   50497777.1917031     
   50487555.8145934     
   50476507.2144145     
   50464777.1616116     
   50452494.8382356     
   50439774.4847146     
   50426717.0543430     
   50413411.8017204     
   50399937.7621280     
   50386365.0998849     
   50372756.3177729     
   50359167.3286731     
   50345648.3960703     
   50332244.9531444     
   50318998.3115368     
   50305946.2711244     
   50293123.6416449     
   50280562.6860729     
   50268293.4944351     
   50256344.2954094     
   50244741.7116558     
   50233510.9634240     
   50222676.0236188     
   50212259.7261710     
   50202283.8282928     
   50192769.0259704     
   50183734.9208921     
   50175199.9359160     
   50167181.1751909     
   50159694.2241866     
   50152752.8842339     
   50146368.8358396     
   50140551.2251752     
   50135306.1689917     
   50130636.1751215     
   50126539.4791875     
   50123009.3038239     
   50120033.0555834     
   50117591.4880728     
   50115657.8795451     
   50114197.3016458     
   50113166.0965692     
   50112511.7369174     
   50112173.3224937     
   50112083.0813042     
   50473487.5663706     
   50472643.8388170     
   50470244.4838942     
   50466467.8903327     
   50461483.7538374     
   50455450.1681169     
   50448512.2713471     
   50440801.9273530     
   50432438.0706420     
   50423527.4538368     
   50414165.6160062     
   50404437.9485292     
   50394420.7769473     
   50384182.4069909     
   50373784.1038397     
   50363280.9880732     
   50352722.8414884     
   50342154.8222945     
   50331618.0931436     
   50321150.3677101     
   50310786.3826269     
   50300558.3018935     
   50290496.0606582     
   50280627.6547312     
   50270979.3814482     
   50261576.0366500     
   50252441.0716442     
   50243596.7131009     
   50235064.0479295     
   50226863.0743006     
   50219012.7191242     
   50211530.8214775     
   50204434.0806937     
   50197737.9671041     
   50191456.5927648     
   50185602.5389595     
   50180186.6368728     
   50175217.6976911     
   50170702.1885931     
   50166643.8518549     
   50163043.2658278     
   50159897.3492384     
   50157198.8145697     
   50154935.5829190     
   50153090.1825958     
   50151639.1681152     
   50150552.6168606     
   50149793.7898964     
   50149319.0843981     
   50149078.4621241     
   50149016.6161897     
   50421088.7533270     
   50420478.0832078     
   50418734.9415290     
   50415980.1448707     
   50412329.4146566     
   50407891.3921121     
   50402766.6611778     
   50397047.4495900     
   50390817.7709463     
   50384153.8393621     
   50377124.6388993     
   50369792.5668431     
   50362214.0966215     
   50354440.4253206     
   50346518.0843097     
   50338489.5009382     
   50330393.5057107     
   50322265.7836195     
   50314139.2710319     
   50306044.5011406     
   50298009.9018308     
   50290062.0501326     
   50282225.8873879     
   50274524.8989952     
   50266981.2621865     
   50259615.9647970     
   50252448.8974580     
   50245498.9210924     
   50238783.9110470     
   50232320.7786596     
   50226125.4705409     
   50220212.9453598     
   50214597.1274533     
   50209290.8361617     
   50204305.6894142     
   50199651.9797992     
   50195338.5211712     
   50191372.4638343     
   50187759.0765704     
   50184501.4943748     
   50181600.4318618     
   50179053.8641448     
   50176856.6798716     
   50175000.3154259     
   50173472.3856524     
   50172256.3355914     
   50171331.1506516     
   50170671.1807861     
   50170246.1593972     
   50170021.5323389     
   50169959.2600537     
   50374418.7760091     
   50373985.1801979     
   50372741.8692670     
   50370767.4654839     
   50368137.9529499     
   50364925.3727839     
   50361197.1368917     
   50357015.7636963     
   50352438.8932779     
   50347519.4796257     
   50342306.0875740     
   50336843.2440101     
   50331171.8090297     
   50325329.3443652     
   50319350.4647514     
   50313267.1637761     
   50307109.1098442     
   50300903.9106383     
   50294677.3462591     
   50288453.5723456     
   50282255.2951035     
   50276103.9204651     
   50270019.6796676     
   50264021.7334500     
   50258128.2568866     
   50252356.5066307     
   50246722.8720756     
   50241242.9116540     
   50235931.3752144     
   50230802.2131389     
   50225868.5726066     
   50221142.7811640     
   50216636.3175495     
   50212359.7695275     
   50208322.7783435     
   50204533.9693151     
   50201000.8680480     
   50197729.8018433     
   50194725.7860737     
   50191992.3957096     
   50189531.6228429     
   50187343.7220902     
   50185427.0472865     
   50183777.8850906     
   50182390.2942535     
   50181255.9636625     
   50180364.1082969     
   50179701.4304411     
   50179252.1846488     
   50178998.3999454     
   50178920.3327400     
   50333435.0297794     
   50333132.0232241     
   50332258.4164700     
   50330863.0629053     
   50328993.7494730     
   50326696.3762228     
   50324014.4888532     
   50320989.0570819     
   50317658.4199308     
   50314058.3404161     
   50310222.1282246     
   50306180.8009882     
   50301963.2636870     
   50297596.4922728     
   50293105.7123849     
   50288514.5674603     
   50283845.2729739     
   50279118.7552336     
   50274354.7742964     
   50269572.0313148     
   50264788.2610852     
   50260020.3108241     
   50255284.2063156     
   50250595.2065994     
   50245967.8483277     
   50241415.9808481     
   50236952.7929766     
   50232590.8323274     
   50228342.0179687     
   50224217.6470893     
   50220228.3962882     
   50216384.3180462     
   50212694.8329054     
   50209168.7178765     
   50205814.0916154     
   50202638.3969609     
   50199648.3815182     
   50196850.0770986     
   50194248.7790024     
   50191849.0263511     
   50189654.5849493     
   50187668.4344762     
   50185892.7621693     
   50184328.9655532     
   50182977.6671502     
   50181838.7444340     
   50180911.3784674     
   50180194.1245576     
   50179685.0076532     
   50179381.6437662     
   50179281.3859891     
   50297794.4888475     
   50297584.7169990     
   50296976.0134790     
   50295997.1595994     
   50294676.7860920     
   50293042.8836109     
   50291122.4950680     
   50288941.5388594     
   50286524.7244557     
   50283895.5314826     
   50281076.2308977     
   50278087.9326063     
   50274950.6482370     
   50271683.3611026     
   50268304.0978499     
   50264829.9981379     
   50261277.3800256     
   50257661.7997252     
   50253998.1050636     
   50250300.4824778     
   50246582.4976938     
   50242857.1304572     
   50239136.8038191     
   50235433.4085644     
   50231758.3234247     
   50228122.4317427     
   50224536.1352838     
   50221009.3659125     
   50217551.5958813     
   50214171.8475254     
   50210878.7032174     
   50207680.3165127     
   50204584.4255226     
   50201598.3696700     
   50198729.1111291     
   50195983.2624086     
   50193367.1217021     
   50190886.7177912     
   50188547.8664107     
   50186356.2400491     
   50184317.4530896     
   50182437.1639344     
   50180721.1951578     
   50179175.6716514     
   50177807.1748957     
   50176622.9085836     
   50175630.8663382     
   50174839.9855408     
   50174260.2613703     
   50173902.7807542     
   50173779.6152483     
   50266980.1267299     
   50266834.5218803     
   50266408.9739333     
   50265719.4969995     
   50264782.4071034     
   50263614.0474103     
   50262230.5932743     
   50260647.9184495     
   50258881.5073839     
   50256946.4015794     
   50254857.1705839     
   50252627.9003035     
   50250272.1930587     
   50247803.1751961     
   50245233.5091719     
   50242575.4078885     
   50239840.6497397     
   50237040.5933366     
   50234186.1912811     
   50231288.0026575     
   50228356.2041364     
   50225400.5997646     
   50222430.6296478     
   50219455.3778492     
   50216483.5799190     
   50213523.6305660     
   50210583.5920708     
   50207671.2041423     
   50204793.8960278     
   50201958.8018204     
   50199172.7800481     
   50196442.4388070     
   50193774.1678847     
   50191174.1795381     
   50188648.5598113     
   50186203.3325118     
   50183844.5381747     
   50181578.3305188     
   50179411.0929741     
   50177349.5777901     
   50175401.0698995     
   50173573.5769845     
   50171876.0458640     
   50170318.6030998     
   50168912.8142128     
   50167671.9505348     
   50166611.2447224     
   50165748.1042618     
   50165102.2354026     
   50164695.6058770     
   50164552.1407357     
   50240395.8339738     
   50240292.5053623     
   50239988.3844062     
   50239492.0170494     
   50238812.3939575     
   50237958.8054016     
   50236940.7225797     
   50235767.7024037     
   50234449.3123485     
   50232995.0719647     
   50231414.4078999     
   50229716.6196434     
   50227910.8536170     
   50226006.0836471     
   50224011.0962344     
   50221934.4793799     
   50219784.6140238     
   50217569.6674108     
   50215297.5879110     
   50212976.1010113     
   50210612.7063495     
   50208214.6758009     
   50205789.0527548     
   50203342.6528322     
   50200882.0664144     
   50198413.6634705     
   50195943.6012999     
   50193477.8359465     
   50191022.1381991     
   50188582.1152723     
   50186163.2394594     
   50183770.8852790     
   50181410.3768823     
   50179087.0477552     
   50176806.3150281     
   50174573.7709792     
   50172395.2945544     
   50170277.1859011     
   50168226.3269487     
   50166250.3708872     
   50164357.9628614     
   50162558.9931316     
   50160864.8820845     
   50159288.8934453     
   50157846.4673277     
   50156555.5576547     
   50155436.9479978     
   50154514.5046818     
   50153815.3042352     
   50153369.5414292     
   50153210.0808422     
   50217433.1593053     
   50217356.1882247     
   50217128.4660009     
   50216754.7519120     
   50216240.2004907     
   50215590.2862462     
   50214810.7339452     
   50213907.4562924     
   50212886.4995224     
   50211753.9966487     
   50210516.1276973     
   50209179.0860757     
   50207749.0501924     
   50206232.1594924     
   50204634.4941711     
   50202962.0579482     
   50201220.7634118     
   50199416.4195664     
   50197554.7213400     
   50195641.2409221     
   50193681.4209123     
   50191680.5693653     
   50189643.8569292     
   50187576.3163775     
   50185482.8449567     
   50183368.2100960     
   50181237.0591657     
   50179093.9341305     
   50176943.2921224     
   50174789.5331616     
   50172637.0364821     
   50170490.2071728     
   50168353.5351264     
   50166231.6685829     
   50164129.5048614     
   50162052.3011664     
   50160005.8086066     
   50157996.4327257     
   50156031.4238454     
   50154119.1002610     
   50152269.1066528     
   50150492.7087790     
   50148803.1232855     
   50147215.8778995     
   50145749.1917668     
   50144424.3574575     
   50143266.0940774     
   50142302.8234794     
   50141566.7966962     
   50141093.9626057     
   50140923.4217006     
   50197514.7069682     
   50197452.9687893     
   50197270.0566640     
   50196969.3670474     
   50196554.5358775     
   50196029.3930702     
   50195397.9220034     
   50194664.2240420     
   50193832.4877821     
   50192906.9625120     
   50191891.9353250     
   50190791.7113313     
   50189610.5964675     
   50188352.8824811     
   50187022.8337509     
   50185624.6756902     
   50184162.5845679     
   50182640.6786628     
   50181063.0107473     
   50179433.5619742     
   50177756.2373172     
   50176034.8628006     
   50174273.1848340     
   50172474.8720686     
   50170643.5202943     
   50168782.6610182     
   50166895.7745039     
   50164986.3082135     
   50163057.7017719     
   50161113.4197902     
   50159156.9941185     
   50157192.0773655     
   50155222.5098122     
   50153252.4021576     
   50151286.2368463     
   50149328.9910281     
   50147386.2844491     
   50145464.5557234     
   50143571.2704056     
   50141715.1639698     
   50139906.5220324     
   50138157.4987177     
   50136482.4716212     
   50134898.4279440     
   50133425.3704201     
   50132086.7227867     
   50130909.7015846     
   50129925.6024143     
   50129169.9222383     
   50128682.2019555     
   50128505.4212838     
   50180119.3666218     
   50180065.4561782     
   50179906.2193696     
   50179645.1706575     
   50179285.8620381     
   50178831.8421722     
   50178286.6313586     
   50177653.7070864     
   50176936.4964272     
   50176138.3726454     
   50175262.6542270     
   50174312.6051210     
   50173291.4354246     
   50172202.3020542     
   50171048.3091758     
   50169832.5083248     
   50168557.8982760     
   50167227.4248087     
   50165843.9805864     
   50164410.4054362     
   50162929.4873664     
   50161403.9647260     
   50159836.5299719     
   50158229.8355898     
   50156586.5028030     
   50154909.1338121     
   50153200.3284346     
   50151462.7061680     
   50149698.9348733     
   50147911.7674861     
   50146104.0883916     
   50144278.9713696     
   50142439.7512975     
   50140590.1121103     
   50138734.1938274     
   50136876.7217454     
   50135023.1611416     
   50133179.9009632     
   50131354.4699298     
   50129555.7881251     
   50127794.4563405     
   50126083.0839222     
   50124436.6533376     
   50122872.9156617     
   50121412.8050559     
   50120080.8512046     
   50118905.5553965     
   50117919.6768654     
   50117160.3489396     
   50116668.9064924     
   50116490.2531210     
   50164794.1939075     
   50164743.4944120     
   50164594.6569259     
   50164352.1144980     
   50164020.1293742     
   50163602.7424998     
   50163103.7549360     
   50162526.7292015     
   50161875.0022946     
   50161151.7048365     
   50160359.7826794     
   50159502.0186669     
   50158581.0531710     
   50157599.4026752     
   50156559.4761116     
   50155463.5889561     
   50154313.9752796     
   50153112.7980816     
   50151862.1583194     
   50150564.1031041     
   50149220.6335840     
   50147833.7130777     
   50146405.2760711     
   50144937.2387467     
   50143431.5117888     
   50141890.0162980     
   50140314.7037601     
   50138707.5811541     
   50137070.7424448     
   50135406.4079023     
   50133716.9729134     
   50132005.0681993     
   50130273.6336356     
   50128526.0081627     
   50126766.0385740     
   50124998.2102515     
   50123227.8031408     
   50121461.0763809     
   50119705.4849342     
   50117969.9311995     
   50116265.0537568     
   50114603.5538749     
   50113000.5578679     
   50111474.0093800     
   50110045.0795793     
   50108738.5741933     
   50107583.3031567     
   50106612.3597624     
   50105863.2294536     
   50105377.6108222     
   50105200.7790575     
   50151157.0538480     
   50151106.9632724     
   50150960.9457017     
   50150724.6840998     
   50150403.5003043     
   50150002.2882288     
   50149525.4961634     
   50148977.1394125     
   50148360.8304181     
   50147679.8177363     
   50146937.0282217     
   50146135.1088664     
   50145276.4661947     
   50144363.3021053     
   50143397.6457199     
   50142381.3812375     
   50141316.2720755     
   50140203.9817538     
   50139046.0920873     
   50137844.1193164     
   50136599.5288454     
   50135313.7492939     
   50133988.1865946     
   50132624.2389163     
   50131223.3132417     
   50129786.8445059     
   50128316.3182945     
   50126813.2982220     
   50125279.4592580     
   50123716.6284484     
   50122126.8346831     
   50120512.3693997     
   50118875.8603722     
   50117220.3610123     
   50115549.4578909     
   50113867.3994514     
   50112179.2490951     
   50110491.0659233     
   50108810.1163427     
   50107145.1193755     
   50105506.5276893     
   50103906.8448771     
   50102360.9770303     
   50100886.6127530     
   50099504.6198404     
   50098239.4380762     
   50097119.4348615     
   50096177.1721366     
   50095449.5072158     
   50094977.4139102     
   50094805.3598699     
   50138893.3208161     
   50138842.6322876     
   50138695.8154975     
   50138459.8288088     
   50138141.1103611     
   50137745.4933373     
   50137278.1860935     
   50136743.7923923     
   50136146.3547664     
   50135489.4096002     
   50134776.0464504     
   50134008.9668900     
   50133190.5400705     
   50132322.8535068     
   50131407.7584627     
   50130446.9098920     
   50129441.8012549     
   50128393.7947548     
   50127304.1476709     
   50126174.0355368     
   50125004.5729516     
   50123796.8328357     
   50122551.8649624     
   50121270.7146215     
   50119954.4423108     
   50118604.1454060     
   50117220.9828415     
   50115806.2039317     
   50114361.1825995     
   50112887.4584340     
   50111386.7861896     
   50109861.1955549     
   50108313.0632618     
   50106745.1998598     
   50105160.9537450     
   50103564.3352722     
   50101960.1639714     
   50100354.2419816     
   50098753.5567301     
   50097166.5155248     
   50095603.2139344     
   50094075.7383992     
   50092598.5011425     
   50091188.6017292     
   50089866.2039765     
   50088654.9085752     
   50087582.0896677     
   50086679.1462976     
   50085981.5951240     
   50085528.8964273     
   50085363.8576438     
   50127749.1365560     
   50127697.5589518     
   50127548.9370791     
   50127311.3464173     
   50126992.2197801     
   50126598.2461217     
   50126135.3471632     
   50125608.7022817     
   50125022.8013617     
   50124381.5119340     
   50123688.1516132     
   50122945.5601433     
   50122156.1676452     
   50121322.0572206     
   50120445.0211185     
   50119526.6103552     
   50118568.1781185     
   50117570.9175517     
   50116535.8946665     
   50115464.0772159     
   50114356.3603954     
   50113213.5902597     
   50112036.5857489     
   50110826.1602346     
   50109583.1435170     
   50108308.4052507     
   50107002.8808335     
   50105667.6008840     
   50104303.7255455     
   50102912.5849941     
   50101495.7277000     
   50100054.9781881     
   50098592.5062603     
   50097110.9098823     
   50095613.3141722     
   50094103.4891519     
   50092585.9890949     
   50091066.3163836     
   50089551.1127021     
   50088048.3800450     
   50086567.7332693     
   50085120.6845649     
   50083720.9579808     
   50082384.8286487     
   50081131.4760413     
   50079983.3327750     
   50078966.3991164     
   50078110.4771128     
   50077449.2553216     
   50077020.1429607     
   50076863.7076274     
   50117523.0321605     
   50117470.8318597     
   50117321.0028836     
   50117082.4835182     
   50116763.4838975     
   50116371.3715371     
   50115912.6442485     
   50115392.9574255     
   50114817.1829966     
   50114189.4847098     
   50113513.3996466     
   50112791.9195431     
   50112027.5680477     
   50111222.4717958     
   50110378.4243591     
   50109496.9428959     
   50108579.3178230     
   50107626.6561273     
   50106639.9191047     
   50105619.9554067     
   50104567.5303077     
   50103483.3521242     
   50102368.0967148     
   50101222.4309959     
   50100047.0364192     
   50098842.6333868     
   50097610.0076288     
   50096350.0396393     
   50095063.7383643     
   50093752.2804592     
   50092417.0565853     
   50091059.7263907     
   50089682.2840186     
   50088287.1362018     
   50086877.1952175     
   50085455.9891764     
   50084027.7922794     
   50082597.7777389     
   50081172.1959798     
   50079758.5804063     
   50078365.9823158     
   50077005.2352801     
   50075689.2472328     
   50074433.3152492     
   50073255.4530841     
   50072176.7142701     
   50071221.4830551     
   50070417.6904150     
   50069796.8911270     
   50069394.1081340     
   50069247.3090950     
   50108057.1479829     
   50108004.8910481     
   50107855.3279949     
   50107617.9698509     
   50107301.5481354     
   50106913.8910514     
   50106461.8931539     
   50105951.5433642     
   50105387.9871264     
   50104775.6063287     
   50104118.1061733     
   50103418.6020936     
   50102679.7025369     
   50101903.5853029     
   50101092.0663803     
   50100246.6610523     
   50099368.6375696     
   50098459.0640071     
   50097518.8491063     
   50096548.7779968     
   50095549.5437325     
   50094521.7755826     
   50093466.0650193     
   50092382.9903355     
   50091273.1408325     
   50090137.1415348     
   50088975.6794275     
   50087789.5322683     
   50086579.6011122     
   50085346.9477926     
   50084092.8387372     
   50082818.7966560     
   50081526.6618133     
   50080218.6647923     
   50078897.5128542     
   50077566.4921743     
   50076229.5883789     
   50074891.6278639     
   50073558.4422947     
   50072237.0583813     
   50070935.9143680     
   50069665.1035153     
   50068436.6429307     
   50067264.7631110     
   50066166.2090320     
   50065160.5369428     
   50064270.3813507     
   50063521.6528667     
   50062943.6080699     
   50062568.7052392     
   50062432.1218783     
   50099228.8386273     
   50099177.2132621     
   50099029.7603361     
   50098796.2768569     
   50098485.7585942     
   50098106.2709653     
   50097664.9162806     
   50097167.8613000     
   50096620.4002294     
   50096027.0362996     
   50095391.5707704     
   50094717.1922183     
   50094006.5617640     
   50093261.8918165     
   50092485.0172050     
   50091677.4584241     
   50090840.4772597     
   50089975.1253985     
   50089082.2868090     
   50088162.7147830     
   50087217.0645625     
   50086245.9224861     
   50085249.8325797     
   50084229.3215098     
   50083184.9228113     
   50082117.2013151     
   50081026.7787264     
   50079914.3613542     
   50078780.7710606     
   50077626.9805946     
   50076454.1545918     
   50075263.6976618     
   50074057.3111431     
   50072837.0602807     
   50071605.4537533     
   50070365.5376440     
   50069121.0060678     
   50067876.3307255     
   50066636.9115708     
   50065409.2504980     
   50064201.1493571     
   50063021.9325372     
   50061882.6926038     
   50060796.5547394     
   50059778.9516003     
   50058847.8941097     
   50058024.2148786     
   50057331.7483471     
   50056797.3939428     
   50056450.9836617     
   50056324.8409138     
   50090943.1165138     
   50090892.8175315     
   50090749.3604609     
   50090522.5680750     
   50090221.4646320     
   50089854.1452041     
   50089427.7414621     
   50088948.4479754     
   50088421.5841997     
   50087851.6753017     
   50087242.5406458     
   50086597.3827714     
   50085918.8724830     
   50085209.2275945     
   50084470.2841642     
   50083703.5599113     
   50082910.3100540     
   50082091.5761398     
   50081248.2286309     
   50080381.0041056     
   50079490.5379736     
   50078577.3936110     
   50077642.0888094     
   50076685.1204215     
   50075706.9880774     
   50074708.2178516     
   50073689.3867779     
   50072651.1491510     
   50071594.2656112     
   50070519.6360914     
   50069428.3378079     
   50068321.6696013     
   50067201.2040747     
   50066068.8491317     
   50064926.9206732     
   50063778.2283575     
   50062626.1764381     
   50061474.8817401     
   50060329.3107615     
   50059195.4376258     
   50058080.4240711     
   50056992.8216838     
   50055942.7949978     
   50054942.3615879     
   50054005.6415369     
   50053149.1031225     
   50052391.7835664     
   50051755.4522547     
   50051264.6677111     
   50050946.6570345     
   50050830.9151902     
   50083126.1494129     
   50083077.8089810     
   50082940.0757423     
   50082722.5764595     
   50082434.1613765     
   50082082.7752442     
   50081675.4226037     
   50081218.1923300     
   50080716.3172295     
   50080174.2522446     
   50079595.7603390     
   50078983.9990381     
   50078341.6033217     
   50077670.7624378     
   50076973.2894738     
   50076250.6833565     
   50075504.1834890     
   50074734.8175608     
   50073943.4432519     
   50073130.7846526     
   50072297.4642536     
   50071444.0313694     
   50070570.9878457     
   50069678.8118872     
   50068767.9808292     
   50067838.9936811     
   50066892.3942783     
   50065928.7959147     
   50064948.9083761     
   50063953.5683662     
   50062943.7744078     
   50061920.7274103     
   50060885.8782216     
   50059840.9836199     
   50058788.1723402     
   50057730.0228602     
   50056669.6547702     
   50055610.8355888     
   50054558.1048186     
   50053516.9168036     
   50052493.8034515     
   50051496.5570122     
   50050534.4316571     
   50049618.3603614     
   50048761.1802034     
   50047977.8541974     
   50047285.6705536     
   50046704.3899449     
   50046256.2968007     
   50045966.0902942     
   50045860.5224331     
   50075719.8659190     
   50075674.0175660     
   50075543.4731221     
   50075337.4841082     
   50075064.5620141     
   50074732.3536900     
   50074347.6070066     
   50073916.1933639     
   50073443.1639179     
   50072932.8237898     
   50072388.8137889     
   50071814.1929086     
   50071211.5174516     
   50070582.9144373     
   50069930.1481516     
   50069254.6795056     
   50068557.7183812     
   50067840.2694581     
   50067103.1721975     
   50066347.1357494     
   50065572.7695884     
   50064780.6106864     
   50063971.1480188     
   50063144.8451868     
   50062302.1619238     
   50061443.5752516     
   50060569.6010626     
   50059680.8169280     
   50058777.8869763     
   50057861.5897465     
   50056932.8500008     
   50055992.7755765     
   50055042.7004710     
   50054084.2354740     
   50053119.3277858     
   50052150.3311777     
   50051180.0883358     
   50050212.0270659     
   50049250.2719729     
   50048299.7730187     
   50047366.4519168     
   50046457.3665299     
   50045580.8921465     
   50044746.9164878     
   50043967.0422547     
   50043254.7865358     
   50042625.7599042     
   50042097.7987686     
   50041691.0114644     
   50041427.6802926     
   50041331.9363328     
   50068677.6203885     
   50068634.6858866     
   50068512.4918411     
   50068319.7769071     
   50068064.5865206     
   50067754.1547408     
   50067394.8710344     
   50066992.3006338     
   50066551.2367420     
   50066075.7697892     
   50065569.3638870     
   50065034.9341259     
   50064474.9208011     
   50063891.3583391     
   50063285.9378369     
   50062660.0628813     
   50062014.8988021     
   50061351.4158091     
   50060670.4266346     
   50059972.6193918     
   50059258.5863930     
   50058528.8496763     
   50057783.8839779     
   50057024.1378720     
   50056250.0537851     
   50055462.0875899     
   50054660.7284858     
   50053846.5198985     
   50053020.0821640     
   50052182.1378175     
   50051333.5403759     
   50050475.3075881     
   50049608.6602277     
   50048735.0676073     
   50047856.3011087     
   50046974.4971222     
   50046092.2308689     
   50045212.6026070     
   50044339.3376695     
   50043476.9015897     
   50042630.6311734     
   50041806.8816679     
   50041013.1890214     
   50040258.4444190     
   50039553.0755568     
   50038909.2251026     
   50038340.9109857     
   50037864.1448723     
   50037496.9734899     
   50037259.3911163     
   50037173.0488595     
   50061960.8100273     
   50061921.1011388     
   50061808.1177962     
   50061629.9858385     
   50061394.1915588     
   50061107.4715399     
   50060775.7811696     
   50060404.3128424     
   50059997.5437523     
   50059559.2995813     
   50059092.8249554     
   50058600.8547706     
   50058085.6827526     
   50057549.2251718     
   50056993.0786924     
   50056418.5720349     
   50055826.8115832     
   50055218.7213400     
   50054595.0777998     
   50053956.5403843     
   50053303.6781235     
   50052636.9932645     
   50051956.9424835     
   50051263.9563583     
   50050558.4577464     
   50049840.8797079     
   50049111.6836162     
   50048371.3781170     
   50047620.5396259     
   50046859.8351032     
   50046090.0479021     
   50045312.1075651     
   50044527.1245270     
   50043736.4307815     
   50042941.6276643     
   50042144.6419981     
   50041347.7919119     
   50040553.8636757     
   50039766.2008395     
   50038988.8067972     
   50038226.4615423     
   50037484.8527509     
   50036770.7202980     
   50036092.0117043     
   50035458.0435870     
   50034879.6606144     
   50034369.3783005     
   50033941.4885964     
   50033612.0968366     
   50033399.0440442     
   50033321.6484121     
   50055536.3088977     
   50055500.0380127     
   50055396.8520175     
   50055234.1961961     
   50055018.9340597     
   50054757.2462510     
   50054454.6012580     
   50054115.7715246     
   50053744.8766393     
   50053345.4411087     
   50052920.4583829     
   50052472.4557434     
   50052003.5567252     
   50051515.5391651     
   50051009.8879351     
   50050487.8420577     
   50049950.4363141     
   50049398.5377065     
   50048832.8772851     
   50048254.0779243     
   50047662.6786611     
   50047059.1562168     
   50046443.9443077     
   50045817.4513397     
   50045180.0770692     
   50044532.2288025     
   50043874.3377136     
   50043206.8758696     
   50042530.3745840     
   50041845.4447534     
   50041152.7998898     
   50040453.2826249     
   50039747.8955393     
   50039037.8372543     
   50038324.5448104     
   50037609.7434355     
   50036895.5048687     
   50036184.3154277     
   50035479.1549621     
   50034783.5876887     
   50034101.8655867     
   50033439.0444790     
   50032801.1120075     
   50032195.1252943     
   50031629.3539279     
   50031113.4207616     
   50030658.4284307     
   50030277.0529763     
   50029983.5767534     
   50029793.8199281     
   50029724.9120018     
   50049374.5765862     
   50049341.8719629     
   50049248.8374016     
   50049102.1961126     
   50048908.1493016     
   50048672.2848278     
   50048399.5504613     
   50048094.2680090     
   50047760.1718512     
   50047400.4606540     
   50047017.8547596     
   50046614.6544030     
   50046192.7957526     
   50045753.9030515     
   50045299.3360057     
   50044830.2321390     
   50044347.5442082     
   50043852.0729977     
   50043344.4959484     
   50042825.3921406     
   50042295.2641788     
   50041754.5575321     
   50041203.6778717     
   50040643.0069346     
   50040072.9174333     
   50039493.7875206     
   50038906.0153233     
   50038310.0340713     
   50037706.3283652     
   50037095.4521693     
   50036478.0491533     
   50035854.8760717     
   50035226.8299304     
   50034594.9797688     
   50033960.6039577     
   50033325.2339862     
   50032690.7057624     
   50032059.2194745     
   50031433.4090195     
   50030816.4218743     
   50030212.0100111     
   50029624.6319673     
   50029059.5653805     
   50028523.0280484     
   50028022.3036899     
   50027565.8658072     
   50027163.4890284     
   50026826.3315837     
   50026566.9644702     
   50026399.3115548     
   50026338.4491623     
   50043448.3054804     
   50043419.2281465     
   50043336.5127590     
   50043206.1392930     
   50043033.6259464     
   50042823.9479386     
   50042581.5135464     
   50042310.1763746     
   50042013.2692908     
   50041693.6500727     
   50041353.7521254     
   50040995.6359636     
   50040621.0387947     
   50040231.4206713     
   50039828.0064503     
   50039411.8233061     
   50038983.7338761     
   50038544.4653180     
   50038094.6346774     
   50037634.7710238     
   50037165.3348378     
   50036686.7351358     
   50036199.3448104     
   50035703.5146527     
   50035199.5865117     
   50034687.9060410     
   50034168.8354823     
   50033642.7669472     
   50033110.1366748     
   50032571.4407769     
   50032027.2530176     
   50031478.2452271     
   50030925.2110069     
   50030369.0934469     
   50029811.0176417     
   50029252.3288546     
   50028694.6372238     
   50028139.8699232     
   50027590.3316578     
   50027048.7742575     
   50026518.4758964     
   50026003.3300355     
   50025507.9434941     
   50025037.7419622     
   50024599.0796321     
   50024199.3472035     
   50023847.0690251     
   50023551.9751402     
   50023325.0269618     
   50023178.3654508     
   50023125.1370029     
   50037731.4844185     
   50037706.0448258     
   50037633.6758897     
   50037519.6081875     
   50037368.6701560     
   50037185.2171915     
   50036973.1106126     
   50036735.7282113     
   50036475.9936985     
   50036196.4163793     
   50035899.1352693     
   50035585.9638974     
   50035258.4334727     
   50034917.8330758     
   50034565.2462075     
   50034201.5834719     
   50033827.6114585     
   50033443.9780655     
   50033051.2346078     
   50032649.8551084     
   50032240.2531911     
   50031822.7969964     
   50031397.8225370     
   50030965.6458945     
   50030526.5746548     
   50030080.9189707     
   50029629.0026414     
   50029171.1746072     
   50028707.8212750     
   50028239.3801121     
   50027766.3549843     
   50027289.3337545     
   50026809.0087077     
   50026326.2004245     
   50025841.8857824     
   50025357.2308142     
   50024873.6291974     
   50024392.7471590     
   50023916.5755563     
   50023447.4897926     
   50022988.3180233     
   50022542.4177418     
   50022113.7602354     
   50021707.0214652     
   50021327.6765160     
   50020982.0926809     
   50020677.6132393     
   50020422.6196917     
   50020226.5541563     
   50020099.8751585     
   50020053.9082815     
   50032198.7738999     
   50032176.9471997     
   50032114.8538264     
   50032016.9791407     
   50031887.4647535     
   50031730.0479249     
   50031548.0435421     
   50031344.3530781     
   50031121.4896967     
   50030881.6121057     
   50030626.5622139     
   50030357.9033849     
   50030076.9573012     
   50029784.8382944     
   50029482.4845679     
   50029170.6861218     
   50028850.1094327     
   50028521.3190933     
   50028184.7967060     
   50027840.9573672     
   50027490.1641013     
   50027132.7406016     
   50026768.9826327     
   50026399.1684382     
   50026023.5684912     
   50025642.4549171     
   50025256.1109219     
   50024864.8405637     
   50024468.9792198     
   50024068.9051228     
   50023665.0523674     
   50023257.9258271     
   50022848.1184611     
   50022436.3315375     
   50022023.3983507     
   50021610.3120501     
   50021198.2582362     
   50020788.6529925     
   50020383.1869941     
   50019983.8762573     
   50019593.1199166     
   50019213.7651086     
   50018849.1785341     
   50018503.3234826     
   50018180.8399065     
   50017887.1233774     
   50017628.3962104     
   50017411.7604103     
   50017245.2169679     
   50017137.6288624     
   50017098.5951715     
   50026825.1064276     
   50026806.8457893     
   50026754.8959387     
   50026673.0076590     
   50026564.6447789     
   50026432.9337699     
   50026280.6487770     
   50026110.2191034     
   50025923.7501370     
   50025723.0515583     
   50025509.6687172     
   50025284.9145059     
   50025049.9000769     
   50024805.5634492     
   50024552.6955293     
   50024291.9633821     
   50024023.9308013     
   50023749.0763442     
   50023467.8090791     
   50023180.4823228     
   50022887.4056684     
   50022588.8555993     
   50022285.0849853     
   50021976.3317459     
   50021662.8269606     
   50021344.8027017     
   50021022.4998653     
   50020696.1762799     
   50020366.1153867     
   50020032.6358001     
   50019696.1020819     
   50019356.9370927     
   50019015.6363189     
   50018672.7846123     
   50018329.0758180     
   50017985.3358067     
   50017642.5494514     
   50017301.8921040     
   50016964.7661055     
   50016632.8427961     
   50016308.1103500     
   50015992.9275024     
   50015690.0828209     
   50015402.8585190     
   50015135.0968255     
   50014891.2654694     
   50014676.5167402     
   50014496.7315786     
   50014358.5359181     
   50014269.2705678     
   50014236.8877016     
   50021585.4431654     
   50021570.6909395     
   50021528.7225423     
   50021462.5681346     
   50021375.0260114     
   50021268.6222410     
   50021145.5987539     
   50021007.9194601     
   50020857.2871542     
   50020695.1662625     
   50020522.8081272     
   50020341.2766823     
   50020151.4731945     
   50019954.1593011     
   50019749.9779641     
   50019539.4722105     
   50019323.1016956     
   50019101.2572256     
   50018874.2734368     
   50018642.4398561     
   50018406.0105824     
   50018165.2128291     
   50017920.2545635     
   50017671.3314732     
   50017418.6334841     
   50017162.3510506     
   50016902.6814402     
   50016639.8352360     
   50016374.0432923     
   50016105.5643921     
   50015834.6938725     
   50015561.7735094     
   50015287.2029813     
   50015011.4532612     
   50014735.0823189     
   50014458.7535458     
   50014183.2573372     
   50013909.5362757     
   50013638.7143448     
   50013372.1305496     
   50013111.3772043     
   50012858.3429471     
   50012615.2602095     
   50012384.7563433     
   50012169.9068277     
   50011974.2878183     
   50011802.0236198     
   50011657.8222723     
   50011546.9890556     
   50011475.4029857     
   50011449.4348057     
   50016454.6339846     
   50016443.3307590     
   50016411.1770331     
   50016360.4971520     
   50016293.4370419     
   50016211.9337127     
   50016117.7063957     
   50016012.2613814     
   50015896.9050492     
   50015772.7613265     
   50015640.7910601     
   50015501.8116725     
   50015356.5160909     
   50015205.4903680     
   50015049.2297049     
   50014888.1527796     
   50014722.6144084     
   50014552.9166467     
   50014379.3184795     
   50014202.0442724     
   50014021.2911689     
   50013837.2356141     
   50013650.0391864     
   50013459.8539133     
   50013266.8272403     
   50013071.1068235     
   50012872.8453122     
   50012672.2052940     
   50012469.3645804     
   50012264.5220203     
   50012057.9040467     
   50011849.7721747     
   50011640.4316957     
   50011430.2418324     
   50011219.6276441     
   50011009.0939974     
   50010799.2419306     
   50010590.7877517     
   50010384.5851958     
   50010181.6509306     
   50009983.1936101     
   50009790.6465283     
   50009605.7036695     
   50009430.3585632     
   50009266.9447577     
   50009118.1758513     
   50008987.1817541     
   50008877.5360466     
   50008793.2667402     
   50008738.8391776     
   50008719.0948408     
   50011407.3416764     
   50011399.4334178     
   50011376.9428808     
   50011341.5023718     
   50011294.6177714     
   50011237.6477349     
   50011171.7978593     
   50011098.1243147     
   50011017.5431243     
   50010930.8424843     
   50010838.6963832     
   50010741.6783932     
   50010640.2749350     
   50010534.8976167     
   50010425.8944467     
   50010313.5598569     
   50010198.1435567     
   50010079.8582942     
   50009958.8866280     
   50009835.3868330     
   50009709.4980655     
   50009581.3449177     
   50009451.0414854     
   50009318.6950720     
   50009184.4096479     
   50009048.2891815     
   50008910.4409586     
   50008770.9790100     
   50008630.0277693     
   50008487.7260916     
   50008344.2317749     
   50008199.7267342     
   50008054.4229990     
   50007908.5697147     
   50007762.4613515     
   50007616.4473353     
   50007470.9433303     
   50007326.4444081     
   50007183.5403308     
   50007042.9331493     
   50006905.4572602     
   50006772.1019606     
   50006644.0363719     
   50006522.6363335     
   50006409.5124642     
   50006306.5379941     
   50006215.8740984     
   50006139.9892361     
   50006081.6672403     
   50006043.9964674     
   50006030.3289102     
   50006418.0025003     
   50006413.4460426     
   50006400.4979284     
   50006380.1097680     
   50006353.1575651     
   50006320.4304772     
   50006282.6279948     
   50006240.3624239     
   50006194.1645149     
   50006144.4907650     
   50006091.7314118     
   50006036.2184862     
   50005978.2335322     
   50005918.0147718     
   50005855.7636070     
   50005791.6504242     
   50005725.8197179     
   50005658.3945773     
   50005589.4805995     
   50005519.1692979     
   50005447.5410820     
   50005374.6678795     
   50005300.6154760     
   50005225.4456391     
   50005149.2180981     
   50005071.9924422     
   50004993.8300067     
   50004914.7958125     
   50004834.9606284     
   50004754.4032311     
   50004673.2129397     
   50004591.4925124     
   50004509.3614978     
   50004426.9601449     
   50004344.4539846     
   50004262.0392032     
   50004179.9489387     
   50004098.4606325     
   50004017.9045654     
   50003938.6736955     
   50003861.2348834     
   50003786.1415356     
   50003714.0476041     
   50003645.7227376     
   50003582.0681586     
   50003524.1325158     
   50003473.1264920     
   50003430.4342688     
   50003397.6190003     
   50003376.4181062     
   50003368.7223384     
   50001460.8044281     
   50001459.5715873     
   50001456.0874286     
   50001450.6307538     
   50001443.4547414     
   50001434.7851759     
   50001424.8206293     
   50001413.7338369     
   50001401.6737464     
   50001388.7678870     
   50001375.1248281     
   50001360.8365817     
   50001345.9808606     
   50001330.6231469     
   50001314.8185507     
   50001298.6134579     
   50001282.0469762     
   50001265.1521951     
   50001247.9572798     
   50001230.4864193     
   50001212.7606494     
   50001194.7985724     
   50001176.6169907     
   50001158.2314748     
   50001139.6568825     
   50001120.9078455     
   50001101.9992407     
   50001082.9466616     
   50001063.7669074     
   50001044.4785049     
   50001025.1022835     
   50001005.6620211     
   50000986.1851839     
   50000966.7037806     
   50000947.2553608     
   50000927.8841822     
   50000908.6425791     
   50000889.5925637     
   50000870.8076943     
   50000852.3752420     
   50000834.3986854     
   50000817.0005551     
   50000800.3256339     
   50000784.5444988     
   50000769.8573504     
   50000756.4980236     
   50000744.7379890     
   50000734.8900382     
   50000727.3111742     
   50000722.4039908     
   50000720.6154876     
   49996509.6716301     
   49996511.7522074     
   49996517.7043037     
   49996527.1376174     
   49996539.6857513     
   49996555.0138747     
   49996572.8219124     
   49996592.8448400     
   49996614.8511937     
   49996638.6405529     
   49996664.0405115     
   49996690.9034770     
   49996719.1035099     
   49996748.5333359     
   49996779.1015966     
   49996810.7303722     
   49996843.3529770     
   49996876.9120169     
   49996911.3576846     
   49996946.6462651     
   49996982.7388185     
   49997019.6000098     
   49997057.1970496     
   49997095.4987164     
   49997134.4744261     
   49997174.0933156     
   49997214.3233092     
   49997255.1301318     
   49997296.4762328     
   49997338.3195819     
   49997380.6122946     
   49997423.2990408     
   49997466.3151853     
   49997509.5846041     
   49997553.0171163     
   49997596.5054668     
   49997639.9217902     
   49997683.1134907     
   49997725.8984729     
   49997768.0596735     
   49997809.3388668     
   49997849.4297547     
   49997887.9704183     
   49997924.5353020     
   49997958.6270527     
   49997989.6687418     
   49998016.9973121     
   49998039.8595216     
   49998057.4122701     
   49998068.7300508     
   49998072.8234449     
   49991538.2492144     
   49991543.6531054     
   49991559.0704799     
   49991583.4409522     
   49991615.7775219     
   49991655.1836964     
   49991700.8597056     
   49991752.1017324     
   49991808.2968903     
   49991868.9158258     
   49991933.5042051     
   49992001.6739108     
   49992073.0944639     
   49992147.4849779     
   49992224.6068022     
   49992304.2569172     
   49992386.2620794     
   49992470.4736741     
   49992556.7632121     
   49992645.0183903     
   49992735.1396345     
   49992827.0370372     
   49992920.6276058     
   49993015.8327372     
   49993112.5758370     
   49993210.7799996     
   49993310.3656680     
   49993411.2481869     
   49993513.3351608     
   49993616.5235204     
   49993720.6961970     
   49993825.7182891     
   49993931.4326003     
   49994037.6544125     
   49994144.1653453     
   49994250.7061458     
   49994356.9682398     
   49994462.5838784     
   49994567.1147191     
   49994670.0387083     
   49994770.7351790     
   49994868.4681682     
   49994962.3680973     
   49995051.4121773     
   49995134.4042327     
   49995209.9551145     
   49995276.4655730     
   49995332.1144501     
   49995374.8564476     
   49995402.4356752     
   49995412.4238893     
   49986519.8862144     
   49986528.6447876     
   49986553.6170763     
   49986593.0666198     
   49986645.3802005     
   49986709.0945254     
   49986782.9055056     
   49986865.6664194     
   49986956.3793363     
   49987054.1828005     
   49987158.3377901     
   49987268.2132644     
   49987383.2721246     
   49987503.0580666     
   49987627.1835781     
   49987755.3191712     
   49987887.1838455     
   49988022.5367090     
   49988161.1696510     
   49988302.9009384     
   49988447.5695982     
   49988595.0304482     
   49988745.1496372     
   49988897.8005596     
   49989052.8600109     
   49989210.2044524     
   49989369.7062528     
   49989531.2297685     
   49989694.6271225     
   49989859.7335272     
   49990026.3619900     
   49990194.2972206     
   49990363.2885437     
   49990533.0416022     
   49990703.2086154     
   49990873.3769398     
   49991043.0556661     
   49991211.6599840     
   49991378.4930578     
   49991542.7251938     
   49991703.3701583     
   49991859.2586394     
   49992009.0090654     
   49992150.9963351     
   49992283.3195263     
   49992403.7704022     
   49992509.8056266     
   49992598.5271460     
   49992666.6773870     
   49992710.6589703     
   49992726.5928821     
   49981427.6175659     
   49981439.7844016     
   49981474.4639353     
   49981529.2324456     
   49981601.8401283     
   49981690.2475055     
   49981792.6378283     
   49981907.4141588     
   49982033.1871825     
   49982168.7578931     
   49982313.0979307     
   49982465.3293874     
   49982624.7052121     
   49982790.5908783     
   49982962.4476548     
   49983139.8176067     
   49983322.3103130     
   49983509.5912014     
   49983701.3713496     
   49983897.3985746     
   49984097.4496192     
   49984301.3232430     
   49984508.8340256     
   49984719.8066948     
   49984934.0707946     
   49985151.4555114     
   49985371.7844732     
   49985594.8703346     
   49985820.5089510     
   49986048.4729305     
   49986278.5043406     
   49986510.3063209     
   49986743.5333309     
   49986977.7797374     
   49987212.5664163     
   49987447.3250215     
   49987681.3795533     
   49987913.9248557     
   49988144.0016864     
   49988370.4680551     
   49988591.9666318     
   49988806.8882074     
   49989013.3314916     
   49989209.0599964     
   49989391.4574527     
   49989557.4842402     
   49989703.6387916     
   49989825.9300591     
   49989919.8701147     
   49989980.5001381     
   49990002.4688377     
   49976234.1474858     
   49976249.7984954     
   49976294.4006226     
   49976364.8264610     
   49976458.1744559     
   49976571.8152840     
   49976703.4074547     
   49976850.8932858     
   49977012.4830114     
   49977186.6323432     
   49977372.0170469     
   49977567.5068608     
   49977772.1402073     
   49977985.1005437     
   49978205.6947897     
   49978433.3339892     
   49978667.5161891     
   49978907.8114052     
   49979153.8484799     
   49979405.3036018     
   49979661.8902406     
   49979923.3502505     
   49980189.4458929     
   49980459.9525388     
   49980734.6518134     
   49981013.3249484     
   49981295.7461051     
   49981581.6754287     
   49981870.8515806     
   49982162.9834796     
   49982457.7409652     
   49982754.7440639     
   49983053.5505148     
   49983353.6411727     
   49983654.4028749     
   49983955.1083262     
   49984254.8925310     
   49984552.7252983     
   49984847.3793616     
   49985137.3937236     
   49985421.0319657     
   49985696.2354983     
   49985960.5721077     
   49986211.1807448     
   49986444.7143973     
   49986657.2841916     
   49986844.4097689     
   49987000.9836781     
   49987121.2613396     
   49987198.8934552     
   49987227.0251274     
   49970911.8373516     
   49970931.0702179     
   49970985.8717031     
   49971072.3891615     
   49971187.0494388     
   49971326.6155353     
   49971488.2055034     
   49971669.2872719     
   49971867.6589269     
   49972081.4209767     
   49972308.9449779     
   49972548.8413731     
   49972799.9283215     
   49973061.2025601     
   49973331.8128283     
   49973611.0360490     
   49973898.2562436     
   49974192.9460187     
   49974494.6503840     
   49974802.9726180     
   49975117.5618791     
   49975438.1022554     
   49975764.3029500     
   49976095.8893058     
   49976432.5943776     
   49976774.1507636     
   49977120.2824077     
   49977470.6960761     
   49977825.0721978     
   49978183.0547424     
   49978544.2397792     
   49978908.1623309     
   49979274.2810985     
   49979641.9605901     
   49980010.4501486     
   49980378.8593290     
   49980746.1290534     
   49981110.9979567     
   49981471.9633663     
   49981827.2364322     
   49982174.6910907     
   49982511.8068261     
   49982835.6056594     
   49983142.5845176     
   49983428.6452220     
   49983689.0259338     
   49983918.2402092     
   49984110.0331119     
   49984257.3684820     
   49984352.4679630     
   49984386.9314039     
   49965432.7009077     
   49965455.6337054     
   49965520.9688117     
   49965624.1019593     
   49965760.7641508     
   49965927.0889878     
   49966119.6349758     
   49966335.3791393     
   49966571.6933154     
   49966826.3109085     
   49967097.2893262     
   49967382.9714951     
   49967681.9485775     
   49967993.0251259     
   49968315.1873076     
   49968647.5744288     
   49968989.4537299     
   49969340.1982563     
   49969699.2675174     
   49970066.1905944     
   49970440.5513359     
   49970821.9752747     
   49971210.1179040     
   49971604.6539588     
   49972005.2673554     
   49972411.6414452     
   49972823.4492373     
   49973240.3432393     
   49973661.9445448     
   49974087.8307789     
   49974517.5224794     
   49974950.4674516     
   49975386.0225944     
   49975823.4326418     
   49976261.8052173     
   49976700.0815513     
   49977137.0021760     
   49977571.0669045     
   49978000.4884266     
   49978423.1389491     
   49978836.4894979     
   49979237.5418390     
   49979622.7535247     
   49979987.9574282     
   49980328.2784220     
   49980638.0517505     
   49980910.7503942     
   49981138.9326371     
   49981314.2265679     
   49981427.3759635     
   49981468.3827108     
   49959768.4083096     
   49959795.1770859     
   49959871.4307298     
   49959991.7826992     
   49960151.2400505     
   49960345.2818733     
   49960569.8851270     
   49960821.5169721     
   49961097.1068818     
   49961394.0076293     
   49961709.9512497     
   49962043.0039462     
   49962391.5224160     
   49962754.1130415     
   49963129.5946818     
   49963516.9653317     
   49963915.3726127     
   49964324.0878669     
   49964742.4835165     
   49965170.0132910     
   49965606.1948998     
   49966050.5947210     
   49966502.8140839     
   49966962.4767301     
   49967429.2170486     
   49967902.6686815     
   49968382.4531001     
   49968868.1677375     
   49969359.3732488     
   49969855.5794426     
   49970356.2293917     
   49970860.6811856     
   49971368.1867374     
   49971877.8669982     
   49972388.6828765     
   49972899.4011042     
   49973408.5542513     
   49973914.3940806     
   49974414.8374623     
   49974907.4041831     
   49975389.1462012     
   49975856.5682940     
   49976305.5406867     
   49976731.2052445     
   49977127.8783156     
   49977488.9555176     
   49977806.8269567     
   49978072.8159241     
   49978277.1605355     
   49978409.0667657     
   49978456.8737877     
   49953890.2979996     
   49953921.0530185     
   49954008.6501729     
   49954146.8866264     
   49954330.0143825     
   49954552.8303119     
   49954810.7056508     
   49955099.5769549     
   49955415.9138030     
   49955756.6737215     
   49956119.2513462     
   49956501.4263901     
   49956901.3132658     
   49957317.3140206     
   49957748.0754300     
   49958192.4505568     
   49958649.4647292     
   49959118.2856756     
   49959598.1974253     
   49960088.5775166     
   49960588.8770251     
   49961098.6029171     
   49961617.3022421     
   49962144.5476860     
   49962679.9240185     
   49963223.0149723     
   49963773.3900914     
   49964330.5910739     
   49964894.1171165     
   49965463.4087344     
   49966037.8294929     
   49966616.6450333     
   49967198.9987160     
   49967783.8831407     
   49968370.1067352     
   49968956.2545410     
   49969540.6422814     
   49970121.2627804     
   49970695.7238388     
   49971261.1768001     
   49971814.2352915     
   49972350.8840772     
   49972866.3786955     
   49973355.1376951     
   49973810.6310079     
   49974225.2705300     
   49974590.3126462     
   49974895.7876593     
   49975130.4784551     
   49975281.9810396     
   49975336.8938756     
   49947769.3914370     
   49947804.2917236     
   49947903.6820661     
   49948060.5073088     
   49948268.2315748     
   49948520.9403986     
   49948813.3740146     
   49949140.9168209     
   49949499.5604216     
   49949885.8521583     
   49950296.8371147     
   49950729.9987865     
   49951183.2016552     
   49951654.6375502     
   49952142.7767568     
   49952646.3242182     
   49953164.1807752     
   49953695.4091446     
   49954239.2041896     
   49954794.8669573     
   49955361.7819315     
   49955939.3969342     
   49956527.2051229     
   49957124.7285393     
   49957731.5026784     
   49958347.0615513     
   49958970.9227164     
   49959602.5717386     
   49960241.4455151     
   49960886.9138727     
   49961538.2587930     
   49962194.6505639     
   49962855.1200913     
   49963518.5265261     
   49964183.5192899     
   49964848.4935098     
   49965511.5378216     
   49966170.3734842     
   49966822.2837897     
   49967464.0328964     
   49968091.7734995     
   49968700.9432678     
   49969286.1508059     
   49969841.0532015     
   49970358.2291724     
   49970829.0547014     
   49971243.5922095     
   49971590.5102459     
   49971857.0590410     
   49972029.1389622     
   49972091.5151360     
   49941376.3999551     
   49941415.6057307     
   49941527.2424069     
   49941703.3664296     
   49941936.6213215     
   49942220.3524307     
   49942548.6441240     
   49942916.3076288     
   49943318.8391377     
   49943752.3615976     
   49944213.5591785     
   49944699.6102673     
   49945208.1226349     
   49945737.0728924     
   49946284.7513158     
   49946849.7124248     
   49947430.7312509     
   49948026.7649554     
   49948636.9192908     
   49949260.4193141     
   49949896.5837267     
   49950544.8022035     
   49951204.5150847     
   49951875.1948190     
   49952556.3285565     
   49953247.4013002     
   49953947.8790205     
   49954657.1911260     
   49955374.7116582     
   49956099.7385368     
   49956831.4701320     
   49957568.9783744     
   49958311.1775360     
   49959056.7877335     
   49959804.2921197     
   49960551.8866480     
   49961297.4212380     
   49962038.3311500     
   49962771.5574258     
   49963493.4554109     
   49964199.6906989     
   49964885.1224166     
   49965543.6747033     
   49966168.1987049     
   49966750.3295994     
   49967280.3464112     
   49967747.0470563     
   49968137.6577328     
   49968437.8051974     
   49968631.5936299     
   49968701.8460564     
   49934681.7050899     
   49934725.3676708     
   49934849.6790089     
   49935045.7737074     
   49935305.4445824     
   49935621.2704985     
   49935986.6575533     
   49936395.8251458     
   49936843.7588566     
   49937326.1451410     
   49937839.2978804     
   49938380.0833267     
   49938945.8475062     
   49939534.3484452     
   49940143.6944185     
   49940772.2886453     
   49941418.7803600     
   49942082.0218705     
   49942761.0310393     
   49943454.9585217     
   49944163.0590605     
   49944884.6661231     
   49945619.1691815     
   49946365.9929462     
   49947124.5778856     
   49947894.3613647     
   49948674.7587399     
   49949465.1437285     
   49950264.8273455     
   49951073.0346546     
   49951888.8785232     
   49952711.3294965     
   49953539.1808225     
   49954371.0075646     
   49955205.1186431     
   49956039.5005594     
   49956871.7514885     
   49957699.0044076     
   49958517.8379784     
   49959324.1740833     
   49960113.1612758     
   49960879.0440528     
   49961615.0189065     
   49962313.0797497     
   49962963.8577717     
   49963556.4644063     
   49964078.3513351     
   49964515.2089215     
   49964850.9350150     
   49965067.7207950     
   49965146.3207722     
   49927655.2832077     
   49927703.5319803     
   49927840.8851071     
   49928057.5281142     
   49928344.3789401     
   49928693.2292344     
   49929096.7895720     
   49929548.6735816     
   49930043.3453205     
   49930576.0465335     
   49931142.7149366     
   49931739.9007655     
   49932364.6860943     
   49933014.6095369     
   49933687.5976573     
   49934381.9035529     
   49935096.0525256     
   49935828.7944082     
   49936579.0619116     
   49937345.9342566     
   49938128.6053051     
   49938926.3554007     
   49939738.5261356     
   49940564.4972833     
   49941403.6651473     
   49942255.4215903     
   49943119.1330015     
   49943994.1184474     
   49944879.6262155     
   49945774.8079155     
   49946678.6892324     
   49947590.1363494     
   49948507.8169595     
   49949430.1546826     
   49950355.2755969     
   49951280.9454962     
   49952204.4964083     
   49953122.7408905     
   49954031.8726741     
   49954927.3524301     
   49955803.7778354     
   49956654.7378343     
   49957472.6521633     
   49958248.5990289     
   49958972.1365740     
   49959631.1278045     
   49960211.5844887     
   49960697.5538666     
   49961071.0837501     
   49961312.3180095     
   49961399.7972119     
   49920266.5317267     
   49920319.4579223     
   49920470.1135570     
   49920707.7186594     
   49921022.3023078     
   49921404.8576092     
   49921847.3909102     
   49922342.9038108     
   49922885.3347786     
   49923469.4786887     
   49924090.8965513     
   49924745.8233886     
   49925431.0792167     
   49926143.9859967     
   49926882.2920078     
   49927644.1041466     
   49928427.8280512     
   49929232.1155657     
   49930055.8188453     
   49930897.9502832     
   49931757.6473923     
   49932634.1417676     
   49933526.7312641     
   49934434.7545481     
   49935357.5671944     
   49936294.5185142     
   49937244.9282933     
   49938208.0626049     
   49939183.1078202     
   49940169.1418921     
   49941165.1019079     
   49942169.7468211     
   49943181.6141628     
   49944198.9694206     
   49945219.7466514     
   49946241.4787867     
   49947261.2160052     
   49948275.4305250     
   49949279.9062290     
   49950269.6117637     
   49951238.5561961     
   49952179.6271161     
   49953084.4123699     
   49953943.0086316     
   49954743.8230741     
   49955473.3788753     
   49956116.1417861     
   49956654.3942258     
   49957068.1964083     
   49957335.4922278     
   49957432.4429085     
   49912483.9373783     
   49912541.5745928     
   49912705.6329383     
   49912964.3670653     
   49913306.9186670     
   49913723.4851111     
   49914205.3725200     
   49914744.9754898     
   49915335.7127512     
   49915971.9388008     
   49916648.8448958     
   49917362.3581064     
   49918109.0438262     
   49918886.0148626     
   49919690.8486805     
   49920521.5133424     
   49921376.3020227     
   49922253.7755610     
   49923152.7122811     
   49924072.0641745     
   49925010.9184957     
   49925968.4638090     
   49926943.9595346     
   49927936.7080701     
   49928946.0285763     
   49929971.2315311     
   49931011.5931476     
   49932066.3287350     
   49933134.5640377     
   49934215.3035274     
   49935307.3945438     
   49936409.4860754     
   49937519.9808569     
   49938636.9793293     
   49939758.2138782     
   49940880.9716433     
   49942002.0041018     
   49943117.4215984     
   49944222.5710705     
   49945311.8954589     
   49946378.7737945     
   49947415.3418354     
   49948412.2945670     
   49949358.6741220     
   49950241.6500485     
   49951046.3038234     
   49951755.4366848     
   49952349.4300927     
   49952806.2025680     
   49953101.3268347     
   49953208.3991838     
   49904274.5066192     
   49904336.8083995     
   49904514.1471150     
   49904793.8355691     
   49905164.1512941     
   49905614.5184634     
   49906135.5645856     
   49906719.0977639     
   49907358.0363118     
   49908046.3124359     
   49908778.7645005     
   49909551.0272846     
   49910359.4260707     
   49911200.8779348     
   49912072.8019288     
   49912973.0387303     
   49913899.7796154     
   49914851.5041639     
   49915826.9258488     
   49916824.9445250     
   49917844.6047767     
   49918885.0590732     
   49919945.5346968     
   49921025.3034294     
   49922123.6530050     
   49923239.8593451     
   49924373.1585883     
   49925522.7179017     
   49926687.6040151     
   49927866.7483512     
   49929058.9075347     
   49930262.6179491     
   49931476.1428810     
   49932697.4106497     
   49933923.9419708     
   49935152.7646699     
   49936380.3137623     
   49937602.3148799     
   49938813.6491100     
   49940008.1975794     
   49941178.6646690     
   49942316.3797194     
   49943411.0786822     
   49944450.6696445     
   49945420.9898902     
   49946305.5676440     
   49947085.4095817     
   49947738.8465026     
   49948241.4855166     
   49948566.3394001     
   49948684.2347114     
   49895602.8547068     
   49895669.6701005     
   49895859.8769731     
   49896159.9011357     
   49896557.2081306     
   49897040.4975937     
   49897599.7631470     
   49898226.2670706     
   49898912.4639332     
   49899651.8965117     
   49900439.0795806     
   49901269.3816676     
   49902138.9110277     
   49903044.4094385     
   49903983.1556122     
   49904952.8788276     
   49905951.6826095     
   49906977.9778092     
   49908030.4241603     
   49909107.8792422     
   49910209.3537219     
   49911333.9717352     
   49912480.9352839     
   49913649.4915488     
   49914838.9020394     
   49916048.4125115     
   49917277.2225747     
   49918524.4538827     
   49919789.1157509     
   49921070.0669625     
   49922365.9724301     
   49923675.2532495     
   49924996.0285389     
   49926326.0472990     
   49927662.6083673     
   49929002.4663889     
   49930341.7216167     
   49931675.6913168     
   49932998.7606430     
   49934304.2111444     
   49935584.0256756     
   49936828.6695566     
   49938026.8495882     
   49939165.2552582     
   49940228.2905925     
   49941197.8111615     
   49942052.8895044     
   49942769.6447231     
   49943321.1896029     
   49943677.7732280     
   49943807.2312029     
   49886429.8237783     
   49886500.8725801     
   49886703.1778803     
   49887022.3733206     
   49887445.2013749     
   49887959.7187451     
   49888555.3588482     
   49889222.9038376     
   49889954.4025316     
   49890743.0590589     
   49891583.1087769     
   49892469.6921754     
   49893398.7333917     
   49894366.8271416     
   49895371.1359529     
   49896409.2983210     
   49897479.3475847     
   49898579.6408150     
   49899708.7967197     
   49900865.6414111     
   49902049.1608240     
   49903258.4585574     
   49904492.7179315     
   49905751.1670744     
   49907033.0458759     
   49908337.5736481     
   49909663.9163294     
   49911011.1520254     
   49912378.2336277     
   49913763.9471616     
   49915166.8643999     
   49916585.2881407     
   49918017.1883883     
   49919460.1274967     
   49920911.1721572     
   49922366.7899481     
   49923822.7280361     
   49925273.8715835     
   49926714.0795088     
   49928135.9955780     
   49929530.8334725     
   49930888.1356650     
   49932195.5078707     
   49933438.3338532     
   49934599.4798974     
   49935659.0049372     
   49936593.9019741     
   49937377.9101784     
   49937981.4564750     
   49938371.8125337     
   49938513.5907153     
   49876710.4730154     
   49876785.3236097     
   49876998.5403910     
   49877335.1084119     
   49877781.1805863     
   49878324.2919892     
   49878953.4241224     
   49879658.9743287     
   49880432.6685995     
   49881267.4438431     
   49882157.3169857     
   49883097.2521361     
   49884083.0327436     
   49885111.1427140     
   49886178.6584398     
   49887283.1523656     
   49888422.6078535     
   49889595.3445852     
   49890799.9534306     
   49892035.2395545     
   49893300.1724679     
   49894593.8417183     
   49895915.4169279     
   49897264.1109163     
   49898639.1446577     
   49900039.7128332     
   49901464.9487172     
   49902913.8871020     
   49904385.4238887     
   49905878.2708808     
   49907390.9041845     
   49908921.5044671     
   49910467.8871431     
   49912027.4203644     
   49913596.9284897     
   49915172.5785270     
   49916749.7469042     
   49918322.8638755     
   49919885.2329825     
   49921428.8233411     
   49922944.0332673     
   49924419.4250529     
   49925841.4328362     
   49927194.0488206     
   49928458.4980854     
   49929612.9195769     
   49930632.0814819     
   49931487.1743279     
   49932145.7465129     
   49932571.8768137     
   49932726.7198445     
   49866391.2582176     
   49866469.3124735     
   49866691.7974559     
   49867043.2499072     
   49867509.4182011     
   49868077.4825902     
   49868736.1202123     
   49869475.4721024     
   49870287.0518513     
   49871163.6229031     
   49872099.0624616     
   49873088.2236006     
   49874126.8027178     
   49875211.2164023     
   49876338.4897034     
   49877506.1564137     
   49878712.1710926     
   49879954.8320110     
   49881232.7138869     
   49882544.6091134     
   49883889.4761165     
   49885266.3934677     
   49886674.5183871     
   49888113.0483012     
   49889581.1841286     
   49891078.0939733     
   49892602.8758782     
   49894154.5182434     
   49895731.8564337     
   49897333.5239886     
   49898957.8967010     
   49900603.0276632     
   49902266.5711708     
   49903945.6931655     
   49905636.9656729     
   49907336.2424880     
   49909038.5132111     
   49910737.7326804     
   49912426.6229670     
   49914096.4454872     
   49915736.7415947     
   49917335.0414452     
   49918876.5432613     
   49920343.7687642     
   49921716.2060138     
   49922969.9589682     
   49924077.4347321     
   49925007.1160985     
   49925723.4904528     
   49926187.2389126     
   49926355.8350859     
   49855406.1978888     
   49855486.6895816     
   49855716.3429098     
   49856079.5088497     
   49856561.7723352     
   49857150.1745914     
   49857833.2776372     
   49858601.1293293     
   49859445.1693300     
   49860358.1034667     
   49861333.7647420     
   49862366.9727568     
   49863453.3987672     
   49864589.4404729     
   49865772.1085201     
   49866998.9253004     
   49868267.8357350     
   49869577.1291751     
   49870925.3712377     
   49872311.3442271     
   49873733.9947229     
   49875192.3869057     
   49876685.6601984     
   49878212.9898238     
   49879773.5488892     
   49881366.4706009     
   49882990.8091815     
   49884645.4980025     
   49886329.3033481     
   49888040.7721037     
   49889778.1714948     
   49891539.4188122     
   49893321.9988324     
   49895122.8664064     
   49896938.3314394     
   49898763.9232632     
   49900594.2312305     
   49902422.7183005     
   49904241.5045112     
   49906041.1176577     
   49907810.2093794     
   49909535.2364224     
   49911200.1093999     
   49912785.8153557     
   49914270.0264404     
   49915626.7158422     
   49916825.8148999     
   49917832.9635552     
   49918609.4320303     
   49919112.3275826     
   49919295.2501021     
   49843671.8142830     
   49843753.8300436     
   49843988.1592646     
   49844359.2929438     
   49844852.9498843     
   49845456.2963428     
   49846158.0086303     
   49846948.2369361     
   49847818.5106519     
   49848761.6125481     
   49849771.4399651     
   49850842.8646864     
   49851971.5986389     
   49853154.0694510     
   49854387.3077934     
   49855668.8470404     
   49856996.6348959     
   49858368.9560824     
   49859784.3648783     
   49861241.6261204     
   49862739.6632239     
   49864277.5117523     
   49865854.2770797     
   49867469.0947018     
   49869121.0917532     
   49870809.3482753     
   49872532.8567347     
   49874290.4782184     
   49876080.8936220     
   49877902.5480021     
   49879753.5860811     
   49881631.7766737     
   49883534.4235577     
   49885458.2600452     
   49887399.3242372     
   49889352.8116955     
   49891312.9020775     
   49893272.5562093     
   49895223.2802056     
   49897154.8537060     
   49899055.0202587     
   49900909.1395820     
   49902699.8042297     
   49904406.4275268     
   49906004.8161989     
   49907466.7507699     
   49908759.6107658     
   49909846.1016901     
   49910684.1688552     
   49911227.2224828     
   49911424.8530609     
   49831080.6492278     
   49831163.1840706     
   49831399.4661813     
   49831774.5089098     
   49832274.5112480     
   49832887.0692234     
   49833601.2351542     
   49834407.4814206     
   49835297.6078637     
   49836264.6193375     
   49837302.5909937     
   49838406.5325644     
   49839572.2585188     
   49840796.2679443     
   49842075.6359672     
   49843407.9171812     
   49844791.0606920     
   49846223.3358575     
   49847703.2674992     
   49849229.5792015     
   49850801.1432446     
   49852416.9356996     
   49854075.9952138     
   49855777.3840227     
   49857520.1497146     
   49859303.2862500     
   49861125.6926751     
   49862986.1278846     
   49864883.1596557     
   49866815.1060115     
   49868779.9667647     
   49870775.3428489     
   49872798.3407720     
   49874845.4592258     
   49876912.4545926     
   49878994.1818048     
   49881084.4068132     
   49883175.5868298     
   49885258.6146580     
   49887322.5239170     
   49889354.1530035     
   49891337.7674849     
   49893254.6436422     
   49895082.6206068     
   49896795.6356554     
   49898363.2677256     
   49899750.3294094     
   49900916.5693633     
   49901816.5776933     
   49902400.0296913     
   49902612.4627558     
   49817493.1974618     
   49817575.2604874     
   49817810.8457373     
   49818185.9092781     
   49818687.5072475     
   49819303.9929196     
   49820025.0713181     
   49820841.7646344     
   49821746.3251576     
   49822732.1205822     
   49823793.5081299     
   49824925.7079997     
   49826124.6825286     
   49827387.0246160     
   49828709.8570540     
   49830090.7431468     
   49831527.6082004     
   49833018.6709660     
   49834562.3838383     
   49836157.3804587     
   49837802.4293012     
   49839496.3917986     
   49841238.1835578     
   49843026.7372075     
   49844860.9654015     
   49846739.7224548     
   49848661.7630185     
   49850625.6960873     
   49852629.9324843     
   49854672.6237786     
   49856751.5903595     
   49858864.2361191     
   49861007.4468920     
   49863177.4694749     
   49865369.7677152     
   49867578.8518586     
   49869798.0771068     
   49872019.4072479     
   49874233.1393643     
   49876427.5861549     
   49878588.7135205     
   49880699.7330536     
   49882740.6523388     
   49884687.7910677     
   49886513.2786732     
   49888184.5605331     
   49889663.9562324     
   49890908.3368406     
   49891869.0213073     
   49892492.0384589     
   49892718.9654922     
   49802728.1897427     
   49802808.9795268     
   49803041.7914858     
   49803413.9471318     
   49803913.7328378     
   49804530.5765466     
   49805255.0969024     
   49806079.0726724     
   49806995.3654118     
   49807997.8176566     
   49809081.1413458     
   49810240.8058470     
   49811472.9312544     
   49812774.1900845     
   49814141.7187860     
   49815573.0393512     
   49817065.9905978     
   49818618.6682425     
   49820229.3726346     
   49821896.5628741     
   49823618.8159710     
   49825394.7896741     
   49827223.1875743     
   49829102.7250722     
   49831032.0947567     
   49833009.9296811     
   49835034.7629285     
   49837104.9817234     
   49839218.7741776     
   49841374.0665387     
   49843568.4485548     
   49845799.0842654     
   49848062.6051980     
   49850354.9825858     
   49852671.3748675     
   49855005.9463889     
   49857351.6529737     
   49859699.9899197     
   49862040.6981267     
   49864361.4246179     
   49866647.3349070     
   49868880.6767824     
   49871040.2985787     
   49873101.1304629     
   49875033.6455183     
   49876803.3295842     
   49878370.2064561     
   49879688.4902615     
   49880706.4724486     
   49881366.8006963     
   49881607.3763406     
   49786551.3131314     
   49786630.4863493     
   49786859.7838412     
   49787228.2581401     
   49787725.7382569     
   49788342.9809853     
   49789071.7146096     
   49789904.6154784     
   49790835.2452735     
   49791857.9677628     
   49792967.8574154     
   49794160.6077491     
   49795432.4441499     
   49796780.0437549     
   49798200.4635471     
   49799691.0768542     
   49801249.5178362     
   49802873.6331635     
   49804561.4398683     
   49806311.0882203     
   49808120.8284117     
   49809988.9797957     
   49811913.9013865     
   49813893.9622926     
   49815927.5106929     
   49818012.8398834     
   49820148.1497982     
   49822331.5022601     
   49824560.7680085     
   49826833.5633201     
   49829147.1737421     
   49831498.4621351     
   49833883.7578549     
   49836298.7235124     
   49838738.1953595     
   49841195.9929823     
   49843664.6937033     
   49846135.3669661     
   49848597.2641249     
   49851037.4596405     
   49853440.4409295     
   49855787.6463608     
   49858056.9545835     
   49860222.1341625     
   49862252.2712535     
   49864111.2059815     
   49865757.0269431     
   49867141.7000684     
   49868210.9459938     
   49868904.5332047     
   49869157.2280368     
   49768662.6996368     
   49768740.7602054     
   49768968.2368500     
   49769336.1301051     
   49769835.9768043     
   49770459.9733221     
   49771201.0154545     
   49772052.6862024     
   49773009.2129642     
   49774065.4086535     
   49775216.6063088     
   49776458.5932707     
   49777787.5485829     
   49779199.9856075     
   49780692.7007204     
   49782262.7282098     
   49783907.3010187     
   49785623.8166651     
   49787409.8074932     
   49789262.9142872     
   49791180.8622147     
   49793161.4380057     
   49795202.4672267     
   49797301.7904433     
   49799457.2369818     
   49801666.5948920     
   49803927.5755677     
   49806237.7713001     
   49808594.6038164     
   49810995.2615852     
   49813436.6233602     
   49815915.1650737     
   49818426.8467996     
   49820966.9760857     
   49823530.0435332     
   49826109.5261079     
   49828697.6533605     
   49831285.1315907     
   49833860.8211269     
   49836411.3624861     
   49838920.7484701     
   49841369.8415832     
   49843735.8400144     
   49845991.7014727     
   49848105.5433345     
   49850040.0511124     
   49851751.9469318     
   49853191.5978593     
   49854302.8837660     
   49855023.5002615     
   49855285.9499185     
   49748683.8732756     
   49748762.7120398     
   49748994.0164016     
   49749370.6705970     
   49749885.8124911     
   49750532.9305365     
   49751305.9038252     
   49752199.0061334     
   49753206.8883994     
   49754324.5494393     
   49755547.3014027     
   49756870.7341348     
   49758290.6809771     
   49759803.1874087     
   49761404.4831547     
   49763090.9578670     
   49764859.1401368     
   49766705.6793679     
   49768627.3298879     
   49770620.9365696     
   49772683.4211548     
   49774811.7684003     
   49777003.0110916     
   49779254.2128813     
   49781562.4477992     
   49783924.7751463     
   49786338.2083133     
   49788799.6758604     
   49791305.9729463     
   49793853.7009003     
   49796439.1924005     
   49799058.4193335     
   49801706.8799992     
   49804379.4618767     
   49807070.2757246     
   49809772.4563658     
   49812477.9251824     
   49815177.1091778     
   49817858.6115904     
   49820508.8296331     
   49823111.5162384     
   49825647.2850648     
   49828093.0619695     
   49830421.4923560     
   49832600.3232332     
   49834591.7927776     
   49836352.0804805     
   49837830.9000237     
   49838971.3581997     
   49839710.2609480     
   49839979.1280030     
   49726145.3476901     
   49726228.9634264     
   49726475.7242979     
   49726879.8685245     
   49727435.5840151     
   49728137.0881022     
   49728978.6753026     
   49729954.7436824     
   49731059.8073454     
   49732288.5003157     
   49733635.5754455     
   49735095.9007894     
   49736664.4550201     
   49738336.3228436     
   49740106.6909239     
   49741970.8445105     
   49743924.1647283     
   49745962.1263214     
   49748080.2955121     
   49750274.3275283     
   49752539.9632587     
   49754873.0243984     
   49757269.4063480     
   49759725.0680134     
   49762236.0175157     
   49764798.2926646     
   49767407.9348504     
   49770060.9547887     
   49772753.2882817     
   49775480.7398520     
   49778238.9117527     
   49781023.1154603     
   49783828.2623258     
   49786648.7295981     
   49789478.1975722     
   49792309.4531781     
   49795134.1549788     
   49797942.5543584     
   49800723.1677865     
   49803462.3956131     
   49806144.0841323     
   49808749.0300128     
   49811254.4301337     
   49813633.2860785     
   49815853.7820034     
   49817878.6686366     
   49819664.7066072     
   49821162.2516323     
   49822315.1056862     
   49823060.8167059     
   49823331.6908257     
   49700476.7379846     
   49700572.1678146     
   49700854.6009716     
   49701318.3885965     
   49701957.5445322     
   49702765.8279681     
   49703736.8114169     
   49704863.9363733     
   49706140.5588505     
   49707559.9867431     
   49709115.5106835     
   49710800.4297739     
   49712608.0733038     
   49714531.8193165     
   49716565.1106650     
   49718701.4690050     
   49720934.5070001     
   49723257.9388650     
   49725665.5892332     
   49728151.4002105     
   49730709.4363518     
   49733333.8871748     
   49736019.0666948     
   49738759.4093226     
   49741549.4613082     
   49744383.8667362     
   49747257.3468676     
   49750164.6713866     
   49753100.6198337     
   49756059.9311941     
   49759037.2392505     
   49762026.9909130     
   49765023.3443042     
   49768020.0429168     
   49771010.2616919     
   49773986.4204296     
   49776939.9595764     
   49779861.0732348     
   49782738.3943091     
   49785558.6272248     
   49788306.1248700     
   49790962.4086698     
   49793505.6344994     
   49795910.0131601     
   49798145.2033386     
   49800175.7086456     
   49801960.3302904     
   49803451.7556419     
   49804596.4036836     
   49805334.7057227     
   49805602.0797568     
   49671002.1089057     
   49671120.5881966     
   49671470.7377214     
   49672044.7522485     
   49672834.2806768     
   49673830.5476812     
   49675024.4611327     
   49676406.7046641     
   49677967.8160888     
   49679698.2530772     
   49681588.4477803     
   49683628.8521211     
   49685809.9753630     
   49688122.4153705     
   49690556.8847543     
   49693104.2328613     
   49695755.4643434     
   49698501.7548333     
   49701334.4640568     
   49704245.1465358     
   49707225.5598696     
   49710267.6704173     
   49713363.6560513     
   49716505.9054853     
   49719687.0135092     
   49722899.7712764     
   49726137.1505783     
   49729392.2808081     
   49732658.4170438     
   49735928.8973828     
   49739197.0873144     
   49742456.3085374     
   49745699.7492151     
   49748920.3522160     
   49752110.6774387     
   49755262.7338881     
   49758367.7768092     
   49761416.0649647     
   49764396.5731723     
   49767296.6556604     
   49770101.6568810     
   49772794.4684685     
   49775355.0345113     
   49777759.8128541     
   49779981.2086713     
   49781987.0092761     
   49783739.8677599     
   49785196.9099080     
   49786309.5770789     
   49787023.8716493     
   49787281.2470423     
   49636944.3242989     
   49637102.6803666     
   49637568.3026919     
   49638327.5383378     
   49639366.1503517     
   49640669.5365285     
   49642222.9042742     
   49644011.4077984     
   49646020.2539436     
   49648234.7825479     
   49650640.5265851     
   49653223.2565765     
   49655969.0130129     
   49658864.1298188     
   49661895.2512555     
   49665049.3441095     
   49668313.7065387     
   49671675.9745560     
   49675124.1267972     
   49678646.4879415     
   49682231.7309199     
   49685868.8778407     
   49689547.2993789     
   49693256.7122045     
   49696987.1738556     
   49700729.0742845     
   49704473.1231223     
   49708210.3314918     
   49711931.9869712     
   49715629.6200430     
   49719294.9600631     
   49722919.8784534     
   49726496.3164480     
   49730016.1943332     
   49733471.2987099     
   49736853.1439099     
   49740152.8033587     
   49743360.7064402     
   49746466.3964051     
   49749458.2451836     
   49752323.1218390     
   49755046.0131003     
   49757609.5973506     
   49759993.7781945     
   49762175.1910622     
   49764126.7073307     
   49765816.9766629     
   49767210.0717368     
   49768265.3330965     
   49768937.5593282     
   49769177.7543641     
   49597443.3491085     
   49597665.6067484     
   49598314.6312941     
   49599365.3382106     
   49600792.3218486     
   49602570.2587273     
   49604674.1888992     
   49607079.7047246     
   49609763.0705432     
   49612701.2917947     
   49615872.1480431     
   49619254.2010161     
   49622826.7860666     
   49626569.9933176     
   49630464.6430539     
   49634492.2586051     
   49638635.0389462     
   49642875.8324633     
   49647198.1127414     
   49651585.9567884     
   49656024.0257723     
   49660497.5480941     
   49664992.3044226     
   49669494.6141554     
   49673991.3226303     
   49678469.7882838     
   49682917.8688166     
   49687323.9052834     
   49691676.7028620     
   49695965.5068647     
   49700179.9723406     
   49704310.1253661     
   49708346.3138371     
   49712279.1452702     
   49716099.4087861     
   49719797.9781234     
   49723365.6922237     
   49726793.2097051     
   49730070.8334553     
   49733188.3017458     
   49736134.5428366     
   49738897.3912417     
   49741463.2659586     
   49743816.8144898     
   49745940.5320140     
   49747814.3734720     
   49749415.3888141     
   49750717.4298707     
   49751691.0035178     
   49752303.3831220     
   49752519.1428761     
   49551594.6789786     
   49551913.8162861     
   49552839.2055690     
   49554326.3174581     
   49556331.0427583     
   49558810.4052565     
   49561723.0021207     
   49565029.2491329     
   49568691.4890080     
   49572674.0063076     
   49576942.9810864     
   49581466.4046892     
   49586213.9744983     
   49591156.9794362     
   49596268.1843015     
   49601521.7182651     
   49606892.9708415     
   49612358.4972077     
   49617895.9337222     
   49623483.9237879     
   49629102.0537291     
   49634730.7980429     
   49640351.4731905     
   49645946.1989777     
   49651497.8665102     
   49656990.1116677     
   49662407.2930150     
   49667734.4730381     
   49672957.4015524     
   49678062.5000687     
   49683036.8458191     
   49687868.1540291     
   49692544.7568787     
   49697055.5774171     
   49701390.0964966     
   49705538.3105621     
   49709490.6779119     
   49713238.0508294     
   49716771.5908405     
   49720082.6643140     
   49723162.7157950     
   49726003.1169676     
   49728594.9901754     
   49730929.0072514     
   49732995.1674131     
   49734782.5627014     
   49736279.1466427     
   49737471.5325490     
   49738344.8636061     
   49738882.8196526     
   49739067.8581120     
   49498515.1261990     
   49498974.8645699     
   49500299.5446187     
   49502414.1722317     
   49505245.6240590     
   49508723.8414636     
   49512782.4983618     
   49517359.3039222     
   49522396.0584684     
   49527838.5486680     
   49533636.3438609     
   49539742.5373028     
   49546113.4627001     
   49552708.4065850     
   49559489.3299290     
   49566420.6072716     
   49573468.7880185     
   49580602.3820625     
   49587791.6701919     
   49595008.5386616     
   49602226.3366345     
   49609419.7548377     
   49616564.7236185     
   49623638.3285646     
   49630618.7419249     
   49637485.1681858     
   49644217.8023072     
   49650797.7992798     
   49657207.2538120     
   49663429.1890945     
   49669447.5537038     
   49675247.2257918     
   49680814.0237660     
   49686134.7226846     
   49691197.0755711     
   49695989.8387886     
   49700502.8005049     
   49704726.8111117     
   49708653.8142454     
   49712276.8767770     
   49715590.2158090     
   49718589.2203409     
   49721270.4648594     
   49723631.7117203     
   49725671.8988707     
   49727391.1093185     
   49728790.5189584     
   49729872.3201484     
   49730639.6201807     
   49731096.3170656     
   49731246.9606002     
   49437443.7229225     
   49438100.1668677     
   49439981.5099734     
   49442967.6954619     
   49446942.9849336     
   49451797.8610250     
   49457430.0090577     
   49463744.6721829     
   49470654.5932599     
   49478079.6962810     
   49485946.6153520     
   49494188.1462442     
   49502742.6714457     
   49511553.5922230     
   49520568.7887506     
   49529740.1205957     
   49539022.9737800     
   49548375.8565542     
   49557760.0433625     
   49567139.2648398     
   49576479.4407730     
   49585748.4525432     
   49594915.9514945     
   49603953.1998266     
   49612832.9408984     
   49621529.2962091     
   49630017.6867370     
   49638274.7767566     
   49646278.4386838     
   49654007.7379200     
   49661442.9370656     
   49668565.5192401     
   49675358.2305814     
   49681805.1422890     
   49687891.7328060     
   49693604.9908973     
   49698933.5404362     
   49703867.7876293     
   49708400.0911299     
   49712524.9549385     
   49716239.2430628     
   49719542.4134584     
   49722436.7666140     
   49724927.7010110     
   49727023.9632451     
   49728737.8743802     
   49730085.5055305     
   49731086.7639349     
   49731765.3348805     
   49732148.4033929     
   49732266.0510606     
   49367884.9859457     
   49368807.8543839     
   49371440.9943560     
   49375600.6162191     
   49381111.0346049     
   49387807.5713943     
   49395537.9576602     
   49404162.7279370     
   49413554.9613964     
   49423599.6213819     
   49434192.6690002     
   49445240.0712237     
   49456656.7839944     
   49468365.7621850     
   49480297.0280335     
   49492386.8155846     
   49504576.7990835     
   49516813.4069252     
   49529047.2187510     
   49541232.4409134     
   49553326.4543110     
   49565289.4281560     
   49577083.9933304     
   49588674.9694067     
   49600029.1400510     
   49611115.0722773     
   49621902.9758366     
   49632364.5998605     
   49642473.1647089     
   49652203.3277823     
   49661531.1828443     
   49670434.2931473     
   49678891.7593555     
   49686884.3239103     
   49694394.5140432     
   49701406.8261041     
   49707907.9541548     
   49713887.0658284     
   49719336.1281390     
   49724250.2850916     
   49728628.2873504     
   49732472.9715551     
   49735791.7826821     
   49738597.3265205     
   49740907.9300426     
   49742748.1740603     
   49744149.3435627     
   49745149.7144803     
   49745794.5586262     
   49746135.6975970     
   49746230.3662362     
   49289799.5378439     
   49291072.6710334     
   49294691.7770244     
   49300386.2696752     
   49307899.1687474     
   49316991.3680713     
   49327443.5852906     
   49339056.7724831     
   49351651.5420609     
   49365066.9984812     
   49379159.2465279     
   49393799.7599352     
   49408873.7315865     
   49424278.4820730     
   49439921.9722354     
   49455721.4438302     
   49471602.1980046     
   49487496.5118432     
   49503342.6874158     
   49519084.2244344     
   49534669.1060408     
   49550049.1868333     
   49565179.6725988     
   49580018.6820602     
   49594526.8820905     
   49608667.1891373     
   49622404.5309720     
   49635705.6642623     
   49648539.0448334     
   49660874.7488165     
   49672684.4441698     
   49683941.4132918     
   49694620.6286183     
   49704698.8841908     
   49714154.9871680     
   49722970.0140844     
   49731127.6372558     
   49738614.5269673     
   49745420.8347850     
   49751540.7622365     
   49756973.2168459     
   49761722.5535559     
   49765799.3931952     
   49769221.4998470     
   49772014.6843572     
   49774213.6799054     
   49775862.9049926     
   49777016.9858860     
   49777740.8497415     
   49778109.1150882     
   49778204.3908083     
   49203842.4280041     
   49205563.2578606     
   49210439.9191069     
   49218087.5235906     
   49228142.3907228     
   49240268.1176953     
   49254158.2318015     
   49269536.5867565     
   49286156.3314474     
   49303798.0310145     
   49322267.3390968     
   49341392.4897333     
   49361021.7842858     
   49381021.1828742     
   49401272.0638847     
   49421669.1836910     
   49442118.8477898     
   49462537.2910874     
   49482849.2568942     
   49502986.7596767     
   49522888.0146249     
   49542496.5167835     
   49561760.2532689     
   49580631.0335551     
   49599063.9246441     
   49617016.7799866     
   49634449.8531254     
   49651325.4891504     
   49667607.8891189     
   49683262.9445880     
   49698258.1413293     
   49712562.5331230     
   49726146.7882760     
   49738983.3131375     
   49751046.4583790     
   49762312.8150943     
   49772761.6087516     
   49782375.1995492     
   49791139.6975276     
   49799045.6995334     
   49806089.1522909     
   49812272.3406998     
   49817604.9920091     
   49822105.4733167     
   49825802.0399327     
   49828734.0628159     
   49830953.1208729     
   49832523.7834691     
   49833523.8234899     
   49834043.4821389     
   49834183.2381127     
   49111642.3149940     
   49113920.1498413     
   49120358.4717212     
   49130426.4498618     
   49143624.4701148     
   49159492.5475323     
   49177613.8613957     
   49197615.1071366     
   49219164.8502910     
   49241970.7076237     
   49265775.9213760     
   49290355.7053018     
   49315513.6073801     
   49341078.0399814     
   49366899.0631414     
   49392845.4623881     
   49418802.1333510     
   49444667.7667943     
   49470352.8166199     
   49495777.7274576     
   49520871.3960555     
   49545569.8406027     
   49569815.0535166     
   49593554.0155236     
   49616737.8516539     
   49639321.1127865     
   49661261.1694588     
   49682517.7076856     
   49703052.3194577     
   49722828.1833965     
   49741809.8337051     
   49759963.0180844     
   49777254.6476825     
   49793652.8443860     
   49809127.0928291     
   49823648.5063084     
   49837190.2172455     
   49849727.9037315     
   49861240.4637423     
   49871710.8473850     
   49881127.0543948     
   49889483.2981432     
   49896781.3273521     
   49903031.8807453     
   49908256.2255504     
   49912487.6946815     
   49915773.0848520     
   49918173.7020497     
   49919765.7325925     
   49920639.4673894     
   49920896.7051921     
   49016106.7075417     
   49019060.1396317     
   49027389.5034304     
   49040382.7730141     
   49057371.7645542     
   49077743.4594055     
   49100944.6768053     
   49126482.3825911     
   49153921.2762004     
   49182879.8004031     
   49213025.3504466     
   49244069.1973420     
   49275761.4556396     
   49307886.2971242     
   49340257.5228003     
   49372714.5452795     
   49405118.7941170     
   49437350.5317946     
   49469306.0534839     
   49500895.2362194     
   49532039.4003441     
   49562669.4464173     
   49592724.2330274     
   49622149.1643460     
   49650894.9602394     
   49678916.5859744     
   49706172.3227848     
   49732622.9646704     
   49758231.1307196     
   49782960.6859460     
   49806776.2671096     
   49829642.9132682     
   49851525.8038870     
   49872390.1102168     
   49892200.9683296     
   49910923.5845953     
   49928523.4863991     
   49944966.9323247     
   49960221.4965627     
   49974256.8414709     
   49987045.6893278     
   49998564.9983704     
   50008797.3377656     
   50017732.4391417     
   50025368.8757934     
   50031715.7806402     
   50036794.4552426     
   50040639.6379827     
   50043300.0798717     
   50044837.9005453     
   50045325.9305231     
   48921736.1379092     
   48925491.0447996     
   48936060.3867424     
   48952512.5683325     
   48973974.7704754     
   48999648.1316634     
   49028813.8648145     
   49060833.5815348     
   49095146.0362384     
   49131261.7958398     
   49168756.8609037     
   49207265.9209887     
   49246475.6802810     
   49286118.5159594     
   49325966.6126493     
   49365826.6368152     
   49405534.9634910     
   49444953.4358491     
   49483965.6197075     
   49522473.5058394     
   49560394.6098371     
   49597659.4201123     
   49634209.1478755     
   49669993.7375703     
   49704970.1015318     
   49739100.5481376     
   49772351.3781283     
   49804691.6289502     
   49836091.9518324     
   49866523.6108418     
   49895957.5973833     
   49924363.8575555     
   49951710.6334783     
   49977963.9232030     
   50003087.0670969     
   50027040.4716502     
   50049781.4843766     
   50071264.4357280     
   50091440.8654243     
   50110259.9508650     
   50127669.1536715     
   50143615.0959261     
   50158044.6689560     
   50170906.3626624     
   50182151.7797024     
   50191737.2621323     
   50199625.5017509     
   50205786.9195924     
   50210200.4761049     
   50212853.4178924     
   50213739.2830784     
   48834950.6820621     
   48839642.1952348     
   48852825.8695632     
   48873307.2469830     
   48899967.9306044     
   48931785.0265688     
   48967839.3641896     
   49007316.2151460     
   49049501.2930303     
   49093774.0379250     
   49139599.5403878     
   49186519.9830428     
   49234146.1507688     
   49282149.3393438     
   49330253.8433107     
   49378230.1041778     
   49425888.5351293     
   49473073.9980326     
   49519660.8853472     
   49565548.7481245     
   49610658.4076149     
   49654928.4892009     
   49698312.3214210     
   49740775.1483925     
   49782291.6101016     
   49822843.4512712     
   49862417.4255475     
   49901003.3674223     
   49938592.4095907     
   49975175.3283585     
   50010741.0043144     
   50045274.9898345     
   50078758.1791694     
   50111165.5809223     
   50142465.1967081     
   50172617.0136913     
   50201572.1225218     
   50229271.9758379     
   50255647.8058587     
   50280620.2223776     
   50304099.0142631     
   50325983.1775930     
   50346161.1905696     
   50364511.5475490     
   50380903.5496328     
   50395198.3252261     
   50407250.0193202     
   50416907.0408841     
   50424013.1708776     
   50428408.1384881     
   50429926.9494616     
   48764511.6805714     
   48770298.7754243     
   48786533.6435024     
   48811706.1375041     
   48844398.6256428     
   48883313.3087212     
   48927283.6277320     
   48975275.8276281     
   49026384.6388180     
   49079825.5190778     
   49134925.0549166     
   49191110.5980506     
   49247899.8427875     
   49304890.7797303     
   49361752.2692791     
   49418215.3488759     
   49474065.3051903     
   49529134.4926263     
   49583295.8516902     
   49636457.0669509     
   49688555.2991086     
   49739552.4255153     
   49789430.7261010     
   49838188.9556576     
   49885838.7480194     
   49932401.3023806     
   49977904.3066153     
   50022379.0569178     
   50065857.7373952     
   50108370.8274775     
   50149944.6092498     
   50190598.7511667     
   50230343.9491637     
   50269179.6110402     
   50307091.5752098     
   50344049.8605704     
   50380006.4503525     
   50414893.1193928     
   50448619.3213600     
   50481070.1600960     
   50512104.4776067     
   50541553.1006495     
   50569217.2986578     
   50594867.5177180     
   50618242.4664603     
   50639048.6345846     
   50656960.3152789     
   50671620.1808394     
   50682640.4754247     
   50689605.0624382     
   50692072.7030473     
   48722325.4198106     
   48729429.3682472     
   48749324.1484984     
   48780093.6744912     
   48819936.6474057     
   48867198.7557685     
   48920388.9408856     
   48978184.4189283     
   49039427.6650211     
   49103118.3012183     
   49168402.1488051     
   49234558.9592052     
   49300989.7613254     
   49367204.3825880     
   49432809.4662963     
   49497497.1655534     
   49561034.6058916     
   49623254.1525258     
   49684044.4810653     
   49743342.4255793     
   49801125.5609900     
   49857405.4653209     
   49912221.5996940     
   49965635.7390348     
   50017726.8834575     
   50068586.5787802     
   50118314.5742460     
   50167014.7461123     
   50214791.2172182     
   50261744.6049115     
   50307968.3328270     
   50353544.9460231     
   50398542.3740071     
   50443010.0923813     
   50486975.1414257     
   50530437.9691803     
   50573368.0777989     
   50615699.4654655     
   50657325.8722769     
   50698095.8574675     
   50737807.7573737     
   50776204.5991015     
   50812969.0754971     
   50847718.7269447     
   50880001.5336278     
   50909292.2114116     
   50934989.6317241     
   50956415.9115822     
   50972817.6928579     
   50983369.7578298     
   50987181.4213784     
   48725251.1516696     
   48734055.8977434     
   48758614.3516316     
   48796445.5240912     
   48845191.9086779     
   48902679.5862326     
   48966948.6977288     
   49036263.3298056     
   49109109.8769199     
   49184188.8211692     
   49260402.4615858     
   49336840.0953010     
   49412761.7231458     
   49487581.1153633     
   49560848.8873790     
   49632236.0700278     
   49701518.5137386     
   49768562.3453672     
   49833310.5997529     
   49895771.0730544     
   49956005.3878389     
   50014119.2171495     
   50070253.5832800     
   50124577.1242544     
   50177279.2050910     
   50228563.7402805     
   50278643.5873084     
   50327735.3675473     
   50376054.5697173     
   50423810.7918518     
   50471202.9800103     
   50518414.5257561     
   50565608.0897772     
   50612920.0263003     
   50660454.2927031     
   50708275.7418204     
   50756402.7120738     
   50804798.8543683     
   50853364.1668167     
   50901925.2513477     
   50950224.8627549     
   50997910.8926461     
   51044525.0176485     
   51089491.3391195     
   51132105.4445588     
   51171524.4341415     
   51206758.6355935     
   51236666.1628220     
   51259952.5159345     
   51275179.0864272     
   51280782.9889748     
   48798528.0270820     
   48809705.3837108     
   48840724.4985821     
   48888084.5756524     
   48948501.4887216     
   49018969.3891463     
   49096791.8321834     
   49179600.1124226     
   49265358.1995088     
   49352354.9086230     
   49439186.0758906     
   49524730.0846824     
   49608119.7060095     
   49688712.5338533     
   49766061.6381223     
   49839887.5254669     
   49910052.0960066     
   49976534.9877815     
   50039412.4843129     
   50098839.0035452     
   50155031.0739508     
   50208253.6251146     
   50258808.3677002     
   50307024.0049976     
   50353248.0000466     
   50397839.6142974     
   50441163.9323897     
   50483586.5901164     
   50525468.9269013     
   50567163.2887572     
   50609008.2119087     
   50651323.2208584     
   50694402.9780217     
   50738510.5260144     
   50783869.3696743     
   50830654.1548486     
   50878979.7174142     
   50928888.3022541     
   50980334.7925520     
   51033169.8514452     
   51087120.9708585     
   51141771.5613991     
   51196538.4236795     
   51250648.2392596     
   51303114.1203395     
   51352713.7216124     
   51397970.7804569     
   51437141.8600007     
   51468209.2349605     
   51488880.9055488     
   51496611.1812491     
   48977113.5469856     
   48991907.0265901     
   49032029.4004755     
   49092207.1529310     
   49167504.2864684     
   49253452.9740731     
   49346157.2985770     
   49442330.2850037     
   49539281.2088120     
   49634873.7444704     
   49727469.3847206     
   49815865.0534618     
   49899230.2830412     
   49977047.1908703     
   50049055.1718714     
   50115201.3562882     
   50175597.2811251     
   50230481.7989784     
   50280189.9545117     
   50325127.3673356     
   50365749.5478642     
   50402545.5201620     
   50436025.1156653     
   50466709.3194607     
   50495123.0847766     
   50521790.0724123     
   50547228.8132591     
   50571949.8291291     
   50596453.2766890     
   50621226.6995972     
   50646742.4842598     
   50673454.6151709     
   50701794.3177473     
   50732164.1619821     
   50764930.1822495     
   50800411.5514323     
   50838867.3366268     
   50880479.8654746     
   50925334.2540235     
   50973393.6968936     
   51024470.2074180     
   51078190.6318979     
   51133957.9724905     
   51190908.3935884     
   51247864.8848008     
   51303289.6718624     
   51355239.5437905     
   51401331.7267613     
   51438731.9964175     
   51464174.6667288     
   51473987.5420549     
   49274678.7242952     
   49293675.6492795     
   49344420.8727210     
   49417730.6166478     
   49505611.6439641     
   49601503.2064393     
   49700209.3235836     
   49797745.0676235     
   49891165.2191732     
   49978396.4982776     
   50058081.1349315     
   50129435.5164227     
   50192125.8728711     
   50246161.6893928     
   50291806.4993131     
   50329504.9419818     
   50359824.4760272     
   50383409.8935898     
   50400948.7272321     
   50413145.7187843     
   50420704.6761023     
   50424316.2392653     
   50424650.2836299     
   50422351.8847602     
   50418039.9483833     
   50412307.7612009     
   50405724.8430513     
   50398839.5770339     
   50392182.1623893     
   50386267.4762390     
   50381597.4460002     
   50378662.5256888     
   50377941.8378677     
   50379901.4905851     
   50384990.5081763     
   50393633.7309403     
   50406220.9488675     
   50423091.4501079     
   50444513.1017942     
   50470655.0599405     
   50501553.2493471     
   50537067.8815426     
   50576832.4860056     
   50620194.1689180     
   50666144.9646186     
   50713244.0367600     
   50759530.1307319     
   50802424.2250803     
   50838629.1630937     
   50864064.8550741     
   50873991.3784302     
   49464676.2904486     
   49486029.7182458     
   49534952.6613180     
   49598037.3900815     
   49665998.2086118     
   49732421.8282497     
   49793015.7254407     
   49845080.7418623     
   49887107.5515130     
   49918458.3719031     
   49939115.8353136     
   49949487.3549699     
   49950255.4518859     
   49942265.6140324     
   49926444.2542418     
   49903740.3715857     
   49875085.5593632     
   49841367.9769337     
   49803416.7705011     
   49761994.1722217     
   49717793.1273225     
   49671438.8045603     
   49623492.7499574     
   49574458.7621154     
   49524789.8136441     
   49474895.5299253     
   49425149.8741874     
   49375898.7853168     
   49327467.5786547     
   49280167.9550666     
   49234304.4730538     
   49190180.3242826     
   49148102.2150990     
   49108384.0947633     
   49071349.3841276     
   49037331.2452971     
   49006670.2939789     
   48979708.9960902     
   48956781.8208583     
   48938200.0702016     
   48924230.2180147     
   48915064.6576664     
   48910784.1015529     
   48911311.6711711     
   48916360.0952091     
   48925375.2400694     
   48937480.2234826     
   48951420.3230519     
   48965487.3327893     
   48977329.9694376     
   48983351.8493429     
   48113440.3598570     
   48103672.3694182     
   48079678.7269217     
   48041834.2367555     
   47991383.4075343     
   47929879.1185124     
   47858923.0918732     
   47780051.8359837     
   47694690.3978620     
   47604136.1281948     
   47509555.0106951     
   47411983.1310268     
   47312330.4708690     
   47211386.1126166     
   47109824.5829212     
   47008213.1905106     
   46907020.1758455     
   46806623.4337907     
   46707319.5437843     
   46609332.8505636     
   46512824.3729431     
   46417900.3664408     
   46324620.4178487     
   46233004.9994942     
   46143042.4542677     
   46054695.4179462     
   45967906.7128293     
   45882604.7669063     
   45798708.6267827     
   45716132.6416006     
   45634790.9003734     
   45554601.5075586     
   45475490.7822871     
   45397397.4662849     
   45320277.0250148     
   45244106.1268196     
   45168887.3871249     
   45094654.4711224     
   45021477.6631020     
   44949470.0434045     
   44878794.4877270     
   44809671.8727953     
   44742391.2663852     
   44677323.8001620     
   44614944.0660965     
   44555867.8199192     
   44500926.0515401     
   44451320.8876260     
   44408965.2532562     
   44377231.8134254     
   44362602.4421841     
   39833900.8179300     
   39780636.3460101     
   39653818.2798157     
   39490613.2443401     
   39311689.7140209     
   39128426.2166745     
   38946965.1732408     
   38770505.5179301     
   38600601.1307330     
   38437894.8877854     
   38282531.7541070     
   38134389.5859056     
   37993206.8109951     
   37858652.1585938     
   37730362.1293996     
   37607960.7320776     
   37491069.6269841     
   37379313.1827297     
   37272320.8969061     
   37169728.4841646     
   37071178.3032890     
   36976319.4554906     
   36884807.7100012     
   36796305.3267087     
   36710480.8076467     
   36627008.5966935     
   36545568.7475913     
   36465846.5882222     
   36387532.4214259     
   36310321.3191570     
   36233913.0885862     
   36158012.5182818     
   36082330.0536476     
   36006583.1088979     
   35930498.3060400     
   35853815.0511031     
   35776291.0307695     
   35697710.4621683     
   35617896.2882245     
   35536728.0266477     
   35454167.7139049     
   35370297.4134588     
   35285373.1652078     
   35199902.1060123     
   35114751.7631617     
   35031302.9278544     
   34951659.1523074     
   34878924.5657602     
   34817552.6195659     
   34773742.5670212     
   34755803.9776694     
   20000000.0000000     
   20000000.0000000     
   20000000.0000000     
   20000000.0000000     
   20000000.0000000     
   20000000.0000000     
   20000000.0000000     
   20000000.0000000     
   20000000.0000000     
   20000000.0000000     
   20000000.0000000     
   20000000.0000000     
   20000000.0000000     
   20000000.0000000     
   20000000.0000000     
   20000000.0000000     
   20000000.0000000     
   20000000.0000000     
   20000000.0000000     
   20000000.0000000     
   20000000.0000000     
   20000000.0000000     
   20000000.0000000     
   20000000.0000000     
   20000000.0000000     
   20000000.0000000     
   20000000.0000000     
   20000000.0000000     
   20000000.0000000     
   20000000.0000000     
   20000000.0000000     
   20000000.0000000     
   20000000.0000000     
   20000000.0000000     
   20000000.0000000     
   20000000.0000000     
   20000000.0000000     
   20000000.0000000     
   20000000.0000000     
   20000000.0000000     
   20000000.0000000     
   20000000.0000000     
   20000000.0000000     
   20000000.0000000     
   20000000.0000000     
   20000000.0000000     
   20000000.0000000     
   20000000.0000000     
   20000000.0000000     
   20000000.0000000     
   20000000.0000000     
VECTORS u double 
    0.00000E+00         0.23996E+01         0.00000E+00
    0.00000E+00         0.22791E+01         0.00000E+00
    0.00000E+00         0.21681E+01         0.00000E+00
    0.00000E+00         0.20685E+01         0.00000E+00
    0.00000E+00         0.19771E+01         0.00000E+00
    0.00000E+00         0.18921E+01         0.00000E+00
    0.00000E+00         0.18130E+01         0.00000E+00
    0.00000E+00         0.17391E+01         0.00000E+00
    0.00000E+00         0.16700E+01         0.00000E+00
    0.00000E+00         0.16051E+01         0.00000E+00
    0.00000E+00         0.15440E+01         0.00000E+00
    0.00000E+00         0.14862E+01         0.00000E+00
    0.00000E+00         0.14313E+01         0.00000E+00
    0.00000E+00         0.13792E+01         0.00000E+00
    0.00000E+00         0.13295E+01         0.00000E+00
    0.00000E+00         0.12820E+01         0.00000E+00
    0.00000E+00         0.12364E+01         0.00000E+00
    0.00000E+00         0.11927E+01         0.00000E+00
    0.00000E+00         0.11506E+01         0.00000E+00
    0.00000E+00         0.11100E+01         0.00000E+00
    0.00000E+00         0.10707E+01         0.00000E+00
    0.00000E+00         0.10327E+01         0.00000E+00
    0.00000E+00         0.99591E+00         0.00000E+00
    0.00000E+00         0.96014E+00         0.00000E+00
    0.00000E+00         0.92533E+00         0.00000E+00
    0.00000E+00         0.89141E+00         0.00000E+00
    0.00000E+00         0.85829E+00         0.00000E+00
    0.00000E+00         0.82590E+00         0.00000E+00
    0.00000E+00         0.79418E+00         0.00000E+00
    0.00000E+00         0.76305E+00         0.00000E+00
    0.00000E+00         0.73244E+00         0.00000E+00
    0.00000E+00         0.70228E+00         0.00000E+00
    0.00000E+00         0.67250E+00         0.00000E+00
    0.00000E+00         0.64303E+00         0.00000E+00
    0.00000E+00         0.61379E+00         0.00000E+00
    0.00000E+00         0.58468E+00         0.00000E+00
    0.00000E+00         0.55562E+00         0.00000E+00
    0.00000E+00         0.52649E+00         0.00000E+00
    0.00000E+00         0.49715E+00         0.00000E+00
    0.00000E+00         0.46748E+00         0.00000E+00
    0.00000E+00         0.43727E+00         0.00000E+00
    0.00000E+00         0.40632E+00         0.00000E+00
    0.00000E+00         0.37434E+00         0.00000E+00
    0.00000E+00         0.34100E+00         0.00000E+00
    0.00000E+00         0.30584E+00         0.00000E+00
    0.00000E+00         0.26827E+00         0.00000E+00
    0.00000E+00         0.22749E+00         0.00000E+00
    0.00000E+00         0.18237E+00         0.00000E+00
    0.00000E+00         0.13128E+00         0.00000E+00
    0.00000E+00         0.71782E-01         0.00000E+00
    0.00000E+00         0.00000E+00         0.00000E+00
    0.79867E+00         0.18701E+01         0.00000E+00
    0.68693E+00         0.18414E+01         0.00000E+00
    0.60889E+00         0.18062E+01         0.00000E+00
    0.55474E+00         0.17655E+01         0.00000E+00
    0.51760E+00         0.17209E+01         0.00000E+00
    0.49197E+00         0.16740E+01         0.00000E+00
    0.47408E+00         0.16260E+01         0.00000E+00
    0.46155E+00         0.15777E+01         0.00000E+00
    0.45278E+00         0.15296E+01         0.00000E+00
    0.44668E+00         0.14821E+01         0.00000E+00
    0.44250E+00         0.14355E+01         0.00000E+00
    0.43972E+00         0.13899E+01         0.00000E+00
    0.43795E+00         0.13454E+01         0.00000E+00
    0.43690E+00         0.13020E+01         0.00000E+00
    0.43638E+00         0.12598E+01         0.00000E+00
    0.43623E+00         0.12188E+01         0.00000E+00
    0.43633E+00         0.11788E+01         0.00000E+00
    0.43659E+00         0.11399E+01         0.00000E+00
    0.43693E+00         0.11021E+01         0.00000E+00
    0.43731E+00         0.10652E+01         0.00000E+00
    0.43768E+00         0.10292E+01         0.00000E+00
    0.43799E+00         0.99405E+00         0.00000E+00
    0.43822E+00         0.95972E+00         0.00000E+00
    0.43834E+00         0.92615E+00         0.00000E+00
    0.43832E+00         0.89327E+00         0.00000E+00
    0.43812E+00         0.86103E+00         0.00000E+00
    0.43773E+00         0.82938E+00         0.00000E+00
    0.43711E+00         0.79826E+00         0.00000E+00
    0.43623E+00         0.76762E+00         0.00000E+00
    0.43506E+00         0.73741E+00         0.00000E+00
    0.43355E+00         0.70756E+00         0.00000E+00
    0.43165E+00         0.67802E+00         0.00000E+00
    0.42931E+00         0.64871E+00         0.00000E+00
    0.42646E+00         0.61957E+00         0.00000E+00
    0.42302E+00         0.59052E+00         0.00000E+00
    0.41890E+00         0.56148E+00         0.00000E+00
    0.41396E+00         0.53236E+00         0.00000E+00
    0.40807E+00         0.50303E+00         0.00000E+00
    0.40105E+00         0.47339E+00         0.00000E+00
    0.39267E+00         0.44327E+00         0.00000E+00
    0.38264E+00         0.41252E+00         0.00000E+00
    0.37062E+00         0.38094E+00         0.00000E+00
    0.35613E+00         0.34828E+00         0.00000E+00
    0.33858E+00         0.31425E+00         0.00000E+00
    0.31715E+00         0.27851E+00         0.00000E+00
    0.29078E+00         0.24066E+00         0.00000E+00
    0.25795E+00         0.20019E+00         0.00000E+00
    0.21656E+00         0.15653E+00         0.00000E+00
    0.16346E+00         0.10903E+00         0.00000E+00
    0.93848E-01         0.57026E-01         0.00000E+00
    0.00000E+00         0.00000E+00         0.00000E+00
    0.97834E+00         0.13262E+01         0.00000E+00
    0.89452E+00         0.13172E+01         0.00000E+00
    0.82151E+00         0.13096E+01         0.00000E+00
    0.76066E+00         0.13013E+01         0.00000E+00
    0.71131E+00         0.12911E+01         0.00000E+00
    0.67209E+00         0.12784E+01         0.00000E+00
    0.64135E+00         0.12631E+01         0.00000E+00
    0.61749E+00         0.12453E+01         0.00000E+00
    0.59916E+00         0.12253E+01         0.00000E+00
    0.58520E+00         0.12034E+01         0.00000E+00
    0.57470E+00         0.11800E+01         0.00000E+00
    0.56692E+00         0.11553E+01         0.00000E+00
    0.56127E+00         0.11296E+01         0.00000E+00
    0.55728E+00         0.11032E+01         0.00000E+00
    0.55458E+00         0.10762E+01         0.00000E+00
    0.55286E+00         0.10488E+01         0.00000E+00
    0.55188E+00         0.10210E+01         0.00000E+00
    0.55144E+00         0.99312E+00         0.00000E+00
    0.55139E+00         0.96508E+00         0.00000E+00
    0.55158E+00         0.93700E+00         0.00000E+00
    0.55192E+00         0.90892E+00         0.00000E+00
    0.55230E+00         0.88087E+00         0.00000E+00
    0.55265E+00         0.85289E+00         0.00000E+00
    0.55288E+00         0.82499E+00         0.00000E+00
    0.55294E+00         0.79716E+00         0.00000E+00
    0.55276E+00         0.76942E+00         0.00000E+00
    0.55228E+00         0.74176E+00         0.00000E+00
    0.55144E+00         0.71415E+00         0.00000E+00
    0.55017E+00         0.68659E+00         0.00000E+00
    0.54839E+00         0.65904E+00         0.00000E+00
    0.54604E+00         0.63148E+00         0.00000E+00
    0.54303E+00         0.60387E+00         0.00000E+00
    0.53925E+00         0.57617E+00         0.00000E+00
    0.53460E+00         0.54833E+00         0.00000E+00
    0.52894E+00         0.52030E+00         0.00000E+00
    0.52210E+00         0.49202E+00         0.00000E+00
    0.51392E+00         0.46343E+00         0.00000E+00
    0.50416E+00         0.43445E+00         0.00000E+00
    0.49255E+00         0.40500E+00         0.00000E+00
    0.47880E+00         0.37499E+00         0.00000E+00
    0.46250E+00         0.34434E+00         0.00000E+00
    0.44320E+00         0.31295E+00         0.00000E+00
    0.42034E+00         0.28074E+00         0.00000E+00
    0.39325E+00         0.24762E+00         0.00000E+00
    0.36110E+00         0.21354E+00         0.00000E+00
    0.32291E+00         0.17851E+00         0.00000E+00
    0.27754E+00         0.14260E+00         0.00000E+00
    0.22368E+00         0.10605E+00         0.00000E+00
    0.15998E+00         0.69374E-01         0.00000E+00
    0.85375E-01         0.33484E-01         0.00000E+00
    0.00000E+00         0.00000E+00         0.00000E+00
    0.94810E+00         0.96632E+00         0.00000E+00
    0.89258E+00         0.96077E+00         0.00000E+00
    0.84073E+00         0.95596E+00         0.00000E+00
    0.79302E+00         0.95171E+00         0.00000E+00
    0.75001E+00         0.94760E+00         0.00000E+00
    0.71197E+00         0.94319E+00         0.00000E+00
    0.67892E+00         0.93807E+00         0.00000E+00
    0.65060E+00         0.93193E+00         0.00000E+00
    0.62664E+00         0.92457E+00         0.00000E+00
    0.60658E+00         0.91590E+00         0.00000E+00
    0.58994E+00         0.90587E+00         0.00000E+00
    0.57625E+00         0.89452E+00         0.00000E+00
    0.56508E+00         0.88190E+00         0.00000E+00
    0.55604E+00         0.86808E+00         0.00000E+00
    0.54878E+00         0.85315E+00         0.00000E+00
    0.54299E+00         0.83721E+00         0.00000E+00
    0.53839E+00         0.82033E+00         0.00000E+00
    0.53477E+00         0.80261E+00         0.00000E+00
    0.53190E+00         0.78414E+00         0.00000E+00
    0.52961E+00         0.76497E+00         0.00000E+00
    0.52775E+00         0.74518E+00         0.00000E+00
    0.52617E+00         0.72482E+00         0.00000E+00
    0.52474E+00         0.70395E+00         0.00000E+00
    0.52335E+00         0.68260E+00         0.00000E+00
    0.52190E+00         0.66082E+00         0.00000E+00
    0.52029E+00         0.63863E+00         0.00000E+00
    0.51841E+00         0.61605E+00         0.00000E+00
    0.51618E+00         0.59310E+00         0.00000E+00
    0.51351E+00         0.56978E+00         0.00000E+00
    0.51028E+00         0.54612E+00         0.00000E+00
    0.50641E+00         0.52210E+00         0.00000E+00
    0.50177E+00         0.49773E+00         0.00000E+00
    0.49626E+00         0.47299E+00         0.00000E+00
    0.48973E+00         0.44789E+00         0.00000E+00
    0.48204E+00         0.42241E+00         0.00000E+00
    0.47304E+00         0.39655E+00         0.00000E+00
    0.46252E+00         0.37030E+00         0.00000E+00
    0.45030E+00         0.34366E+00         0.00000E+00
    0.43613E+00         0.31662E+00         0.00000E+00
    0.41974E+00         0.28922E+00         0.00000E+00
    0.40086E+00         0.26146E+00         0.00000E+00
    0.37915E+00         0.23341E+00         0.00000E+00
    0.35426E+00         0.20515E+00         0.00000E+00
    0.32582E+00         0.17680E+00         0.00000E+00
    0.29342E+00         0.14853E+00         0.00000E+00
    0.25669E+00         0.12058E+00         0.00000E+00
    0.21530E+00         0.93286E-01         0.00000E+00
    0.16899E+00         0.67058E-01         0.00000E+00
    0.11768E+00         0.42412E-01         0.00000E+00
    0.61385E-01         0.19904E-01         0.00000E+00
    0.00000E+00         0.00000E+00         0.00000E+00
    0.87268E+00         0.73432E+00         0.00000E+00
    0.83481E+00         0.72676E+00         0.00000E+00
    0.79767E+00         0.72001E+00         0.00000E+00
    0.76195E+00         0.71396E+00         0.00000E+00
    0.72805E+00         0.70847E+00         0.00000E+00
    0.69631E+00         0.70339E+00         0.00000E+00
    0.66694E+00         0.69851E+00         0.00000E+00
    0.64007E+00         0.69365E+00         0.00000E+00
    0.61576E+00         0.68859E+00         0.00000E+00
    0.59395E+00         0.68316E+00         0.00000E+00
    0.57454E+00         0.67722E+00         0.00000E+00
    0.55738E+00         0.67066E+00         0.00000E+00
    0.54230E+00         0.66338E+00         0.00000E+00
    0.52910E+00         0.65532E+00         0.00000E+00
    0.51758E+00         0.64646E+00         0.00000E+00
    0.50753E+00         0.63677E+00         0.00000E+00
    0.49877E+00         0.62624E+00         0.00000E+00
    0.49111E+00         0.61490E+00         0.00000E+00
    0.48437E+00         0.60274E+00         0.00000E+00
    0.47840E+00         0.58980E+00         0.00000E+00
    0.47302E+00         0.57610E+00         0.00000E+00
    0.46812E+00         0.56167E+00         0.00000E+00
    0.46354E+00         0.54653E+00         0.00000E+00
    0.45916E+00         0.53072E+00         0.00000E+00
    0.45487E+00         0.51427E+00         0.00000E+00
    0.45055E+00         0.49720E+00         0.00000E+00
    0.44608E+00         0.47953E+00         0.00000E+00
    0.44137E+00         0.46131E+00         0.00000E+00
    0.43630E+00         0.44254E+00         0.00000E+00
    0.43077E+00         0.42325E+00         0.00000E+00
    0.42467E+00         0.40347E+00         0.00000E+00
    0.41789E+00         0.38322E+00         0.00000E+00
    0.41032E+00         0.36254E+00         0.00000E+00
    0.40184E+00         0.34144E+00         0.00000E+00
    0.39232E+00         0.31996E+00         0.00000E+00
    0.38163E+00         0.29815E+00         0.00000E+00
    0.36965E+00         0.27604E+00         0.00000E+00
    0.35623E+00         0.25370E+00         0.00000E+00
    0.34123E+00         0.23118E+00         0.00000E+00
    0.32449E+00         0.20859E+00         0.00000E+00
    0.30588E+00         0.18601E+00         0.00000E+00
    0.28525E+00         0.16356E+00         0.00000E+00
    0.26248E+00         0.14140E+00         0.00000E+00
    0.23747E+00         0.11970E+00         0.00000E+00
    0.21013E+00         0.98646E-01         0.00000E+00
    0.18045E+00         0.78478E-01         0.00000E+00
    0.14844E+00         0.59442E-01         0.00000E+00
    0.11419E+00         0.41803E-01         0.00000E+00
    0.77859E-01         0.25828E-01         0.00000E+00
    0.39657E-01         0.11790E-01         0.00000E+00
    0.00000E+00         0.00000E+00         0.00000E+00
    0.79434E+00         0.57168E+00         0.00000E+00
    0.76651E+00         0.56272E+00         0.00000E+00
    0.73882E+00         0.55425E+00         0.00000E+00
    0.71151E+00         0.54634E+00         0.00000E+00
    0.68485E+00         0.53898E+00         0.00000E+00
    0.65907E+00         0.53213E+00         0.00000E+00
    0.63436E+00         0.52571E+00         0.00000E+00
    0.61087E+00         0.51962E+00         0.00000E+00
    0.58870E+00         0.51376E+00         0.00000E+00
    0.56793E+00         0.50802E+00         0.00000E+00
    0.54857E+00         0.50226E+00         0.00000E+00
    0.53063E+00         0.49640E+00         0.00000E+00
    0.51406E+00         0.49031E+00         0.00000E+00
    0.49882E+00         0.48393E+00         0.00000E+00
    0.48482E+00         0.47716E+00         0.00000E+00
    0.47197E+00         0.46994E+00         0.00000E+00
    0.46018E+00         0.46223E+00         0.00000E+00
    0.44933E+00         0.45397E+00         0.00000E+00
    0.43931E+00         0.44516E+00         0.00000E+00
    0.43000E+00         0.43575E+00         0.00000E+00
    0.42131E+00         0.42574E+00         0.00000E+00
    0.41311E+00         0.41513E+00         0.00000E+00
    0.40529E+00         0.40392E+00         0.00000E+00
    0.39776E+00         0.39210E+00         0.00000E+00
    0.39040E+00         0.37970E+00         0.00000E+00
    0.38311E+00         0.36673E+00         0.00000E+00
    0.37580E+00         0.35321E+00         0.00000E+00
    0.36837E+00         0.33915E+00         0.00000E+00
    0.36072E+00         0.32459E+00         0.00000E+00
    0.35277E+00         0.30955E+00         0.00000E+00
    0.34441E+00         0.29406E+00         0.00000E+00
    0.33556E+00         0.27817E+00         0.00000E+00
    0.32614E+00         0.26192E+00         0.00000E+00
    0.31605E+00         0.24534E+00         0.00000E+00
    0.30521E+00         0.22850E+00         0.00000E+00
    0.29355E+00         0.21146E+00         0.00000E+00
    0.28098E+00         0.19428E+00         0.00000E+00
    0.26744E+00         0.17705E+00         0.00000E+00
    0.25286E+00         0.15985E+00         0.00000E+00
    0.23720E+00         0.14277E+00         0.00000E+00
    0.22041E+00         0.12593E+00         0.00000E+00
    0.20247E+00         0.10944E+00         0.00000E+00
    0.18339E+00         0.93439E-01         0.00000E+00
    0.16319E+00         0.78061E-01         0.00000E+00
    0.14193E+00         0.63451E-01         0.00000E+00
    0.11970E+00         0.49760E-01         0.00000E+00
    0.96623E-01         0.37135E-01         0.00000E+00
    0.72871E-01         0.25721E-01         0.00000E+00
    0.48664E-01         0.15654E-01         0.00000E+00
    0.24274E-01         0.70537E-02         0.00000E+00
    0.00000E+00         0.00000E+00         0.00000E+00
    0.71996E+00         0.45028E+00         0.00000E+00
    0.69867E+00         0.44059E+00         0.00000E+00
    0.67722E+00         0.43126E+00         0.00000E+00
    0.65579E+00         0.42234E+00         0.00000E+00
    0.63451E+00         0.41387E+00         0.00000E+00
    0.61352E+00         0.40585E+00         0.00000E+00
    0.59294E+00         0.39826E+00         0.00000E+00
    0.57289E+00         0.39105E+00         0.00000E+00
    0.55345E+00         0.38418E+00         0.00000E+00
    0.53471E+00         0.37759E+00         0.00000E+00
    0.51671E+00         0.37119E+00         0.00000E+00
    0.49950E+00         0.36493E+00         0.00000E+00
    0.48308E+00         0.35872E+00         0.00000E+00
    0.46747E+00         0.35250E+00         0.00000E+00
    0.45264E+00         0.34619E+00         0.00000E+00
    0.43857E+00         0.33974E+00         0.00000E+00
    0.42523E+00         0.33308E+00         0.00000E+00
    0.41255E+00         0.32617E+00         0.00000E+00
    0.40049E+00         0.31896E+00         0.00000E+00
    0.38898E+00         0.31143E+00         0.00000E+00
    0.37796E+00         0.30353E+00         0.00000E+00
    0.36736E+00         0.29526E+00         0.00000E+00
    0.35710E+00         0.28659E+00         0.00000E+00
    0.34711E+00         0.27753E+00         0.00000E+00
    0.33732E+00         0.26806E+00         0.00000E+00
    0.32765E+00         0.25819E+00         0.00000E+00
    0.31804E+00         0.24792E+00         0.00000E+00
    0.30842E+00         0.23729E+00         0.00000E+00
    0.29871E+00         0.22630E+00         0.00000E+00
    0.28884E+00         0.21497E+00         0.00000E+00
    0.27877E+00         0.20335E+00         0.00000E+00
    0.26841E+00         0.19147E+00         0.00000E+00
    0.25773E+00         0.17936E+00         0.00000E+00
    0.24667E+00         0.16707E+00         0.00000E+00
    0.23518E+00         0.15466E+00         0.00000E+00
    0.22322E+00         0.14219E+00         0.00000E+00
    0.21077E+00         0.12972E+00         0.00000E+00
    0.19781E+00         0.11732E+00         0.00000E+00
    0.18431E+00         0.10506E+00         0.00000E+00
    0.17030E+00         0.93025E-01         0.00000E+00
    0.15577E+00         0.81304E-01         0.00000E+00
    0.14077E+00         0.69982E-01         0.00000E+00
    0.12535E+00         0.59152E-01         0.00000E+00
    0.10958E+00         0.48903E-01         0.00000E+00
    0.93544E-01         0.39326E-01         0.00000E+00
    0.77364E-01         0.30505E-01         0.00000E+00
    0.61176E-01         0.22517E-01         0.00000E+00
    0.45146E-01         0.15431E-01         0.00000E+00
    0.29462E-01         0.92978E-02         0.00000E+00
    0.14334E-01         0.41496E-02         0.00000E+00
    0.00000E+00         0.00000E+00         0.00000E+00
    0.65013E+00         0.35697E+00         0.00000E+00
    0.63358E+00         0.34711E+00         0.00000E+00
    0.61673E+00         0.33753E+00         0.00000E+00
    0.59968E+00         0.32828E+00         0.00000E+00
    0.58250E+00         0.31939E+00         0.00000E+00
    0.56530E+00         0.31087E+00         0.00000E+00
    0.54815E+00         0.30273E+00         0.00000E+00
    0.53114E+00         0.29495E+00         0.00000E+00
    0.51434E+00         0.28752E+00         0.00000E+00
    0.49781E+00         0.28039E+00         0.00000E+00
    0.48160E+00         0.27353E+00         0.00000E+00
    0.46575E+00         0.26690E+00         0.00000E+00
    0.45031E+00         0.26046E+00         0.00000E+00
    0.43528E+00         0.25414E+00         0.00000E+00
    0.42068E+00         0.24791E+00         0.00000E+00
    0.40651E+00         0.24172E+00         0.00000E+00
    0.39278E+00         0.23552E+00         0.00000E+00
    0.37945E+00         0.22928E+00         0.00000E+00
    0.36652E+00         0.22295E+00         0.00000E+00
    0.35396E+00         0.21651E+00         0.00000E+00
    0.34173E+00         0.20992E+00         0.00000E+00
    0.32981E+00         0.20317E+00         0.00000E+00
    0.31814E+00         0.19623E+00         0.00000E+00
    0.30670E+00         0.18909E+00         0.00000E+00
    0.29544E+00         0.18175E+00         0.00000E+00
    0.28431E+00         0.17420E+00         0.00000E+00
    0.27328E+00         0.16645E+00         0.00000E+00
    0.26231E+00         0.15850E+00         0.00000E+00
    0.25134E+00         0.15037E+00         0.00000E+00
    0.24036E+00         0.14208E+00         0.00000E+00
    0.22931E+00         0.13364E+00         0.00000E+00
    0.21817E+00         0.12510E+00         0.00000E+00
    0.20691E+00         0.11647E+00         0.00000E+00
    0.19551E+00         0.10779E+00         0.00000E+00
    0.18395E+00         0.99112E-01         0.00000E+00
    0.17223E+00         0.90473E-01         0.00000E+00
    0.16034E+00         0.81921E-01         0.00000E+00
    0.14828E+00         0.73508E-01         0.00000E+00
    0.13608E+00         0.65288E-01         0.00000E+00
    0.12375E+00         0.57315E-01         0.00000E+00
    0.11134E+00         0.49647E-01         0.00000E+00
    0.98901E-01         0.42338E-01         0.00000E+00
    0.86486E-01         0.35443E-01         0.00000E+00
    0.74173E-01         0.29015E-01         0.00000E+00
    0.62050E-01         0.23100E-01         0.00000E+00
    0.50222E-01         0.17740E-01         0.00000E+00
    0.38803E-01         0.12967E-01         0.00000E+00
    0.27924E-01         0.88041E-02         0.00000E+00
    0.17726E-01         0.52609E-02         0.00000E+00
    0.83633E-02         0.23335E-02         0.00000E+00
    0.00000E+00         0.00000E+00         0.00000E+00
    0.58503E+00         0.28487E+00         0.00000E+00
    0.57219E+00         0.27524E+00         0.00000E+00
    0.55892E+00         0.26583E+00         0.00000E+00
    0.54530E+00         0.25668E+00         0.00000E+00
    0.53139E+00         0.24783E+00         0.00000E+00
    0.51726E+00         0.23930E+00         0.00000E+00
    0.50297E+00         0.23109E+00         0.00000E+00
    0.48859E+00         0.22321E+00         0.00000E+00
    0.47417E+00         0.21565E+00         0.00000E+00
    0.45976E+00         0.20839E+00         0.00000E+00
    0.44541E+00         0.20142E+00         0.00000E+00
    0.43115E+00         0.19471E+00         0.00000E+00
    0.41703E+00         0.18824E+00         0.00000E+00
    0.40307E+00         0.18197E+00         0.00000E+00
    0.38929E+00         0.17588E+00         0.00000E+00
    0.37571E+00         0.16993E+00         0.00000E+00
    0.36235E+00         0.16410E+00         0.00000E+00
    0.34919E+00         0.15834E+00         0.00000E+00
    0.33626E+00         0.15265E+00         0.00000E+00
    0.32353E+00         0.14699E+00         0.00000E+00
    0.31101E+00         0.14135E+00         0.00000E+00
    0.29868E+00         0.13569E+00         0.00000E+00
    0.28653E+00         0.13001E+00         0.00000E+00
    0.27455E+00         0.12430E+00         0.00000E+00
    0.26271E+00         0.11855E+00         0.00000E+00
    0.25100E+00         0.11275E+00         0.00000E+00
    0.23940E+00         0.10690E+00         0.00000E+00
    0.22789E+00         0.10101E+00         0.00000E+00
    0.21646E+00         0.95084E-01         0.00000E+00
    0.20508E+00         0.89131E-01         0.00000E+00
    0.19376E+00         0.83168E-01         0.00000E+00
    0.18247E+00         0.77211E-01         0.00000E+00
    0.17121E+00         0.71281E-01         0.00000E+00
    0.15997E+00         0.65401E-01         0.00000E+00
    0.14877E+00         0.59599E-01         0.00000E+00
    0.13760E+00         0.53902E-01         0.00000E+00
    0.12648E+00         0.48340E-01         0.00000E+00
    0.11543E+00         0.42945E-01         0.00000E+00
    0.10447E+00         0.37749E-01         0.00000E+00
    0.93643E-01         0.32784E-01         0.00000E+00
    0.82980E-01         0.28081E-01         0.00000E+00
    0.72532E-01         0.23670E-01         0.00000E+00
    0.62356E-01         0.19580E-01         0.00000E+00
    0.52516E-01         0.15832E-01         0.00000E+00
    0.43084E-01         0.12448E-01         0.00000E+00
    0.34140E-01         0.94404E-02         0.00000E+00
    0.25770E-01         0.68168E-02         0.00000E+00
    0.18070E-01         0.45763E-02         0.00000E+00
    0.11138E-01         0.27089E-02         0.00000E+00
    0.50784E-02         0.11939E-02         0.00000E+00
    0.00000E+00         0.00000E+00         0.00000E+00
    0.52505E+00         0.22956E+00         0.00000E+00
    0.51516E+00         0.22041E+00         0.00000E+00
    0.50476E+00         0.21143E+00         0.00000E+00
    0.49392E+00         0.20267E+00         0.00000E+00
    0.48268E+00         0.19417E+00         0.00000E+00
    0.47110E+00         0.18593E+00         0.00000E+00
    0.45923E+00         0.17798E+00         0.00000E+00
    0.44712E+00         0.17032E+00         0.00000E+00
    0.43482E+00         0.16295E+00         0.00000E+00
    0.42237E+00         0.15587E+00         0.00000E+00
    0.40981E+00         0.14907E+00         0.00000E+00
    0.39718E+00         0.14254E+00         0.00000E+00
    0.38451E+00         0.13627E+00         0.00000E+00
    0.37184E+00         0.13023E+00         0.00000E+00
    0.35919E+00         0.12442E+00         0.00000E+00
    0.34658E+00         0.11880E+00         0.00000E+00
    0.33404E+00         0.11336E+00         0.00000E+00
    0.32157E+00         0.10809E+00         0.00000E+00
    0.30918E+00         0.10296E+00         0.00000E+00
    0.29690E+00         0.97964E-01         0.00000E+00
    0.28472E+00         0.93078E-01         0.00000E+00
    0.27266E+00         0.88290E-01         0.00000E+00
    0.26070E+00         0.83590E-01         0.00000E+00
    0.24885E+00         0.78968E-01         0.00000E+00
    0.23711E+00         0.74417E-01         0.00000E+00
    0.22549E+00         0.69932E-01         0.00000E+00
    0.21397E+00         0.65510E-01         0.00000E+00
    0.20256E+00         0.61152E-01         0.00000E+00
    0.19125E+00         0.56861E-01         0.00000E+00
    0.18005E+00         0.52641E-01         0.00000E+00
    0.16896E+00         0.48498E-01         0.00000E+00
    0.15798E+00         0.44443E-01         0.00000E+00
    0.14711E+00         0.40485E-01         0.00000E+00
    0.13637E+00         0.36638E-01         0.00000E+00
    0.12577E+00         0.32915E-01         0.00000E+00
    0.11533E+00         0.29331E-01         0.00000E+00
    0.10505E+00         0.25900E-01         0.00000E+00
    0.94971E-01         0.22640E-01         0.00000E+00
    0.85113E-01         0.19565E-01         0.00000E+00
    0.75509E-01         0.16689E-01         0.00000E+00
    0.66196E-01         0.14027E-01         0.00000E+00
    0.57213E-01         0.11589E-01         0.00000E+00
    0.48606E-01         0.93862E-02         0.00000E+00
    0.40425E-01         0.74232E-02         0.00000E+00
    0.32723E-01         0.57031E-02         0.00000E+00
    0.25558E-01         0.42240E-02         0.00000E+00
    0.18991E-01         0.29791E-02         0.00000E+00
    0.13085E-01         0.19563E-02         0.00000E+00
    0.79067E-02         0.11368E-02         0.00000E+00
    0.35225E-02         0.49558E-03         0.00000E+00
    0.00000E+00         0.00000E+00         0.00000E+00
    0.47054E+00         0.18766E+00         0.00000E+00
    0.46301E+00         0.17914E+00         0.00000E+00
    0.45493E+00         0.17076E+00         0.00000E+00
    0.44635E+00         0.16257E+00         0.00000E+00
    0.43731E+00         0.15459E+00         0.00000E+00
    0.42786E+00         0.14684E+00         0.00000E+00
    0.41804E+00         0.13934E+00         0.00000E+00
    0.40789E+00         0.13210E+00         0.00000E+00
    0.39746E+00         0.12513E+00         0.00000E+00
    0.38679E+00         0.11842E+00         0.00000E+00
    0.37591E+00         0.11198E+00         0.00000E+00
    0.36485E+00         0.10581E+00         0.00000E+00
    0.35366E+00         0.99883E-01         0.00000E+00
    0.34235E+00         0.94207E-01         0.00000E+00
    0.33096E+00         0.88769E-01         0.00000E+00
    0.31952E+00         0.83558E-01         0.00000E+00
    0.30804E+00         0.78563E-01         0.00000E+00
    0.29654E+00         0.73771E-01         0.00000E+00
    0.28504E+00         0.69172E-01         0.00000E+00
    0.27357E+00         0.64754E-01         0.00000E+00
    0.26213E+00         0.60508E-01         0.00000E+00
    0.25074E+00         0.56424E-01         0.00000E+00
    0.23941E+00         0.52494E-01         0.00000E+00
    0.22814E+00         0.48709E-01         0.00000E+00
    0.21695E+00         0.45064E-01         0.00000E+00
    0.20585E+00         0.41555E-01         0.00000E+00
    0.19485E+00         0.38177E-01         0.00000E+00
    0.18395E+00         0.34928E-01         0.00000E+00
    0.17316E+00         0.31808E-01         0.00000E+00
    0.16249E+00         0.28817E-01         0.00000E+00
    0.15196E+00         0.25957E-01         0.00000E+00
    0.14157E+00         0.23230E-01         0.00000E+00
    0.13133E+00         0.20639E-01         0.00000E+00
    0.12127E+00         0.18190E-01         0.00000E+00
    0.11139E+00         0.15885E-01         0.00000E+00
    0.10172E+00         0.13731E-01         0.00000E+00
    0.92268E-01         0.11732E-01         0.00000E+00
    0.83066E-01         0.98931E-02         0.00000E+00
    0.74134E-01         0.82176E-02         0.00000E+00
    0.65501E-01         0.67087E-02         0.00000E+00
    0.57195E-01         0.53683E-02         0.00000E+00
    0.49249E-01         0.41964E-02         0.00000E+00
    0.41696E-01         0.31913E-02         0.00000E+00
    0.34572E-01         0.23486E-02         0.00000E+00
    0.27915E-01         0.16614E-02         0.00000E+00
    0.21763E-01         0.11200E-02         0.00000E+00
    0.16157E-01         0.71098E-03         0.00000E+00
    0.11137E-01         0.41739E-03         0.00000E+00
    0.67446E-02         0.21842E-03         0.00000E+00
    0.30192E-02         0.89054E-04         0.00000E+00
    0.00000E+00         0.00000E+00         0.00000E+00
    0.42167E+00         0.15633E+00         0.00000E+00
    0.41600E+00         0.14853E+00         0.00000E+00
    0.40977E+00         0.14085E+00         0.00000E+00
    0.40302E+00         0.13332E+00         0.00000E+00
    0.39578E+00         0.12597E+00         0.00000E+00
    0.38810E+00         0.11882E+00         0.00000E+00
    0.38002E+00         0.11188E+00         0.00000E+00
    0.37157E+00         0.10517E+00         0.00000E+00
    0.36278E+00         0.98704E-01         0.00000E+00
    0.35370E+00         0.92477E-01         0.00000E+00
    0.34435E+00         0.86496E-01         0.00000E+00
    0.33477E+00         0.80762E-01         0.00000E+00
    0.32499E+00         0.75273E-01         0.00000E+00
    0.31503E+00         0.70026E-01         0.00000E+00
    0.30494E+00         0.65018E-01         0.00000E+00
    0.29472E+00         0.60242E-01         0.00000E+00
    0.28440E+00         0.55692E-01         0.00000E+00
    0.27401E+00         0.51363E-01         0.00000E+00
    0.26357E+00         0.47246E-01         0.00000E+00
    0.25310E+00         0.43336E-01         0.00000E+00
    0.24261E+00         0.39625E-01         0.00000E+00
    0.23212E+00         0.36107E-01         0.00000E+00
    0.22165E+00         0.32775E-01         0.00000E+00
    0.21122E+00         0.29624E-01         0.00000E+00
    0.20083E+00         0.26649E-01         0.00000E+00
    0.19051E+00         0.23845E-01         0.00000E+00
    0.18027E+00         0.21208E-01         0.00000E+00
    0.17011E+00         0.18733E-01         0.00000E+00
    0.16006E+00         0.16419E-01         0.00000E+00
    0.15012E+00         0.14263E-01         0.00000E+00
    0.14032E+00         0.12262E-01         0.00000E+00
    0.13066E+00         0.10415E-01         0.00000E+00
    0.12117E+00         0.87210E-02         0.00000E+00
    0.11185E+00         0.71779E-02         0.00000E+00
    0.10272E+00         0.57846E-02         0.00000E+00
    0.93807E-01         0.45397E-02         0.00000E+00
    0.85121E-01         0.34414E-02         0.00000E+00
    0.76685E-01         0.24872E-02         0.00000E+00
    0.68518E-01         0.16741E-02         0.00000E+00
    0.60643E-01         0.99810E-03         0.00000E+00
    0.53081E-01         0.45413E-03         0.00000E+00
    0.45856E-01         0.35788E-04         0.00000E+00
    0.38991E-01        -0.26481E-03         0.00000E+00
    0.32513E-01        -0.45724E-03         0.00000E+00
    0.26444E-01        -0.55291E-03         0.00000E+00
    0.20810E-01        -0.56523E-03         0.00000E+00
    0.15636E-01        -0.50974E-03         0.00000E+00
    0.10945E-01        -0.40423E-03         0.00000E+00
    0.67617E-02        -0.26875E-03         0.00000E+00
    0.31066E-02        -0.12574E-03         0.00000E+00
    0.00000E+00         0.00000E+00         0.00000E+00
    0.37838E+00         0.13319E+00         0.00000E+00
    0.37415E+00         0.12614E+00         0.00000E+00
    0.36937E+00         0.11919E+00         0.00000E+00
    0.36408E+00         0.11236E+00         0.00000E+00
    0.35830E+00         0.10568E+00         0.00000E+00
    0.35208E+00         0.99171E-01         0.00000E+00
    0.34545E+00         0.92844E-01         0.00000E+00
    0.33844E+00         0.86715E-01         0.00000E+00
    0.33107E+00         0.80796E-01         0.00000E+00
    0.32339E+00         0.75093E-01         0.00000E+00
    0.31541E+00         0.69612E-01         0.00000E+00
    0.30718E+00         0.64357E-01         0.00000E+00
    0.29871E+00         0.59330E-01         0.00000E+00
    0.29004E+00         0.54530E-01         0.00000E+00
    0.28118E+00         0.49958E-01         0.00000E+00
    0.27217E+00         0.45610E-01         0.00000E+00
    0.26303E+00         0.41484E-01         0.00000E+00
    0.25378E+00         0.37578E-01         0.00000E+00
    0.24444E+00         0.33886E-01         0.00000E+00
    0.23504E+00         0.30405E-01         0.00000E+00
    0.22558E+00         0.27131E-01         0.00000E+00
    0.21610E+00         0.24058E-01         0.00000E+00
    0.20660E+00         0.21183E-01         0.00000E+00
    0.19711E+00         0.18500E-01         0.00000E+00
    0.18764E+00         0.16006E-01         0.00000E+00
    0.17821E+00         0.13695E-01         0.00000E+00
    0.16883E+00         0.11563E-01         0.00000E+00
    0.15952E+00         0.96058E-02         0.00000E+00
    0.15030E+00         0.78193E-02         0.00000E+00
    0.14118E+00         0.61993E-02         0.00000E+00
    0.13217E+00         0.47416E-02         0.00000E+00
    0.12329E+00         0.34419E-02         0.00000E+00
    0.11456E+00         0.22961E-02         0.00000E+00
    0.10598E+00         0.12994E-02         0.00000E+00
    0.97585E-01         0.44727E-03         0.00000E+00
    0.89379E-01        -0.26553E-03         0.00000E+00
    0.81379E-01        -0.84461E-03         0.00000E+00
    0.73603E-01        -0.12961E-02         0.00000E+00
    0.66066E-01        -0.16270E-02         0.00000E+00
    0.58785E-01        -0.18447E-02         0.00000E+00
    0.51775E-01        -0.19580E-02         0.00000E+00
    0.45054E-01        -0.19762E-02         0.00000E+00
    0.38637E-01        -0.19099E-02         0.00000E+00
    0.32540E-01        -0.17708E-02         0.00000E+00
    0.26779E-01        -0.15719E-02         0.00000E+00
    0.21367E-01        -0.13273E-02         0.00000E+00
    0.16320E-01        -0.10523E-02         0.00000E+00
    0.11649E-01        -0.76357E-03         0.00000E+00
    0.73662E-02        -0.47907E-03         0.00000E+00
    0.34805E-02        -0.21782E-03         0.00000E+00
    0.00000E+00         0.00000E+00         0.00000E+00
    0.34040E+00         0.11623E+00         0.00000E+00
    0.33724E+00         0.10992E+00         0.00000E+00
    0.33358E+00         0.10369E+00         0.00000E+00
    0.32943E+00         0.97559E-01         0.00000E+00
    0.32482E+00         0.91548E-01         0.00000E+00
    0.31979E+00         0.85677E-01         0.00000E+00
    0.31436E+00         0.79963E-01         0.00000E+00
    0.30855E+00         0.74418E-01         0.00000E+00
    0.30239E+00         0.69054E-01         0.00000E+00
    0.29592E+00         0.63879E-01         0.00000E+00
    0.28915E+00         0.58900E-01         0.00000E+00
    0.28211E+00         0.54122E-01         0.00000E+00
    0.27483E+00         0.49549E-01         0.00000E+00
    0.26733E+00         0.45184E-01         0.00000E+00
    0.25963E+00         0.41027E-01         0.00000E+00
    0.25176E+00         0.37078E-01         0.00000E+00
    0.24373E+00         0.33338E-01         0.00000E+00
    0.23558E+00         0.29805E-01         0.00000E+00
    0.22732E+00         0.26477E-01         0.00000E+00
    0.21896E+00         0.23351E-01         0.00000E+00
    0.21054E+00         0.20425E-01         0.00000E+00
    0.20206E+00         0.17696E-01         0.00000E+00
    0.19354E+00         0.15160E-01         0.00000E+00
    0.18501E+00         0.12814E-01         0.00000E+00
    0.17648E+00         0.10653E-01         0.00000E+00
    0.16796E+00         0.86735E-02         0.00000E+00
    0.15947E+00         0.68711E-02         0.00000E+00
    0.15103E+00         0.52411E-02         0.00000E+00
    0.14265E+00         0.37789E-02         0.00000E+00
    0.13434E+00         0.24796E-02         0.00000E+00
    0.12612E+00         0.13380E-02         0.00000E+00
    0.11801E+00         0.34870E-03         0.00000E+00
    0.11002E+00        -0.49398E-03         0.00000E+00
    0.10215E+00        -0.11961E-02         0.00000E+00
    0.94432E-01        -0.17640E-02         0.00000E+00
    0.86870E-01        -0.22046E-02         0.00000E+00
    0.79479E-01        -0.25252E-02         0.00000E+00
    0.72270E-01        -0.27336E-02         0.00000E+00
    0.65257E-01        -0.28383E-02         0.00000E+00
    0.58451E-01        -0.28483E-02         0.00000E+00
    0.51864E-01        -0.27734E-02         0.00000E+00
    0.45507E-01        -0.26240E-02         0.00000E+00
    0.39389E-01        -0.24113E-02         0.00000E+00
    0.33521E-01        -0.21470E-02         0.00000E+00
    0.27910E-01        -0.18439E-02         0.00000E+00
    0.22565E-01        -0.15153E-02         0.00000E+00
    0.17492E-01        -0.11752E-02         0.00000E+00
    0.12696E-01        -0.83822E-03         0.00000E+00
    0.81810E-02        -0.51952E-03         0.00000E+00
    0.39489E-02        -0.23477E-03         0.00000E+00
    0.00000E+00         0.00000E+00         0.00000E+00
    0.30729E+00         0.10380E+00         0.00000E+00
    0.30492E+00         0.98196E-01         0.00000E+00
    0.30209E+00         0.92647E-01         0.00000E+00
    0.29882E+00         0.87176E-01         0.00000E+00
    0.29514E+00         0.81804E-01         0.00000E+00
    0.29105E+00         0.76546E-01         0.00000E+00
    0.28659E+00         0.71419E-01         0.00000E+00
    0.28178E+00         0.66434E-01         0.00000E+00
    0.27663E+00         0.61603E-01         0.00000E+00
    0.27118E+00         0.56933E-01         0.00000E+00
    0.26545E+00         0.52433E-01         0.00000E+00
    0.25945E+00         0.48108E-01         0.00000E+00
    0.25321E+00         0.43963E-01         0.00000E+00
    0.24676E+00         0.40002E-01         0.00000E+00
    0.24010E+00         0.36226E-01         0.00000E+00
    0.23326E+00         0.32639E-01         0.00000E+00
    0.22626E+00         0.29240E-01         0.00000E+00
    0.21912E+00         0.26029E-01         0.00000E+00
    0.21186E+00         0.23006E-01         0.00000E+00
    0.20449E+00         0.20170E-01         0.00000E+00
    0.19704E+00         0.17520E-01         0.00000E+00
    0.18952E+00         0.15052E-01         0.00000E+00
    0.18194E+00         0.12764E-01         0.00000E+00
    0.17433E+00         0.10654E-01         0.00000E+00
    0.16669E+00         0.87184E-02         0.00000E+00
    0.15905E+00         0.69529E-02         0.00000E+00
    0.15142E+00         0.53538E-02         0.00000E+00
    0.14380E+00         0.39167E-02         0.00000E+00
    0.13622E+00         0.26370E-02         0.00000E+00
    0.12870E+00         0.15096E-02         0.00000E+00
    0.12123E+00         0.52929E-03         0.00000E+00
    0.11383E+00        -0.30969E-03         0.00000E+00
    0.10653E+00        -0.10134E-02         0.00000E+00
    0.99315E-01        -0.15882E-02         0.00000E+00
    0.92213E-01        -0.20411E-02         0.00000E+00
    0.85230E-01        -0.23791E-02         0.00000E+00
    0.78376E-01        -0.26101E-02         0.00000E+00
    0.71661E-01        -0.27421E-02         0.00000E+00
    0.65094E-01        -0.27838E-02         0.00000E+00
    0.58682E-01        -0.27442E-02         0.00000E+00
    0.52435E-01        -0.26331E-02         0.00000E+00
    0.46358E-01        -0.24603E-02         0.00000E+00
    0.40458E-01        -0.22365E-02         0.00000E+00
    0.34739E-01        -0.19726E-02         0.00000E+00
    0.29207E-01        -0.16801E-02         0.00000E+00
    0.23864E-01        -0.13706E-02         0.00000E+00
    0.18711E-01        -0.10564E-02         0.00000E+00
    0.13750E-01        -0.74971E-03         0.00000E+00
    0.89798E-02        -0.46304E-03         0.00000E+00
    0.43977E-02        -0.20896E-03         0.00000E+00
    0.00000E+00         0.00000E+00         0.00000E+00
    0.27852E+00         0.94597E-01         0.00000E+00
    0.27672E+00         0.89632E-01         0.00000E+00
    0.27451E+00         0.84711E-01         0.00000E+00
    0.27190E+00         0.79850E-01         0.00000E+00
    0.26892E+00         0.75068E-01         0.00000E+00
    0.26558E+00         0.70379E-01         0.00000E+00
    0.26190E+00         0.65796E-01         0.00000E+00
    0.25789E+00         0.61330E-01         0.00000E+00
    0.25358E+00         0.56993E-01         0.00000E+00
    0.24899E+00         0.52792E-01         0.00000E+00
    0.24413E+00         0.48734E-01         0.00000E+00
    0.23902E+00         0.44826E-01         0.00000E+00
    0.23368E+00         0.41073E-01         0.00000E+00
    0.22813E+00         0.37479E-01         0.00000E+00
    0.22238E+00         0.34047E-01         0.00000E+00
    0.21646E+00         0.30779E-01         0.00000E+00
    0.21037E+00         0.27678E-01         0.00000E+00
    0.20414E+00         0.24744E-01         0.00000E+00
    0.19778E+00         0.21976E-01         0.00000E+00
    0.19131E+00         0.19376E-01         0.00000E+00
    0.18474E+00         0.16943E-01         0.00000E+00
    0.17810E+00         0.14674E-01         0.00000E+00
    0.17138E+00         0.12568E-01         0.00000E+00
    0.16461E+00         0.10622E-01         0.00000E+00
    0.15780E+00         0.88349E-02         0.00000E+00
    0.15097E+00         0.72025E-02         0.00000E+00
    0.14412E+00         0.57214E-02         0.00000E+00
    0.13727E+00         0.43879E-02         0.00000E+00
    0.13044E+00         0.31975E-02         0.00000E+00
    0.12362E+00         0.21458E-02         0.00000E+00
    0.11684E+00         0.12276E-02         0.00000E+00
    0.11011E+00         0.43752E-03         0.00000E+00
    0.10342E+00        -0.23009E-03         0.00000E+00
    0.96805E-01        -0.78141E-03         0.00000E+00
    0.90260E-01        -0.12229E-02         0.00000E+00
    0.83795E-01        -0.15615E-02         0.00000E+00
    0.77420E-01        -0.18044E-02         0.00000E+00
    0.71140E-01        -0.19592E-02         0.00000E+00
    0.64962E-01        -0.20339E-02         0.00000E+00
    0.58893E-01        -0.20369E-02         0.00000E+00
    0.52936E-01        -0.19768E-02         0.00000E+00
    0.47096E-01        -0.18627E-02         0.00000E+00
    0.41377E-01        -0.17038E-02         0.00000E+00
    0.35779E-01        -0.15096E-02         0.00000E+00
    0.30306E-01        -0.12901E-02         0.00000E+00
    0.24957E-01        -0.10552E-02         0.00000E+00
    0.19731E-01        -0.81479E-03         0.00000E+00
    0.14626E-01        -0.57911E-03         0.00000E+00
    0.96393E-02        -0.35817E-03         0.00000E+00
    0.47658E-02        -0.16190E-03         0.00000E+00
    0.00000E+00         0.00000E+00         0.00000E+00
    0.25356E+00         0.87603E-01         0.00000E+00
    0.25215E+00         0.83213E-01         0.00000E+00
    0.25037E+00         0.78855E-01         0.00000E+00
    0.24826E+00         0.74543E-01         0.00000E+00
    0.24581E+00         0.70293E-01         0.00000E+00
    0.24305E+00         0.66117E-01         0.00000E+00
    0.23998E+00         0.62027E-01         0.00000E+00
    0.23662E+00         0.58033E-01         0.00000E+00
    0.23299E+00         0.54143E-01         0.00000E+00
    0.22910E+00         0.50366E-01         0.00000E+00
    0.22497E+00         0.46709E-01         0.00000E+00
    0.22060E+00         0.43178E-01         0.00000E+00
    0.21602E+00         0.39777E-01         0.00000E+00
    0.21124E+00         0.36512E-01         0.00000E+00
    0.20628E+00         0.33385E-01         0.00000E+00
    0.20114E+00         0.30399E-01         0.00000E+00
    0.19585E+00         0.27557E-01         0.00000E+00
    0.19041E+00         0.24860E-01         0.00000E+00
    0.18485E+00         0.22308E-01         0.00000E+00
    0.17917E+00         0.19902E-01         0.00000E+00
    0.17338E+00         0.17642E-01         0.00000E+00
    0.16751E+00         0.15528E-01         0.00000E+00
    0.16156E+00         0.13556E-01         0.00000E+00
    0.15555E+00         0.11728E-01         0.00000E+00
    0.14948E+00         0.10039E-01         0.00000E+00
    0.14338E+00         0.84879E-02         0.00000E+00
    0.13724E+00         0.70716E-02         0.00000E+00
    0.13108E+00         0.57867E-02         0.00000E+00
    0.12491E+00         0.46296E-02         0.00000E+00
    0.11874E+00         0.35962E-02         0.00000E+00
    0.11258E+00         0.26822E-02         0.00000E+00
    0.10643E+00         0.18829E-02         0.00000E+00
    0.10031E+00         0.11931E-02         0.00000E+00
    0.94228E-01         0.60748E-03         0.00000E+00
    0.88183E-01         0.12025E-03         0.00000E+00
    0.82184E-01        -0.27463E-03         0.00000E+00
    0.76238E-01        -0.58352E-03         0.00000E+00
    0.70349E-01        -0.81307E-03         0.00000E+00
    0.64523E-01        -0.97024E-03         0.00000E+00
    0.58762E-01        -0.10622E-02         0.00000E+00
    0.53070E-01        -0.10964E-02         0.00000E+00
    0.47449E-01        -0.10805E-02         0.00000E+00
    0.41901E-01        -0.10223E-02         0.00000E+00
    0.36426E-01        -0.92975E-03         0.00000E+00
    0.31024E-01        -0.81100E-03         0.00000E+00
    0.25694E-01        -0.67416E-03         0.00000E+00
    0.20432E-01        -0.52736E-03         0.00000E+00
    0.15237E-01        -0.37868E-03         0.00000E+00
    0.10104E-01        -0.23609E-03         0.00000E+00
    0.50267E-02        -0.10736E-03         0.00000E+00
    0.00000E+00         0.00000E+00         0.00000E+00
    0.23185E+00         0.82066E-01         0.00000E+00
    0.23070E+00         0.78182E-01         0.00000E+00
    0.22923E+00         0.74320E-01         0.00000E+00
    0.22748E+00         0.70494E-01         0.00000E+00
    0.22543E+00         0.66716E-01         0.00000E+00
    0.22310E+00         0.62996E-01         0.00000E+00
    0.22051E+00         0.59344E-01         0.00000E+00
    0.21767E+00         0.55769E-01         0.00000E+00
    0.21458E+00         0.52279E-01         0.00000E+00
    0.21126E+00         0.48881E-01         0.00000E+00
    0.20772E+00         0.45581E-01         0.00000E+00
    0.20397E+00         0.42386E-01         0.00000E+00
    0.20002E+00         0.39299E-01         0.00000E+00
    0.19589E+00         0.36326E-01         0.00000E+00
    0.19158E+00         0.33469E-01         0.00000E+00
    0.18712E+00         0.30732E-01         0.00000E+00
    0.18250E+00         0.28116E-01         0.00000E+00
    0.17775E+00         0.25624E-01         0.00000E+00
    0.17287E+00         0.23256E-01         0.00000E+00
    0.16787E+00         0.21014E-01         0.00000E+00
    0.16277E+00         0.18898E-01         0.00000E+00
    0.15758E+00         0.16907E-01         0.00000E+00
    0.15230E+00         0.15041E-01         0.00000E+00
    0.14695E+00         0.13299E-01         0.00000E+00
    0.14154E+00         0.11679E-01         0.00000E+00
    0.13607E+00         0.10180E-01         0.00000E+00
    0.13056E+00         0.87984E-02         0.00000E+00
    0.12501E+00         0.75325E-02         0.00000E+00
    0.11943E+00         0.63793E-02         0.00000E+00
    0.11383E+00         0.53353E-02         0.00000E+00
    0.10822E+00         0.43970E-02         0.00000E+00
    0.10261E+00         0.35604E-02         0.00000E+00
    0.96990E-01         0.28213E-02         0.00000E+00
    0.91383E-01         0.21753E-02         0.00000E+00
    0.85787E-01         0.16174E-02         0.00000E+00
    0.80209E-01         0.11427E-02         0.00000E+00
    0.74653E-01         0.74581E-03         0.00000E+00
    0.69122E-01         0.42128E-03         0.00000E+00
    0.63619E-01         0.16334E-03         0.00000E+00
    0.58148E-01        -0.33924E-04         0.00000E+00
    0.52710E-01        -0.17661E-03         0.00000E+00
    0.47305E-01        -0.27094E-03         0.00000E+00
    0.41935E-01        -0.32326E-03         0.00000E+00
    0.36599E-01        -0.34001E-03         0.00000E+00
    0.31296E-01        -0.32764E-03         0.00000E+00
    0.26023E-01        -0.29264E-03         0.00000E+00
    0.20779E-01        -0.24145E-03         0.00000E+00
    0.15560E-01        -0.18045E-03         0.00000E+00
    0.10360E-01        -0.11586E-03         0.00000E+00
    0.51756E-02        -0.53762E-04         0.00000E+00
    0.00000E+00         0.00000E+00         0.00000E+00
    0.21290E+00         0.77444E-01         0.00000E+00
    0.21191E+00         0.73999E-01         0.00000E+00
    0.21066E+00         0.70569E-01         0.00000E+00
    0.20916E+00         0.67167E-01         0.00000E+00
    0.20740E+00         0.63801E-01         0.00000E+00
    0.20541E+00         0.60480E-01         0.00000E+00
    0.20319E+00         0.57213E-01         0.00000E+00
    0.20075E+00         0.54008E-01         0.00000E+00
    0.19809E+00         0.50870E-01         0.00000E+00
    0.19522E+00         0.47807E-01         0.00000E+00
    0.19216E+00         0.44824E-01         0.00000E+00
    0.18891E+00         0.41927E-01         0.00000E+00
    0.18548E+00         0.39118E-01         0.00000E+00
    0.18189E+00         0.36404E-01         0.00000E+00
    0.17813E+00         0.33786E-01         0.00000E+00
    0.17423E+00         0.31268E-01         0.00000E+00
    0.17019E+00         0.28852E-01         0.00000E+00
    0.16601E+00         0.26541E-01         0.00000E+00
    0.16171E+00         0.24334E-01         0.00000E+00
    0.15730E+00         0.22234E-01         0.00000E+00
    0.15279E+00         0.20242E-01         0.00000E+00
    0.14817E+00         0.18356E-01         0.00000E+00
    0.14348E+00         0.16578E-01         0.00000E+00
    0.13870E+00         0.14906E-01         0.00000E+00
    0.13385E+00         0.13339E-01         0.00000E+00
    0.12894E+00         0.11877E-01         0.00000E+00
    0.12398E+00         0.10518E-01         0.00000E+00
    0.11896E+00         0.92586E-02         0.00000E+00
    0.11390E+00         0.80981E-02         0.00000E+00
    0.10881E+00         0.70336E-02         0.00000E+00
    0.10369E+00         0.60620E-02         0.00000E+00
    0.98541E-01         0.51805E-02         0.00000E+00
    0.93376E-01         0.43856E-02         0.00000E+00
    0.88196E-01         0.36738E-02         0.00000E+00
    0.83007E-01         0.30412E-02         0.00000E+00
    0.77811E-01         0.24839E-02         0.00000E+00
    0.72613E-01         0.19977E-02         0.00000E+00
    0.67414E-01         0.15780E-02         0.00000E+00
    0.62217E-01         0.12206E-02         0.00000E+00
    0.57024E-01         0.92050E-03         0.00000E+00
    0.51836E-01         0.67309E-03         0.00000E+00
    0.46653E-01         0.47342E-03         0.00000E+00
    0.41474E-01         0.31652E-03         0.00000E+00
    0.36300E-01         0.19737E-03         0.00000E+00
    0.31129E-01         0.11091E-03         0.00000E+00
    0.25959E-01         0.52116E-04         0.00000E+00
    0.20786E-01         0.15954E-04         0.00000E+00
    0.15608E-01        -0.25285E-05         0.00000E+00
    0.10421E-01        -0.82038E-05         0.00000E+00
    0.52202E-02        -0.58254E-05         0.00000E+00
    0.00000E+00         0.00000E+00         0.00000E+00
    0.19626E+00         0.73363E-01         0.00000E+00
    0.19537E+00         0.70295E-01         0.00000E+00
    0.19426E+00         0.67239E-01         0.00000E+00
    0.19294E+00         0.64202E-01         0.00000E+00
    0.19140E+00         0.61194E-01         0.00000E+00
    0.18966E+00         0.58221E-01         0.00000E+00
    0.18772E+00         0.55289E-01         0.00000E+00
    0.18558E+00         0.52407E-01         0.00000E+00
    0.18326E+00         0.49578E-01         0.00000E+00
    0.18076E+00         0.46810E-01         0.00000E+00
    0.17809E+00         0.44106E-01         0.00000E+00
    0.17524E+00         0.41471E-01         0.00000E+00
    0.17224E+00         0.38909E-01         0.00000E+00
    0.16909E+00         0.36424E-01         0.00000E+00
    0.16579E+00         0.34019E-01         0.00000E+00
    0.16235E+00         0.31697E-01         0.00000E+00
    0.15878E+00         0.29459E-01         0.00000E+00
    0.15509E+00         0.27309E-01         0.00000E+00
    0.15128E+00         0.25247E-01         0.00000E+00
    0.14736E+00         0.23274E-01         0.00000E+00
    0.14334E+00         0.21392E-01         0.00000E+00
    0.13923E+00         0.19601E-01         0.00000E+00
    0.13503E+00         0.17901E-01         0.00000E+00
    0.13074E+00         0.16292E-01         0.00000E+00
    0.12638E+00         0.14774E-01         0.00000E+00
    0.12195E+00         0.13345E-01         0.00000E+00
    0.11746E+00         0.12005E-01         0.00000E+00
    0.11291E+00         0.10752E-01         0.00000E+00
    0.10831E+00         0.95852E-02         0.00000E+00
    0.10366E+00         0.85021E-02         0.00000E+00
    0.98968E-01         0.75008E-02         0.00000E+00
    0.94238E-01         0.65792E-02         0.00000E+00
    0.89474E-01         0.57346E-02         0.00000E+00
    0.84680E-01         0.49643E-02         0.00000E+00
    0.79858E-01         0.42656E-02         0.00000E+00
    0.75013E-01         0.36354E-02         0.00000E+00
    0.70146E-01         0.30704E-02         0.00000E+00
    0.65259E-01         0.25674E-02         0.00000E+00
    0.60354E-01         0.21229E-02         0.00000E+00
    0.55432E-01         0.17333E-02         0.00000E+00
    0.50494E-01         0.13950E-02         0.00000E+00
    0.45539E-01         0.11044E-02         0.00000E+00
    0.40568E-01         0.85755E-03         0.00000E+00
    0.35580E-01         0.65070E-03         0.00000E+00
    0.30573E-01         0.48000E-03         0.00000E+00
    0.25546E-01         0.34159E-03         0.00000E+00
    0.20495E-01         0.23163E-03         0.00000E+00
    0.15419E-01         0.14627E-03         0.00000E+00
    0.10314E-01         0.81712E-04         0.00000E+00
    0.51754E-02         0.34189E-04         0.00000E+00
    0.00000E+00         0.00000E+00         0.00000E+00
    0.18154E+00         0.69578E-01         0.00000E+00
    0.18071E+00         0.66833E-01         0.00000E+00
    0.17970E+00         0.64097E-01         0.00000E+00
    0.17850E+00         0.61376E-01         0.00000E+00
    0.17712E+00         0.58676E-01         0.00000E+00
    0.17556E+00         0.56003E-01         0.00000E+00
    0.17384E+00         0.53363E-01         0.00000E+00
    0.17195E+00         0.50762E-01         0.00000E+00
    0.16989E+00         0.48203E-01         0.00000E+00
    0.16768E+00         0.45693E-01         0.00000E+00
    0.16531E+00         0.43234E-01         0.00000E+00
    0.16280E+00         0.40832E-01         0.00000E+00
    0.16014E+00         0.38489E-01         0.00000E+00
    0.15734E+00         0.36209E-01         0.00000E+00
    0.15442E+00         0.33994E-01         0.00000E+00
    0.15136E+00         0.31847E-01         0.00000E+00
    0.14819E+00         0.29771E-01         0.00000E+00
    0.14490E+00         0.27767E-01         0.00000E+00
    0.14150E+00         0.25837E-01         0.00000E+00
    0.13800E+00         0.23982E-01         0.00000E+00
    0.13440E+00         0.22203E-01         0.00000E+00
    0.13070E+00         0.20501E-01         0.00000E+00
    0.12692E+00         0.18876E-01         0.00000E+00
    0.12306E+00         0.17329E-01         0.00000E+00
    0.11912E+00         0.15859E-01         0.00000E+00
    0.11510E+00         0.14466E-01         0.00000E+00
    0.11102E+00         0.13149E-01         0.00000E+00
    0.10688E+00         0.11908E-01         0.00000E+00
    0.10267E+00         0.10742E-01         0.00000E+00
    0.98412E-01         0.96496E-02         0.00000E+00
    0.94101E-01         0.86290E-02         0.00000E+00
    0.89741E-01         0.76788E-02         0.00000E+00
    0.85337E-01         0.67975E-02         0.00000E+00
    0.80890E-01         0.59830E-02         0.00000E+00
    0.76405E-01         0.52333E-02         0.00000E+00
    0.71882E-01         0.45462E-02         0.00000E+00
    0.67323E-01         0.39194E-02         0.00000E+00
    0.62731E-01         0.33506E-02         0.00000E+00
    0.58107E-01         0.28371E-02         0.00000E+00
    0.53451E-01         0.23766E-02         0.00000E+00
    0.48763E-01         0.19661E-02         0.00000E+00
    0.44045E-01         0.16032E-02         0.00000E+00
    0.39295E-01         0.12848E-02         0.00000E+00
    0.34513E-01         0.10084E-02         0.00000E+00
    0.29697E-01         0.77092E-03         0.00000E+00
    0.24847E-01         0.56952E-03         0.00000E+00
    0.19961E-01         0.40127E-03         0.00000E+00
    0.15036E-01         0.26320E-03         0.00000E+00
    0.10069E-01         0.15233E-03         0.00000E+00
    0.50583E-02         0.65609E-04         0.00000E+00
    0.00000E+00         0.00000E+00         0.00000E+00
    0.16843E+00         0.65939E-01         0.00000E+00
    0.16763E+00         0.63471E-01         0.00000E+00
    0.16667E+00         0.61009E-01         0.00000E+00
    0.16556E+00         0.58559E-01         0.00000E+00
    0.16430E+00         0.56125E-01         0.00000E+00
    0.16289E+00         0.53712E-01         0.00000E+00
    0.16133E+00         0.51325E-01         0.00000E+00
    0.15963E+00         0.48968E-01         0.00000E+00
    0.15778E+00         0.46646E-01         0.00000E+00
    0.15580E+00         0.44362E-01         0.00000E+00
    0.15368E+00         0.42120E-01         0.00000E+00
    0.15142E+00         0.39924E-01         0.00000E+00
    0.14905E+00         0.37775E-01         0.00000E+00
    0.14654E+00         0.35678E-01         0.00000E+00
    0.14392E+00         0.33635E-01         0.00000E+00
    0.14119E+00         0.31648E-01         0.00000E+00
    0.13834E+00         0.29719E-01         0.00000E+00
    0.13538E+00         0.27850E-01         0.00000E+00
    0.13233E+00         0.26043E-01         0.00000E+00
    0.12917E+00         0.24299E-01         0.00000E+00
    0.12593E+00         0.22618E-01         0.00000E+00
    0.12259E+00         0.21003E-01         0.00000E+00
    0.11916E+00         0.19453E-01         0.00000E+00
    0.11566E+00         0.17969E-01         0.00000E+00
    0.11208E+00         0.16551E-01         0.00000E+00
    0.10842E+00         0.15200E-01         0.00000E+00
    0.10469E+00         0.13914E-01         0.00000E+00
    0.10090E+00         0.12694E-01         0.00000E+00
    0.97042E-01         0.11540E-01         0.00000E+00
    0.93125E-01         0.10449E-01         0.00000E+00
    0.89150E-01         0.94230E-02         0.00000E+00
    0.85121E-01         0.84591E-02         0.00000E+00
    0.81040E-01         0.75569E-02         0.00000E+00
    0.76909E-01         0.67149E-02         0.00000E+00
    0.72730E-01         0.59320E-02         0.00000E+00
    0.68505E-01         0.52066E-02         0.00000E+00
    0.64236E-01         0.45371E-02         0.00000E+00
    0.59924E-01         0.39220E-02         0.00000E+00
    0.55569E-01         0.33595E-02         0.00000E+00
    0.51174E-01         0.28478E-02         0.00000E+00
    0.46737E-01         0.23852E-02         0.00000E+00
    0.42259E-01         0.19695E-02         0.00000E+00
    0.37740E-01         0.15990E-02         0.00000E+00
    0.33180E-01         0.12715E-02         0.00000E+00
    0.28577E-01         0.98495E-03         0.00000E+00
    0.23932E-01         0.73723E-03         0.00000E+00
    0.19241E-01         0.52610E-03         0.00000E+00
    0.14505E-01         0.34925E-03         0.00000E+00
    0.97208E-02         0.20429E-03         0.00000E+00
    0.48865E-02         0.88742E-04         0.00000E+00
    0.00000E+00         0.00000E+00         0.00000E+00
    0.15664E+00         0.62365E-01         0.00000E+00
    0.15586E+00         0.60134E-01         0.00000E+00
    0.15495E+00         0.57908E-01         0.00000E+00
    0.15391E+00         0.55691E-01         0.00000E+00
    0.15274E+00         0.53486E-01         0.00000E+00
    0.15144E+00         0.51299E-01         0.00000E+00
    0.15001E+00         0.49132E-01         0.00000E+00
    0.14845E+00         0.46989E-01         0.00000E+00
    0.14677E+00         0.44874E-01         0.00000E+00
    0.14497E+00         0.42789E-01         0.00000E+00
    0.14304E+00         0.40739E-01         0.00000E+00
    0.14101E+00         0.38726E-01         0.00000E+00
    0.13886E+00         0.36752E-01         0.00000E+00
    0.13659E+00         0.34820E-01         0.00000E+00
    0.13422E+00         0.32933E-01         0.00000E+00
    0.13175E+00         0.31092E-01         0.00000E+00
    0.12917E+00         0.29299E-01         0.00000E+00
    0.12650E+00         0.27556E-01         0.00000E+00
    0.12373E+00         0.25865E-01         0.00000E+00
    0.12086E+00         0.24227E-01         0.00000E+00
    0.11791E+00         0.22642E-01         0.00000E+00
    0.11488E+00         0.21113E-01         0.00000E+00
    0.11176E+00         0.19639E-01         0.00000E+00
    0.10856E+00         0.18222E-01         0.00000E+00
    0.10528E+00         0.16861E-01         0.00000E+00
    0.10194E+00         0.15558E-01         0.00000E+00
    0.98517E-01         0.14312E-01         0.00000E+00
    0.95030E-01         0.13123E-01         0.00000E+00
    0.91478E-01         0.11991E-01         0.00000E+00
    0.87863E-01         0.10916E-01         0.00000E+00
    0.84188E-01         0.98976E-02         0.00000E+00
    0.80455E-01         0.89351E-02         0.00000E+00
    0.76665E-01         0.80280E-02         0.00000E+00
    0.72821E-01         0.71757E-02         0.00000E+00
    0.68924E-01         0.63772E-02         0.00000E+00
    0.64976E-01         0.56317E-02         0.00000E+00
    0.60979E-01         0.49383E-02         0.00000E+00
    0.56932E-01         0.42960E-02         0.00000E+00
    0.52837E-01         0.37036E-02         0.00000E+00
    0.48695E-01         0.31600E-02         0.00000E+00
    0.44507E-01         0.26640E-02         0.00000E+00
    0.40271E-01         0.22143E-02         0.00000E+00
    0.35990E-01         0.18095E-02         0.00000E+00
    0.31661E-01         0.14483E-02         0.00000E+00
    0.27286E-01         0.11292E-02         0.00000E+00
    0.22863E-01         0.85045E-03         0.00000E+00
    0.18391E-01         0.61050E-03         0.00000E+00
    0.13870E-01         0.40750E-03         0.00000E+00
    0.92991E-02         0.23952E-03         0.00000E+00
    0.46761E-02         0.10444E-03         0.00000E+00
    0.00000E+00         0.00000E+00         0.00000E+00
    0.14598E+00         0.58821E-01         0.00000E+00
    0.14522E+00         0.56794E-01         0.00000E+00
    0.14434E+00         0.54772E-01         0.00000E+00
    0.14335E+00         0.52756E-01         0.00000E+00
    0.14225E+00         0.50751E-01         0.00000E+00
    0.14103E+00         0.48760E-01         0.00000E+00
    0.13970E+00         0.46785E-01         0.00000E+00
    0.13826E+00         0.44830E-01         0.00000E+00
    0.13672E+00         0.42897E-01         0.00000E+00
    0.13506E+00         0.40990E-01         0.00000E+00
    0.13330E+00         0.39110E-01         0.00000E+00
    0.13144E+00         0.37261E-01         0.00000E+00
    0.12948E+00         0.35444E-01         0.00000E+00
    0.12741E+00         0.33662E-01         0.00000E+00
    0.12525E+00         0.31917E-01         0.00000E+00
    0.12299E+00         0.30211E-01         0.00000E+00
    0.12064E+00         0.28545E-01         0.00000E+00
    0.11820E+00         0.26921E-01         0.00000E+00
    0.11567E+00         0.25340E-01         0.00000E+00
    0.11305E+00         0.23804E-01         0.00000E+00
    0.11035E+00         0.22314E-01         0.00000E+00
    0.10757E+00         0.20870E-01         0.00000E+00
    0.10471E+00         0.19474E-01         0.00000E+00
    0.10178E+00         0.18127E-01         0.00000E+00
    0.98770E-01         0.16829E-01         0.00000E+00
    0.95689E-01         0.15580E-01         0.00000E+00
    0.92539E-01         0.14381E-01         0.00000E+00
    0.89321E-01         0.13233E-01         0.00000E+00
    0.86038E-01         0.12134E-01         0.00000E+00
    0.82692E-01         0.11087E-01         0.00000E+00
    0.79284E-01         0.10089E-01         0.00000E+00
    0.75817E-01         0.91419E-02         0.00000E+00
    0.72292E-01         0.82448E-02         0.00000E+00
    0.68710E-01         0.73974E-02         0.00000E+00
    0.65073E-01         0.65994E-02         0.00000E+00
    0.61383E-01         0.58505E-02         0.00000E+00
    0.57639E-01         0.51500E-02         0.00000E+00
    0.53845E-01         0.44975E-02         0.00000E+00
    0.49999E-01         0.38924E-02         0.00000E+00
    0.46103E-01         0.33339E-02         0.00000E+00
    0.42158E-01         0.28213E-02         0.00000E+00
    0.38164E-01         0.23540E-02         0.00000E+00
    0.34120E-01         0.19308E-02         0.00000E+00
    0.30028E-01         0.15510E-02         0.00000E+00
    0.25888E-01         0.12135E-02         0.00000E+00
    0.21698E-01         0.91704E-03         0.00000E+00
    0.17459E-01         0.66039E-03         0.00000E+00
    0.13170E-01         0.44208E-03         0.00000E+00
    0.88310E-02         0.26050E-03         0.00000E+00
    0.44413E-02         0.11382E-03         0.00000E+00
    0.00000E+00         0.00000E+00         0.00000E+00
    0.13628E+00         0.55299E-01         0.00000E+00
    0.13553E+00         0.53450E-01         0.00000E+00
    0.13468E+00         0.51605E-01         0.00000E+00
    0.13373E+00         0.49766E-01         0.00000E+00
    0.13268E+00         0.47935E-01         0.00000E+00
    0.13154E+00         0.46116E-01         0.00000E+00
    0.13029E+00         0.44310E-01         0.00000E+00
    0.12895E+00         0.42521E-01         0.00000E+00
    0.12752E+00         0.40750E-01         0.00000E+00
    0.12598E+00         0.39000E-01         0.00000E+00
    0.12436E+00         0.37274E-01         0.00000E+00
    0.12264E+00         0.35573E-01         0.00000E+00
    0.12083E+00         0.33899E-01         0.00000E+00
    0.11893E+00         0.32254E-01         0.00000E+00
    0.11694E+00         0.30640E-01         0.00000E+00
    0.11487E+00         0.29058E-01         0.00000E+00
    0.11270E+00         0.27511E-01         0.00000E+00
    0.11046E+00         0.25999E-01         0.00000E+00
    0.10813E+00         0.24524E-01         0.00000E+00
    0.10573E+00         0.23087E-01         0.00000E+00
    0.10324E+00         0.21689E-01         0.00000E+00
    0.10068E+00         0.20332E-01         0.00000E+00
    0.98047E-01         0.19015E-01         0.00000E+00
    0.95339E-01         0.17741E-01         0.00000E+00
    0.92561E-01         0.16509E-01         0.00000E+00
    0.89713E-01         0.15321E-01         0.00000E+00
    0.86799E-01         0.14176E-01         0.00000E+00
    0.83818E-01         0.13076E-01         0.00000E+00
    0.80774E-01         0.12020E-01         0.00000E+00
    0.77668E-01         0.11009E-01         0.00000E+00
    0.74500E-01         0.10044E-01         0.00000E+00
    0.71274E-01         0.91239E-02         0.00000E+00
    0.67989E-01         0.82492E-02         0.00000E+00
    0.64648E-01         0.74200E-02         0.00000E+00
    0.61251E-01         0.66362E-02         0.00000E+00
    0.57800E-01         0.58977E-02         0.00000E+00
    0.54296E-01         0.52044E-02         0.00000E+00
    0.50739E-01         0.45562E-02         0.00000E+00
    0.47131E-01         0.39527E-02         0.00000E+00
    0.43473E-01         0.33936E-02         0.00000E+00
    0.39764E-01         0.28786E-02         0.00000E+00
    0.36006E-01         0.24072E-02         0.00000E+00
    0.32198E-01         0.19788E-02         0.00000E+00
    0.28342E-01         0.15930E-02         0.00000E+00
    0.24438E-01         0.12488E-02         0.00000E+00
    0.20485E-01         0.94556E-03         0.00000E+00
    0.16485E-01         0.68215E-03         0.00000E+00
    0.12436E-01         0.45739E-03         0.00000E+00
    0.83388E-02         0.26991E-03         0.00000E+00
    0.41936E-02         0.11807E-03         0.00000E+00
    0.00000E+00         0.00000E+00         0.00000E+00
    0.12739E+00         0.51811E-01         0.00000E+00
    0.12666E+00         0.50119E-01         0.00000E+00
    0.12583E+00         0.48429E-01         0.00000E+00
    0.12492E+00         0.46745E-01         0.00000E+00
    0.12393E+00         0.45068E-01         0.00000E+00
    0.12284E+00         0.43401E-01         0.00000E+00
    0.12167E+00         0.41746E-01         0.00000E+00
    0.12041E+00         0.40104E-01         0.00000E+00
    0.11907E+00         0.38479E-01         0.00000E+00
    0.11764E+00         0.36871E-01         0.00000E+00
    0.11613E+00         0.35282E-01         0.00000E+00
    0.11453E+00         0.33715E-01         0.00000E+00
    0.11285E+00         0.32172E-01         0.00000E+00
    0.11109E+00         0.30653E-01         0.00000E+00
    0.10925E+00         0.29160E-01         0.00000E+00
    0.10733E+00         0.27695E-01         0.00000E+00
    0.10533E+00         0.26259E-01         0.00000E+00
    0.10325E+00         0.24853E-01         0.00000E+00
    0.10110E+00         0.23480E-01         0.00000E+00
    0.98874E-01         0.22139E-01         0.00000E+00
    0.96575E-01         0.20832E-01         0.00000E+00
    0.94205E-01         0.19560E-01         0.00000E+00
    0.91764E-01         0.18324E-01         0.00000E+00
    0.89255E-01         0.17124E-01         0.00000E+00
    0.86679E-01         0.15962E-01         0.00000E+00
    0.84037E-01         0.14838E-01         0.00000E+00
    0.81330E-01         0.13753E-01         0.00000E+00
    0.78561E-01         0.12707E-01         0.00000E+00
    0.75730E-01         0.11701E-01         0.00000E+00
    0.72838E-01         0.10736E-01         0.00000E+00
    0.69888E-01         0.98111E-02         0.00000E+00
    0.66879E-01         0.89275E-02         0.00000E+00
    0.63815E-01         0.80853E-02         0.00000E+00
    0.60694E-01         0.72847E-02         0.00000E+00
    0.57519E-01         0.65259E-02         0.00000E+00
    0.54291E-01         0.58091E-02         0.00000E+00
    0.51011E-01         0.51345E-02         0.00000E+00
    0.47679E-01         0.45019E-02         0.00000E+00
    0.44297E-01         0.39116E-02         0.00000E+00
    0.40865E-01         0.33633E-02         0.00000E+00
    0.37384E-01         0.28569E-02         0.00000E+00
    0.33854E-01         0.23924E-02         0.00000E+00
    0.30277E-01         0.19693E-02         0.00000E+00
    0.26653E-01         0.15873E-02         0.00000E+00
    0.22982E-01         0.12458E-02         0.00000E+00
    0.19265E-01         0.94433E-03         0.00000E+00
    0.15502E-01         0.68195E-03         0.00000E+00
    0.11693E-01         0.45768E-03         0.00000E+00
    0.78403E-02         0.27030E-03         0.00000E+00
    0.39423E-02         0.11833E-03         0.00000E+00
    0.00000E+00         0.00000E+00         0.00000E+00
    0.11923E+00         0.48375E-01         0.00000E+00
    0.11851E+00         0.46822E-01         0.00000E+00
    0.11772E+00         0.45271E-01         0.00000E+00
    0.11684E+00         0.43725E-01         0.00000E+00
    0.11589E+00         0.42186E-01         0.00000E+00
    0.11486E+00         0.40655E-01         0.00000E+00
    0.11375E+00         0.39134E-01         0.00000E+00
    0.11257E+00         0.37626E-01         0.00000E+00
    0.11130E+00         0.36131E-01         0.00000E+00
    0.10996E+00         0.34651E-01         0.00000E+00
    0.10855E+00         0.33189E-01         0.00000E+00
    0.10705E+00         0.31745E-01         0.00000E+00
    0.10549E+00         0.30320E-01         0.00000E+00
    0.10385E+00         0.28918E-01         0.00000E+00
    0.10213E+00         0.27538E-01         0.00000E+00
    0.10034E+00         0.26182E-01         0.00000E+00
    0.98483E-01         0.24851E-01         0.00000E+00
    0.96552E-01         0.23547E-01         0.00000E+00
    0.94551E-01         0.22270E-01         0.00000E+00
    0.92481E-01         0.21022E-01         0.00000E+00
    0.90344E-01         0.19804E-01         0.00000E+00
    0.88140E-01         0.18616E-01         0.00000E+00
    0.85870E-01         0.17460E-01         0.00000E+00
    0.83535E-01         0.16336E-01         0.00000E+00
    0.81138E-01         0.15246E-01         0.00000E+00
    0.78678E-01         0.14189E-01         0.00000E+00
    0.76157E-01         0.13167E-01         0.00000E+00
    0.73576E-01         0.12180E-01         0.00000E+00
    0.70937E-01         0.11229E-01         0.00000E+00
    0.68239E-01         0.10315E-01         0.00000E+00
    0.65486E-01         0.94370E-02         0.00000E+00
    0.62676E-01         0.85968E-02         0.00000E+00
    0.59813E-01         0.77945E-02         0.00000E+00
    0.56896E-01         0.70304E-02         0.00000E+00
    0.53926E-01         0.63049E-02         0.00000E+00
    0.50906E-01         0.56183E-02         0.00000E+00
    0.47834E-01         0.49708E-02         0.00000E+00
    0.44714E-01         0.43627E-02         0.00000E+00
    0.41544E-01         0.37942E-02         0.00000E+00
    0.38327E-01         0.32653E-02         0.00000E+00
    0.35063E-01         0.27761E-02         0.00000E+00
    0.31753E-01         0.23265E-02         0.00000E+00
    0.28397E-01         0.19165E-02         0.00000E+00
    0.24997E-01         0.15458E-02         0.00000E+00
    0.21553E-01         0.12141E-02         0.00000E+00
    0.18065E-01         0.92085E-03         0.00000E+00
    0.14535E-01         0.66536E-03         0.00000E+00
    0.10963E-01         0.44677E-03         0.00000E+00
    0.73490E-02         0.26398E-03         0.00000E+00
    0.36946E-02         0.11561E-03         0.00000E+00
    0.00000E+00         0.00000E+00         0.00000E+00
    0.11171E+00         0.45014E-01         0.00000E+00
    0.11101E+00         0.43585E-01         0.00000E+00
    0.11024E+00         0.42159E-01         0.00000E+00
    0.10940E+00         0.40738E-01         0.00000E+00
    0.10849E+00         0.39322E-01         0.00000E+00
    0.10751E+00         0.37914E-01         0.00000E+00
    0.10646E+00         0.36515E-01         0.00000E+00
    0.10534E+00         0.35127E-01         0.00000E+00
    0.10415E+00         0.33752E-01         0.00000E+00
    0.10289E+00         0.32389E-01         0.00000E+00
    0.10156E+00         0.31042E-01         0.00000E+00
    0.10016E+00         0.29711E-01         0.00000E+00
    0.98690E-01         0.28397E-01         0.00000E+00
    0.97153E-01         0.27103E-01         0.00000E+00
    0.95548E-01         0.25828E-01         0.00000E+00
    0.93877E-01         0.24574E-01         0.00000E+00
    0.92139E-01         0.23343E-01         0.00000E+00
    0.90335E-01         0.22135E-01         0.00000E+00
    0.88467E-01         0.20951E-01         0.00000E+00
    0.86535E-01         0.19793E-01         0.00000E+00
    0.84540E-01         0.18660E-01         0.00000E+00
    0.82482E-01         0.17555E-01         0.00000E+00
    0.80364E-01         0.16478E-01         0.00000E+00
    0.78185E-01         0.15430E-01         0.00000E+00
    0.75946E-01         0.14412E-01         0.00000E+00
    0.73649E-01         0.13424E-01         0.00000E+00
    0.71295E-01         0.12467E-01         0.00000E+00
    0.68884E-01         0.11542E-01         0.00000E+00
    0.66418E-01         0.10649E-01         0.00000E+00
    0.63897E-01         0.97891E-02         0.00000E+00
    0.61322E-01         0.89630E-02         0.00000E+00
    0.58695E-01         0.81711E-02         0.00000E+00
    0.56016E-01         0.74138E-02         0.00000E+00
    0.53286E-01         0.66917E-02         0.00000E+00
    0.50507E-01         0.60051E-02         0.00000E+00
    0.47678E-01         0.53546E-02         0.00000E+00
    0.44802E-01         0.47404E-02         0.00000E+00
    0.41879E-01         0.41629E-02         0.00000E+00
    0.38910E-01         0.36224E-02         0.00000E+00
    0.35896E-01         0.31191E-02         0.00000E+00
    0.32837E-01         0.26530E-02         0.00000E+00
    0.29735E-01         0.22244E-02         0.00000E+00
    0.26590E-01         0.18331E-02         0.00000E+00
    0.23404E-01         0.14791E-02         0.00000E+00
    0.20176E-01         0.11621E-02         0.00000E+00
    0.16909E-01         0.88161E-03         0.00000E+00
    0.13603E-01         0.63716E-03         0.00000E+00
    0.10257E-01         0.42793E-03         0.00000E+00
    0.68748E-02         0.25290E-03         0.00000E+00
    0.34554E-02         0.11078E-03         0.00000E+00
    0.00000E+00         0.00000E+00         0.00000E+00
    0.10477E+00         0.41746E-01         0.00000E+00
    0.10409E+00         0.40431E-01         0.00000E+00
    0.10335E+00         0.39119E-01         0.00000E+00
    0.10255E+00         0.37810E-01         0.00000E+00
    0.10168E+00         0.36508E-01         0.00000E+00
    0.10075E+00         0.35212E-01         0.00000E+00
    0.99751E-01         0.33925E-01         0.00000E+00
    0.98689E-01         0.32647E-01         0.00000E+00
    0.97563E-01         0.31380E-01         0.00000E+00
    0.96372E-01         0.30126E-01         0.00000E+00
    0.95118E-01         0.28885E-01         0.00000E+00
    0.93800E-01         0.27659E-01         0.00000E+00
    0.92418E-01         0.26448E-01         0.00000E+00
    0.90974E-01         0.25254E-01         0.00000E+00
    0.89468E-01         0.24078E-01         0.00000E+00
    0.87900E-01         0.22920E-01         0.00000E+00
    0.86270E-01         0.21783E-01         0.00000E+00
    0.84580E-01         0.20666E-01         0.00000E+00
    0.82829E-01         0.19571E-01         0.00000E+00
    0.81020E-01         0.18499E-01         0.00000E+00
    0.79151E-01         0.17450E-01         0.00000E+00
    0.77225E-01         0.16425E-01         0.00000E+00
    0.75242E-01         0.15426E-01         0.00000E+00
    0.73202E-01         0.14452E-01         0.00000E+00
    0.71107E-01         0.13505E-01         0.00000E+00
    0.68956E-01         0.12586E-01         0.00000E+00
    0.66752E-01         0.11695E-01         0.00000E+00
    0.64495E-01         0.10832E-01         0.00000E+00
    0.62186E-01         0.99993E-02         0.00000E+00
    0.59825E-01         0.91964E-02         0.00000E+00
    0.57414E-01         0.84242E-02         0.00000E+00
    0.54954E-01         0.76833E-02         0.00000E+00
    0.52444E-01         0.69742E-02         0.00000E+00
    0.49887E-01         0.62975E-02         0.00000E+00
    0.47284E-01         0.56536E-02         0.00000E+00
    0.44634E-01         0.50429E-02         0.00000E+00
    0.41939E-01         0.44660E-02         0.00000E+00
    0.39200E-01         0.39231E-02         0.00000E+00
    0.36418E-01         0.34147E-02         0.00000E+00
    0.33594E-01         0.29409E-02         0.00000E+00
    0.30728E-01         0.25020E-02         0.00000E+00
    0.27822E-01         0.20982E-02         0.00000E+00
    0.24876E-01         0.17294E-02         0.00000E+00
    0.21892E-01         0.13955E-02         0.00000E+00
    0.18870E-01         0.10965E-02         0.00000E+00
    0.15812E-01         0.83194E-03         0.00000E+00
    0.12717E-01         0.60130E-03         0.00000E+00
    0.95878E-02         0.40386E-03         0.00000E+00
    0.64246E-02         0.23868E-03         0.00000E+00
    0.32283E-02         0.10456E-03         0.00000E+00
    0.00000E+00         0.00000E+00         0.00000E+00
    0.98356E-01         0.38590E-01         0.00000E+00
    0.97707E-01         0.37379E-01         0.00000E+00
    0.96999E-01         0.36171E-01         0.00000E+00
    0.96230E-01         0.34966E-01         0.00000E+00
    0.95403E-01         0.33767E-01         0.00000E+00
    0.94515E-01         0.32575E-01         0.00000E+00
    0.93568E-01         0.31390E-01         0.00000E+00
    0.92561E-01         0.30215E-01         0.00000E+00
    0.91494E-01         0.29049E-01         0.00000E+00
    0.90368E-01         0.27894E-01         0.00000E+00
    0.89184E-01         0.26752E-01         0.00000E+00
    0.87940E-01         0.25623E-01         0.00000E+00
    0.86638E-01         0.24508E-01         0.00000E+00
    0.85277E-01         0.23409E-01         0.00000E+00
    0.83859E-01         0.22325E-01         0.00000E+00
    0.82384E-01         0.21258E-01         0.00000E+00
    0.80852E-01         0.20209E-01         0.00000E+00
    0.79263E-01         0.19179E-01         0.00000E+00
    0.77619E-01         0.18169E-01         0.00000E+00
    0.75919E-01         0.17179E-01         0.00000E+00
    0.74165E-01         0.16210E-01         0.00000E+00
    0.72357E-01         0.15263E-01         0.00000E+00
    0.70495E-01         0.14339E-01         0.00000E+00
    0.68581E-01         0.13438E-01         0.00000E+00
    0.66615E-01         0.12562E-01         0.00000E+00
    0.64598E-01         0.11710E-01         0.00000E+00
    0.62530E-01         0.10884E-01         0.00000E+00
    0.60413E-01         0.10085E-01         0.00000E+00
    0.58247E-01         0.93117E-02         0.00000E+00
    0.56033E-01         0.85663E-02         0.00000E+00
    0.53772E-01         0.78490E-02         0.00000E+00
    0.51464E-01         0.71603E-02         0.00000E+00
    0.49111E-01         0.65009E-02         0.00000E+00
    0.46713E-01         0.58713E-02         0.00000E+00
    0.44271E-01         0.52719E-02         0.00000E+00
    0.41787E-01         0.47032E-02         0.00000E+00
    0.39260E-01         0.41657E-02         0.00000E+00
    0.36693E-01         0.36598E-02         0.00000E+00
    0.34085E-01         0.31857E-02         0.00000E+00
    0.31437E-01         0.27439E-02         0.00000E+00
    0.28752E-01         0.23345E-02         0.00000E+00
    0.26029E-01         0.19577E-02         0.00000E+00
    0.23269E-01         0.16135E-02         0.00000E+00
    0.20475E-01         0.13020E-02         0.00000E+00
    0.17645E-01         0.10230E-02         0.00000E+00
    0.14782E-01         0.77608E-03         0.00000E+00
    0.11887E-01         0.56087E-03         0.00000E+00
    0.89599E-02         0.37668E-03         0.00000E+00
    0.60024E-02         0.22261E-03         0.00000E+00
    0.30154E-02         0.97520E-04         0.00000E+00
    0.00000E+00         0.00000E+00         0.00000E+00
    0.92438E-01         0.35557E-01         0.00000E+00
    0.91816E-01         0.34442E-01         0.00000E+00
    0.91139E-01         0.33331E-01         0.00000E+00
    0.90407E-01         0.32223E-01         0.00000E+00
    0.89618E-01         0.31120E-01         0.00000E+00
    0.88774E-01         0.30024E-01         0.00000E+00
    0.87874E-01         0.28934E-01         0.00000E+00
    0.86919E-01         0.27853E-01         0.00000E+00
    0.85908E-01         0.26782E-01         0.00000E+00
    0.84843E-01         0.25720E-01         0.00000E+00
    0.83722E-01         0.24670E-01         0.00000E+00
    0.82546E-01         0.23632E-01         0.00000E+00
    0.81317E-01         0.22607E-01         0.00000E+00
    0.80033E-01         0.21596E-01         0.00000E+00
    0.78695E-01         0.20599E-01         0.00000E+00
    0.77304E-01         0.19618E-01         0.00000E+00
    0.75860E-01         0.18653E-01         0.00000E+00
    0.74363E-01         0.17705E-01         0.00000E+00
    0.72815E-01         0.16775E-01         0.00000E+00
    0.71215E-01         0.15864E-01         0.00000E+00
    0.69564E-01         0.14972E-01         0.00000E+00
    0.67863E-01         0.14099E-01         0.00000E+00
    0.66113E-01         0.13248E-01         0.00000E+00
    0.64313E-01         0.12418E-01         0.00000E+00
    0.62464E-01         0.11610E-01         0.00000E+00
    0.60568E-01         0.10824E-01         0.00000E+00
    0.58625E-01         0.10062E-01         0.00000E+00
    0.56636E-01         0.93239E-02         0.00000E+00
    0.54601E-01         0.86104E-02         0.00000E+00
    0.52521E-01         0.79220E-02         0.00000E+00
    0.50397E-01         0.72593E-02         0.00000E+00
    0.48230E-01         0.66229E-02         0.00000E+00
    0.46020E-01         0.60134E-02         0.00000E+00
    0.43769E-01         0.54313E-02         0.00000E+00
    0.41476E-01         0.48769E-02         0.00000E+00
    0.39144E-01         0.43509E-02         0.00000E+00
    0.36773E-01         0.38537E-02         0.00000E+00
    0.34364E-01         0.33855E-02         0.00000E+00
    0.31917E-01         0.29469E-02         0.00000E+00
    0.29434E-01         0.25380E-02         0.00000E+00
    0.26916E-01         0.21591E-02         0.00000E+00
    0.24363E-01         0.18104E-02         0.00000E+00
    0.21776E-01         0.14920E-02         0.00000E+00
    0.19158E-01         0.12037E-02         0.00000E+00
    0.16507E-01         0.94560E-03         0.00000E+00
    0.13826E-01         0.71726E-03         0.00000E+00
    0.11116E-01         0.51827E-03         0.00000E+00
    0.83770E-02         0.34801E-03         0.00000E+00
    0.56107E-02         0.20564E-03         0.00000E+00
    0.28180E-02         0.90082E-04         0.00000E+00
    0.00000E+00         0.00000E+00         0.00000E+00
    0.86982E-01         0.32655E-01         0.00000E+00
    0.86389E-01         0.31631E-01         0.00000E+00
    0.85743E-01         0.30610E-01         0.00000E+00
    0.85046E-01         0.29592E-01         0.00000E+00
    0.84295E-01         0.28579E-01         0.00000E+00
    0.83493E-01         0.27572E-01         0.00000E+00
    0.82639E-01         0.26572E-01         0.00000E+00
    0.81732E-01         0.25579E-01         0.00000E+00
    0.80774E-01         0.24596E-01         0.00000E+00
    0.79764E-01         0.23622E-01         0.00000E+00
    0.78703E-01         0.22658E-01         0.00000E+00
    0.77591E-01         0.21705E-01         0.00000E+00
    0.76427E-01         0.20764E-01         0.00000E+00
    0.75213E-01         0.19836E-01         0.00000E+00
    0.73949E-01         0.18922E-01         0.00000E+00
    0.72635E-01         0.18021E-01         0.00000E+00
    0.71272E-01         0.17136E-01         0.00000E+00
    0.69860E-01         0.16266E-01         0.00000E+00
    0.68399E-01         0.15412E-01         0.00000E+00
    0.66890E-01         0.14576E-01         0.00000E+00
    0.65334E-01         0.13757E-01         0.00000E+00
    0.63730E-01         0.12956E-01         0.00000E+00
    0.62081E-01         0.12174E-01         0.00000E+00
    0.60385E-01         0.11412E-01         0.00000E+00
    0.58644E-01         0.10669E-01         0.00000E+00
    0.56859E-01         0.99477E-02         0.00000E+00
    0.55029E-01         0.92475E-02         0.00000E+00
    0.53157E-01         0.85692E-02         0.00000E+00
    0.51242E-01         0.79134E-02         0.00000E+00
    0.49285E-01         0.72807E-02         0.00000E+00
    0.47287E-01         0.66716E-02         0.00000E+00
    0.45248E-01         0.60865E-02         0.00000E+00
    0.43170E-01         0.55261E-02         0.00000E+00
    0.41053E-01         0.49909E-02         0.00000E+00
    0.38899E-01         0.44812E-02         0.00000E+00
    0.36707E-01         0.39975E-02         0.00000E+00
    0.34479E-01         0.35403E-02         0.00000E+00
    0.32216E-01         0.31098E-02         0.00000E+00
    0.29918E-01         0.27065E-02         0.00000E+00
    0.27586E-01         0.23306E-02         0.00000E+00
    0.25222E-01         0.19824E-02         0.00000E+00
    0.22826E-01         0.16619E-02         0.00000E+00
    0.20400E-01         0.13693E-02         0.00000E+00
    0.17943E-01         0.11045E-02         0.00000E+00
    0.15458E-01         0.86746E-03         0.00000E+00
    0.12945E-01         0.65783E-03         0.00000E+00
    0.10406E-01         0.47522E-03         0.00000E+00
    0.78403E-02         0.31904E-03         0.00000E+00
    0.52502E-02         0.18849E-03         0.00000E+00
    0.26364E-02         0.82561E-04         0.00000E+00
    0.00000E+00         0.00000E+00         0.00000E+00
    0.81962E-01         0.29889E-01         0.00000E+00
    0.81397E-01         0.28950E-01         0.00000E+00
    0.80783E-01         0.28013E-01         0.00000E+00
    0.80120E-01         0.27080E-01         0.00000E+00
    0.79407E-01         0.26151E-01         0.00000E+00
    0.78645E-01         0.25229E-01         0.00000E+00
    0.77833E-01         0.24312E-01         0.00000E+00
    0.76973E-01         0.23403E-01         0.00000E+00
    0.76064E-01         0.22502E-01         0.00000E+00
    0.75106E-01         0.21610E-01         0.00000E+00
    0.74100E-01         0.20727E-01         0.00000E+00
    0.73046E-01         0.19855E-01         0.00000E+00
    0.71945E-01         0.18994E-01         0.00000E+00
    0.70795E-01         0.18144E-01         0.00000E+00
    0.69599E-01         0.17307E-01         0.00000E+00
    0.68356E-01         0.16483E-01         0.00000E+00
    0.67067E-01         0.15673E-01         0.00000E+00
    0.65732E-01         0.14877E-01         0.00000E+00
    0.64351E-01         0.14095E-01         0.00000E+00
    0.62926E-01         0.13330E-01         0.00000E+00
    0.61456E-01         0.12580E-01         0.00000E+00
    0.59942E-01         0.11848E-01         0.00000E+00
    0.58384E-01         0.11132E-01         0.00000E+00
    0.56784E-01         0.10434E-01         0.00000E+00
    0.55142E-01         0.97551E-02         0.00000E+00
    0.53457E-01         0.90949E-02         0.00000E+00
    0.51732E-01         0.84542E-02         0.00000E+00
    0.49966E-01         0.78336E-02         0.00000E+00
    0.48161E-01         0.72335E-02         0.00000E+00
    0.46317E-01         0.66546E-02         0.00000E+00
    0.44434E-01         0.60972E-02         0.00000E+00
    0.42514E-01         0.55620E-02         0.00000E+00
    0.40556E-01         0.50493E-02         0.00000E+00
    0.38563E-01         0.45596E-02         0.00000E+00
    0.36535E-01         0.40934E-02         0.00000E+00
    0.34472E-01         0.36510E-02         0.00000E+00
    0.32375E-01         0.32328E-02         0.00000E+00
    0.30246E-01         0.28393E-02         0.00000E+00
    0.28085E-01         0.24705E-02         0.00000E+00
    0.25893E-01         0.21270E-02         0.00000E+00
    0.23670E-01         0.18087E-02         0.00000E+00
    0.21419E-01         0.15160E-02         0.00000E+00
    0.19139E-01         0.12488E-02         0.00000E+00
    0.16832E-01         0.10070E-02         0.00000E+00
    0.14498E-01         0.79068E-03         0.00000E+00
    0.12139E-01         0.59945E-03         0.00000E+00
    0.97562E-02         0.43294E-03         0.00000E+00
    0.73497E-02         0.29058E-03         0.00000E+00
    0.49208E-02         0.17164E-03         0.00000E+00
    0.24706E-02         0.75173E-04         0.00000E+00
    0.00000E+00         0.00000E+00         0.00000E+00
    0.77356E-01         0.27257E-01         0.00000E+00
    0.76819E-01         0.26398E-01         0.00000E+00
    0.76236E-01         0.25542E-01         0.00000E+00
    0.75605E-01         0.24689E-01         0.00000E+00
    0.74928E-01         0.23840E-01         0.00000E+00
    0.74204E-01         0.22997E-01         0.00000E+00
    0.73433E-01         0.22160E-01         0.00000E+00
    0.72617E-01         0.21329E-01         0.00000E+00
    0.71754E-01         0.20506E-01         0.00000E+00
    0.70845E-01         0.19691E-01         0.00000E+00
    0.69890E-01         0.18885E-01         0.00000E+00
    0.68891E-01         0.18089E-01         0.00000E+00
    0.67846E-01         0.17303E-01         0.00000E+00
    0.66757E-01         0.16527E-01         0.00000E+00
    0.65623E-01         0.15764E-01         0.00000E+00
    0.64445E-01         0.15012E-01         0.00000E+00
    0.63224E-01         0.14272E-01         0.00000E+00
    0.61960E-01         0.13546E-01         0.00000E+00
    0.60653E-01         0.12834E-01         0.00000E+00
    0.59304E-01         0.12136E-01         0.00000E+00
    0.57913E-01         0.11452E-01         0.00000E+00
    0.56481E-01         0.10784E-01         0.00000E+00
    0.55008E-01         0.10132E-01         0.00000E+00
    0.53495E-01         0.94958E-02         0.00000E+00
    0.51943E-01         0.88767E-02         0.00000E+00
    0.50351E-01         0.82750E-02         0.00000E+00
    0.48721E-01         0.76911E-02         0.00000E+00
    0.47053E-01         0.71256E-02         0.00000E+00
    0.45348E-01         0.65789E-02         0.00000E+00
    0.43607E-01         0.60515E-02         0.00000E+00
    0.41830E-01         0.55438E-02         0.00000E+00
    0.40017E-01         0.50564E-02         0.00000E+00
    0.38171E-01         0.45895E-02         0.00000E+00
    0.36291E-01         0.41437E-02         0.00000E+00
    0.34378E-01         0.37193E-02         0.00000E+00
    0.32433E-01         0.33167E-02         0.00000E+00
    0.30457E-01         0.29362E-02         0.00000E+00
    0.28450E-01         0.25782E-02         0.00000E+00
    0.26414E-01         0.22429E-02         0.00000E+00
    0.24349E-01         0.19305E-02         0.00000E+00
    0.22256E-01         0.16412E-02         0.00000E+00
    0.20136E-01         0.13752E-02         0.00000E+00
    0.17990E-01         0.11325E-02         0.00000E+00
    0.15820E-01         0.91302E-03         0.00000E+00
    0.13625E-01         0.71667E-03         0.00000E+00
    0.11406E-01         0.54318E-03         0.00000E+00
    0.91656E-02         0.39219E-03         0.00000E+00
    0.69038E-02         0.26317E-03         0.00000E+00
    0.46216E-02         0.15542E-03         0.00000E+00
    0.23200E-02         0.68059E-04         0.00000E+00
    0.00000E+00         0.00000E+00         0.00000E+00
    0.73145E-01         0.24758E-01         0.00000E+00
    0.72635E-01         0.23976E-01         0.00000E+00
    0.72081E-01         0.23195E-01         0.00000E+00
    0.71482E-01         0.22418E-01         0.00000E+00
    0.70838E-01         0.21645E-01         0.00000E+00
    0.70150E-01         0.20877E-01         0.00000E+00
    0.69418E-01         0.20114E-01         0.00000E+00
    0.68642E-01         0.19358E-01         0.00000E+00
    0.67822E-01         0.18609E-01         0.00000E+00
    0.66959E-01         0.17867E-01         0.00000E+00
    0.66052E-01         0.17134E-01         0.00000E+00
    0.65103E-01         0.16410E-01         0.00000E+00
    0.64111E-01         0.15695E-01         0.00000E+00
    0.63077E-01         0.14990E-01         0.00000E+00
    0.62001E-01         0.14295E-01         0.00000E+00
    0.60883E-01         0.13612E-01         0.00000E+00
    0.59725E-01         0.12940E-01         0.00000E+00
    0.58526E-01         0.12280E-01         0.00000E+00
    0.57286E-01         0.11632E-01         0.00000E+00
    0.56007E-01         0.10998E-01         0.00000E+00
    0.54689E-01         0.10377E-01         0.00000E+00
    0.53332E-01         0.97706E-02         0.00000E+00
    0.51936E-01         0.91783E-02         0.00000E+00
    0.50503E-01         0.86010E-02         0.00000E+00
    0.49033E-01         0.80391E-02         0.00000E+00
    0.47526E-01         0.74930E-02         0.00000E+00
    0.45983E-01         0.69632E-02         0.00000E+00
    0.44405E-01         0.64502E-02         0.00000E+00
    0.42791E-01         0.59543E-02         0.00000E+00
    0.41144E-01         0.54760E-02         0.00000E+00
    0.39463E-01         0.50158E-02         0.00000E+00
    0.37750E-01         0.45739E-02         0.00000E+00
    0.36004E-01         0.41508E-02         0.00000E+00
    0.34227E-01         0.37468E-02         0.00000E+00
    0.32419E-01         0.33623E-02         0.00000E+00
    0.30582E-01         0.29977E-02         0.00000E+00
    0.28715E-01         0.26532E-02         0.00000E+00
    0.26820E-01         0.23291E-02         0.00000E+00
    0.24898E-01         0.20257E-02         0.00000E+00
    0.22949E-01         0.17431E-02         0.00000E+00
    0.20974E-01         0.14816E-02         0.00000E+00
    0.18974E-01         0.12411E-02         0.00000E+00
    0.16950E-01         0.10218E-02         0.00000E+00
    0.14903E-01         0.82351E-03         0.00000E+00
    0.12834E-01         0.64623E-03         0.00000E+00
    0.10743E-01         0.48966E-03         0.00000E+00
    0.86315E-02         0.35345E-03         0.00000E+00
    0.65007E-02         0.23712E-03         0.00000E+00
    0.43512E-02         0.14000E-03         0.00000E+00
    0.21840E-02         0.61300E-04         0.00000E+00
    0.00000E+00         0.00000E+00         0.00000E+00
    0.69311E-01         0.22386E-01         0.00000E+00
    0.68827E-01         0.21676E-01         0.00000E+00
    0.68300E-01         0.20968E-01         0.00000E+00
    0.67731E-01         0.20263E-01         0.00000E+00
    0.67119E-01         0.19562E-01         0.00000E+00
    0.66464E-01         0.18865E-01         0.00000E+00
    0.65768E-01         0.18174E-01         0.00000E+00
    0.65030E-01         0.17488E-01         0.00000E+00
    0.64250E-01         0.16809E-01         0.00000E+00
    0.63429E-01         0.16137E-01         0.00000E+00
    0.62566E-01         0.15473E-01         0.00000E+00
    0.61664E-01         0.14816E-01         0.00000E+00
    0.60720E-01         0.14169E-01         0.00000E+00
    0.59737E-01         0.13530E-01         0.00000E+00
    0.58714E-01         0.12902E-01         0.00000E+00
    0.57652E-01         0.12283E-01         0.00000E+00
    0.56551E-01         0.11675E-01         0.00000E+00
    0.55412E-01         0.11078E-01         0.00000E+00
    0.54234E-01         0.10493E-01         0.00000E+00
    0.53019E-01         0.99189E-02         0.00000E+00
    0.51767E-01         0.93576E-02         0.00000E+00
    0.50478E-01         0.88091E-02         0.00000E+00
    0.49154E-01         0.82738E-02         0.00000E+00
    0.47793E-01         0.77521E-02         0.00000E+00
    0.46398E-01         0.72444E-02         0.00000E+00
    0.44968E-01         0.67512E-02         0.00000E+00
    0.43504E-01         0.62728E-02         0.00000E+00
    0.42007E-01         0.58096E-02         0.00000E+00
    0.40478E-01         0.53620E-02         0.00000E+00
    0.38916E-01         0.49303E-02         0.00000E+00
    0.37323E-01         0.45150E-02         0.00000E+00
    0.35699E-01         0.41164E-02         0.00000E+00
    0.34045E-01         0.37349E-02         0.00000E+00
    0.32361E-01         0.33707E-02         0.00000E+00
    0.30649E-01         0.30241E-02         0.00000E+00
    0.28909E-01         0.26956E-02         0.00000E+00
    0.27142E-01         0.23852E-02         0.00000E+00
    0.25349E-01         0.20934E-02         0.00000E+00
    0.23529E-01         0.18202E-02         0.00000E+00
    0.21685E-01         0.15659E-02         0.00000E+00
    0.19817E-01         0.13306E-02         0.00000E+00
    0.17926E-01         0.11143E-02         0.00000E+00
    0.16012E-01         0.91714E-03         0.00000E+00
    0.14077E-01         0.73899E-03         0.00000E+00
    0.12121E-01         0.57974E-03         0.00000E+00
    0.10146E-01         0.43916E-03         0.00000E+00
    0.81508E-02         0.31692E-03         0.00000E+00
    0.61381E-02         0.21256E-03         0.00000E+00
    0.41081E-02         0.12548E-03         0.00000E+00
    0.20618E-02         0.54934E-04         0.00000E+00
    0.00000E+00         0.00000E+00         0.00000E+00
    0.65838E-01         0.20132E-01         0.00000E+00
    0.65378E-01         0.19492E-01         0.00000E+00
    0.64877E-01         0.18853E-01         0.00000E+00
    0.64335E-01         0.18217E-01         0.00000E+00
    0.63752E-01         0.17584E-01         0.00000E+00
    0.63129E-01         0.16956E-01         0.00000E+00
    0.62466E-01         0.16332E-01         0.00000E+00
    0.61763E-01         0.15714E-01         0.00000E+00
    0.61020E-01         0.15102E-01         0.00000E+00
    0.60237E-01         0.14496E-01         0.00000E+00
    0.59416E-01         0.13897E-01         0.00000E+00
    0.58556E-01         0.13306E-01         0.00000E+00
    0.57657E-01         0.12723E-01         0.00000E+00
    0.56721E-01         0.12148E-01         0.00000E+00
    0.55746E-01         0.11581E-01         0.00000E+00
    0.54735E-01         0.11024E-01         0.00000E+00
    0.53686E-01         0.10477E-01         0.00000E+00
    0.52601E-01         0.99399E-02         0.00000E+00
    0.51480E-01         0.94130E-02         0.00000E+00
    0.50324E-01         0.88970E-02         0.00000E+00
    0.49132E-01         0.83922E-02         0.00000E+00
    0.47906E-01         0.78989E-02         0.00000E+00
    0.46645E-01         0.74177E-02         0.00000E+00
    0.45351E-01         0.69488E-02         0.00000E+00
    0.44024E-01         0.64926E-02         0.00000E+00
    0.42664E-01         0.60495E-02         0.00000E+00
    0.41272E-01         0.56197E-02         0.00000E+00
    0.39849E-01         0.52038E-02         0.00000E+00
    0.38395E-01         0.48019E-02         0.00000E+00
    0.36911E-01         0.44145E-02         0.00000E+00
    0.35397E-01         0.40419E-02         0.00000E+00
    0.33854E-01         0.36843E-02         0.00000E+00
    0.32283E-01         0.33421E-02         0.00000E+00
    0.30684E-01         0.30156E-02         0.00000E+00
    0.29059E-01         0.27050E-02         0.00000E+00
    0.27407E-01         0.24105E-02         0.00000E+00
    0.25729E-01         0.21325E-02         0.00000E+00
    0.24027E-01         0.18712E-02         0.00000E+00
    0.22301E-01         0.16266E-02         0.00000E+00
    0.20552E-01         0.13990E-02         0.00000E+00
    0.18780E-01         0.11885E-02         0.00000E+00
    0.16986E-01         0.99505E-03         0.00000E+00
    0.15172E-01         0.81877E-03         0.00000E+00
    0.13337E-01         0.65956E-03         0.00000E+00
    0.11483E-01         0.51730E-03         0.00000E+00
    0.96107E-02         0.39176E-03         0.00000E+00
    0.77206E-02         0.28265E-03         0.00000E+00
    0.58136E-02         0.18953E-03         0.00000E+00
    0.38907E-02         0.11186E-03         0.00000E+00
    0.19525E-02         0.48967E-04         0.00000E+00
    0.00000E+00         0.00000E+00         0.00000E+00
    0.62711E-01         0.17990E-01         0.00000E+00
    0.62274E-01         0.17415E-01         0.00000E+00
    0.61796E-01         0.16843E-01         0.00000E+00
    0.61280E-01         0.16273E-01         0.00000E+00
    0.60724E-01         0.15706E-01         0.00000E+00
    0.60130E-01         0.15143E-01         0.00000E+00
    0.59497E-01         0.14584E-01         0.00000E+00
    0.58826E-01         0.14030E-01         0.00000E+00
    0.58116E-01         0.13482E-01         0.00000E+00
    0.57370E-01         0.12939E-01         0.00000E+00
    0.56585E-01         0.12403E-01         0.00000E+00
    0.55764E-01         0.11873E-01         0.00000E+00
    0.54906E-01         0.11351E-01         0.00000E+00
    0.54012E-01         0.10837E-01         0.00000E+00
    0.53082E-01         0.10330E-01         0.00000E+00
    0.52116E-01         0.98318E-02         0.00000E+00
    0.51116E-01         0.93422E-02         0.00000E+00
    0.50080E-01         0.88617E-02         0.00000E+00
    0.49010E-01         0.83907E-02         0.00000E+00
    0.47907E-01         0.79295E-02         0.00000E+00
    0.46770E-01         0.74783E-02         0.00000E+00
    0.45600E-01         0.70377E-02         0.00000E+00
    0.44397E-01         0.66078E-02         0.00000E+00
    0.43163E-01         0.61890E-02         0.00000E+00
    0.41897E-01         0.57817E-02         0.00000E+00
    0.40600E-01         0.53862E-02         0.00000E+00
    0.39274E-01         0.50027E-02         0.00000E+00
    0.37917E-01         0.46315E-02         0.00000E+00
    0.36531E-01         0.42731E-02         0.00000E+00
    0.35117E-01         0.39276E-02         0.00000E+00
    0.33674E-01         0.35954E-02         0.00000E+00
    0.32204E-01         0.32767E-02         0.00000E+00
    0.30708E-01         0.29717E-02         0.00000E+00
    0.29185E-01         0.26808E-02         0.00000E+00
    0.27637E-01         0.24042E-02         0.00000E+00
    0.26065E-01         0.21421E-02         0.00000E+00
    0.24468E-01         0.18946E-02         0.00000E+00
    0.22848E-01         0.16620E-02         0.00000E+00
    0.21205E-01         0.14445E-02         0.00000E+00
    0.19540E-01         0.12421E-02         0.00000E+00
    0.17854E-01         0.10549E-02         0.00000E+00
    0.16148E-01         0.88305E-03         0.00000E+00
    0.14422E-01         0.72644E-03         0.00000E+00
    0.12678E-01         0.58504E-03         0.00000E+00
    0.10915E-01         0.45875E-03         0.00000E+00
    0.91344E-02         0.34734E-03         0.00000E+00
    0.73376E-02         0.25054E-03         0.00000E+00
    0.55250E-02         0.16797E-03         0.00000E+00
    0.36973E-02         0.99123E-04         0.00000E+00
    0.18554E-02         0.43384E-04         0.00000E+00
    0.00000E+00         0.00000E+00         0.00000E+00
    0.59918E-01         0.15948E-01         0.00000E+00
    0.59500E-01         0.15437E-01         0.00000E+00
    0.59044E-01         0.14928E-01         0.00000E+00
    0.58551E-01         0.14421E-01         0.00000E+00
    0.58020E-01         0.13917E-01         0.00000E+00
    0.57451E-01         0.13417E-01         0.00000E+00
    0.56846E-01         0.12920E-01         0.00000E+00
    0.56204E-01         0.12428E-01         0.00000E+00
    0.55525E-01         0.11941E-01         0.00000E+00
    0.54811E-01         0.11459E-01         0.00000E+00
    0.54060E-01         0.10983E-01         0.00000E+00
    0.53274E-01         0.10512E-01         0.00000E+00
    0.52453E-01         0.10049E-01         0.00000E+00
    0.51597E-01         0.95918E-02         0.00000E+00
    0.50707E-01         0.91420E-02         0.00000E+00
    0.49783E-01         0.86998E-02         0.00000E+00
    0.48825E-01         0.82654E-02         0.00000E+00
    0.47834E-01         0.78392E-02         0.00000E+00
    0.46810E-01         0.74214E-02         0.00000E+00
    0.45754E-01         0.70123E-02         0.00000E+00
    0.44666E-01         0.66124E-02         0.00000E+00
    0.43547E-01         0.62217E-02         0.00000E+00
    0.42397E-01         0.58408E-02         0.00000E+00
    0.41216E-01         0.54697E-02         0.00000E+00
    0.40005E-01         0.51089E-02         0.00000E+00
    0.38766E-01         0.47586E-02         0.00000E+00
    0.37497E-01         0.44190E-02         0.00000E+00
    0.36200E-01         0.40905E-02         0.00000E+00
    0.34875E-01         0.37733E-02         0.00000E+00
    0.33523E-01         0.34676E-02         0.00000E+00
    0.32144E-01         0.31737E-02         0.00000E+00
    0.30740E-01         0.28918E-02         0.00000E+00
    0.29310E-01         0.26222E-02         0.00000E+00
    0.27855E-01         0.23651E-02         0.00000E+00
    0.26376E-01         0.21207E-02         0.00000E+00
    0.24874E-01         0.18891E-02         0.00000E+00
    0.23349E-01         0.16705E-02         0.00000E+00
    0.21802E-01         0.14652E-02         0.00000E+00
    0.20233E-01         0.12731E-02         0.00000E+00
    0.18644E-01         0.10945E-02         0.00000E+00
    0.17035E-01         0.92939E-03         0.00000E+00
    0.15406E-01         0.77780E-03         0.00000E+00
    0.13759E-01         0.63972E-03         0.00000E+00
    0.12094E-01         0.51510E-03         0.00000E+00
    0.10412E-01         0.40382E-03         0.00000E+00
    0.87133E-02         0.30569E-03         0.00000E+00
    0.69990E-02         0.22046E-03         0.00000E+00
    0.52699E-02         0.14777E-03         0.00000E+00
    0.35265E-02         0.87192E-04         0.00000E+00
    0.17696E-02         0.38158E-04         0.00000E+00
    0.00000E+00         0.00000E+00         0.00000E+00
    0.57446E-01         0.13998E-01         0.00000E+00
    0.57046E-01         0.13548E-01         0.00000E+00
    0.56609E-01         0.13100E-01         0.00000E+00
    0.56136E-01         0.12654E-01         0.00000E+00
    0.55627E-01         0.12211E-01         0.00000E+00
    0.55082E-01         0.11770E-01         0.00000E+00
    0.54501E-01         0.11333E-01         0.00000E+00
    0.53885E-01         0.10900E-01         0.00000E+00
    0.53234E-01         0.10472E-01         0.00000E+00
    0.52548E-01         0.10048E-01         0.00000E+00
    0.51828E-01         0.96291E-02         0.00000E+00
    0.51073E-01         0.92158E-02         0.00000E+00
    0.50285E-01         0.88081E-02         0.00000E+00
    0.49464E-01         0.84066E-02         0.00000E+00
    0.48609E-01         0.80114E-02         0.00000E+00
    0.47722E-01         0.76228E-02         0.00000E+00
    0.46802E-01         0.72412E-02         0.00000E+00
    0.45851E-01         0.68668E-02         0.00000E+00
    0.44868E-01         0.65000E-02         0.00000E+00
    0.43855E-01         0.61408E-02         0.00000E+00
    0.42810E-01         0.57897E-02         0.00000E+00
    0.41736E-01         0.54469E-02         0.00000E+00
    0.40632E-01         0.51126E-02         0.00000E+00
    0.39499E-01         0.47872E-02         0.00000E+00
    0.38338E-01         0.44707E-02         0.00000E+00
    0.37148E-01         0.41635E-02         0.00000E+00
    0.35931E-01         0.38658E-02         0.00000E+00
    0.34687E-01         0.35778E-02         0.00000E+00
    0.33416E-01         0.32998E-02         0.00000E+00
    0.32119E-01         0.30320E-02         0.00000E+00
    0.30797E-01         0.27746E-02         0.00000E+00
    0.29450E-01         0.25278E-02         0.00000E+00
    0.28079E-01         0.22917E-02         0.00000E+00
    0.26685E-01         0.20666E-02         0.00000E+00
    0.25267E-01         0.18527E-02         0.00000E+00
    0.23827E-01         0.16501E-02         0.00000E+00
    0.22365E-01         0.14589E-02         0.00000E+00
    0.20883E-01         0.12794E-02         0.00000E+00
    0.19380E-01         0.11115E-02         0.00000E+00
    0.17857E-01         0.95538E-03         0.00000E+00
    0.16315E-01         0.81110E-03         0.00000E+00
    0.14755E-01         0.67868E-03         0.00000E+00
    0.13177E-01         0.55809E-03         0.00000E+00
    0.11582E-01         0.44929E-03         0.00000E+00
    0.99708E-02         0.35216E-03         0.00000E+00
    0.83440E-02         0.26654E-03         0.00000E+00
    0.67022E-02         0.19219E-03         0.00000E+00
    0.50463E-02         0.12881E-03         0.00000E+00
    0.33768E-02         0.75990E-04         0.00000E+00
    0.16945E-02         0.33252E-04         0.00000E+00
    0.00000E+00         0.00000E+00         0.00000E+00
    0.55283E-01         0.12128E-01         0.00000E+00
    0.54899E-01         0.11738E-01         0.00000E+00
    0.54479E-01         0.11348E-01         0.00000E+00
    0.54024E-01         0.10961E-01         0.00000E+00
    0.53534E-01         0.10576E-01         0.00000E+00
    0.53010E-01         0.10194E-01         0.00000E+00
    0.52451E-01         0.98144E-02         0.00000E+00
    0.51858E-01         0.94385E-02         0.00000E+00
    0.51231E-01         0.90665E-02         0.00000E+00
    0.50571E-01         0.86986E-02         0.00000E+00
    0.49877E-01         0.83351E-02         0.00000E+00
    0.49150E-01         0.79764E-02         0.00000E+00
    0.48391E-01         0.76227E-02         0.00000E+00
    0.47600E-01         0.72744E-02         0.00000E+00
    0.46777E-01         0.69316E-02         0.00000E+00
    0.45922E-01         0.65946E-02         0.00000E+00
    0.45036E-01         0.62637E-02         0.00000E+00
    0.44120E-01         0.59391E-02         0.00000E+00
    0.43173E-01         0.56211E-02         0.00000E+00
    0.42197E-01         0.53099E-02         0.00000E+00
    0.41191E-01         0.50056E-02         0.00000E+00
    0.40157E-01         0.47086E-02         0.00000E+00
    0.39094E-01         0.44191E-02         0.00000E+00
    0.38003E-01         0.41372E-02         0.00000E+00
    0.36884E-01         0.38631E-02         0.00000E+00
    0.35738E-01         0.35972E-02         0.00000E+00
    0.34566E-01         0.33395E-02         0.00000E+00
    0.33368E-01         0.30903E-02         0.00000E+00
    0.32145E-01         0.28498E-02         0.00000E+00
    0.30897E-01         0.26181E-02         0.00000E+00
    0.29624E-01         0.23955E-02         0.00000E+00
    0.28328E-01         0.21821E-02         0.00000E+00
    0.27008E-01         0.19780E-02         0.00000E+00
    0.25666E-01         0.17835E-02         0.00000E+00
    0.24302E-01         0.15986E-02         0.00000E+00
    0.22917E-01         0.14236E-02         0.00000E+00
    0.21510E-01         0.12585E-02         0.00000E+00
    0.20084E-01         0.11034E-02         0.00000E+00
    0.18638E-01         0.95845E-03         0.00000E+00
    0.17173E-01         0.82370E-03         0.00000E+00
    0.15690E-01         0.69920E-03         0.00000E+00
    0.14189E-01         0.58495E-03         0.00000E+00
    0.12671E-01         0.48094E-03         0.00000E+00
    0.11138E-01         0.38712E-03         0.00000E+00
    0.95880E-02         0.30339E-03         0.00000E+00
    0.80235E-02         0.22959E-03         0.00000E+00
    0.64448E-02         0.16552E-03         0.00000E+00
    0.48524E-02         0.11092E-03         0.00000E+00
    0.32470E-02         0.65429E-04         0.00000E+00
    0.16293E-02         0.28628E-04         0.00000E+00
    0.00000E+00         0.00000E+00         0.00000E+00
    0.53420E-01         0.10329E-01         0.00000E+00
    0.53049E-01         0.99957E-02         0.00000E+00
    0.52644E-01         0.96636E-02         0.00000E+00
    0.52205E-01         0.93331E-02         0.00000E+00
    0.51732E-01         0.90045E-02         0.00000E+00
    0.51225E-01         0.86782E-02         0.00000E+00
    0.50685E-01         0.83546E-02         0.00000E+00
    0.50112E-01         0.80339E-02         0.00000E+00
    0.49506E-01         0.77166E-02         0.00000E+00
    0.48868E-01         0.74027E-02         0.00000E+00
    0.48197E-01         0.70927E-02         0.00000E+00
    0.47495E-01         0.67868E-02         0.00000E+00
    0.46761E-01         0.64853E-02         0.00000E+00
    0.45996E-01         0.61882E-02         0.00000E+00
    0.45200E-01         0.58960E-02         0.00000E+00
    0.44374E-01         0.56088E-02         0.00000E+00
    0.43517E-01         0.53268E-02         0.00000E+00
    0.42631E-01         0.50502E-02         0.00000E+00
    0.41716E-01         0.47792E-02         0.00000E+00
    0.40772E-01         0.45141E-02         0.00000E+00
    0.39799E-01         0.42550E-02         0.00000E+00
    0.38799E-01         0.40020E-02         0.00000E+00
    0.37771E-01         0.37555E-02         0.00000E+00
    0.36716E-01         0.35155E-02         0.00000E+00
    0.35635E-01         0.32823E-02         0.00000E+00
    0.34528E-01         0.30559E-02         0.00000E+00
    0.33395E-01         0.28367E-02         0.00000E+00
    0.32237E-01         0.26247E-02         0.00000E+00
    0.31054E-01         0.24201E-02         0.00000E+00
    0.29848E-01         0.22231E-02         0.00000E+00
    0.28618E-01         0.20338E-02         0.00000E+00
    0.27365E-01         0.18523E-02         0.00000E+00
    0.26090E-01         0.16789E-02         0.00000E+00
    0.24793E-01         0.15136E-02         0.00000E+00
    0.23475E-01         0.13565E-02         0.00000E+00
    0.22136E-01         0.12078E-02         0.00000E+00
    0.20777E-01         0.10676E-02         0.00000E+00
    0.19399E-01         0.93590E-03         0.00000E+00
    0.18002E-01         0.81285E-03         0.00000E+00
    0.16587E-01         0.69848E-03         0.00000E+00
    0.15154E-01         0.59282E-03         0.00000E+00
    0.13705E-01         0.49589E-03         0.00000E+00
    0.12239E-01         0.40766E-03         0.00000E+00
    0.10757E-01         0.32809E-03         0.00000E+00
    0.92605E-02         0.25709E-03         0.00000E+00
    0.77494E-02         0.19453E-03         0.00000E+00
    0.62246E-02         0.14023E-03         0.00000E+00
    0.46866E-02         0.93956E-04         0.00000E+00
    0.31361E-02         0.55418E-04         0.00000E+00
    0.15737E-02         0.24246E-04         0.00000E+00
    0.00000E+00         0.00000E+00         0.00000E+00
    0.51847E-01         0.85900E-02         0.00000E+00
    0.51488E-01         0.83125E-02         0.00000E+00
    0.51095E-01         0.80359E-02         0.00000E+00
    0.50669E-01         0.77605E-02         0.00000E+00
    0.50211E-01         0.74868E-02         0.00000E+00
    0.49719E-01         0.72150E-02         0.00000E+00
    0.49195E-01         0.69454E-02         0.00000E+00
    0.48639E-01         0.66783E-02         0.00000E+00
    0.48051E-01         0.64140E-02         0.00000E+00
    0.47432E-01         0.61526E-02         0.00000E+00
    0.46781E-01         0.58945E-02         0.00000E+00
    0.46099E-01         0.56398E-02         0.00000E+00
    0.45386E-01         0.53887E-02         0.00000E+00
    0.44643E-01         0.51414E-02         0.00000E+00
    0.43871E-01         0.48982E-02         0.00000E+00
    0.43068E-01         0.46592E-02         0.00000E+00
    0.42237E-01         0.44245E-02         0.00000E+00
    0.41376E-01         0.41943E-02         0.00000E+00
    0.40488E-01         0.39689E-02         0.00000E+00
    0.39571E-01         0.37484E-02         0.00000E+00
    0.38627E-01         0.35328E-02         0.00000E+00
    0.37656E-01         0.33225E-02         0.00000E+00
    0.36658E-01         0.31175E-02         0.00000E+00
    0.35634E-01         0.29180E-02         0.00000E+00
    0.34584E-01         0.27241E-02         0.00000E+00
    0.33509E-01         0.25360E-02         0.00000E+00
    0.32409E-01         0.23538E-02         0.00000E+00
    0.31285E-01         0.21776E-02         0.00000E+00
    0.30137E-01         0.20076E-02         0.00000E+00
    0.28965E-01         0.18440E-02         0.00000E+00
    0.27772E-01         0.16868E-02         0.00000E+00
    0.26556E-01         0.15361E-02         0.00000E+00
    0.25318E-01         0.13921E-02         0.00000E+00
    0.24059E-01         0.12549E-02         0.00000E+00
    0.22780E-01         0.11246E-02         0.00000E+00
    0.21480E-01         0.10012E-02         0.00000E+00
    0.20162E-01         0.88483E-03         0.00000E+00
    0.18824E-01         0.77560E-03         0.00000E+00
    0.17469E-01         0.67354E-03         0.00000E+00
    0.16095E-01         0.57870E-03         0.00000E+00
    0.14705E-01         0.49110E-03         0.00000E+00
    0.13298E-01         0.41075E-03         0.00000E+00
    0.11876E-01         0.33763E-03         0.00000E+00
    0.10438E-01         0.27170E-03         0.00000E+00
    0.89857E-02         0.21287E-03         0.00000E+00
    0.75195E-02         0.16105E-03         0.00000E+00
    0.60399E-02         0.11608E-03         0.00000E+00
    0.45475E-02         0.77771E-04         0.00000E+00
    0.30431E-02         0.45867E-04         0.00000E+00
    0.15270E-02         0.20066E-04         0.00000E+00
    0.00000E+00         0.00000E+00         0.00000E+00
    0.50557E-01         0.69016E-02         0.00000E+00
    0.50207E-01         0.66783E-02         0.00000E+00
    0.49825E-01         0.64557E-02         0.00000E+00
    0.49410E-01         0.62341E-02         0.00000E+00
    0.48963E-01         0.60139E-02         0.00000E+00
    0.48484E-01         0.57952E-02         0.00000E+00
    0.47973E-01         0.55783E-02         0.00000E+00
    0.47431E-01         0.53634E-02         0.00000E+00
    0.46858E-01         0.51508E-02         0.00000E+00
    0.46254E-01         0.49406E-02         0.00000E+00
    0.45619E-01         0.47329E-02         0.00000E+00
    0.44954E-01         0.45281E-02         0.00000E+00
    0.44259E-01         0.43262E-02         0.00000E+00
    0.43535E-01         0.41273E-02         0.00000E+00
    0.42781E-01         0.39317E-02         0.00000E+00
    0.41999E-01         0.37396E-02         0.00000E+00
    0.41188E-01         0.35509E-02         0.00000E+00
    0.40348E-01         0.33659E-02         0.00000E+00
    0.39482E-01         0.31847E-02         0.00000E+00
    0.38588E-01         0.30075E-02         0.00000E+00
    0.37667E-01         0.28343E-02         0.00000E+00
    0.36719E-01         0.26653E-02         0.00000E+00
    0.35746E-01         0.25006E-02         0.00000E+00
    0.34747E-01         0.23404E-02         0.00000E+00
    0.33723E-01         0.21847E-02         0.00000E+00
    0.32675E-01         0.20336E-02         0.00000E+00
    0.31602E-01         0.18873E-02         0.00000E+00
    0.30505E-01         0.17459E-02         0.00000E+00
    0.29386E-01         0.16095E-02         0.00000E+00
    0.28244E-01         0.14782E-02         0.00000E+00
    0.27079E-01         0.13520E-02         0.00000E+00
    0.25894E-01         0.12311E-02         0.00000E+00
    0.24687E-01         0.11156E-02         0.00000E+00
    0.23459E-01         0.10055E-02         0.00000E+00
    0.22211E-01         0.90099E-03         0.00000E+00
    0.20945E-01         0.80205E-03         0.00000E+00
    0.19659E-01         0.70877E-03         0.00000E+00
    0.18355E-01         0.62121E-03         0.00000E+00
    0.17033E-01         0.53941E-03         0.00000E+00
    0.15694E-01         0.46341E-03         0.00000E+00
    0.14338E-01         0.39322E-03         0.00000E+00
    0.12966E-01         0.32885E-03         0.00000E+00
    0.11579E-01         0.27028E-03         0.00000E+00
    0.10178E-01         0.21747E-03         0.00000E+00
    0.87615E-02         0.17037E-03         0.00000E+00
    0.73319E-02         0.12888E-03         0.00000E+00
    0.58892E-02         0.92884E-04         0.00000E+00
    0.44341E-02         0.62222E-04         0.00000E+00
    0.29672E-02         0.36693E-04         0.00000E+00
    0.14890E-02         0.16051E-04         0.00000E+00
    0.00000E+00         0.00000E+00         0.00000E+00
    0.49543E-01         0.52538E-02         0.00000E+00
    0.49200E-01         0.50836E-02         0.00000E+00
    0.48826E-01         0.49139E-02         0.00000E+00
    0.48420E-01         0.47450E-02         0.00000E+00
    0.47982E-01         0.45771E-02         0.00000E+00
    0.47513E-01         0.44104E-02         0.00000E+00
    0.47013E-01         0.42451E-02         0.00000E+00
    0.46482E-01         0.40813E-02         0.00000E+00
    0.45921E-01         0.39193E-02         0.00000E+00
    0.45329E-01         0.37591E-02         0.00000E+00
    0.44707E-01         0.36009E-02         0.00000E+00
    0.44055E-01         0.34448E-02         0.00000E+00
    0.43374E-01         0.32909E-02         0.00000E+00
    0.42664E-01         0.31395E-02         0.00000E+00
    0.41926E-01         0.29905E-02         0.00000E+00
    0.41159E-01         0.28441E-02         0.00000E+00
    0.40364E-01         0.27004E-02         0.00000E+00
    0.39542E-01         0.25595E-02         0.00000E+00
    0.38692E-01         0.24216E-02         0.00000E+00
    0.37816E-01         0.22866E-02         0.00000E+00
    0.36913E-01         0.21548E-02         0.00000E+00
    0.35985E-01         0.20261E-02         0.00000E+00
    0.35031E-01         0.19008E-02         0.00000E+00
    0.34052E-01         0.17788E-02         0.00000E+00
    0.33048E-01         0.16603E-02         0.00000E+00
    0.32021E-01         0.15454E-02         0.00000E+00
    0.30969E-01         0.14341E-02         0.00000E+00
    0.29895E-01         0.13265E-02         0.00000E+00
    0.28797E-01         0.12228E-02         0.00000E+00
    0.27678E-01         0.11229E-02         0.00000E+00
    0.26537E-01         0.10270E-02         0.00000E+00
    0.25375E-01         0.93506E-03         0.00000E+00
    0.24192E-01         0.84724E-03         0.00000E+00
    0.22989E-01         0.76357E-03         0.00000E+00
    0.21766E-01         0.68412E-03         0.00000E+00
    0.20525E-01         0.60894E-03         0.00000E+00
    0.19265E-01         0.53806E-03         0.00000E+00
    0.17987E-01         0.47154E-03         0.00000E+00
    0.16691E-01         0.40941E-03         0.00000E+00
    0.15379E-01         0.35168E-03         0.00000E+00
    0.14051E-01         0.29838E-03         0.00000E+00
    0.12707E-01         0.24951E-03         0.00000E+00
    0.11347E-01         0.20505E-03         0.00000E+00
    0.99738E-02         0.16496E-03         0.00000E+00
    0.85862E-02         0.12922E-03         0.00000E+00
    0.71852E-02         0.97740E-04         0.00000E+00
    0.57714E-02         0.70433E-04         0.00000E+00
    0.43455E-02         0.47177E-04         0.00000E+00
    0.29079E-02         0.27817E-04         0.00000E+00
    0.14592E-02         0.12167E-04         0.00000E+00
    0.00000E+00         0.00000E+00         0.00000E+00
    0.48800E-01         0.36371E-02         0.00000E+00
    0.48463E-01         0.35190E-02         0.00000E+00
    0.48095E-01         0.34014E-02         0.00000E+00
    0.47695E-01         0.32843E-02         0.00000E+00
    0.47264E-01         0.31679E-02         0.00000E+00
    0.46803E-01         0.30524E-02         0.00000E+00
    0.46310E-01         0.29378E-02         0.00000E+00
    0.45787E-01         0.28243E-02         0.00000E+00
    0.45234E-01         0.27120E-02         0.00000E+00
    0.44651E-01         0.26010E-02         0.00000E+00
    0.44039E-01         0.24913E-02         0.00000E+00
    0.43397E-01         0.23832E-02         0.00000E+00
    0.42727E-01         0.22766E-02         0.00000E+00
    0.42027E-01         0.21717E-02         0.00000E+00
    0.41300E-01         0.20685E-02         0.00000E+00
    0.40544E-01         0.19671E-02         0.00000E+00
    0.39761E-01         0.18675E-02         0.00000E+00
    0.38951E-01         0.17700E-02         0.00000E+00
    0.38115E-01         0.16745E-02         0.00000E+00
    0.37251E-01         0.15810E-02         0.00000E+00
    0.36362E-01         0.14898E-02         0.00000E+00
    0.35448E-01         0.14007E-02         0.00000E+00
    0.34508E-01         0.13139E-02         0.00000E+00
    0.33543E-01         0.12295E-02         0.00000E+00
    0.32555E-01         0.11475E-02         0.00000E+00
    0.31542E-01         0.10680E-02         0.00000E+00
    0.30507E-01         0.99100E-03         0.00000E+00
    0.29448E-01         0.91658E-03         0.00000E+00
    0.28367E-01         0.84481E-03         0.00000E+00
    0.27265E-01         0.77572E-03         0.00000E+00
    0.26141E-01         0.70938E-03         0.00000E+00
    0.24996E-01         0.64583E-03         0.00000E+00
    0.23831E-01         0.58512E-03         0.00000E+00
    0.22646E-01         0.52728E-03         0.00000E+00
    0.21441E-01         0.47236E-03         0.00000E+00
    0.20218E-01         0.42040E-03         0.00000E+00
    0.18977E-01         0.37143E-03         0.00000E+00
    0.17718E-01         0.32547E-03         0.00000E+00
    0.16442E-01         0.28255E-03         0.00000E+00
    0.15150E-01         0.24268E-03         0.00000E+00
    0.13841E-01         0.20587E-03         0.00000E+00
    0.12517E-01         0.17212E-03         0.00000E+00
    0.11178E-01         0.14143E-03         0.00000E+00
    0.98252E-02         0.11377E-03         0.00000E+00
    0.84583E-02         0.89101E-04         0.00000E+00
    0.70782E-02         0.67384E-04         0.00000E+00
    0.56856E-02         0.48550E-04         0.00000E+00
    0.42809E-02         0.32513E-04         0.00000E+00
    0.28647E-02         0.19168E-04         0.00000E+00
    0.14375E-02         0.83826E-05         0.00000E+00
    0.00000E+00         0.00000E+00         0.00000E+00
    0.48324E-01         0.20421E-02         0.00000E+00
    0.47991E-01         0.19756E-02         0.00000E+00
    0.47627E-01         0.19094E-02         0.00000E+00
    0.47231E-01         0.18436E-02         0.00000E+00
    0.46805E-01         0.17781E-02         0.00000E+00
    0.46348E-01         0.17131E-02         0.00000E+00
    0.45860E-01         0.16486E-02         0.00000E+00
    0.45343E-01         0.15848E-02         0.00000E+00
    0.44795E-01         0.15216E-02         0.00000E+00
    0.44218E-01         0.14592E-02         0.00000E+00
    0.43612E-01         0.13976E-02         0.00000E+00
    0.42976E-01         0.13368E-02         0.00000E+00
    0.42312E-01         0.12769E-02         0.00000E+00
    0.41620E-01         0.12179E-02         0.00000E+00
    0.40900E-01         0.11599E-02         0.00000E+00
    0.40152E-01         0.11030E-02         0.00000E+00
    0.39376E-01         0.10471E-02         0.00000E+00
    0.38574E-01         0.99227E-03         0.00000E+00
    0.37745E-01         0.93862E-03         0.00000E+00
    0.36891E-01         0.88615E-03         0.00000E+00
    0.36010E-01         0.83491E-03         0.00000E+00
    0.35104E-01         0.78491E-03         0.00000E+00
    0.34174E-01         0.73621E-03         0.00000E+00
    0.33219E-01         0.68884E-03         0.00000E+00
    0.32240E-01         0.64282E-03         0.00000E+00
    0.31237E-01         0.59820E-03         0.00000E+00
    0.30212E-01         0.55500E-03         0.00000E+00
    0.29163E-01         0.51325E-03         0.00000E+00
    0.28093E-01         0.47299E-03         0.00000E+00
    0.27001E-01         0.43425E-03         0.00000E+00
    0.25888E-01         0.39705E-03         0.00000E+00
    0.24754E-01         0.36143E-03         0.00000E+00
    0.23600E-01         0.32739E-03         0.00000E+00
    0.22427E-01         0.29498E-03         0.00000E+00
    0.21234E-01         0.26421E-03         0.00000E+00
    0.20023E-01         0.23510E-03         0.00000E+00
    0.18794E-01         0.20767E-03         0.00000E+00
    0.17547E-01         0.18193E-03         0.00000E+00
    0.16284E-01         0.15791E-03         0.00000E+00
    0.15004E-01         0.13559E-03         0.00000E+00
    0.13708E-01         0.11500E-03         0.00000E+00
    0.12396E-01         0.96119E-04         0.00000E+00
    0.11071E-01         0.78956E-04         0.00000E+00
    0.97305E-02         0.63493E-04         0.00000E+00
    0.83769E-02         0.49710E-04         0.00000E+00
    0.70101E-02         0.37581E-04         0.00000E+00
    0.56309E-02         0.27067E-04         0.00000E+00
    0.42398E-02         0.18120E-04         0.00000E+00
    0.28372E-02         0.10678E-04         0.00000E+00
    0.14238E-02         0.46680E-05         0.00000E+00
    0.00000E+00         0.00000E+00         0.00000E+00
    0.48114E-01         0.45958E-03         0.00000E+00
    0.47782E-01         0.44443E-03         0.00000E+00
    0.47420E-01         0.42935E-03         0.00000E+00
    0.47026E-01         0.41434E-03         0.00000E+00
    0.46602E-01         0.39944E-03         0.00000E+00
    0.46147E-01         0.38466E-03         0.00000E+00
    0.45662E-01         0.37001E-03         0.00000E+00
    0.45146E-01         0.35552E-03         0.00000E+00
    0.44601E-01         0.34119E-03         0.00000E+00
    0.44027E-01         0.32704E-03         0.00000E+00
    0.43423E-01         0.31308E-03         0.00000E+00
    0.42791E-01         0.29932E-03         0.00000E+00
    0.42130E-01         0.28577E-03         0.00000E+00
    0.41440E-01         0.27245E-03         0.00000E+00
    0.40723E-01         0.25935E-03         0.00000E+00
    0.39978E-01         0.24650E-03         0.00000E+00
    0.39207E-01         0.23389E-03         0.00000E+00
    0.38408E-01         0.22154E-03         0.00000E+00
    0.37583E-01         0.20946E-03         0.00000E+00
    0.36732E-01         0.19765E-03         0.00000E+00
    0.35855E-01         0.18612E-03         0.00000E+00
    0.34953E-01         0.17488E-03         0.00000E+00
    0.34027E-01         0.16393E-03         0.00000E+00
    0.33076E-01         0.15329E-03         0.00000E+00
    0.32101E-01         0.14296E-03         0.00000E+00
    0.31103E-01         0.13295E-03         0.00000E+00
    0.30082E-01         0.12326E-03         0.00000E+00
    0.29038E-01         0.11390E-03         0.00000E+00
    0.27972E-01         0.10489E-03         0.00000E+00
    0.26885E-01         0.96216E-04         0.00000E+00
    0.25777E-01         0.87896E-04         0.00000E+00
    0.24648E-01         0.79932E-04         0.00000E+00
    0.23499E-01         0.72332E-04         0.00000E+00
    0.22331E-01         0.65100E-04         0.00000E+00
    0.21143E-01         0.58241E-04         0.00000E+00
    0.19937E-01         0.51759E-04         0.00000E+00
    0.18713E-01         0.45659E-04         0.00000E+00
    0.17472E-01         0.39942E-04         0.00000E+00
    0.16214E-01         0.34613E-04         0.00000E+00
    0.14939E-01         0.29672E-04         0.00000E+00
    0.13649E-01         0.25119E-04         0.00000E+00
    0.12344E-01         0.20955E-04         0.00000E+00
    0.11023E-01         0.17176E-04         0.00000E+00
    0.96891E-02         0.13781E-04         0.00000E+00
    0.83413E-02         0.10763E-04         0.00000E+00
    0.69804E-02         0.81153E-05         0.00000E+00
    0.56071E-02         0.58284E-05         0.00000E+00
    0.42218E-02         0.38902E-05         0.00000E+00
    0.28252E-02         0.22855E-05         0.00000E+00
    0.14178E-02         0.99614E-06         0.00000E+00
    0.00000E+00         0.00000E+00         0.00000E+00
    0.48167E-01        -0.11194E-02         0.00000E+00
    0.47835E-01        -0.10834E-02         0.00000E+00
    0.47472E-01        -0.10474E-02         0.00000E+00
    0.47079E-01        -0.10116E-02         0.00000E+00
    0.46654E-01        -0.97599E-03         0.00000E+00
    0.46198E-01        -0.94062E-03         0.00000E+00
    0.45713E-01        -0.90553E-03         0.00000E+00
    0.45197E-01        -0.87075E-03         0.00000E+00
    0.44652E-01        -0.83631E-03         0.00000E+00
    0.44077E-01        -0.80225E-03         0.00000E+00
    0.43472E-01        -0.76861E-03         0.00000E+00
    0.42839E-01        -0.73540E-03         0.00000E+00
    0.42177E-01        -0.70266E-03         0.00000E+00
    0.41487E-01        -0.67042E-03         0.00000E+00
    0.40769E-01        -0.63869E-03         0.00000E+00
    0.40024E-01        -0.60751E-03         0.00000E+00
    0.39251E-01        -0.57690E-03         0.00000E+00
    0.38452E-01        -0.54689E-03         0.00000E+00
    0.37626E-01        -0.51749E-03         0.00000E+00
    0.36774E-01        -0.48872E-03         0.00000E+00
    0.35896E-01        -0.46062E-03         0.00000E+00
    0.34993E-01        -0.43319E-03         0.00000E+00
    0.34066E-01        -0.40647E-03         0.00000E+00
    0.33114E-01        -0.38046E-03         0.00000E+00
    0.32138E-01        -0.35520E-03         0.00000E+00
    0.31139E-01        -0.33069E-03         0.00000E+00
    0.30116E-01        -0.30695E-03         0.00000E+00
    0.29071E-01        -0.28401E-03         0.00000E+00
    0.28004E-01        -0.26188E-03         0.00000E+00
    0.26916E-01        -0.24057E-03         0.00000E+00
    0.25806E-01        -0.22010E-03         0.00000E+00
    0.24676E-01        -0.20048E-03         0.00000E+00
    0.23526E-01        -0.18174E-03         0.00000E+00
    0.22356E-01        -0.16387E-03         0.00000E+00
    0.21168E-01        -0.14690E-03         0.00000E+00
    0.19960E-01        -0.13084E-03         0.00000E+00
    0.18735E-01        -0.11568E-03         0.00000E+00
    0.17492E-01        -0.10146E-03         0.00000E+00
    0.16233E-01        -0.88157E-04         0.00000E+00
    0.14957E-01        -0.75794E-04         0.00000E+00
    0.13665E-01        -0.64368E-04         0.00000E+00
    0.12358E-01        -0.53881E-04         0.00000E+00
    0.11036E-01        -0.44329E-04         0.00000E+00
    0.97006E-02        -0.35708E-04         0.00000E+00
    0.83512E-02        -0.28009E-04         0.00000E+00
    0.69887E-02        -0.21216E-04         0.00000E+00
    0.56137E-02        -0.15313E-04         0.00000E+00
    0.42269E-02        -0.10273E-04         0.00000E+00
    0.28286E-02        -0.60680E-05         0.00000E+00
    0.14195E-02        -0.26586E-05         0.00000E+00
    0.00000E+00         0.00000E+00         0.00000E+00
    0.48484E-01        -0.27040E-02         0.00000E+00
    0.48151E-01        -0.26165E-02         0.00000E+00
    0.47785E-01        -0.25293E-02         0.00000E+00
    0.47389E-01        -0.24425E-02         0.00000E+00
    0.46961E-01        -0.23561E-02         0.00000E+00
    0.46503E-01        -0.22704E-02         0.00000E+00
    0.46014E-01        -0.21854E-02         0.00000E+00
    0.45495E-01        -0.21011E-02         0.00000E+00
    0.44946E-01        -0.20177E-02         0.00000E+00
    0.44367E-01        -0.19353E-02         0.00000E+00
    0.43759E-01        -0.18538E-02         0.00000E+00
    0.43122E-01        -0.17735E-02         0.00000E+00
    0.42456E-01        -0.16943E-02         0.00000E+00
    0.41761E-01        -0.16163E-02         0.00000E+00
    0.41039E-01        -0.15396E-02         0.00000E+00
    0.40288E-01        -0.14642E-02         0.00000E+00
    0.39510E-01        -0.13902E-02         0.00000E+00
    0.38706E-01        -0.13176E-02         0.00000E+00
    0.37874E-01        -0.12466E-02         0.00000E+00
    0.37017E-01        -0.11771E-02         0.00000E+00
    0.36133E-01        -0.11092E-02         0.00000E+00
    0.35224E-01        -0.10430E-02         0.00000E+00
    0.34291E-01        -0.97849E-03         0.00000E+00
    0.33332E-01        -0.91572E-03         0.00000E+00
    0.32350E-01        -0.85473E-03         0.00000E+00
    0.31344E-01        -0.79559E-03         0.00000E+00
    0.30315E-01        -0.73832E-03         0.00000E+00
    0.29263E-01        -0.68298E-03         0.00000E+00
    0.28189E-01        -0.62960E-03         0.00000E+00
    0.27094E-01        -0.57822E-03         0.00000E+00
    0.25977E-01        -0.52887E-03         0.00000E+00
    0.24839E-01        -0.48160E-03         0.00000E+00
    0.23682E-01        -0.43643E-03         0.00000E+00
    0.22504E-01        -0.39340E-03         0.00000E+00
    0.21308E-01        -0.35253E-03         0.00000E+00
    0.20092E-01        -0.31386E-03         0.00000E+00
    0.18859E-01        -0.27740E-03         0.00000E+00
    0.17608E-01        -0.24318E-03         0.00000E+00
    0.16340E-01        -0.21120E-03         0.00000E+00
    0.15056E-01        -0.18149E-03         0.00000E+00
    0.13756E-01        -0.15405E-03         0.00000E+00
    0.12440E-01        -0.12888E-03         0.00000E+00
    0.11109E-01        -0.10597E-03         0.00000E+00
    0.97648E-02        -0.85302E-04         0.00000E+00
    0.84064E-02        -0.66861E-04         0.00000E+00
    0.70350E-02        -0.50608E-04         0.00000E+00
    0.56509E-02        -0.36497E-04         0.00000E+00
    0.42549E-02        -0.24466E-04         0.00000E+00
    0.28474E-02        -0.14438E-04         0.00000E+00
    0.14289E-02        -0.63206E-05         0.00000E+00
    0.00000E+00         0.00000E+00         0.00000E+00
    0.49068E-01        -0.43031E-02         0.00000E+00
    0.48730E-01        -0.41637E-02         0.00000E+00
    0.48360E-01        -0.40247E-02         0.00000E+00
    0.47959E-01        -0.38864E-02         0.00000E+00
    0.47526E-01        -0.37489E-02         0.00000E+00
    0.47063E-01        -0.36123E-02         0.00000E+00
    0.46568E-01        -0.34769E-02         0.00000E+00
    0.46043E-01        -0.33427E-02         0.00000E+00
    0.45487E-01        -0.32099E-02         0.00000E+00
    0.44901E-01        -0.30786E-02         0.00000E+00
    0.44286E-01        -0.29489E-02         0.00000E+00
    0.43641E-01        -0.28209E-02         0.00000E+00
    0.42966E-01        -0.26948E-02         0.00000E+00
    0.42263E-01        -0.25707E-02         0.00000E+00
    0.41532E-01        -0.24485E-02         0.00000E+00
    0.40773E-01        -0.23285E-02         0.00000E+00
    0.39985E-01        -0.22108E-02         0.00000E+00
    0.39171E-01        -0.20953E-02         0.00000E+00
    0.38330E-01        -0.19823E-02         0.00000E+00
    0.37462E-01        -0.18717E-02         0.00000E+00
    0.36568E-01        -0.17637E-02         0.00000E+00
    0.35648E-01        -0.16583E-02         0.00000E+00
    0.34703E-01        -0.15556E-02         0.00000E+00
    0.33733E-01        -0.14557E-02         0.00000E+00
    0.32739E-01        -0.13587E-02         0.00000E+00
    0.31721E-01        -0.12646E-02         0.00000E+00
    0.30680E-01        -0.11735E-02         0.00000E+00
    0.29615E-01        -0.10855E-02         0.00000E+00
    0.28528E-01        -0.10006E-02         0.00000E+00
    0.27419E-01        -0.91883E-03         0.00000E+00
    0.26289E-01        -0.84035E-03         0.00000E+00
    0.25138E-01        -0.76518E-03         0.00000E+00
    0.23966E-01        -0.69335E-03         0.00000E+00
    0.22775E-01        -0.62493E-03         0.00000E+00
    0.21564E-01        -0.55996E-03         0.00000E+00
    0.20334E-01        -0.49848E-03         0.00000E+00
    0.19086E-01        -0.44052E-03         0.00000E+00
    0.17820E-01        -0.38613E-03         0.00000E+00
    0.16536E-01        -0.33532E-03         0.00000E+00
    0.15237E-01        -0.28811E-03         0.00000E+00
    0.13921E-01        -0.24451E-03         0.00000E+00
    0.12589E-01        -0.20452E-03         0.00000E+00
    0.11243E-01        -0.16813E-03         0.00000E+00
    0.98821E-02        -0.13532E-03         0.00000E+00
    0.85074E-02        -0.10605E-03         0.00000E+00
    0.71195E-02        -0.80252E-04         0.00000E+00
    0.57188E-02        -0.57862E-04         0.00000E+00
    0.43060E-02        -0.38779E-04         0.00000E+00
    0.28815E-02        -0.22880E-04         0.00000E+00
    0.14460E-02        -0.10014E-04         0.00000E+00
    0.00000E+00         0.00000E+00         0.00000E+00
    0.49920E-01        -0.59258E-02         0.00000E+00
    0.49576E-01        -0.57338E-02         0.00000E+00
    0.49200E-01        -0.55423E-02         0.00000E+00
    0.48792E-01        -0.53517E-02         0.00000E+00
    0.48352E-01        -0.51623E-02         0.00000E+00
    0.47880E-01        -0.49741E-02         0.00000E+00
    0.47376E-01        -0.47875E-02         0.00000E+00
    0.46842E-01        -0.46027E-02         0.00000E+00
    0.46276E-01        -0.44197E-02         0.00000E+00
    0.45680E-01        -0.42388E-02         0.00000E+00
    0.45054E-01        -0.40602E-02         0.00000E+00
    0.44398E-01        -0.38839E-02         0.00000E+00
    0.43712E-01        -0.37102E-02         0.00000E+00
    0.42997E-01        -0.35392E-02         0.00000E+00
    0.42253E-01        -0.33710E-02         0.00000E+00
    0.41480E-01        -0.32058E-02         0.00000E+00
    0.40679E-01        -0.30436E-02         0.00000E+00
    0.39850E-01        -0.28846E-02         0.00000E+00
    0.38994E-01        -0.27289E-02         0.00000E+00
    0.38111E-01        -0.25766E-02         0.00000E+00
    0.37202E-01        -0.24278E-02         0.00000E+00
    0.36266E-01        -0.22827E-02         0.00000E+00
    0.35305E-01        -0.21413E-02         0.00000E+00
    0.34318E-01        -0.20038E-02         0.00000E+00
    0.33307E-01        -0.18702E-02         0.00000E+00
    0.32271E-01        -0.17406E-02         0.00000E+00
    0.31211E-01        -0.16152E-02         0.00000E+00
    0.30128E-01        -0.14940E-02         0.00000E+00
    0.29023E-01        -0.13770E-02         0.00000E+00
    0.27895E-01        -0.12645E-02         0.00000E+00
    0.26745E-01        -0.11565E-02         0.00000E+00
    0.25573E-01        -0.10530E-02         0.00000E+00
    0.24381E-01        -0.95410E-03         0.00000E+00
    0.23169E-01        -0.85991E-03         0.00000E+00
    0.21937E-01        -0.77048E-03         0.00000E+00
    0.20686E-01        -0.68585E-03         0.00000E+00
    0.19416E-01        -0.60608E-03         0.00000E+00
    0.18128E-01        -0.53121E-03         0.00000E+00
    0.16823E-01        -0.46128E-03         0.00000E+00
    0.15500E-01        -0.39631E-03         0.00000E+00
    0.14162E-01        -0.33631E-03         0.00000E+00
    0.12807E-01        -0.28129E-03         0.00000E+00
    0.11437E-01        -0.23123E-03         0.00000E+00
    0.10053E-01        -0.18609E-03         0.00000E+00
    0.86546E-02        -0.14582E-03         0.00000E+00
    0.72426E-02        -0.11034E-03         0.00000E+00
    0.58177E-02        -0.79546E-04         0.00000E+00
    0.43804E-02        -0.53306E-04         0.00000E+00
    0.29314E-02        -0.31448E-04         0.00000E+00
    0.14710E-02        -0.13762E-04         0.00000E+00
    0.00000E+00         0.00000E+00         0.00000E+00
    0.51046E-01        -0.75815E-02         0.00000E+00
    0.50694E-01        -0.73357E-02         0.00000E+00
    0.50310E-01        -0.70907E-02         0.00000E+00
    0.49892E-01        -0.68468E-02         0.00000E+00
    0.49442E-01        -0.66044E-02         0.00000E+00
    0.48959E-01        -0.63636E-02         0.00000E+00
    0.48444E-01        -0.61249E-02         0.00000E+00
    0.47898E-01        -0.58883E-02         0.00000E+00
    0.47319E-01        -0.56542E-02         0.00000E+00
    0.46710E-01        -0.54228E-02         0.00000E+00
    0.46069E-01        -0.51942E-02         0.00000E+00
    0.45398E-01        -0.49687E-02         0.00000E+00
    0.44697E-01        -0.47464E-02         0.00000E+00
    0.43965E-01        -0.45276E-02         0.00000E+00
    0.43204E-01        -0.43124E-02         0.00000E+00
    0.42414E-01        -0.41010E-02         0.00000E+00
    0.41595E-01        -0.38935E-02         0.00000E+00
    0.40748E-01        -0.36900E-02         0.00000E+00
    0.39872E-01        -0.34908E-02         0.00000E+00
    0.38969E-01        -0.32960E-02         0.00000E+00
    0.38039E-01        -0.31057E-02         0.00000E+00
    0.37082E-01        -0.29200E-02         0.00000E+00
    0.36099E-01        -0.27392E-02         0.00000E+00
    0.35090E-01        -0.25632E-02         0.00000E+00
    0.34056E-01        -0.23923E-02         0.00000E+00
    0.32997E-01        -0.22265E-02         0.00000E+00
    0.31914E-01        -0.20660E-02         0.00000E+00
    0.30806E-01        -0.19110E-02         0.00000E+00
    0.29676E-01        -0.17614E-02         0.00000E+00
    0.28522E-01        -0.16175E-02         0.00000E+00
    0.27346E-01        -0.14792E-02         0.00000E+00
    0.26148E-01        -0.13468E-02         0.00000E+00
    0.24930E-01        -0.12203E-02         0.00000E+00
    0.23690E-01        -0.10998E-02         0.00000E+00
    0.22430E-01        -0.98543E-03         0.00000E+00
    0.21151E-01        -0.87717E-03         0.00000E+00
    0.19852E-01        -0.77512E-03         0.00000E+00
    0.18535E-01        -0.67936E-03         0.00000E+00
    0.17201E-01        -0.58990E-03         0.00000E+00
    0.15849E-01        -0.50680E-03         0.00000E+00
    0.14480E-01        -0.43006E-03         0.00000E+00
    0.13095E-01        -0.35969E-03         0.00000E+00
    0.11694E-01        -0.29566E-03         0.00000E+00
    0.10279E-01        -0.23793E-03         0.00000E+00
    0.88488E-02        -0.18643E-03         0.00000E+00
    0.74051E-02        -0.14106E-03         0.00000E+00
    0.59482E-02        -0.10169E-03         0.00000E+00
    0.44787E-02        -0.68142E-04         0.00000E+00
    0.29971E-02        -0.40197E-04         0.00000E+00
    0.15040E-02        -0.17590E-04         0.00000E+00
    0.00000E+00         0.00000E+00         0.00000E+00
    0.52452E-01        -0.92795E-02         0.00000E+00
    0.52090E-01        -0.89787E-02         0.00000E+00
    0.51695E-01        -0.86788E-02         0.00000E+00
    0.51266E-01        -0.83803E-02         0.00000E+00
    0.50803E-01        -0.80836E-02         0.00000E+00
    0.50307E-01        -0.77889E-02         0.00000E+00
    0.49778E-01        -0.74967E-02         0.00000E+00
    0.49216E-01        -0.72071E-02         0.00000E+00
    0.48621E-01        -0.69206E-02         0.00000E+00
    0.47995E-01        -0.66373E-02         0.00000E+00
    0.47337E-01        -0.63576E-02         0.00000E+00
    0.46647E-01        -0.60816E-02         0.00000E+00
    0.45926E-01        -0.58096E-02         0.00000E+00
    0.45174E-01        -0.55418E-02         0.00000E+00
    0.44392E-01        -0.52784E-02         0.00000E+00
    0.43580E-01        -0.50196E-02         0.00000E+00
    0.42739E-01        -0.47657E-02         0.00000E+00
    0.41868E-01        -0.45167E-02         0.00000E+00
    0.40968E-01        -0.42729E-02         0.00000E+00
    0.40040E-01        -0.40344E-02         0.00000E+00
    0.39085E-01        -0.38015E-02         0.00000E+00
    0.38101E-01        -0.35742E-02         0.00000E+00
    0.37091E-01        -0.33529E-02         0.00000E+00
    0.36054E-01        -0.31375E-02         0.00000E+00
    0.34992E-01        -0.29283E-02         0.00000E+00
    0.33903E-01        -0.27254E-02         0.00000E+00
    0.32790E-01        -0.25290E-02         0.00000E+00
    0.31652E-01        -0.23391E-02         0.00000E+00
    0.30490E-01        -0.21561E-02         0.00000E+00
    0.29305E-01        -0.19799E-02         0.00000E+00
    0.28097E-01        -0.18107E-02         0.00000E+00
    0.26866E-01        -0.16486E-02         0.00000E+00
    0.25614E-01        -0.14938E-02         0.00000E+00
    0.24340E-01        -0.13463E-02         0.00000E+00
    0.23046E-01        -0.12062E-02         0.00000E+00
    0.21731E-01        -0.10737E-02         0.00000E+00
    0.20397E-01        -0.94877E-03         0.00000E+00
    0.19044E-01        -0.83153E-03         0.00000E+00
    0.17672E-01        -0.72204E-03         0.00000E+00
    0.16283E-01        -0.62031E-03         0.00000E+00
    0.14877E-01        -0.52637E-03         0.00000E+00
    0.13454E-01        -0.44023E-03         0.00000E+00
    0.12015E-01        -0.36185E-03         0.00000E+00
    0.10560E-01        -0.29119E-03         0.00000E+00
    0.90911E-02        -0.22816E-03         0.00000E+00
    0.76079E-02        -0.17263E-03         0.00000E+00
    0.61110E-02        -0.12444E-03         0.00000E+00
    0.46012E-02        -0.83386E-04         0.00000E+00
    0.30791E-02        -0.49188E-04         0.00000E+00
    0.15451E-02        -0.21524E-04         0.00000E+00
    0.00000E+00         0.00000E+00         0.00000E+00
    0.54146E-01        -0.11030E-01         0.00000E+00
    0.53772E-01        -0.10672E-01         0.00000E+00
    0.53364E-01        -0.10316E-01         0.00000E+00
    0.52920E-01        -0.99611E-02         0.00000E+00
    0.52442E-01        -0.96085E-02         0.00000E+00
    0.51930E-01        -0.92583E-02         0.00000E+00
    0.51383E-01        -0.89110E-02         0.00000E+00
    0.50803E-01        -0.85669E-02         0.00000E+00
    0.50189E-01        -0.82264E-02         0.00000E+00
    0.49543E-01        -0.78898E-02         0.00000E+00
    0.48863E-01        -0.75573E-02         0.00000E+00
    0.48151E-01        -0.72294E-02         0.00000E+00
    0.47406E-01        -0.69061E-02         0.00000E+00
    0.46630E-01        -0.65879E-02         0.00000E+00
    0.45823E-01        -0.62748E-02         0.00000E+00
    0.44985E-01        -0.59673E-02         0.00000E+00
    0.44116E-01        -0.56655E-02         0.00000E+00
    0.43217E-01        -0.53695E-02         0.00000E+00
    0.42288E-01        -0.50798E-02         0.00000E+00
    0.41330E-01        -0.47964E-02         0.00000E+00
    0.40344E-01        -0.45195E-02         0.00000E+00
    0.39329E-01        -0.42494E-02         0.00000E+00
    0.38286E-01        -0.39863E-02         0.00000E+00
    0.37216E-01        -0.37303E-02         0.00000E+00
    0.36119E-01        -0.34816E-02         0.00000E+00
    0.34995E-01        -0.32404E-02         0.00000E+00
    0.33846E-01        -0.30069E-02         0.00000E+00
    0.32671E-01        -0.27812E-02         0.00000E+00
    0.31472E-01        -0.25636E-02         0.00000E+00
    0.30249E-01        -0.23541E-02         0.00000E+00
    0.29001E-01        -0.21530E-02         0.00000E+00
    0.27731E-01        -0.19603E-02         0.00000E+00
    0.26438E-01        -0.17762E-02         0.00000E+00
    0.25123E-01        -0.16008E-02         0.00000E+00
    0.23787E-01        -0.14343E-02         0.00000E+00
    0.22430E-01        -0.12767E-02         0.00000E+00
    0.21053E-01        -0.11282E-02         0.00000E+00
    0.19656E-01        -0.98878E-03         0.00000E+00
    0.18241E-01        -0.85857E-03         0.00000E+00
    0.16807E-01        -0.73761E-03         0.00000E+00
    0.15355E-01        -0.62591E-03         0.00000E+00
    0.13886E-01        -0.52347E-03         0.00000E+00
    0.12401E-01        -0.43027E-03         0.00000E+00
    0.10900E-01        -0.34625E-03         0.00000E+00
    0.93832E-02        -0.27129E-03         0.00000E+00
    0.78522E-02        -0.20526E-03         0.00000E+00
    0.63072E-02        -0.14797E-03         0.00000E+00
    0.47489E-02        -0.99146E-04         0.00000E+00
    0.31779E-02        -0.58484E-04         0.00000E+00
    0.15947E-02        -0.25591E-04         0.00000E+00
    0.00000E+00         0.00000E+00         0.00000E+00
    0.56136E-01        -0.12842E-01         0.00000E+00
    0.55749E-01        -0.12426E-01         0.00000E+00
    0.55325E-01        -0.12011E-01         0.00000E+00
    0.54865E-01        -0.11598E-01         0.00000E+00
    0.54369E-01        -0.11188E-01         0.00000E+00
    0.53837E-01        -0.10780E-01         0.00000E+00
    0.53270E-01        -0.10376E-01         0.00000E+00
    0.52669E-01        -0.99758E-02         0.00000E+00
    0.52032E-01        -0.95794E-02         0.00000E+00
    0.51361E-01        -0.91876E-02         0.00000E+00
    0.50656E-01        -0.88007E-02         0.00000E+00
    0.49918E-01        -0.84189E-02         0.00000E+00
    0.49146E-01        -0.80427E-02         0.00000E+00
    0.48342E-01        -0.76722E-02         0.00000E+00
    0.47504E-01        -0.73079E-02         0.00000E+00
    0.46635E-01        -0.69499E-02         0.00000E+00
    0.45734E-01        -0.65985E-02         0.00000E+00
    0.44802E-01        -0.62540E-02         0.00000E+00
    0.43840E-01        -0.59167E-02         0.00000E+00
    0.42846E-01        -0.55867E-02         0.00000E+00
    0.41824E-01        -0.52644E-02         0.00000E+00
    0.40771E-01        -0.49499E-02         0.00000E+00
    0.39690E-01        -0.46435E-02         0.00000E+00
    0.38581E-01        -0.43454E-02         0.00000E+00
    0.37443E-01        -0.40558E-02         0.00000E+00
    0.36279E-01        -0.37749E-02         0.00000E+00
    0.35087E-01        -0.35030E-02         0.00000E+00
    0.33870E-01        -0.32402E-02         0.00000E+00
    0.32626E-01        -0.29867E-02         0.00000E+00
    0.31358E-01        -0.27427E-02         0.00000E+00
    0.30065E-01        -0.25084E-02         0.00000E+00
    0.28748E-01        -0.22840E-02         0.00000E+00
    0.27408E-01        -0.20695E-02         0.00000E+00
    0.26044E-01        -0.18652E-02         0.00000E+00
    0.24659E-01        -0.16712E-02         0.00000E+00
    0.23252E-01        -0.14877E-02         0.00000E+00
    0.21825E-01        -0.13146E-02         0.00000E+00
    0.20377E-01        -0.11522E-02         0.00000E+00
    0.18909E-01        -0.10005E-02         0.00000E+00
    0.17422E-01        -0.85954E-03         0.00000E+00
    0.15917E-01        -0.72939E-03         0.00000E+00
    0.14395E-01        -0.61002E-03         0.00000E+00
    0.12855E-01        -0.50142E-03         0.00000E+00
    0.11299E-01        -0.40350E-03         0.00000E+00
    0.97266E-02        -0.31615E-03         0.00000E+00
    0.81395E-02        -0.23920E-03         0.00000E+00
    0.65380E-02        -0.17243E-03         0.00000E+00
    0.49226E-02        -0.11554E-03         0.00000E+00
    0.32941E-02        -0.68153E-04         0.00000E+00
    0.16530E-02        -0.29822E-04         0.00000E+00
    0.00000E+00         0.00000E+00         0.00000E+00
    0.58435E-01        -0.14728E-01         0.00000E+00
    0.58031E-01        -0.14251E-01         0.00000E+00
    0.57589E-01        -0.13775E-01         0.00000E+00
    0.57109E-01        -0.13302E-01         0.00000E+00
    0.56593E-01        -0.12832E-01         0.00000E+00
    0.56039E-01        -0.12364E-01         0.00000E+00
    0.55449E-01        -0.11901E-01         0.00000E+00
    0.54822E-01        -0.11442E-01         0.00000E+00
    0.54159E-01        -0.10988E-01         0.00000E+00
    0.53461E-01        -0.10539E-01         0.00000E+00
    0.52727E-01        -0.10095E-01         0.00000E+00
    0.51958E-01        -0.96577E-02         0.00000E+00
    0.51155E-01        -0.92264E-02         0.00000E+00
    0.50317E-01        -0.88017E-02         0.00000E+00
    0.49446E-01        -0.83840E-02         0.00000E+00
    0.48541E-01        -0.79736E-02         0.00000E+00
    0.47603E-01        -0.75707E-02         0.00000E+00
    0.46633E-01        -0.71757E-02         0.00000E+00
    0.45631E-01        -0.67889E-02         0.00000E+00
    0.44597E-01        -0.64106E-02         0.00000E+00
    0.43533E-01        -0.60410E-02         0.00000E+00
    0.42437E-01        -0.56803E-02         0.00000E+00
    0.41312E-01        -0.53289E-02         0.00000E+00
    0.40157E-01        -0.49870E-02         0.00000E+00
    0.38974E-01        -0.46548E-02         0.00000E+00
    0.37761E-01        -0.43327E-02         0.00000E+00
    0.36521E-01        -0.40207E-02         0.00000E+00
    0.35254E-01        -0.37192E-02         0.00000E+00
    0.33960E-01        -0.34284E-02         0.00000E+00
    0.32639E-01        -0.31485E-02         0.00000E+00
    0.31294E-01        -0.28796E-02         0.00000E+00
    0.29923E-01        -0.26220E-02         0.00000E+00
    0.28528E-01        -0.23759E-02         0.00000E+00
    0.27109E-01        -0.21415E-02         0.00000E+00
    0.25667E-01        -0.19188E-02         0.00000E+00
    0.24203E-01        -0.17081E-02         0.00000E+00
    0.22717E-01        -0.15094E-02         0.00000E+00
    0.21209E-01        -0.13230E-02         0.00000E+00
    0.19682E-01        -0.11488E-02         0.00000E+00
    0.18134E-01        -0.98702E-03         0.00000E+00
    0.16568E-01        -0.83758E-03         0.00000E+00
    0.14983E-01        -0.70053E-03         0.00000E+00
    0.13380E-01        -0.57582E-03         0.00000E+00
    0.11760E-01        -0.46338E-03         0.00000E+00
    0.10124E-01        -0.36308E-03         0.00000E+00
    0.84718E-02        -0.27471E-03         0.00000E+00
    0.68048E-02        -0.19803E-03         0.00000E+00
    0.51235E-02        -0.13269E-03         0.00000E+00
    0.34284E-02        -0.78272E-04         0.00000E+00
    0.17204E-02        -0.34249E-04         0.00000E+00
    0.00000E+00         0.00000E+00         0.00000E+00
    0.61053E-01        -0.16697E-01         0.00000E+00
    0.60630E-01        -0.16157E-01         0.00000E+00
    0.60168E-01        -0.15618E-01         0.00000E+00
    0.59666E-01        -0.15082E-01         0.00000E+00
    0.59126E-01        -0.14549E-01         0.00000E+00
    0.58547E-01        -0.14020E-01         0.00000E+00
    0.57930E-01        -0.13495E-01         0.00000E+00
    0.57275E-01        -0.12975E-01         0.00000E+00
    0.56583E-01        -0.12461E-01         0.00000E+00
    0.55853E-01        -0.11952E-01         0.00000E+00
    0.55086E-01        -0.11449E-01         0.00000E+00
    0.54283E-01        -0.10953E-01         0.00000E+00
    0.53443E-01        -0.10465E-01         0.00000E+00
    0.52568E-01        -0.99835E-02         0.00000E+00
    0.51658E-01        -0.95102E-02         0.00000E+00
    0.50713E-01        -0.90451E-02         0.00000E+00
    0.49733E-01        -0.85885E-02         0.00000E+00
    0.48720E-01        -0.81409E-02         0.00000E+00
    0.47673E-01        -0.77024E-02         0.00000E+00
    0.46593E-01        -0.72735E-02         0.00000E+00
    0.45481E-01        -0.68545E-02         0.00000E+00
    0.44337E-01        -0.64456E-02         0.00000E+00
    0.43161E-01        -0.60472E-02         0.00000E+00
    0.41955E-01        -0.56595E-02         0.00000E+00
    0.40718E-01        -0.52829E-02         0.00000E+00
    0.39452E-01        -0.49175E-02         0.00000E+00
    0.38156E-01        -0.45637E-02         0.00000E+00
    0.36832E-01        -0.42217E-02         0.00000E+00
    0.35480E-01        -0.38918E-02         0.00000E+00
    0.34101E-01        -0.35742E-02         0.00000E+00
    0.32695E-01        -0.32692E-02         0.00000E+00
    0.31263E-01        -0.29769E-02         0.00000E+00
    0.29806E-01        -0.26976E-02         0.00000E+00
    0.28323E-01        -0.24316E-02         0.00000E+00
    0.26817E-01        -0.21788E-02         0.00000E+00
    0.25287E-01        -0.19397E-02         0.00000E+00
    0.23734E-01        -0.17142E-02         0.00000E+00
    0.22160E-01        -0.15025E-02         0.00000E+00
    0.20564E-01        -0.13048E-02         0.00000E+00
    0.18947E-01        -0.11210E-02         0.00000E+00
    0.17310E-01        -0.95136E-03         0.00000E+00
    0.15654E-01        -0.79572E-03         0.00000E+00
    0.13979E-01        -0.65409E-03         0.00000E+00
    0.12287E-01        -0.52639E-03         0.00000E+00
    0.10577E-01        -0.41246E-03         0.00000E+00
    0.88511E-02        -0.31209E-03         0.00000E+00
    0.71094E-02        -0.22498E-03         0.00000E+00
    0.53528E-02        -0.15075E-03         0.00000E+00
    0.35819E-02        -0.88926E-04         0.00000E+00
    0.17974E-02        -0.38912E-04         0.00000E+00
    0.00000E+00         0.00000E+00         0.00000E+00
    0.64004E-01        -0.18762E-01         0.00000E+00
    0.63560E-01        -0.18155E-01         0.00000E+00
    0.63075E-01        -0.17551E-01         0.00000E+00
    0.62549E-01        -0.16949E-01         0.00000E+00
    0.61982E-01        -0.16351E-01         0.00000E+00
    0.61375E-01        -0.15757E-01         0.00000E+00
    0.60728E-01        -0.15168E-01         0.00000E+00
    0.60041E-01        -0.14584E-01         0.00000E+00
    0.59315E-01        -0.14006E-01         0.00000E+00
    0.58550E-01        -0.13435E-01         0.00000E+00
    0.57746E-01        -0.12871E-01         0.00000E+00
    0.56904E-01        -0.12314E-01         0.00000E+00
    0.56024E-01        -0.11766E-01         0.00000E+00
    0.55106E-01        -0.11225E-01         0.00000E+00
    0.54152E-01        -0.10694E-01         0.00000E+00
    0.53162E-01        -0.10171E-01         0.00000E+00
    0.52135E-01        -0.96586E-02         0.00000E+00
    0.51073E-01        -0.91558E-02         0.00000E+00
    0.49976E-01        -0.86633E-02         0.00000E+00
    0.48844E-01        -0.81814E-02         0.00000E+00
    0.47679E-01        -0.77106E-02         0.00000E+00
    0.46480E-01        -0.72512E-02         0.00000E+00
    0.45248E-01        -0.68035E-02         0.00000E+00
    0.43983E-01        -0.63677E-02         0.00000E+00
    0.42687E-01        -0.59444E-02         0.00000E+00
    0.41360E-01        -0.55336E-02         0.00000E+00
    0.40002E-01        -0.51359E-02         0.00000E+00
    0.38615E-01        -0.47514E-02         0.00000E+00
    0.37198E-01        -0.43804E-02         0.00000E+00
    0.35752E-01        -0.40232E-02         0.00000E+00
    0.34278E-01        -0.36801E-02         0.00000E+00
    0.32777E-01        -0.33513E-02         0.00000E+00
    0.31249E-01        -0.30372E-02         0.00000E+00
    0.29695E-01        -0.27378E-02         0.00000E+00
    0.28116E-01        -0.24534E-02         0.00000E+00
    0.26512E-01        -0.21842E-02         0.00000E+00
    0.24885E-01        -0.19304E-02         0.00000E+00
    0.23234E-01        -0.16922E-02         0.00000E+00
    0.21560E-01        -0.14696E-02         0.00000E+00
    0.19865E-01        -0.12627E-02         0.00000E+00
    0.18149E-01        -0.10717E-02         0.00000E+00
    0.16413E-01        -0.89639E-03         0.00000E+00
    0.14657E-01        -0.73689E-03         0.00000E+00
    0.12882E-01        -0.59305E-03         0.00000E+00
    0.11090E-01        -0.46472E-03         0.00000E+00
    0.92801E-02        -0.35165E-03         0.00000E+00
    0.74539E-02        -0.25351E-03         0.00000E+00
    0.56121E-02        -0.16988E-03         0.00000E+00
    0.37554E-02        -0.10021E-03         0.00000E+00
    0.18844E-02        -0.43851E-04         0.00000E+00
    0.00000E+00         0.00000E+00         0.00000E+00
    0.67305E-01        -0.20934E-01         0.00000E+00
    0.66837E-01        -0.20258E-01         0.00000E+00
    0.66326E-01        -0.19585E-01         0.00000E+00
    0.65772E-01        -0.18914E-01         0.00000E+00
    0.65176E-01        -0.18248E-01         0.00000E+00
    0.64537E-01        -0.17586E-01         0.00000E+00
    0.63856E-01        -0.16930E-01         0.00000E+00
    0.63134E-01        -0.16279E-01         0.00000E+00
    0.62370E-01        -0.15635E-01         0.00000E+00
    0.61566E-01        -0.14999E-01         0.00000E+00
    0.60720E-01        -0.14370E-01         0.00000E+00
    0.59835E-01        -0.13749E-01         0.00000E+00
    0.58910E-01        -0.13138E-01         0.00000E+00
    0.57946E-01        -0.12535E-01         0.00000E+00
    0.56943E-01        -0.11943E-01         0.00000E+00
    0.55902E-01        -0.11360E-01         0.00000E+00
    0.54823E-01        -0.10788E-01         0.00000E+00
    0.53707E-01        -0.10227E-01         0.00000E+00
    0.52554E-01        -0.96781E-02         0.00000E+00
    0.51364E-01        -0.91406E-02         0.00000E+00
    0.50139E-01        -0.86153E-02         0.00000E+00
    0.48879E-01        -0.81027E-02         0.00000E+00
    0.47584E-01        -0.76030E-02         0.00000E+00
    0.46255E-01        -0.71167E-02         0.00000E+00
    0.44893E-01        -0.66441E-02         0.00000E+00
    0.43498E-01        -0.61856E-02         0.00000E+00
    0.42070E-01        -0.57415E-02         0.00000E+00
    0.40612E-01        -0.53121E-02         0.00000E+00
    0.39122E-01        -0.48978E-02         0.00000E+00
    0.37602E-01        -0.44988E-02         0.00000E+00
    0.36052E-01        -0.41155E-02         0.00000E+00
    0.34474E-01        -0.37482E-02         0.00000E+00
    0.32868E-01        -0.33971E-02         0.00000E+00
    0.31234E-01        -0.30625E-02         0.00000E+00
    0.29573E-01        -0.27447E-02         0.00000E+00
    0.27886E-01        -0.24438E-02         0.00000E+00
    0.26175E-01        -0.21600E-02         0.00000E+00
    0.24438E-01        -0.18936E-02         0.00000E+00
    0.22678E-01        -0.16446E-02         0.00000E+00
    0.20896E-01        -0.14133E-02         0.00000E+00
    0.19091E-01        -0.11995E-02         0.00000E+00
    0.17264E-01        -0.10034E-02         0.00000E+00
    0.15417E-01        -0.82494E-03         0.00000E+00
    0.13551E-01        -0.66397E-03         0.00000E+00
    0.11665E-01        -0.52033E-03         0.00000E+00
    0.97617E-02        -0.39375E-03         0.00000E+00
    0.78408E-02        -0.28388E-03         0.00000E+00
    0.59034E-02        -0.19024E-03         0.00000E+00
    0.39502E-02        -0.11223E-03         0.00000E+00
    0.19822E-02        -0.49112E-04         0.00000E+00
    0.00000E+00         0.00000E+00         0.00000E+00
    0.70971E-01        -0.23227E-01         0.00000E+00
    0.70477E-01        -0.22478E-01         0.00000E+00
    0.69937E-01        -0.21732E-01         0.00000E+00
    0.69353E-01        -0.20990E-01         0.00000E+00
    0.68723E-01        -0.20251E-01         0.00000E+00
    0.68050E-01        -0.19518E-01         0.00000E+00
    0.67332E-01        -0.18791E-01         0.00000E+00
    0.66570E-01        -0.18070E-01         0.00000E+00
    0.65765E-01        -0.17357E-01         0.00000E+00
    0.64917E-01        -0.16652E-01         0.00000E+00
    0.64026E-01        -0.15955E-01         0.00000E+00
    0.63093E-01        -0.15267E-01         0.00000E+00
    0.62118E-01        -0.14589E-01         0.00000E+00
    0.61103E-01        -0.13922E-01         0.00000E+00
    0.60046E-01        -0.13265E-01         0.00000E+00
    0.58949E-01        -0.12619E-01         0.00000E+00
    0.57812E-01        -0.11985E-01         0.00000E+00
    0.56636E-01        -0.11363E-01         0.00000E+00
    0.55421E-01        -0.10754E-01         0.00000E+00
    0.54167E-01        -0.10158E-01         0.00000E+00
    0.52876E-01        -0.95748E-02         0.00000E+00
    0.51548E-01        -0.90060E-02         0.00000E+00
    0.50184E-01        -0.84516E-02         0.00000E+00
    0.48783E-01        -0.79118E-02         0.00000E+00
    0.47348E-01        -0.73872E-02         0.00000E+00
    0.45877E-01        -0.68782E-02         0.00000E+00
    0.44373E-01        -0.63850E-02         0.00000E+00
    0.42835E-01        -0.59081E-02         0.00000E+00
    0.41265E-01        -0.54479E-02         0.00000E+00
    0.39662E-01        -0.50047E-02         0.00000E+00
    0.38029E-01        -0.45788E-02         0.00000E+00
    0.36365E-01        -0.41706E-02         0.00000E+00
    0.34671E-01        -0.37804E-02         0.00000E+00
    0.32948E-01        -0.34084E-02         0.00000E+00
    0.31197E-01        -0.30550E-02         0.00000E+00
    0.29418E-01        -0.27204E-02         0.00000E+00
    0.27613E-01        -0.24048E-02         0.00000E+00
    0.25782E-01        -0.21084E-02         0.00000E+00
    0.23926E-01        -0.18314E-02         0.00000E+00
    0.22045E-01        -0.15739E-02         0.00000E+00
    0.20141E-01        -0.13360E-02         0.00000E+00
    0.18214E-01        -0.11177E-02         0.00000E+00
    0.16266E-01        -0.91902E-03         0.00000E+00
    0.14297E-01        -0.73977E-03         0.00000E+00
    0.12308E-01        -0.57979E-03         0.00000E+00
    0.10299E-01        -0.43879E-03         0.00000E+00
    0.82727E-02        -0.31638E-03         0.00000E+00
    0.62286E-02        -0.21203E-03         0.00000E+00
    0.41679E-02        -0.12509E-03         0.00000E+00
    0.20914E-02        -0.54744E-04         0.00000E+00
    0.00000E+00         0.00000E+00         0.00000E+00
    0.75021E-01        -0.25652E-01         0.00000E+00
    0.74498E-01        -0.24828E-01         0.00000E+00
    0.73927E-01        -0.24005E-01         0.00000E+00
    0.73308E-01        -0.23187E-01         0.00000E+00
    0.72643E-01        -0.22373E-01         0.00000E+00
    0.71930E-01        -0.21565E-01         0.00000E+00
    0.71172E-01        -0.20764E-01         0.00000E+00
    0.70367E-01        -0.19969E-01         0.00000E+00
    0.69516E-01        -0.19183E-01         0.00000E+00
    0.68621E-01        -0.18405E-01         0.00000E+00
    0.67680E-01        -0.17637E-01         0.00000E+00
    0.66695E-01        -0.16878E-01         0.00000E+00
    0.65665E-01        -0.16130E-01         0.00000E+00
    0.64593E-01        -0.15394E-01         0.00000E+00
    0.63477E-01        -0.14669E-01         0.00000E+00
    0.62318E-01        -0.13956E-01         0.00000E+00
    0.61118E-01        -0.13257E-01         0.00000E+00
    0.59876E-01        -0.12570E-01         0.00000E+00
    0.58593E-01        -0.11898E-01         0.00000E+00
    0.57269E-01        -0.11239E-01         0.00000E+00
    0.55906E-01        -0.10596E-01         0.00000E+00
    0.54503E-01        -0.99675E-02         0.00000E+00
    0.53062E-01        -0.93550E-02         0.00000E+00
    0.51583E-01        -0.87587E-02         0.00000E+00
    0.50066E-01        -0.81789E-02         0.00000E+00
    0.48513E-01        -0.76163E-02         0.00000E+00
    0.46924E-01        -0.70711E-02         0.00000E+00
    0.45299E-01        -0.65439E-02         0.00000E+00
    0.43640E-01        -0.60349E-02         0.00000E+00
    0.41947E-01        -0.55447E-02         0.00000E+00
    0.40220E-01        -0.50735E-02         0.00000E+00
    0.38462E-01        -0.46218E-02         0.00000E+00
    0.36671E-01        -0.41899E-02         0.00000E+00
    0.34850E-01        -0.37782E-02         0.00000E+00
    0.32999E-01        -0.33869E-02         0.00000E+00
    0.31118E-01        -0.30163E-02         0.00000E+00
    0.29210E-01        -0.26667E-02         0.00000E+00
    0.27273E-01        -0.23384E-02         0.00000E+00
    0.25310E-01        -0.20315E-02         0.00000E+00
    0.23322E-01        -0.17461E-02         0.00000E+00
    0.21308E-01        -0.14824E-02         0.00000E+00
    0.19270E-01        -0.12403E-02         0.00000E+00
    0.17209E-01        -0.10200E-02         0.00000E+00
    0.15126E-01        -0.82113E-03         0.00000E+00
    0.13022E-01        -0.64363E-03         0.00000E+00
    0.10897E-01        -0.48717E-03         0.00000E+00
    0.87530E-02        -0.35130E-03         0.00000E+00
    0.65903E-02        -0.23546E-03         0.00000E+00
    0.44100E-02        -0.13893E-03         0.00000E+00
    0.22129E-02        -0.60803E-04         0.00000E+00
    0.00000E+00         0.00000E+00         0.00000E+00
    0.79474E-01        -0.28225E-01         0.00000E+00
    0.78919E-01        -0.27320E-01         0.00000E+00
    0.78314E-01        -0.26417E-01         0.00000E+00
    0.77658E-01        -0.25519E-01         0.00000E+00
    0.76953E-01        -0.24626E-01         0.00000E+00
    0.76199E-01        -0.23738E-01         0.00000E+00
    0.75396E-01        -0.22858E-01         0.00000E+00
    0.74544E-01        -0.21986E-01         0.00000E+00
    0.73644E-01        -0.21122E-01         0.00000E+00
    0.72696E-01        -0.20268E-01         0.00000E+00
    0.71701E-01        -0.19424E-01         0.00000E+00
    0.70658E-01        -0.18591E-01         0.00000E+00
    0.69570E-01        -0.17770E-01         0.00000E+00
    0.68435E-01        -0.16960E-01         0.00000E+00
    0.67254E-01        -0.16164E-01         0.00000E+00
    0.66029E-01        -0.15381E-01         0.00000E+00
    0.64759E-01        -0.14611E-01         0.00000E+00
    0.63445E-01        -0.13857E-01         0.00000E+00
    0.62088E-01        -0.13117E-01         0.00000E+00
    0.60688E-01        -0.12393E-01         0.00000E+00
    0.59245E-01        -0.11685E-01         0.00000E+00
    0.57761E-01        -0.10993E-01         0.00000E+00
    0.56236E-01        -0.10319E-01         0.00000E+00
    0.54670E-01        -0.96629E-02         0.00000E+00
    0.53065E-01        -0.90247E-02         0.00000E+00
    0.51421E-01        -0.84050E-02         0.00000E+00
    0.49738E-01        -0.78046E-02         0.00000E+00
    0.48018E-01        -0.72237E-02         0.00000E+00
    0.46262E-01        -0.66629E-02         0.00000E+00
    0.44469E-01        -0.61225E-02         0.00000E+00
    0.42640E-01        -0.56031E-02         0.00000E+00
    0.40777E-01        -0.51051E-02         0.00000E+00
    0.38881E-01        -0.46287E-02         0.00000E+00
    0.36952E-01        -0.41745E-02         0.00000E+00
    0.34990E-01        -0.37428E-02         0.00000E+00
    0.32998E-01        -0.33338E-02         0.00000E+00
    0.30975E-01        -0.29479E-02         0.00000E+00
    0.28923E-01        -0.25854E-02         0.00000E+00
    0.26842E-01        -0.22464E-02         0.00000E+00
    0.24734E-01        -0.19311E-02         0.00000E+00
    0.22599E-01        -0.16397E-02         0.00000E+00
    0.20439E-01        -0.13722E-02         0.00000E+00
    0.18253E-01        -0.11286E-02         0.00000E+00
    0.16045E-01        -0.90874E-03         0.00000E+00
    0.13813E-01        -0.71242E-03         0.00000E+00
    0.11559E-01        -0.53932E-03         0.00000E+00
    0.92852E-02        -0.38896E-03         0.00000E+00
    0.69912E-02        -0.26074E-03         0.00000E+00
    0.46783E-02        -0.15386E-03         0.00000E+00
    0.23476E-02        -0.67342E-04         0.00000E+00
    0.00000E+00         0.00000E+00         0.00000E+00
    0.84352E-01        -0.30957E-01         0.00000E+00
    0.83762E-01        -0.29967E-01         0.00000E+00
    0.83119E-01        -0.28980E-01         0.00000E+00
    0.82424E-01        -0.27998E-01         0.00000E+00
    0.81676E-01        -0.27020E-01         0.00000E+00
    0.80876E-01        -0.26050E-01         0.00000E+00
    0.80025E-01        -0.25087E-01         0.00000E+00
    0.79122E-01        -0.24132E-01         0.00000E+00
    0.78168E-01        -0.23187E-01         0.00000E+00
    0.77164E-01        -0.22253E-01         0.00000E+00
    0.76109E-01        -0.21329E-01         0.00000E+00
    0.75005E-01        -0.20417E-01         0.00000E+00
    0.73852E-01        -0.19517E-01         0.00000E+00
    0.72650E-01        -0.18631E-01         0.00000E+00
    0.71399E-01        -0.17758E-01         0.00000E+00
    0.70101E-01        -0.16900E-01         0.00000E+00
    0.68756E-01        -0.16057E-01         0.00000E+00
    0.67364E-01        -0.15230E-01         0.00000E+00
    0.65925E-01        -0.14419E-01         0.00000E+00
    0.64442E-01        -0.13625E-01         0.00000E+00
    0.62913E-01        -0.12848E-01         0.00000E+00
    0.61340E-01        -0.12090E-01         0.00000E+00
    0.59723E-01        -0.11350E-01         0.00000E+00
    0.58064E-01        -0.10630E-01         0.00000E+00
    0.56362E-01        -0.99295E-02         0.00000E+00
    0.54619E-01        -0.92493E-02         0.00000E+00
    0.52834E-01        -0.85899E-02         0.00000E+00
    0.51010E-01        -0.79519E-02         0.00000E+00
    0.49146E-01        -0.73358E-02         0.00000E+00
    0.47244E-01        -0.67420E-02         0.00000E+00
    0.45304E-01        -0.61711E-02         0.00000E+00
    0.43328E-01        -0.56236E-02         0.00000E+00
    0.41315E-01        -0.50998E-02         0.00000E+00
    0.39267E-01        -0.46001E-02         0.00000E+00
    0.37185E-01        -0.41251E-02         0.00000E+00
    0.35069E-01        -0.36750E-02         0.00000E+00
    0.32921E-01        -0.32503E-02         0.00000E+00
    0.30742E-01        -0.28511E-02         0.00000E+00
    0.28532E-01        -0.24777E-02         0.00000E+00
    0.26292E-01        -0.21304E-02         0.00000E+00
    0.24024E-01        -0.18093E-02         0.00000E+00
    0.21728E-01        -0.15144E-02         0.00000E+00
    0.19406E-01        -0.12458E-02         0.00000E+00
    0.17059E-01        -0.10033E-02         0.00000E+00
    0.14687E-01        -0.78668E-03         0.00000E+00
    0.12291E-01        -0.59564E-03         0.00000E+00
    0.98734E-02        -0.42966E-03         0.00000E+00
    0.74344E-02        -0.28807E-03         0.00000E+00
    0.49751E-02        -0.17001E-03         0.00000E+00
    0.24966E-02        -0.74417E-04         0.00000E+00
    0.00000E+00         0.00000E+00         0.00000E+00
    0.89676E-01        -0.33863E-01         0.00000E+00
    0.89049E-01        -0.32783E-01         0.00000E+00
    0.88366E-01        -0.31707E-01         0.00000E+00
    0.87627E-01        -0.30635E-01         0.00000E+00
    0.86833E-01        -0.29570E-01         0.00000E+00
    0.85985E-01        -0.28511E-01         0.00000E+00
    0.85081E-01        -0.27460E-01         0.00000E+00
    0.84123E-01        -0.26419E-01         0.00000E+00
    0.83112E-01        -0.25388E-01         0.00000E+00
    0.82047E-01        -0.24367E-01         0.00000E+00
    0.80929E-01        -0.23359E-01         0.00000E+00
    0.79758E-01        -0.22363E-01         0.00000E+00
    0.78535E-01        -0.21381E-01         0.00000E+00
    0.77260E-01        -0.20413E-01         0.00000E+00
    0.75934E-01        -0.19459E-01         0.00000E+00
    0.74557E-01        -0.18522E-01         0.00000E+00
    0.73129E-01        -0.17601E-01         0.00000E+00
    0.71653E-01        -0.16696E-01         0.00000E+00
    0.70127E-01        -0.15810E-01         0.00000E+00
    0.68552E-01        -0.14942E-01         0.00000E+00
    0.66930E-01        -0.14093E-01         0.00000E+00
    0.65261E-01        -0.13263E-01         0.00000E+00
    0.63545E-01        -0.12454E-01         0.00000E+00
    0.61783E-01        -0.11665E-01         0.00000E+00
    0.59976E-01        -0.10898E-01         0.00000E+00
    0.58125E-01        -0.10153E-01         0.00000E+00
    0.56230E-01        -0.94312E-02         0.00000E+00
    0.54292E-01        -0.87323E-02         0.00000E+00
    0.52312E-01        -0.80572E-02         0.00000E+00
    0.50290E-01        -0.74064E-02         0.00000E+00
    0.48229E-01        -0.67805E-02         0.00000E+00
    0.46128E-01        -0.61801E-02         0.00000E+00
    0.43988E-01        -0.56055E-02         0.00000E+00
    0.41810E-01        -0.50573E-02         0.00000E+00
    0.39596E-01        -0.45360E-02         0.00000E+00
    0.37346E-01        -0.40419E-02         0.00000E+00
    0.35061E-01        -0.35755E-02         0.00000E+00
    0.32742E-01        -0.31370E-02         0.00000E+00
    0.30390E-01        -0.27268E-02         0.00000E+00
    0.28007E-01        -0.23451E-02         0.00000E+00
    0.25593E-01        -0.19920E-02         0.00000E+00
    0.23149E-01        -0.16677E-02         0.00000E+00
    0.20676E-01        -0.13722E-02         0.00000E+00
    0.18176E-01        -0.11053E-02         0.00000E+00
    0.15650E-01        -0.86690E-03         0.00000E+00
    0.13098E-01        -0.65652E-03         0.00000E+00
    0.10522E-01        -0.47367E-03         0.00000E+00
    0.79232E-02        -0.31763E-03         0.00000E+00
    0.53025E-02        -0.18748E-03         0.00000E+00
    0.26611E-02        -0.82076E-04         0.00000E+00
    0.00000E+00         0.00000E+00         0.00000E+00
    0.95470E-01        -0.36954E-01         0.00000E+00
    0.94803E-01        -0.35780E-01         0.00000E+00
    0.94077E-01        -0.34609E-01         0.00000E+00
    0.93293E-01        -0.33443E-01         0.00000E+00
    0.92450E-01        -0.32284E-01         0.00000E+00
    0.91548E-01        -0.31132E-01         0.00000E+00
    0.90589E-01        -0.29989E-01         0.00000E+00
    0.89573E-01        -0.28855E-01         0.00000E+00
    0.88499E-01        -0.27733E-01         0.00000E+00
    0.87369E-01        -0.26622E-01         0.00000E+00
    0.86182E-01        -0.25524E-01         0.00000E+00
    0.84940E-01        -0.24439E-01         0.00000E+00
    0.83642E-01        -0.23369E-01         0.00000E+00
    0.82288E-01        -0.22314E-01         0.00000E+00
    0.80881E-01        -0.21275E-01         0.00000E+00
    0.79419E-01        -0.20253E-01         0.00000E+00
    0.77904E-01        -0.19249E-01         0.00000E+00
    0.76335E-01        -0.18263E-01         0.00000E+00
    0.74715E-01        -0.17296E-01         0.00000E+00
    0.73043E-01        -0.16349E-01         0.00000E+00
    0.71319E-01        -0.15422E-01         0.00000E+00
    0.69545E-01        -0.14517E-01         0.00000E+00
    0.67722E-01        -0.13633E-01         0.00000E+00
    0.65849E-01        -0.12772E-01         0.00000E+00
    0.63928E-01        -0.11935E-01         0.00000E+00
    0.61959E-01        -0.11121E-01         0.00000E+00
    0.59944E-01        -0.10332E-01         0.00000E+00
    0.57883E-01        -0.95679E-02         0.00000E+00
    0.55776E-01        -0.88298E-02         0.00000E+00
    0.53626E-01        -0.81182E-02         0.00000E+00
    0.51432E-01        -0.74337E-02         0.00000E+00
    0.49195E-01        -0.67767E-02         0.00000E+00
    0.46917E-01        -0.61480E-02         0.00000E+00
    0.44598E-01        -0.55479E-02         0.00000E+00
    0.42240E-01        -0.49771E-02         0.00000E+00
    0.39843E-01        -0.44359E-02         0.00000E+00
    0.37408E-01        -0.39249E-02         0.00000E+00
    0.34937E-01        -0.34443E-02         0.00000E+00
    0.32430E-01        -0.29946E-02         0.00000E+00
    0.29889E-01        -0.25760E-02         0.00000E+00
    0.27315E-01        -0.21887E-02         0.00000E+00
    0.24709E-01        -0.18329E-02         0.00000E+00
    0.22071E-01        -0.15085E-02         0.00000E+00
    0.19404E-01        -0.12154E-02         0.00000E+00
    0.16708E-01        -0.95345E-03         0.00000E+00
    0.13985E-01        -0.72224E-03         0.00000E+00
    0.11236E-01        -0.52120E-03         0.00000E+00
    0.84614E-02        -0.34958E-03         0.00000E+00
    0.56631E-02        -0.20638E-03         0.00000E+00
    0.28422E-02        -0.90357E-04         0.00000E+00
    0.00000E+00         0.00000E+00         0.00000E+00
    0.10176E+00        -0.40242E-01         0.00000E+00
    0.10105E+00        -0.38968E-01         0.00000E+00
    0.10028E+00        -0.37697E-01         0.00000E+00
    0.99446E-01        -0.36432E-01         0.00000E+00
    0.98551E-01        -0.35173E-01         0.00000E+00
    0.97594E-01        -0.33923E-01         0.00000E+00
    0.96576E-01        -0.32681E-01         0.00000E+00
    0.95497E-01        -0.31450E-01         0.00000E+00
    0.94357E-01        -0.30231E-01         0.00000E+00
    0.93157E-01        -0.29024E-01         0.00000E+00
    0.91897E-01        -0.27830E-01         0.00000E+00
    0.90578E-01        -0.26651E-01         0.00000E+00
    0.89199E-01        -0.25488E-01         0.00000E+00
    0.87762E-01        -0.24341E-01         0.00000E+00
    0.86267E-01        -0.23211E-01         0.00000E+00
    0.84714E-01        -0.22099E-01         0.00000E+00
    0.83104E-01        -0.21006E-01         0.00000E+00
    0.81437E-01        -0.19933E-01         0.00000E+00
    0.79714E-01        -0.18881E-01         0.00000E+00
    0.77936E-01        -0.17850E-01         0.00000E+00
    0.76104E-01        -0.16840E-01         0.00000E+00
    0.74217E-01        -0.15854E-01         0.00000E+00
    0.72277E-01        -0.14892E-01         0.00000E+00
    0.70285E-01        -0.13954E-01         0.00000E+00
    0.68240E-01        -0.13041E-01         0.00000E+00
    0.66145E-01        -0.12154E-01         0.00000E+00
    0.63999E-01        -0.11293E-01         0.00000E+00
    0.61804E-01        -0.10460E-01         0.00000E+00
    0.59560E-01        -0.96552E-02         0.00000E+00
    0.57269E-01        -0.88787E-02         0.00000E+00
    0.54931E-01        -0.81316E-02         0.00000E+00
    0.52547E-01        -0.74145E-02         0.00000E+00
    0.50119E-01        -0.67280E-02         0.00000E+00
    0.47647E-01        -0.60726E-02         0.00000E+00
    0.45131E-01        -0.54490E-02         0.00000E+00
    0.42575E-01        -0.48576E-02         0.00000E+00
    0.39977E-01        -0.42990E-02         0.00000E+00
    0.37340E-01        -0.37735E-02         0.00000E+00
    0.34664E-01        -0.32817E-02         0.00000E+00
    0.31952E-01        -0.28237E-02         0.00000E+00
    0.29203E-01        -0.23998E-02         0.00000E+00
    0.26419E-01        -0.20101E-02         0.00000E+00
    0.23602E-01        -0.16548E-02         0.00000E+00
    0.20752E-01        -0.13336E-02         0.00000E+00
    0.17871E-01        -0.10465E-02         0.00000E+00
    0.14959E-01        -0.79291E-03         0.00000E+00
    0.12020E-01        -0.57235E-03         0.00000E+00
    0.90526E-02        -0.38397E-03         0.00000E+00
    0.60594E-02        -0.22672E-03         0.00000E+00
    0.30415E-02        -0.99278E-04         0.00000E+00
    0.00000E+00         0.00000E+00         0.00000E+00
    0.10857E+00        -0.43737E-01         0.00000E+00
    0.10782E+00        -0.42357E-01         0.00000E+00
    0.10700E+00        -0.40980E-01         0.00000E+00
    0.10612E+00        -0.39609E-01         0.00000E+00
    0.10517E+00        -0.38245E-01         0.00000E+00
    0.10415E+00        -0.36890E-01         0.00000E+00
    0.10307E+00        -0.35544E-01         0.00000E+00
    0.10192E+00        -0.34209E-01         0.00000E+00
    0.10071E+00        -0.32887E-01         0.00000E+00
    0.99440E-01        -0.31577E-01         0.00000E+00
    0.98102E-01        -0.30283E-01         0.00000E+00
    0.96700E-01        -0.29003E-01         0.00000E+00
    0.95236E-01        -0.27741E-01         0.00000E+00
    0.93709E-01        -0.26496E-01         0.00000E+00
    0.92120E-01        -0.25269E-01         0.00000E+00
    0.90469E-01        -0.24062E-01         0.00000E+00
    0.88757E-01        -0.22875E-01         0.00000E+00
    0.86984E-01        -0.21709E-01         0.00000E+00
    0.85151E-01        -0.20565E-01         0.00000E+00
    0.83260E-01        -0.19445E-01         0.00000E+00
    0.81309E-01        -0.18348E-01         0.00000E+00
    0.79301E-01        -0.17276E-01         0.00000E+00
    0.77235E-01        -0.16230E-01         0.00000E+00
    0.75113E-01        -0.15209E-01         0.00000E+00
    0.72935E-01        -0.14217E-01         0.00000E+00
    0.70703E-01        -0.13252E-01         0.00000E+00
    0.68416E-01        -0.12315E-01         0.00000E+00
    0.66076E-01        -0.11409E-01         0.00000E+00
    0.63684E-01        -0.10533E-01         0.00000E+00
    0.61240E-01        -0.96872E-02         0.00000E+00
    0.58746E-01        -0.88737E-02         0.00000E+00
    0.56203E-01        -0.80927E-02         0.00000E+00
    0.53611E-01        -0.73448E-02         0.00000E+00
    0.50972E-01        -0.66307E-02         0.00000E+00
    0.48287E-01        -0.59511E-02         0.00000E+00
    0.45557E-01        -0.53064E-02         0.00000E+00
    0.42782E-01        -0.46972E-02         0.00000E+00
    0.39965E-01        -0.41241E-02         0.00000E+00
    0.37105E-01        -0.35874E-02         0.00000E+00
    0.34206E-01        -0.30875E-02         0.00000E+00
    0.31267E-01        -0.26247E-02         0.00000E+00
    0.28290E-01        -0.21991E-02         0.00000E+00
    0.25276E-01        -0.18109E-02         0.00000E+00
    0.22226E-01        -0.14598E-02         0.00000E+00
    0.19143E-01        -0.11458E-02         0.00000E+00
    0.16027E-01        -0.86843E-03         0.00000E+00
    0.12879E-01        -0.62703E-03         0.00000E+00
    0.97008E-02        -0.42075E-03         0.00000E+00
    0.64941E-02        -0.24849E-03         0.00000E+00
    0.32601E-02        -0.10882E-03         0.00000E+00
    0.00000E+00         0.00000E+00         0.00000E+00
    0.11594E+00        -0.47446E-01         0.00000E+00
    0.11514E+00        -0.45953E-01         0.00000E+00
    0.11427E+00        -0.44464E-01         0.00000E+00
    0.11333E+00        -0.42980E-01         0.00000E+00
    0.11232E+00        -0.41504E-01         0.00000E+00
    0.11125E+00        -0.40037E-01         0.00000E+00
    0.11010E+00        -0.38580E-01         0.00000E+00
    0.10889E+00        -0.37135E-01         0.00000E+00
    0.10760E+00        -0.35702E-01         0.00000E+00
    0.10625E+00        -0.34284E-01         0.00000E+00
    0.10483E+00        -0.32882E-01         0.00000E+00
    0.10334E+00        -0.31496E-01         0.00000E+00
    0.10178E+00        -0.30127E-01         0.00000E+00
    0.10016E+00        -0.28778E-01         0.00000E+00
    0.98469E-01        -0.27448E-01         0.00000E+00
    0.96713E-01        -0.26139E-01         0.00000E+00
    0.94891E-01        -0.24852E-01         0.00000E+00
    0.93005E-01        -0.23588E-01         0.00000E+00
    0.91054E-01        -0.22347E-01         0.00000E+00
    0.89039E-01        -0.21132E-01         0.00000E+00
    0.86962E-01        -0.19942E-01         0.00000E+00
    0.84822E-01        -0.18779E-01         0.00000E+00
    0.82621E-01        -0.17643E-01         0.00000E+00
    0.80359E-01        -0.16536E-01         0.00000E+00
    0.78037E-01        -0.15458E-01         0.00000E+00
    0.75656E-01        -0.14411E-01         0.00000E+00
    0.73217E-01        -0.13394E-01         0.00000E+00
    0.70720E-01        -0.12410E-01         0.00000E+00
    0.68167E-01        -0.11458E-01         0.00000E+00
    0.65559E-01        -0.10540E-01         0.00000E+00
    0.62896E-01        -0.96566E-02         0.00000E+00
    0.60180E-01        -0.88081E-02         0.00000E+00
    0.57412E-01        -0.79955E-02         0.00000E+00
    0.54592E-01        -0.72195E-02         0.00000E+00
    0.51722E-01        -0.64807E-02         0.00000E+00
    0.48803E-01        -0.57798E-02         0.00000E+00
    0.45837E-01        -0.51174E-02         0.00000E+00
    0.42824E-01        -0.44940E-02         0.00000E+00
    0.39765E-01        -0.39101E-02         0.00000E+00
    0.36662E-01        -0.33660E-02         0.00000E+00
    0.33517E-01        -0.28622E-02         0.00000E+00
    0.30330E-01        -0.23987E-02         0.00000E+00
    0.27102E-01        -0.19758E-02         0.00000E+00
    0.23836E-01        -0.15932E-02         0.00000E+00
    0.20532E-01        -0.12509E-02         0.00000E+00
    0.17192E-01        -0.94832E-03         0.00000E+00
    0.13818E-01        -0.68489E-03         0.00000E+00
    0.10410E-01        -0.45970E-03         0.00000E+00
    0.69696E-02        -0.27155E-03         0.00000E+00
    0.34993E-02        -0.11894E-03         0.00000E+00
    0.00000E+00         0.00000E+00         0.00000E+00
    0.12388E+00        -0.51371E-01         0.00000E+00
    0.12304E+00        -0.49758E-01         0.00000E+00
    0.12212E+00        -0.48149E-01         0.00000E+00
    0.12113E+00        -0.46545E-01         0.00000E+00
    0.12006E+00        -0.44949E-01         0.00000E+00
    0.11892E+00        -0.43363E-01         0.00000E+00
    0.11770E+00        -0.41787E-01         0.00000E+00
    0.11642E+00        -0.40224E-01         0.00000E+00
    0.11505E+00        -0.38675E-01         0.00000E+00
    0.11362E+00        -0.37141E-01         0.00000E+00
    0.11211E+00        -0.35623E-01         0.00000E+00
    0.11053E+00        -0.34123E-01         0.00000E+00
    0.10887E+00        -0.32642E-01         0.00000E+00
    0.10714E+00        -0.31181E-01         0.00000E+00
    0.10535E+00        -0.29741E-01         0.00000E+00
    0.10348E+00        -0.28324E-01         0.00000E+00
    0.10154E+00        -0.26930E-01         0.00000E+00
    0.99529E-01        -0.25561E-01         0.00000E+00
    0.97451E-01        -0.24218E-01         0.00000E+00
    0.95304E-01        -0.22902E-01         0.00000E+00
    0.93089E-01        -0.21613E-01         0.00000E+00
    0.90807E-01        -0.20353E-01         0.00000E+00
    0.88460E-01        -0.19124E-01         0.00000E+00
    0.86046E-01        -0.17925E-01         0.00000E+00
    0.83568E-01        -0.16757E-01         0.00000E+00
    0.81027E-01        -0.15623E-01         0.00000E+00
    0.78423E-01        -0.14522E-01         0.00000E+00
    0.75756E-01        -0.13456E-01         0.00000E+00
    0.73030E-01        -0.12425E-01         0.00000E+00
    0.70243E-01        -0.11431E-01         0.00000E+00
    0.67398E-01        -0.10473E-01         0.00000E+00
    0.64495E-01        -0.95542E-02         0.00000E+00
    0.61535E-01        -0.86738E-02         0.00000E+00
    0.58520E-01        -0.78330E-02         0.00000E+00
    0.55451E-01        -0.70325E-02         0.00000E+00
    0.52328E-01        -0.62729E-02         0.00000E+00
    0.49154E-01        -0.55550E-02         0.00000E+00
    0.45929E-01        -0.48792E-02         0.00000E+00
    0.42654E-01        -0.42461E-02         0.00000E+00
    0.39332E-01        -0.36561E-02         0.00000E+00
    0.35962E-01        -0.31095E-02         0.00000E+00
    0.32548E-01        -0.26067E-02         0.00000E+00
    0.29089E-01        -0.21476E-02         0.00000E+00
    0.25587E-01        -0.17322E-02         0.00000E+00
    0.22044E-01        -0.13604E-02         0.00000E+00
    0.18461E-01        -0.10316E-02         0.00000E+00
    0.14840E-01        -0.74524E-03         0.00000E+00
    0.11182E-01        -0.50032E-03         0.00000E+00
    0.74881E-02        -0.29560E-03         0.00000E+00
    0.37603E-02        -0.12949E-03         0.00000E+00
    0.00000E+00         0.00000E+00         0.00000E+00
    0.13245E+00        -0.55512E-01         0.00000E+00
    0.13156E+00        -0.53770E-01         0.00000E+00
    0.13059E+00        -0.52032E-01         0.00000E+00
    0.12954E+00        -0.50300E-01         0.00000E+00
    0.12841E+00        -0.48576E-01         0.00000E+00
    0.12721E+00        -0.46862E-01         0.00000E+00
    0.12592E+00        -0.45159E-01         0.00000E+00
    0.12455E+00        -0.43470E-01         0.00000E+00
    0.12311E+00        -0.41795E-01         0.00000E+00
    0.12158E+00        -0.40136E-01         0.00000E+00
    0.11998E+00        -0.38495E-01         0.00000E+00
    0.11830E+00        -0.36873E-01         0.00000E+00
    0.11654E+00        -0.35272E-01         0.00000E+00
    0.11470E+00        -0.33692E-01         0.00000E+00
    0.11279E+00        -0.32135E-01         0.00000E+00
    0.11080E+00        -0.30603E-01         0.00000E+00
    0.10873E+00        -0.29096E-01         0.00000E+00
    0.10659E+00        -0.27616E-01         0.00000E+00
    0.10437E+00        -0.26164E-01         0.00000E+00
    0.10208E+00        -0.24740E-01         0.00000E+00
    0.99718E-01        -0.23347E-01         0.00000E+00
    0.97283E-01        -0.21986E-01         0.00000E+00
    0.94776E-01        -0.20657E-01         0.00000E+00
    0.92199E-01        -0.19361E-01         0.00000E+00
    0.89552E-01        -0.18100E-01         0.00000E+00
    0.86836E-01        -0.16874E-01         0.00000E+00
    0.84053E-01        -0.15685E-01         0.00000E+00
    0.81204E-01        -0.14533E-01         0.00000E+00
    0.78289E-01        -0.13420E-01         0.00000E+00
    0.75309E-01        -0.12346E-01         0.00000E+00
    0.72266E-01        -0.11312E-01         0.00000E+00
    0.69161E-01        -0.10320E-01         0.00000E+00
    0.65994E-01        -0.93696E-02         0.00000E+00
    0.62768E-01        -0.84619E-02         0.00000E+00
    0.59483E-01        -0.75977E-02         0.00000E+00
    0.56141E-01        -0.67777E-02         0.00000E+00
    0.52742E-01        -0.60027E-02         0.00000E+00
    0.49288E-01        -0.52731E-02         0.00000E+00
    0.45781E-01        -0.45895E-02         0.00000E+00
    0.42221E-01        -0.39524E-02         0.00000E+00
    0.38610E-01        -0.33622E-02         0.00000E+00
    0.34949E-01        -0.28190E-02         0.00000E+00
    0.31240E-01        -0.23230E-02         0.00000E+00
    0.27484E-01        -0.18742E-02         0.00000E+00
    0.23683E-01        -0.14722E-02         0.00000E+00
    0.19837E-01        -0.11167E-02         0.00000E+00
    0.15949E-01        -0.80687E-03         0.00000E+00
    0.12020E-01        -0.54181E-03         0.00000E+00
    0.80510E-02        -0.32017E-03         0.00000E+00
    0.40438E-02        -0.14026E-03         0.00000E+00
    0.00000E+00         0.00000E+00         0.00000E+00
    0.14167E+00        -0.59861E-01         0.00000E+00
    0.14074E+00        -0.57981E-01         0.00000E+00
    0.13972E+00        -0.56104E-01         0.00000E+00
    0.13862E+00        -0.54234E-01         0.00000E+00
    0.13743E+00        -0.52372E-01         0.00000E+00
    0.13615E+00        -0.50520E-01         0.00000E+00
    0.13479E+00        -0.48680E-01         0.00000E+00
    0.13334E+00        -0.46855E-01         0.00000E+00
    0.13181E+00        -0.45045E-01         0.00000E+00
    0.13019E+00        -0.43253E-01         0.00000E+00
    0.12848E+00        -0.41480E-01         0.00000E+00
    0.12670E+00        -0.39727E-01         0.00000E+00
    0.12482E+00        -0.37997E-01         0.00000E+00
    0.12287E+00        -0.36290E-01         0.00000E+00
    0.12083E+00        -0.34608E-01         0.00000E+00
    0.11870E+00        -0.32953E-01         0.00000E+00
    0.11650E+00        -0.31326E-01         0.00000E+00
    0.11421E+00        -0.29727E-01         0.00000E+00
    0.11185E+00        -0.28160E-01         0.00000E+00
    0.10940E+00        -0.26624E-01         0.00000E+00
    0.10688E+00        -0.25121E-01         0.00000E+00
    0.10427E+00        -0.23652E-01         0.00000E+00
    0.10159E+00        -0.22219E-01         0.00000E+00
    0.98838E-01        -0.20822E-01         0.00000E+00
    0.96008E-01        -0.19463E-01         0.00000E+00
    0.93103E-01        -0.18142E-01         0.00000E+00
    0.90126E-01        -0.16862E-01         0.00000E+00
    0.87078E-01        -0.15622E-01         0.00000E+00
    0.83958E-01        -0.14424E-01         0.00000E+00
    0.80769E-01        -0.13268E-01         0.00000E+00
    0.77512E-01        -0.12156E-01         0.00000E+00
    0.74188E-01        -0.11089E-01         0.00000E+00
    0.70799E-01        -0.10067E-01         0.00000E+00
    0.67344E-01        -0.90916E-02         0.00000E+00
    0.63826E-01        -0.81629E-02         0.00000E+00
    0.60246E-01        -0.72819E-02         0.00000E+00
    0.56606E-01        -0.64493E-02         0.00000E+00
    0.52906E-01        -0.56656E-02         0.00000E+00
    0.49147E-01        -0.49314E-02         0.00000E+00
    0.45332E-01        -0.42472E-02         0.00000E+00
    0.41461E-01        -0.36133E-02         0.00000E+00
    0.37536E-01        -0.30299E-02         0.00000E+00
    0.33558E-01        -0.24972E-02         0.00000E+00
    0.29529E-01        -0.20150E-02         0.00000E+00
    0.25449E-01        -0.15831E-02         0.00000E+00
    0.21321E-01        -0.12010E-02         0.00000E+00
    0.17145E-01        -0.86794E-03         0.00000E+00
    0.12924E-01        -0.58292E-03         0.00000E+00
    0.86586E-02        -0.34451E-03         0.00000E+00
    0.43500E-02        -0.15093E-03         0.00000E+00
    0.00000E+00         0.00000E+00         0.00000E+00
    0.15160E+00        -0.64406E-01         0.00000E+00
    0.15063E+00        -0.62375E-01         0.00000E+00
    0.14956E+00        -0.60348E-01         0.00000E+00
    0.14840E+00        -0.58328E-01         0.00000E+00
    0.14715E+00        -0.56316E-01         0.00000E+00
    0.14580E+00        -0.54315E-01         0.00000E+00
    0.14436E+00        -0.52327E-01         0.00000E+00
    0.14283E+00        -0.50355E-01         0.00000E+00
    0.14120E+00        -0.48399E-01         0.00000E+00
    0.13948E+00        -0.46463E-01         0.00000E+00
    0.13767E+00        -0.44547E-01         0.00000E+00
    0.13577E+00        -0.42654E-01         0.00000E+00
    0.13377E+00        -0.40785E-01         0.00000E+00
    0.13168E+00        -0.38942E-01         0.00000E+00
    0.12951E+00        -0.37127E-01         0.00000E+00
    0.12724E+00        -0.35341E-01         0.00000E+00
    0.12488E+00        -0.33585E-01         0.00000E+00
    0.12244E+00        -0.31862E-01         0.00000E+00
    0.11991E+00        -0.30173E-01         0.00000E+00
    0.11729E+00        -0.28518E-01         0.00000E+00
    0.11459E+00        -0.26900E-01         0.00000E+00
    0.11180E+00        -0.25319E-01         0.00000E+00
    0.10893E+00        -0.23777E-01         0.00000E+00
    0.10598E+00        -0.22276E-01         0.00000E+00
    0.10295E+00        -0.20816E-01         0.00000E+00
    0.99843E-01        -0.19398E-01         0.00000E+00
    0.96654E-01        -0.18023E-01         0.00000E+00
    0.93388E-01        -0.16693E-01         0.00000E+00
    0.90047E-01        -0.15409E-01         0.00000E+00
    0.86631E-01        -0.14171E-01         0.00000E+00
    0.83142E-01        -0.12980E-01         0.00000E+00
    0.79581E-01        -0.11838E-01         0.00000E+00
    0.75950E-01        -0.10745E-01         0.00000E+00
    0.72249E-01        -0.97017E-02         0.00000E+00
    0.68480E-01        -0.87092E-02         0.00000E+00
    0.64645E-01        -0.77681E-02         0.00000E+00
    0.60744E-01        -0.68790E-02         0.00000E+00
    0.56779E-01        -0.60425E-02         0.00000E+00
    0.52751E-01        -0.52591E-02         0.00000E+00
    0.48662E-01        -0.45292E-02         0.00000E+00
    0.44513E-01        -0.38531E-02         0.00000E+00
    0.40305E-01        -0.32310E-02         0.00000E+00
    0.36039E-01        -0.26630E-02         0.00000E+00
    0.31717E-01        -0.21489E-02         0.00000E+00
    0.27340E-01        -0.16884E-02         0.00000E+00
    0.22909E-01        -0.12810E-02         0.00000E+00
    0.18427E-01        -0.92584E-03         0.00000E+00
    0.13893E-01        -0.62186E-03         0.00000E+00
    0.93098E-02        -0.36755E-03         0.00000E+00
    0.46783E-02        -0.16103E-03         0.00000E+00
    0.00000E+00         0.00000E+00         0.00000E+00
    0.16230E+00        -0.69127E-01         0.00000E+00
    0.16129E+00        -0.66931E-01         0.00000E+00
    0.16018E+00        -0.64740E-01         0.00000E+00
    0.15896E+00        -0.62555E-01         0.00000E+00
    0.15765E+00        -0.60379E-01         0.00000E+00
    0.15623E+00        -0.58216E-01         0.00000E+00
    0.15470E+00        -0.56067E-01         0.00000E+00
    0.15308E+00        -0.53934E-01         0.00000E+00
    0.15135E+00        -0.51820E-01         0.00000E+00
    0.14952E+00        -0.49727E-01         0.00000E+00
    0.14759E+00        -0.47657E-01         0.00000E+00
    0.14556E+00        -0.45612E-01         0.00000E+00
    0.14343E+00        -0.43594E-01         0.00000E+00
    0.14120E+00        -0.41605E-01         0.00000E+00
    0.13887E+00        -0.39647E-01         0.00000E+00
    0.13644E+00        -0.37721E-01         0.00000E+00
    0.13392E+00        -0.35830E-01         0.00000E+00
    0.13130E+00        -0.33975E-01         0.00000E+00
    0.12859E+00        -0.32157E-01         0.00000E+00
    0.12578E+00        -0.30378E-01         0.00000E+00
    0.12288E+00        -0.28639E-01         0.00000E+00
    0.11989E+00        -0.26942E-01         0.00000E+00
    0.11682E+00        -0.25289E-01         0.00000E+00
    0.11365E+00        -0.23679E-01         0.00000E+00
    0.11040E+00        -0.22115E-01         0.00000E+00
    0.10706E+00        -0.20598E-01         0.00000E+00
    0.10364E+00        -0.19129E-01         0.00000E+00
    0.10014E+00        -0.17709E-01         0.00000E+00
    0.96557E-01        -0.16338E-01         0.00000E+00
    0.92894E-01        -0.15019E-01         0.00000E+00
    0.89153E-01        -0.13751E-01         0.00000E+00
    0.85335E-01        -0.12535E-01         0.00000E+00
    0.81442E-01        -0.11373E-01         0.00000E+00
    0.77476E-01        -0.10265E-01         0.00000E+00
    0.73437E-01        -0.92113E-02         0.00000E+00
    0.69326E-01        -0.82130E-02         0.00000E+00
    0.65146E-01        -0.72707E-02         0.00000E+00
    0.60898E-01        -0.63847E-02         0.00000E+00
    0.56582E-01        -0.55554E-02         0.00000E+00
    0.52200E-01        -0.47832E-02         0.00000E+00
    0.47754E-01        -0.40684E-02         0.00000E+00
    0.43244E-01        -0.34109E-02         0.00000E+00
    0.38672E-01        -0.28109E-02         0.00000E+00
    0.34039E-01        -0.22680E-02         0.00000E+00
    0.29347E-01        -0.17818E-02         0.00000E+00
    0.24595E-01        -0.13518E-02         0.00000E+00
    0.19786E-01        -0.97699E-03         0.00000E+00
    0.14921E-01        -0.65619E-03         0.00000E+00
    0.10001E-01        -0.38782E-03         0.00000E+00
    0.50270E-02        -0.16990E-03         0.00000E+00
    0.00000E+00         0.00000E+00         0.00000E+00
    0.17384E+00        -0.73998E-01         0.00000E+00
    0.17280E+00        -0.71620E-01         0.00000E+00
    0.17164E+00        -0.69247E-01         0.00000E+00
    0.17037E+00        -0.66880E-01         0.00000E+00
    0.16899E+00        -0.64524E-01         0.00000E+00
    0.16749E+00        -0.62181E-01         0.00000E+00
    0.16588E+00        -0.59854E-01         0.00000E+00
    0.16415E+00        -0.57546E-01         0.00000E+00
    0.16232E+00        -0.55258E-01         0.00000E+00
    0.16037E+00        -0.52994E-01         0.00000E+00
    0.15830E+00        -0.50756E-01         0.00000E+00
    0.15613E+00        -0.48547E-01         0.00000E+00
    0.15385E+00        -0.46368E-01         0.00000E+00
    0.15146E+00        -0.44222E-01         0.00000E+00
    0.14896E+00        -0.42111E-01         0.00000E+00
    0.14635E+00        -0.40036E-01         0.00000E+00
    0.14364E+00        -0.38000E-01         0.00000E+00
    0.14083E+00        -0.36005E-01         0.00000E+00
    0.13791E+00        -0.34052E-01         0.00000E+00
    0.13489E+00        -0.32144E-01         0.00000E+00
    0.13178E+00        -0.30280E-01         0.00000E+00
    0.12856E+00        -0.28463E-01         0.00000E+00
    0.12525E+00        -0.26695E-01         0.00000E+00
    0.12185E+00        -0.24976E-01         0.00000E+00
    0.11835E+00        -0.23308E-01         0.00000E+00
    0.11477E+00        -0.21692E-01         0.00000E+00
    0.11109E+00        -0.20129E-01         0.00000E+00
    0.10733E+00        -0.18620E-01         0.00000E+00
    0.10348E+00        -0.17166E-01         0.00000E+00
    0.99547E-01        -0.15767E-01         0.00000E+00
    0.95531E-01        -0.14425E-01         0.00000E+00
    0.91435E-01        -0.13141E-01         0.00000E+00
    0.87259E-01        -0.11914E-01         0.00000E+00
    0.83005E-01        -0.10746E-01         0.00000E+00
    0.78674E-01        -0.96364E-02         0.00000E+00
    0.74269E-01        -0.85867E-02         0.00000E+00
    0.69790E-01        -0.75968E-02         0.00000E+00
    0.65238E-01        -0.66673E-02         0.00000E+00
    0.60616E-01        -0.57982E-02         0.00000E+00
    0.55923E-01        -0.49898E-02         0.00000E+00
    0.51162E-01        -0.42421E-02         0.00000E+00
    0.46333E-01        -0.35550E-02         0.00000E+00
    0.41438E-01        -0.29285E-02         0.00000E+00
    0.36478E-01        -0.23620E-02         0.00000E+00
    0.31453E-01        -0.18552E-02         0.00000E+00
    0.26364E-01        -0.14071E-02         0.00000E+00
    0.21213E-01        -0.10167E-02         0.00000E+00
    0.16000E-01        -0.68272E-03         0.00000E+00
    0.10726E-01        -0.40342E-03         0.00000E+00
    0.53928E-02        -0.17670E-03         0.00000E+00
    0.00000E+00         0.00000E+00         0.00000E+00
    0.18632E+00        -0.78988E-01         0.00000E+00
    0.18525E+00        -0.76407E-01         0.00000E+00
    0.18405E+00        -0.73830E-01         0.00000E+00
    0.18272E+00        -0.71262E-01         0.00000E+00
    0.18127E+00        -0.68704E-01         0.00000E+00
    0.17969E+00        -0.66162E-01         0.00000E+00
    0.17798E+00        -0.63638E-01         0.00000E+00
    0.17614E+00        -0.61134E-01         0.00000E+00
    0.17418E+00        -0.58655E-01         0.00000E+00
    0.17209E+00        -0.56204E-01         0.00000E+00
    0.16988E+00        -0.53782E-01         0.00000E+00
    0.16755E+00        -0.51393E-01         0.00000E+00
    0.16509E+00        -0.49039E-01         0.00000E+00
    0.16252E+00        -0.46723E-01         0.00000E+00
    0.15983E+00        -0.44447E-01         0.00000E+00
    0.15702E+00        -0.42213E-01         0.00000E+00
    0.15409E+00        -0.40024E-01         0.00000E+00
    0.15106E+00        -0.37882E-01         0.00000E+00
    0.14791E+00        -0.35788E-01         0.00000E+00
    0.14465E+00        -0.33744E-01         0.00000E+00
    0.14129E+00        -0.31751E-01         0.00000E+00
    0.13782E+00        -0.29812E-01         0.00000E+00
    0.13425E+00        -0.27927E-01         0.00000E+00
    0.13058E+00        -0.26099E-01         0.00000E+00
    0.12681E+00        -0.24327E-01         0.00000E+00
    0.12295E+00        -0.22614E-01         0.00000E+00
    0.11899E+00        -0.20960E-01         0.00000E+00
    0.11494E+00        -0.19366E-01         0.00000E+00
    0.11080E+00        -0.17833E-01         0.00000E+00
    0.10657E+00        -0.16361E-01         0.00000E+00
    0.10225E+00        -0.14952E-01         0.00000E+00
    0.97851E-01        -0.13605E-01         0.00000E+00
    0.93367E-01        -0.12321E-01         0.00000E+00
    0.88803E-01        -0.11101E-01         0.00000E+00
    0.84159E-01        -0.99442E-02         0.00000E+00
    0.79437E-01        -0.88518E-02         0.00000E+00
    0.74638E-01        -0.78235E-02         0.00000E+00
    0.69764E-01        -0.68596E-02         0.00000E+00
    0.64816E-01        -0.59599E-02         0.00000E+00
    0.59795E-01        -0.51243E-02         0.00000E+00
    0.54703E-01        -0.43528E-02         0.00000E+00
    0.49539E-01        -0.36449E-02         0.00000E+00
    0.44306E-01        -0.30003E-02         0.00000E+00
    0.39003E-01        -0.24183E-02         0.00000E+00
    0.33632E-01        -0.18981E-02         0.00000E+00
    0.28193E-01        -0.14388E-02         0.00000E+00
    0.22687E-01        -0.10391E-02         0.00000E+00
    0.17114E-01        -0.69740E-03         0.00000E+00
    0.11475E-01        -0.41192E-03         0.00000E+00
    0.57705E-02        -0.18035E-03         0.00000E+00
    0.00000E+00         0.00000E+00         0.00000E+00
    0.19985E+00        -0.84064E-01         0.00000E+00
    0.19876E+00        -0.81253E-01         0.00000E+00
    0.19752E+00        -0.78448E-01         0.00000E+00
    0.19613E+00        -0.75651E-01         0.00000E+00
    0.19460E+00        -0.72867E-01         0.00000E+00
    0.19293E+00        -0.70101E-01         0.00000E+00
    0.19111E+00        -0.67356E-01         0.00000E+00
    0.18915E+00        -0.64635E-01         0.00000E+00
    0.18704E+00        -0.61944E-01         0.00000E+00
    0.18480E+00        -0.59284E-01         0.00000E+00
    0.18241E+00        -0.56659E-01         0.00000E+00
    0.17989E+00        -0.54073E-01         0.00000E+00
    0.17724E+00        -0.51528E-01         0.00000E+00
    0.17445E+00        -0.49028E-01         0.00000E+00
    0.17154E+00        -0.46574E-01         0.00000E+00
    0.16849E+00        -0.44170E-01         0.00000E+00
    0.16532E+00        -0.41818E-01         0.00000E+00
    0.16203E+00        -0.39520E-01         0.00000E+00
    0.15862E+00        -0.37278E-01         0.00000E+00
    0.15509E+00        -0.35093E-01         0.00000E+00
    0.15144E+00        -0.32969E-01         0.00000E+00
    0.14768E+00        -0.30905E-01         0.00000E+00
    0.14382E+00        -0.28904E-01         0.00000E+00
    0.13985E+00        -0.26967E-01         0.00000E+00
    0.13577E+00        -0.25095E-01         0.00000E+00
    0.13159E+00        -0.23288E-01         0.00000E+00
    0.12731E+00        -0.21548E-01         0.00000E+00
    0.12294E+00        -0.19876E-01         0.00000E+00
    0.11848E+00        -0.18271E-01         0.00000E+00
    0.11392E+00        -0.16735E-01         0.00000E+00
    0.10927E+00        -0.15267E-01         0.00000E+00
    0.10454E+00        -0.13868E-01         0.00000E+00
    0.99721E-01        -0.12539E-01         0.00000E+00
    0.94820E-01        -0.11278E-01         0.00000E+00
    0.89838E-01        -0.10087E-01         0.00000E+00
    0.84777E-01        -0.89641E-02         0.00000E+00
    0.79637E-01        -0.79103E-02         0.00000E+00
    0.74421E-01        -0.69249E-02         0.00000E+00
    0.69130E-01        -0.60076E-02         0.00000E+00
    0.63764E-01        -0.51578E-02         0.00000E+00
    0.58325E-01        -0.43750E-02         0.00000E+00
    0.52813E-01        -0.36585E-02         0.00000E+00
    0.47229E-01        -0.30075E-02         0.00000E+00
    0.41574E-01        -0.24211E-02         0.00000E+00
    0.35848E-01        -0.18981E-02         0.00000E+00
    0.30050E-01        -0.14372E-02         0.00000E+00
    0.24182E-01        -0.10369E-02         0.00000E+00
    0.18243E-01        -0.69532E-03         0.00000E+00
    0.12233E-01        -0.41036E-03         0.00000E+00
    0.61525E-02        -0.17955E-03         0.00000E+00
    0.00000E+00         0.00000E+00         0.00000E+00
    0.21460E+00        -0.89199E-01         0.00000E+00
    0.21348E+00        -0.86125E-01         0.00000E+00
    0.21220E+00        -0.83058E-01         0.00000E+00
    0.21075E+00        -0.80001E-01         0.00000E+00
    0.20913E+00        -0.76961E-01         0.00000E+00
    0.20734E+00        -0.73940E-01         0.00000E+00
    0.20540E+00        -0.70946E-01         0.00000E+00
    0.20328E+00        -0.67981E-01         0.00000E+00
    0.20101E+00        -0.65050E-01         0.00000E+00
    0.19858E+00        -0.62158E-01         0.00000E+00
    0.19600E+00        -0.59308E-01         0.00000E+00
    0.19326E+00        -0.56504E-01         0.00000E+00
    0.19037E+00        -0.53750E-01         0.00000E+00
    0.18733E+00        -0.51048E-01         0.00000E+00
    0.18415E+00        -0.48402E-01         0.00000E+00
    0.18083E+00        -0.45815E-01         0.00000E+00
    0.17737E+00        -0.43289E-01         0.00000E+00
    0.17378E+00        -0.40826E-01         0.00000E+00
    0.17006E+00        -0.38429E-01         0.00000E+00
    0.16621E+00        -0.36100E-01         0.00000E+00
    0.16224E+00        -0.33840E-01         0.00000E+00
    0.15815E+00        -0.31652E-01         0.00000E+00
    0.15394E+00        -0.29535E-01         0.00000E+00
    0.14962E+00        -0.27492E-01         0.00000E+00
    0.14520E+00        -0.25523E-01         0.00000E+00
    0.14066E+00        -0.23630E-01         0.00000E+00
    0.13603E+00        -0.21812E-01         0.00000E+00
    0.13130E+00        -0.20070E-01         0.00000E+00
    0.12647E+00        -0.18404E-01         0.00000E+00
    0.12155E+00        -0.16815E-01         0.00000E+00
    0.11654E+00        -0.15302E-01         0.00000E+00
    0.11144E+00        -0.13866E-01         0.00000E+00
    0.10625E+00        -0.12505E-01         0.00000E+00
    0.10099E+00        -0.11220E-01         0.00000E+00
    0.95641E-01        -0.10010E-01         0.00000E+00
    0.90216E-01        -0.88736E-02         0.00000E+00
    0.84714E-01        -0.78112E-02         0.00000E+00
    0.79136E-01        -0.68215E-02         0.00000E+00
    0.73483E-01        -0.59037E-02         0.00000E+00
    0.67758E-01        -0.50566E-02         0.00000E+00
    0.61959E-01        -0.42793E-02         0.00000E+00
    0.56089E-01        -0.35704E-02         0.00000E+00
    0.50147E-01        -0.29287E-02         0.00000E+00
    0.44133E-01        -0.23527E-02         0.00000E+00
    0.38048E-01        -0.18407E-02         0.00000E+00
    0.31890E-01        -0.13911E-02         0.00000E+00
    0.25660E-01        -0.10019E-02         0.00000E+00
    0.19357E-01        -0.67076E-03         0.00000E+00
    0.12980E-01        -0.39531E-03         0.00000E+00
    0.65282E-02        -0.17276E-03         0.00000E+00
    0.00000E+00         0.00000E+00         0.00000E+00
    0.23075E+00        -0.94375E-01         0.00000E+00
    0.22961E+00        -0.90999E-01         0.00000E+00
    0.22828E+00        -0.87631E-01         0.00000E+00
    0.22675E+00        -0.84275E-01         0.00000E+00
    0.22503E+00        -0.80940E-01         0.00000E+00
    0.22311E+00        -0.77629E-01         0.00000E+00
    0.22100E+00        -0.74350E-01         0.00000E+00
    0.21871E+00        -0.71108E-01         0.00000E+00
    0.21624E+00        -0.67908E-01         0.00000E+00
    0.21358E+00        -0.64755E-01         0.00000E+00
    0.21075E+00        -0.61653E-01         0.00000E+00
    0.20775E+00        -0.58607E-01         0.00000E+00
    0.20457E+00        -0.55620E-01         0.00000E+00
    0.20124E+00        -0.52698E-01         0.00000E+00
    0.19774E+00        -0.49842E-01         0.00000E+00
    0.19409E+00        -0.47057E-01         0.00000E+00
    0.19029E+00        -0.44344E-01         0.00000E+00
    0.18635E+00        -0.41707E-01         0.00000E+00
    0.18226E+00        -0.39149E-01         0.00000E+00
    0.17804E+00        -0.36670E-01         0.00000E+00
    0.17369E+00        -0.34272E-01         0.00000E+00
    0.16921E+00        -0.31958E-01         0.00000E+00
    0.16461E+00        -0.29728E-01         0.00000E+00
    0.15989E+00        -0.27583E-01         0.00000E+00
    0.15506E+00        -0.25524E-01         0.00000E+00
    0.15013E+00        -0.23552E-01         0.00000E+00
    0.14509E+00        -0.21666E-01         0.00000E+00
    0.13995E+00        -0.19866E-01         0.00000E+00
    0.13471E+00        -0.18153E-01         0.00000E+00
    0.12938E+00        -0.16526E-01         0.00000E+00
    0.12397E+00        -0.14985E-01         0.00000E+00
    0.11846E+00        -0.13528E-01         0.00000E+00
    0.11288E+00        -0.12155E-01         0.00000E+00
    0.10722E+00        -0.10864E-01         0.00000E+00
    0.10148E+00        -0.96557E-02         0.00000E+00
    0.95662E-01        -0.85271E-02         0.00000E+00
    0.89773E-01        -0.74773E-02         0.00000E+00
    0.83814E-01        -0.65048E-02         0.00000E+00
    0.77784E-01        -0.56079E-02         0.00000E+00
    0.71685E-01        -0.47849E-02         0.00000E+00
    0.65518E-01        -0.40340E-02         0.00000E+00
    0.59282E-01        -0.33531E-02         0.00000E+00
    0.52979E-01        -0.27403E-02         0.00000E+00
    0.46607E-01        -0.21934E-02         0.00000E+00
    0.40166E-01        -0.17101E-02         0.00000E+00
    0.33655E-01        -0.12881E-02         0.00000E+00
    0.27073E-01        -0.92479E-03         0.00000E+00
    0.20418E-01        -0.61738E-03         0.00000E+00
    0.13689E-01        -0.36295E-03         0.00000E+00
    0.68838E-02        -0.15830E-03         0.00000E+00
    0.00000E+00         0.00000E+00         0.00000E+00
    0.24857E+00        -0.99604E-01         0.00000E+00
    0.24740E+00        -0.95877E-01         0.00000E+00
    0.24600E+00        -0.92158E-01         0.00000E+00
    0.24437E+00        -0.88457E-01         0.00000E+00
    0.24251E+00        -0.84781E-01         0.00000E+00
    0.24043E+00        -0.81137E-01         0.00000E+00
    0.23813E+00        -0.77532E-01         0.00000E+00
    0.23561E+00        -0.73973E-01         0.00000E+00
    0.23288E+00        -0.70466E-01         0.00000E+00
    0.22995E+00        -0.67017E-01         0.00000E+00
    0.22682E+00        -0.63631E-01         0.00000E+00
    0.22349E+00        -0.60314E-01         0.00000E+00
    0.21998E+00        -0.57070E-01         0.00000E+00
    0.21628E+00        -0.53903E-01         0.00000E+00
    0.21240E+00        -0.50818E-01         0.00000E+00
    0.20836E+00        -0.47817E-01         0.00000E+00
    0.20415E+00        -0.44904E-01         0.00000E+00
    0.19978E+00        -0.42082E-01         0.00000E+00
    0.19526E+00        -0.39352E-01         0.00000E+00
    0.19060E+00        -0.36718E-01         0.00000E+00
    0.18580E+00        -0.34180E-01         0.00000E+00
    0.18087E+00        -0.31740E-01         0.00000E+00
    0.17581E+00        -0.29399E-01         0.00000E+00
    0.17063E+00        -0.27157E-01         0.00000E+00
    0.16533E+00        -0.25016E-01         0.00000E+00
    0.15993E+00        -0.22974E-01         0.00000E+00
    0.15442E+00        -0.21032E-01         0.00000E+00
    0.14882E+00        -0.19189E-01         0.00000E+00
    0.14312E+00        -0.17444E-01         0.00000E+00
    0.13734E+00        -0.15797E-01         0.00000E+00
    0.13147E+00        -0.14245E-01         0.00000E+00
    0.12552E+00        -0.12789E-01         0.00000E+00
    0.11950E+00        -0.11425E-01         0.00000E+00
    0.11340E+00        -0.10153E-01         0.00000E+00
    0.10723E+00        -0.89692E-02         0.00000E+00
    0.10100E+00        -0.78727E-02         0.00000E+00
    0.94701E-01        -0.68607E-02         0.00000E+00
    0.88340E-01        -0.59308E-02         0.00000E+00
    0.81917E-01        -0.50804E-02         0.00000E+00
    0.75434E-01        -0.43069E-02         0.00000E+00
    0.68891E-01        -0.36073E-02         0.00000E+00
    0.62289E-01        -0.29789E-02         0.00000E+00
    0.55627E-01        -0.24186E-02         0.00000E+00
    0.48904E-01        -0.19234E-02         0.00000E+00
    0.42119E-01        -0.14901E-02         0.00000E+00
    0.35271E-01        -0.11155E-02         0.00000E+00
    0.28358E-01        -0.79613E-03         0.00000E+00
    0.21378E-01        -0.52862E-03         0.00000E+00
    0.14326E-01        -0.30930E-03         0.00000E+00
    0.72018E-02        -0.13440E-03         0.00000E+00
    0.00000E+00         0.00000E+00         0.00000E+00
    0.26838E+00        -0.10494E+00         0.00000E+00
    0.26715E+00        -0.10080E+00         0.00000E+00
    0.26566E+00        -0.96675E-01         0.00000E+00
    0.26389E+00        -0.92571E-01         0.00000E+00
    0.26185E+00        -0.88500E-01         0.00000E+00
    0.25955E+00        -0.84470E-01         0.00000E+00
    0.25700E+00        -0.80490E-01         0.00000E+00
    0.25420E+00        -0.76567E-01         0.00000E+00
    0.25116E+00        -0.72710E-01         0.00000E+00
    0.24788E+00        -0.68925E-01         0.00000E+00
    0.24437E+00        -0.65218E-01         0.00000E+00
    0.24065E+00        -0.61596E-01         0.00000E+00
    0.23671E+00        -0.58064E-01         0.00000E+00
    0.23257E+00        -0.54626E-01         0.00000E+00
    0.22824E+00        -0.51286E-01         0.00000E+00
    0.22371E+00        -0.48050E-01         0.00000E+00
    0.21901E+00        -0.44919E-01         0.00000E+00
    0.21414E+00        -0.41898E-01         0.00000E+00
    0.20911E+00        -0.38987E-01         0.00000E+00
    0.20392E+00        -0.36190E-01         0.00000E+00
    0.19859E+00        -0.33507E-01         0.00000E+00
    0.19312E+00        -0.30940E-01         0.00000E+00
    0.18752E+00        -0.28490E-01         0.00000E+00
    0.18180E+00        -0.26156E-01         0.00000E+00
    0.17596E+00        -0.23938E-01         0.00000E+00
    0.17002E+00        -0.21837E-01         0.00000E+00
    0.16398E+00        -0.19851E-01         0.00000E+00
    0.15785E+00        -0.17979E-01         0.00000E+00
    0.15163E+00        -0.16220E-01         0.00000E+00
    0.14532E+00        -0.14571E-01         0.00000E+00
    0.13895E+00        -0.13031E-01         0.00000E+00
    0.13250E+00        -0.11597E-01         0.00000E+00
    0.12599E+00        -0.10267E-01         0.00000E+00
    0.11941E+00        -0.90371E-02         0.00000E+00
    0.11278E+00        -0.79053E-02         0.00000E+00
    0.10610E+00        -0.68680E-02         0.00000E+00
    0.99365E-01        -0.59216E-02         0.00000E+00
    0.92581E-01        -0.50626E-02         0.00000E+00
    0.85751E-01        -0.42872E-02         0.00000E+00
    0.78875E-01        -0.35916E-02         0.00000E+00
    0.71953E-01        -0.29716E-02         0.00000E+00
    0.64987E-01        -0.24233E-02         0.00000E+00
    0.57976E-01        -0.19424E-02         0.00000E+00
    0.50918E-01        -0.15247E-02         0.00000E+00
    0.43811E-01        -0.11659E-02         0.00000E+00
    0.36655E-01        -0.86148E-03         0.00000E+00
    0.29445E-01        -0.60714E-03         0.00000E+00
    0.22179E-01        -0.39838E-03         0.00000E+00
    0.14853E-01        -0.23065E-03         0.00000E+00
    0.74612E-02        -0.99400E-04         0.00000E+00
    0.00000E+00         0.00000E+00         0.00000E+00
    0.29057E+00        -0.11051E+00         0.00000E+00
    0.28925E+00        -0.10589E+00         0.00000E+00
    0.28761E+00        -0.10128E+00         0.00000E+00
    0.28565E+00        -0.96711E-01         0.00000E+00
    0.28337E+00        -0.92181E-01         0.00000E+00
    0.28079E+00        -0.87704E-01         0.00000E+00
    0.27791E+00        -0.83290E-01         0.00000E+00
    0.27475E+00        -0.78950E-01         0.00000E+00
    0.27131E+00        -0.74691E-01         0.00000E+00
    0.26759E+00        -0.70522E-01         0.00000E+00
    0.26362E+00        -0.66451E-01         0.00000E+00
    0.25940E+00        -0.62484E-01         0.00000E+00
    0.25495E+00        -0.58627E-01         0.00000E+00
    0.25027E+00        -0.54886E-01         0.00000E+00
    0.24537E+00        -0.51264E-01         0.00000E+00
    0.24027E+00        -0.47767E-01         0.00000E+00
    0.23497E+00        -0.44398E-01         0.00000E+00
    0.22949E+00        -0.41160E-01         0.00000E+00
    0.22384E+00        -0.38055E-01         0.00000E+00
    0.21803E+00        -0.35084E-01         0.00000E+00
    0.21207E+00        -0.32250E-01         0.00000E+00
    0.20596E+00        -0.29552E-01         0.00000E+00
    0.19973E+00        -0.26992E-01         0.00000E+00
    0.19338E+00        -0.24568E-01         0.00000E+00
    0.18691E+00        -0.22281E-01         0.00000E+00
    0.18035E+00        -0.20128E-01         0.00000E+00
    0.17369E+00        -0.18109E-01         0.00000E+00
    0.16694E+00        -0.16221E-01         0.00000E+00
    0.16013E+00        -0.14462E-01         0.00000E+00
    0.15324E+00        -0.12830E-01         0.00000E+00
    0.14629E+00        -0.11320E-01         0.00000E+00
    0.13928E+00        -0.99309E-02         0.00000E+00
    0.13223E+00        -0.86574E-02         0.00000E+00
    0.12513E+00        -0.74958E-02         0.00000E+00
    0.11800E+00        -0.64419E-02         0.00000E+00
    0.11083E+00        -0.54912E-02         0.00000E+00
    0.10363E+00        -0.46387E-02         0.00000E+00
    0.96397E-01        -0.38796E-02         0.00000E+00
    0.89143E-01        -0.32087E-02         0.00000E+00
    0.81866E-01        -0.26206E-02         0.00000E+00
    0.74566E-01        -0.21098E-02         0.00000E+00
    0.67244E-01        -0.16708E-02         0.00000E+00
    0.59899E-01        -0.12978E-02         0.00000E+00
    0.52530E-01        -0.98523E-03         0.00000E+00
    0.45134E-01        -0.72716E-03         0.00000E+00
    0.37709E-01        -0.51782E-03         0.00000E+00
    0.30252E-01        -0.35140E-03         0.00000E+00
    0.22758E-01        -0.22211E-03         0.00000E+00
    0.15222E-01        -0.12422E-03         0.00000E+00
    0.76379E-02        -0.52045E-04         0.00000E+00
    0.00000E+00         0.00000E+00         0.00000E+00
    0.31562E+00        -0.11653E+00         0.00000E+00
    0.31415E+00        -0.11135E+00         0.00000E+00
    0.31230E+00        -0.10619E+00         0.00000E+00
    0.31006E+00        -0.10107E+00         0.00000E+00
    0.30746E+00        -0.96008E-01         0.00000E+00
    0.30450E+00        -0.91013E-01         0.00000E+00
    0.30120E+00        -0.86100E-01         0.00000E+00
    0.29757E+00        -0.81279E-01         0.00000E+00
    0.29361E+00        -0.76561E-01         0.00000E+00
    0.28935E+00        -0.71954E-01         0.00000E+00
    0.28480E+00        -0.67468E-01         0.00000E+00
    0.27997E+00        -0.63111E-01         0.00000E+00
    0.27488E+00        -0.58887E-01         0.00000E+00
    0.26953E+00        -0.54805E-01         0.00000E+00
    0.26395E+00        -0.50868E-01         0.00000E+00
    0.25815E+00        -0.47081E-01         0.00000E+00
    0.25214E+00        -0.43447E-01         0.00000E+00
    0.24593E+00        -0.39970E-01         0.00000E+00
    0.23954E+00        -0.36651E-01         0.00000E+00
    0.23299E+00        -0.33493E-01         0.00000E+00
    0.22628E+00        -0.30495E-01         0.00000E+00
    0.21943E+00        -0.27658E-01         0.00000E+00
    0.21245E+00        -0.24982E-01         0.00000E+00
    0.20536E+00        -0.22466E-01         0.00000E+00
    0.19816E+00        -0.20109E-01         0.00000E+00
    0.19087E+00        -0.17908E-01         0.00000E+00
    0.18350E+00        -0.15861E-01         0.00000E+00
    0.17606E+00        -0.13966E-01         0.00000E+00
    0.16855E+00        -0.12219E-01         0.00000E+00
    0.16100E+00        -0.10615E-01         0.00000E+00
    0.15340E+00        -0.91519E-02         0.00000E+00
    0.14577E+00        -0.78237E-02         0.00000E+00
    0.13811E+00        -0.66259E-02         0.00000E+00
    0.13043E+00        -0.55529E-02         0.00000E+00
    0.12274E+00        -0.45991E-02         0.00000E+00
    0.11505E+00        -0.37586E-02         0.00000E+00
    0.10735E+00        -0.30249E-02         0.00000E+00
    0.99649E-01        -0.23916E-02         0.00000E+00
    0.91956E-01        -0.18518E-02         0.00000E+00
    0.84270E-01        -0.13984E-02         0.00000E+00
    0.76593E-01        -0.10244E-02         0.00000E+00
    0.68926E-01        -0.72225E-03         0.00000E+00
    0.61268E-01        -0.48459E-03         0.00000E+00
    0.53618E-01        -0.30385E-03         0.00000E+00
    0.45975E-01        -0.17244E-03         0.00000E+00
    0.38334E-01        -0.82759E-04         0.00000E+00
    0.30693E-01        -0.27266E-04         0.00000E+00
    0.23045E-01         0.15085E-05         0.00000E+00
    0.15385E-01         0.10905E-04         0.00000E+00
    0.77059E-02         0.80870E-05         0.00000E+00
    0.00000E+00         0.00000E+00         0.00000E+00
    0.34412E+00        -0.12338E+00         0.00000E+00
    0.34240E+00        -0.11754E+00         0.00000E+00
    0.34022E+00        -0.11174E+00         0.00000E+00
    0.33761E+00        -0.10599E+00         0.00000E+00
    0.33456E+00        -0.10031E+00         0.00000E+00
    0.33110E+00        -0.94723E-01         0.00000E+00
    0.32724E+00        -0.89236E-01         0.00000E+00
    0.32301E+00        -0.83865E-01         0.00000E+00
    0.31841E+00        -0.78622E-01         0.00000E+00
    0.31346E+00        -0.73517E-01         0.00000E+00
    0.30819E+00        -0.68560E-01         0.00000E+00
    0.30260E+00        -0.63759E-01         0.00000E+00
    0.29673E+00        -0.59122E-01         0.00000E+00
    0.29058E+00        -0.54655E-01         0.00000E+00
    0.28417E+00        -0.50362E-01         0.00000E+00
    0.27752E+00        -0.46249E-01         0.00000E+00
    0.27065E+00        -0.42319E-01         0.00000E+00
    0.26358E+00        -0.38574E-01         0.00000E+00
    0.25632E+00        -0.35016E-01         0.00000E+00
    0.24888E+00        -0.31647E-01         0.00000E+00
    0.24130E+00        -0.28466E-01         0.00000E+00
    0.23357E+00        -0.25473E-01         0.00000E+00
    0.22573E+00        -0.22668E-01         0.00000E+00
    0.21777E+00        -0.20049E-01         0.00000E+00
    0.20972E+00        -0.17613E-01         0.00000E+00
    0.20159E+00        -0.15357E-01         0.00000E+00
    0.19340E+00        -0.13279E-01         0.00000E+00
    0.18516E+00        -0.11374E-01         0.00000E+00
    0.17687E+00        -0.96388E-02         0.00000E+00
    0.16856E+00        -0.80672E-02         0.00000E+00
    0.16023E+00        -0.66543E-02         0.00000E+00
    0.15189E+00        -0.53941E-02         0.00000E+00
    0.14356E+00        -0.42804E-02         0.00000E+00
    0.13524E+00        -0.33063E-02         0.00000E+00
    0.12694E+00        -0.24648E-02         0.00000E+00
    0.11866E+00        -0.17483E-02         0.00000E+00
    0.11043E+00        -0.11488E-02         0.00000E+00
    0.10223E+00        -0.65805E-03         0.00000E+00
    0.94076E-01        -0.26748E-03         0.00000E+00
    0.85971E-01         0.31788E-04         0.00000E+00
    0.77917E-01         0.24889E-03         0.00000E+00
    0.69917E-01         0.39316E-03         0.00000E+00
    0.61969E-01         0.47412E-03         0.00000E+00
    0.54075E-01         0.50142E-03         0.00000E+00
    0.46232E-01         0.48477E-03         0.00000E+00
    0.38437E-01         0.43391E-03         0.00000E+00
    0.30686E-01         0.35852E-03         0.00000E+00
    0.22974E-01         0.26817E-03         0.00000E+00
    0.15295E-01         0.17227E-03         0.00000E+00
    0.76396E-02         0.79943E-04         0.00000E+00
    0.00000E+00         0.00000E+00         0.00000E+00
    0.37673E+00        -0.13162E+00         0.00000E+00
    0.37462E+00        -0.12503E+00         0.00000E+00
    0.37198E+00        -0.11848E+00         0.00000E+00
    0.36883E+00        -0.11201E+00         0.00000E+00
    0.36518E+00        -0.10563E+00         0.00000E+00
    0.36105E+00        -0.99363E-01         0.00000E+00
    0.35648E+00        -0.93223E-01         0.00000E+00
    0.35147E+00        -0.87227E-01         0.00000E+00
    0.34606E+00        -0.81389E-01         0.00000E+00
    0.34026E+00        -0.75719E-01         0.00000E+00
    0.33409E+00        -0.70230E-01         0.00000E+00
    0.32758E+00        -0.64929E-01         0.00000E+00
    0.32076E+00        -0.59824E-01         0.00000E+00
    0.31363E+00        -0.54922E-01         0.00000E+00
    0.30623E+00        -0.50228E-01         0.00000E+00
    0.29858E+00        -0.45746E-01         0.00000E+00
    0.29070E+00        -0.41479E-01         0.00000E+00
    0.28260E+00        -0.37428E-01         0.00000E+00
    0.27431E+00        -0.33597E-01         0.00000E+00
    0.26585E+00        -0.29984E-01         0.00000E+00
    0.25724E+00        -0.26589E-01         0.00000E+00
    0.24850E+00        -0.23412E-01         0.00000E+00
    0.23965E+00        -0.20451E-01         0.00000E+00
    0.23070E+00        -0.17702E-01         0.00000E+00
    0.22167E+00        -0.15164E-01         0.00000E+00
    0.21258E+00        -0.12832E-01         0.00000E+00
    0.20345E+00        -0.10702E-01         0.00000E+00
    0.19429E+00        -0.87694E-02         0.00000E+00
    0.18512E+00        -0.70282E-02         0.00000E+00
    0.17594E+00        -0.54725E-02         0.00000E+00
    0.16679E+00        -0.40959E-02         0.00000E+00
    0.15766E+00        -0.28912E-02         0.00000E+00
    0.14857E+00        -0.18510E-02         0.00000E+00
    0.13953E+00        -0.96701E-03         0.00000E+00
    0.13056E+00        -0.23079E-03         0.00000E+00
    0.12165E+00         0.36676E-03         0.00000E+00
    0.11283E+00         0.83514E-03         0.00000E+00
    0.10409E+00         0.11843E-02         0.00000E+00
    0.95449E-01         0.14246E-02         0.00000E+00
    0.86909E-01         0.15669E-02         0.00000E+00
    0.78474E-01         0.16222E-02         0.00000E+00
    0.70147E-01         0.16020E-02         0.00000E+00
    0.61931E-01         0.15180E-02         0.00000E+00
    0.53826E-01         0.13823E-02         0.00000E+00
    0.45833E-01         0.12068E-02         0.00000E+00
    0.37949E-01         0.10039E-02         0.00000E+00
    0.30171E-01         0.78575E-03         0.00000E+00
    0.22494E-01         0.56445E-03         0.00000E+00
    0.14912E-01         0.35199E-03         0.00000E+00
    0.74174E-02         0.16007E-03         0.00000E+00
    0.00000E+00         0.00000E+00         0.00000E+00
    0.41421E+00        -0.14207E+00         0.00000E+00
    0.41152E+00        -0.13462E+00         0.00000E+00
    0.40821E+00        -0.12723E+00         0.00000E+00
    0.40431E+00        -0.11994E+00         0.00000E+00
    0.39986E+00        -0.11277E+00         0.00000E+00
    0.39487E+00        -0.10574E+00         0.00000E+00
    0.38937E+00        -0.98863E-01         0.00000E+00
    0.38339E+00        -0.92165E-01         0.00000E+00
    0.37696E+00        -0.85659E-01         0.00000E+00
    0.37010E+00        -0.79358E-01         0.00000E+00
    0.36285E+00        -0.73272E-01         0.00000E+00
    0.35523E+00        -0.67410E-01         0.00000E+00
    0.34726E+00        -0.61781E-01         0.00000E+00
    0.33898E+00        -0.56389E-01         0.00000E+00
    0.33041E+00        -0.51241E-01         0.00000E+00
    0.32157E+00        -0.46338E-01         0.00000E+00
    0.31250E+00        -0.41685E-01         0.00000E+00
    0.30321E+00        -0.37282E-01         0.00000E+00
    0.29373E+00        -0.33129E-01         0.00000E+00
    0.28409E+00        -0.29226E-01         0.00000E+00
    0.27430E+00        -0.25572E-01         0.00000E+00
    0.26440E+00        -0.22165E-01         0.00000E+00
    0.25439E+00        -0.19002E-01         0.00000E+00
    0.24431E+00        -0.16079E-01         0.00000E+00
    0.23417E+00        -0.13393E-01         0.00000E+00
    0.22400E+00        -0.10939E-01         0.00000E+00
    0.21380E+00        -0.87121E-02         0.00000E+00
    0.20361E+00        -0.67057E-02         0.00000E+00
    0.19344E+00        -0.49137E-02         0.00000E+00
    0.18330E+00        -0.33294E-02         0.00000E+00
    0.17322E+00        -0.19452E-02         0.00000E+00
    0.16320E+00        -0.75309E-03         0.00000E+00
    0.15326E+00         0.25549E-03         0.00000E+00
    0.14343E+00         0.10897E-02         0.00000E+00
    0.13370E+00         0.17591E-02         0.00000E+00
    0.12410E+00         0.22741E-02         0.00000E+00
    0.11463E+00         0.26455E-02         0.00000E+00
    0.10530E+00         0.28845E-02         0.00000E+00
    0.96135E-01         0.30032E-02         0.00000E+00
    0.87130E-01         0.30140E-02         0.00000E+00
    0.78295E-01         0.29298E-02         0.00000E+00
    0.69638E-01         0.27642E-02         0.00000E+00
    0.61162E-01         0.25310E-02         0.00000E+00
    0.52872E-01         0.22445E-02         0.00000E+00
    0.44770E-01         0.19195E-02         0.00000E+00
    0.36856E-01         0.15708E-02         0.00000E+00
    0.29128E-01         0.12136E-02         0.00000E+00
    0.21585E-01         0.86287E-03         0.00000E+00
    0.14220E-01         0.53381E-03         0.00000E+00
    0.70281E-02         0.24131E-03         0.00000E+00
    0.00000E+00         0.00000E+00         0.00000E+00
    0.45736E+00        -0.15585E+00         0.00000E+00
    0.45382E+00        -0.14745E+00         0.00000E+00
    0.44959E+00        -0.13913E+00         0.00000E+00
    0.44469E+00        -0.13093E+00         0.00000E+00
    0.43917E+00        -0.12288E+00         0.00000E+00
    0.43306E+00        -0.11500E+00         0.00000E+00
    0.42639E+00        -0.10732E+00         0.00000E+00
    0.41920E+00        -0.99844E-01         0.00000E+00
    0.41152E+00        -0.92602E-01         0.00000E+00
    0.40338E+00        -0.85603E-01         0.00000E+00
    0.39482E+00        -0.78858E-01         0.00000E+00
    0.38586E+00        -0.72375E-01         0.00000E+00
    0.37655E+00        -0.66162E-01         0.00000E+00
    0.36691E+00        -0.60223E-01         0.00000E+00
    0.35697E+00        -0.54563E-01         0.00000E+00
    0.34677E+00        -0.49184E-01         0.00000E+00
    0.33633E+00        -0.44086E-01         0.00000E+00
    0.32569E+00        -0.39271E-01         0.00000E+00
    0.31486E+00        -0.34736E-01         0.00000E+00
    0.30387E+00        -0.30481E-01         0.00000E+00
    0.29276E+00        -0.26502E-01         0.00000E+00
    0.28155E+00        -0.22798E-01         0.00000E+00
    0.27026E+00        -0.19362E-01         0.00000E+00
    0.25891E+00        -0.16192E-01         0.00000E+00
    0.24754E+00        -0.13283E-01         0.00000E+00
    0.23615E+00        -0.10628E-01         0.00000E+00
    0.22478E+00        -0.82223E-02         0.00000E+00
    0.21344E+00        -0.60589E-02         0.00000E+00
    0.20216E+00        -0.41309E-02         0.00000E+00
    0.19095E+00        -0.24309E-02         0.00000E+00
    0.17984E+00        -0.95094E-03         0.00000E+00
    0.16883E+00         0.31733E-03         0.00000E+00
    0.15796E+00         0.13830E-02         0.00000E+00
    0.14723E+00         0.22555E-02         0.00000E+00
    0.13667E+00         0.29452E-02         0.00000E+00
    0.12629E+00         0.34627E-02         0.00000E+00
    0.11610E+00         0.38194E-02         0.00000E+00
    0.10613E+00         0.40277E-02         0.00000E+00
    0.96371E-01         0.41002E-02         0.00000E+00
    0.86851E-01         0.40505E-02         0.00000E+00
    0.77578E-01         0.38929E-02         0.00000E+00
    0.68563E-01         0.36424E-02         0.00000E+00
    0.59814E-01         0.33148E-02         0.00000E+00
    0.51339E-01         0.29265E-02         0.00000E+00
    0.43144E-01         0.24945E-02         0.00000E+00
    0.35235E-01         0.20365E-02         0.00000E+00
    0.27614E-01         0.15705E-02         0.00000E+00
    0.20282E-01         0.11151E-02         0.00000E+00
    0.13239E-01         0.68896E-03         0.00000E+00
    0.64798E-02         0.31099E-03         0.00000E+00
    0.00000E+00         0.00000E+00         0.00000E+00
    0.50701E+00        -0.17451E+00         0.00000E+00
    0.50227E+00        -0.16506E+00         0.00000E+00
    0.49678E+00        -0.15572E+00         0.00000E+00
    0.49056E+00        -0.14654E+00         0.00000E+00
    0.48367E+00        -0.13754E+00         0.00000E+00
    0.47613E+00        -0.12874E+00         0.00000E+00
    0.46800E+00        -0.12018E+00         0.00000E+00
    0.45932E+00        -0.11188E+00         0.00000E+00
    0.45012E+00        -0.10384E+00         0.00000E+00
    0.44044E+00        -0.96093E-01         0.00000E+00
    0.43033E+00        -0.88635E-01         0.00000E+00
    0.41982E+00        -0.81478E-01         0.00000E+00
    0.40894E+00        -0.74628E-01         0.00000E+00
    0.39774E+00        -0.68087E-01         0.00000E+00
    0.38625E+00        -0.61857E-01         0.00000E+00
    0.37451E+00        -0.55940E-01         0.00000E+00
    0.36253E+00        -0.50333E-01         0.00000E+00
    0.35037E+00        -0.45035E-01         0.00000E+00
    0.33804E+00        -0.40044E-01         0.00000E+00
    0.32558E+00        -0.35355E-01         0.00000E+00
    0.31302E+00        -0.30964E-01         0.00000E+00
    0.30038E+00        -0.26867E-01         0.00000E+00
    0.28769E+00        -0.23058E-01         0.00000E+00
    0.27497E+00        -0.19532E-01         0.00000E+00
    0.26225E+00        -0.16283E-01         0.00000E+00
    0.24956E+00        -0.13305E-01         0.00000E+00
    0.23691E+00        -0.10592E-01         0.00000E+00
    0.22433E+00        -0.81359E-02         0.00000E+00
    0.21185E+00        -0.59307E-02         0.00000E+00
    0.19948E+00        -0.39690E-02         0.00000E+00
    0.18724E+00        -0.22431E-02         0.00000E+00
    0.17516E+00        -0.74496E-03         0.00000E+00
    0.16326E+00         0.53371E-03         0.00000E+00
    0.15155E+00         0.16019E-02         0.00000E+00
    0.14007E+00         0.24690E-02         0.00000E+00
    0.12881E+00         0.31453E-02         0.00000E+00
    0.11782E+00         0.36415E-02         0.00000E+00
    0.10710E+00         0.39693E-02         0.00000E+00
    0.96676E-01         0.41412E-02         0.00000E+00
    0.86562E-01         0.41707E-02         0.00000E+00
    0.76777E-01         0.40723E-02         0.00000E+00
    0.67336E-01         0.38614E-02         0.00000E+00
    0.58257E-01         0.35547E-02         0.00000E+00
    0.49552E-01         0.31699E-02         0.00000E+00
    0.41235E-01         0.27258E-02         0.00000E+00
    0.33318E-01         0.22424E-02         0.00000E+00
    0.25811E-01         0.17407E-02         0.00000E+00
    0.18720E-01         0.12425E-02         0.00000E+00
    0.12054E-01         0.77051E-03         0.00000E+00
    0.58132E-02         0.34833E-03         0.00000E+00
    0.00000E+00         0.00000E+00         0.00000E+00
    0.56392E+00        -0.19999E+00         0.00000E+00
    0.55756E+00        -0.18944E+00         0.00000E+00
    0.55039E+00        -0.17903E+00         0.00000E+00
    0.54245E+00        -0.16881E+00         0.00000E+00
    0.53381E+00        -0.15881E+00         0.00000E+00
    0.52449E+00        -0.14907E+00         0.00000E+00
    0.51457E+00        -0.13960E+00         0.00000E+00
    0.50408E+00        -0.13043E+00         0.00000E+00
    0.49306E+00        -0.12157E+00         0.00000E+00
    0.48158E+00        -0.11303E+00         0.00000E+00
    0.46966E+00        -0.10483E+00         0.00000E+00
    0.45736E+00        -0.96959E-01         0.00000E+00
    0.44472E+00        -0.89432E-01         0.00000E+00
    0.43177E+00        -0.82244E-01         0.00000E+00
    0.41855E+00        -0.75395E-01         0.00000E+00
    0.40511E+00        -0.68881E-01         0.00000E+00
    0.39147E+00        -0.62698E-01         0.00000E+00
    0.37766E+00        -0.56842E-01         0.00000E+00
    0.36373E+00        -0.51306E-01         0.00000E+00
    0.34970E+00        -0.46084E-01         0.00000E+00
    0.33560E+00        -0.41169E-01         0.00000E+00
    0.32146E+00        -0.36556E-01         0.00000E+00
    0.30730E+00        -0.32236E-01         0.00000E+00
    0.29315E+00        -0.28203E-01         0.00000E+00
    0.27904E+00        -0.24450E-01         0.00000E+00
    0.26498E+00        -0.20971E-01         0.00000E+00
    0.25101E+00        -0.17759E-01         0.00000E+00
    0.23714E+00        -0.14808E-01         0.00000E+00
    0.22340E+00        -0.12111E-01         0.00000E+00
    0.20981E+00        -0.96625E-02         0.00000E+00
    0.19639E+00        -0.74565E-02         0.00000E+00
    0.18316E+00        -0.54866E-02         0.00000E+00
    0.17016E+00        -0.37467E-02         0.00000E+00
    0.15739E+00        -0.22302E-02         0.00000E+00
    0.14489E+00        -0.92995E-03         0.00000E+00
    0.13267E+00         0.16143E-03         0.00000E+00
    0.12076E+00         0.10522E-02         0.00000E+00
    0.10919E+00         0.17514E-02         0.00000E+00
    0.97977E-01         0.22692E-02         0.00000E+00
    0.87146E-01         0.26169E-02         0.00000E+00
    0.76723E-01         0.28070E-02         0.00000E+00
    0.66732E-01         0.28536E-02         0.00000E+00
    0.57198E-01         0.27724E-02         0.00000E+00
    0.48145E-01         0.25809E-02         0.00000E+00
    0.39594E-01         0.22981E-02         0.00000E+00
    0.31570E-01         0.19453E-02         0.00000E+00
    0.24092E-01         0.15453E-02         0.00000E+00
    0.17181E-01         0.11231E-02         0.00000E+00
    0.10852E-01         0.70552E-03         0.00000E+00
    0.51212E-02         0.32104E-03         0.00000E+00
    0.00000E+00         0.00000E+00         0.00000E+00
    0.62873E+00        -0.23476E+00         0.00000E+00
    0.62021E+00        -0.22310E+00         0.00000E+00
    0.61086E+00        -0.21161E+00         0.00000E+00
    0.60074E+00        -0.20036E+00         0.00000E+00
    0.58990E+00        -0.18936E+00         0.00000E+00
    0.57840E+00        -0.17867E+00         0.00000E+00
    0.56630E+00        -0.16829E+00         0.00000E+00
    0.55365E+00        -0.15826E+00         0.00000E+00
    0.54051E+00        -0.14859E+00         0.00000E+00
    0.52694E+00        -0.13927E+00         0.00000E+00
    0.51297E+00        -0.13032E+00         0.00000E+00
    0.49866E+00        -0.12174E+00         0.00000E+00
    0.48406E+00        -0.11353E+00         0.00000E+00
    0.46920E+00        -0.10568E+00         0.00000E+00
    0.45413E+00        -0.98178E-01         0.00000E+00
    0.43888E+00        -0.91025E-01         0.00000E+00
    0.42349E+00        -0.84208E-01         0.00000E+00
    0.40799E+00        -0.77718E-01         0.00000E+00
    0.39242E+00        -0.71544E-01         0.00000E+00
    0.37681E+00        -0.65677E-01         0.00000E+00
    0.36117E+00        -0.60106E-01         0.00000E+00
    0.34554E+00        -0.54821E-01         0.00000E+00
    0.32993E+00        -0.49813E-01         0.00000E+00
    0.31438E+00        -0.45074E-01         0.00000E+00
    0.29890E+00        -0.40595E-01         0.00000E+00
    0.28352E+00        -0.36371E-01         0.00000E+00
    0.26825E+00        -0.32394E-01         0.00000E+00
    0.25312E+00        -0.28660E-01         0.00000E+00
    0.23814E+00        -0.25164E-01         0.00000E+00
    0.22334E+00        -0.21904E-01         0.00000E+00
    0.20874E+00        -0.18875E-01         0.00000E+00
    0.19435E+00        -0.16076E-01         0.00000E+00
    0.18020E+00        -0.13505E-01         0.00000E+00
    0.16632E+00        -0.11160E-01         0.00000E+00
    0.15272E+00        -0.90396E-02         0.00000E+00
    0.13944E+00        -0.71413E-02         0.00000E+00
    0.12651E+00        -0.54629E-02         0.00000E+00
    0.11394E+00        -0.40010E-02         0.00000E+00
    0.10178E+00        -0.27514E-02         0.00000E+00
    0.90053E-01        -0.17081E-02         0.00000E+00
    0.78796E-01        -0.86394E-03         0.00000E+00
    0.68043E-01        -0.20944E-03         0.00000E+00
    0.57830E-01         0.26696E-03         0.00000E+00
    0.48194E-01         0.57943E-03         0.00000E+00
    0.39173E-01         0.74488E-03         0.00000E+00
    0.30804E-01         0.78327E-03         0.00000E+00
    0.23124E-01         0.71774E-03         0.00000E+00
    0.16170E-01         0.57484E-03         0.00000E+00
    0.99759E-02         0.38459E-03         0.00000E+00
    0.45760E-02         0.18057E-03         0.00000E+00
    0.00000E+00         0.00000E+00         0.00000E+00
    0.70183E+00        -0.28185E+00         0.00000E+00
    0.69052E+00        -0.26912E+00         0.00000E+00
    0.67840E+00        -0.25661E+00         0.00000E+00
    0.66553E+00        -0.24437E+00         0.00000E+00
    0.65199E+00        -0.23245E+00         0.00000E+00
    0.63784E+00        -0.22087E+00         0.00000E+00
    0.62314E+00        -0.20967E+00         0.00000E+00
    0.60797E+00        -0.19885E+00         0.00000E+00
    0.59238E+00        -0.18843E+00         0.00000E+00
    0.57643E+00        -0.17841E+00         0.00000E+00
    0.56018E+00        -0.16878E+00         0.00000E+00
    0.54367E+00        -0.15954E+00         0.00000E+00
    0.52696E+00        -0.15069E+00         0.00000E+00
    0.51009E+00        -0.14219E+00         0.00000E+00
    0.49310E+00        -0.13405E+00         0.00000E+00
    0.47603E+00        -0.12625E+00         0.00000E+00
    0.45891E+00        -0.11877E+00         0.00000E+00
    0.44177E+00        -0.11158E+00         0.00000E+00
    0.42464E+00        -0.10468E+00         0.00000E+00
    0.40754E+00        -0.98053E-01         0.00000E+00
    0.39050E+00        -0.91675E-01         0.00000E+00
    0.37352E+00        -0.85537E-01         0.00000E+00
    0.35663E+00        -0.79624E-01         0.00000E+00
    0.33985E+00        -0.73927E-01         0.00000E+00
    0.32319E+00        -0.68437E-01         0.00000E+00
    0.30665E+00        -0.63146E-01         0.00000E+00
    0.29026E+00        -0.58050E-01         0.00000E+00
    0.27402E+00        -0.53145E-01         0.00000E+00
    0.25794E+00        -0.48431E-01         0.00000E+00
    0.24205E+00        -0.43909E-01         0.00000E+00
    0.22636E+00        -0.39581E-01         0.00000E+00
    0.21088E+00        -0.35451E-01         0.00000E+00
    0.19563E+00        -0.31525E-01         0.00000E+00
    0.18063E+00        -0.27809E-01         0.00000E+00
    0.16591E+00        -0.24312E-01         0.00000E+00
    0.15149E+00        -0.21039E-01         0.00000E+00
    0.13740E+00        -0.17999E-01         0.00000E+00
    0.12369E+00        -0.15200E-01         0.00000E+00
    0.11037E+00        -0.12647E-01         0.00000E+00
    0.97504E-01        -0.10344E-01         0.00000E+00
    0.85124E-01        -0.82962E-02         0.00000E+00
    0.73280E-01        -0.65025E-02         0.00000E+00
    0.62024E-01        -0.49608E-02         0.00000E+00
    0.51408E-01        -0.36651E-02         0.00000E+00
    0.41491E-01        -0.26052E-02         0.00000E+00
    0.32330E-01        -0.17665E-02         0.00000E+00
    0.23985E-01        -0.11293E-02         0.00000E+00
    0.16519E-01        -0.66832E-03         0.00000E+00
    0.99929E-02        -0.35247E-03         0.00000E+00
    0.44668E-02        -0.14434E-03         0.00000E+00
    0.00000E+00         0.00000E+00         0.00000E+00
    0.78331E+00        -0.34483E+00         0.00000E+00
    0.76846E+00        -0.33117E+00         0.00000E+00
    0.75286E+00        -0.31777E+00         0.00000E+00
    0.73661E+00        -0.30471E+00         0.00000E+00
    0.71977E+00        -0.29201E+00         0.00000E+00
    0.70244E+00        -0.27972E+00         0.00000E+00
    0.68468E+00        -0.26786E+00         0.00000E+00
    0.66658E+00        -0.25642E+00         0.00000E+00
    0.64820E+00        -0.24542E+00         0.00000E+00
    0.62960E+00        -0.23486E+00         0.00000E+00
    0.61085E+00        -0.22470E+00         0.00000E+00
    0.59201E+00        -0.21495E+00         0.00000E+00
    0.57312E+00        -0.20557E+00         0.00000E+00
    0.55422E+00        -0.19654E+00         0.00000E+00
    0.53536E+00        -0.18783E+00         0.00000E+00
    0.51658E+00        -0.17942E+00         0.00000E+00
    0.49788E+00        -0.17127E+00         0.00000E+00
    0.47931E+00        -0.16336E+00         0.00000E+00
    0.46087E+00        -0.15567E+00         0.00000E+00
    0.44258E+00        -0.14816E+00         0.00000E+00
    0.42445E+00        -0.14082E+00         0.00000E+00
    0.40649E+00        -0.13361E+00         0.00000E+00
    0.38869E+00        -0.12654E+00         0.00000E+00
    0.37105E+00        -0.11958E+00         0.00000E+00
    0.35358E+00        -0.11271E+00         0.00000E+00
    0.33627E+00        -0.10595E+00         0.00000E+00
    0.31912E+00        -0.99276E-01         0.00000E+00
    0.30213E+00        -0.92696E-01         0.00000E+00
    0.28529E+00        -0.86212E-01         0.00000E+00
    0.26861E+00        -0.79833E-01         0.00000E+00
    0.25208E+00        -0.73569E-01         0.00000E+00
    0.23572E+00        -0.67435E-01         0.00000E+00
    0.21953E+00        -0.61446E-01         0.00000E+00
    0.20352E+00        -0.55622E-01         0.00000E+00
    0.18772E+00        -0.49984E-01         0.00000E+00
    0.17214E+00        -0.44554E-01         0.00000E+00
    0.15681E+00        -0.39356E-01         0.00000E+00
    0.14177E+00        -0.34413E-01         0.00000E+00
    0.12706E+00        -0.29750E-01         0.00000E+00
    0.11273E+00        -0.25387E-01         0.00000E+00
    0.98827E-01        -0.21347E-01         0.00000E+00
    0.85416E-01        -0.17646E-01         0.00000E+00
    0.72565E-01        -0.14298E-01         0.00000E+00
    0.60348E-01        -0.11314E-01         0.00000E+00
    0.48847E-01        -0.86969E-02         0.00000E+00
    0.38147E-01        -0.64449E-02         0.00000E+00
    0.28340E-01        -0.45479E-02         0.00000E+00
    0.19522E-01        -0.29876E-02         0.00000E+00
    0.11792E-01        -0.17365E-02         0.00000E+00
    0.52508E-02        -0.75692E-03         0.00000E+00
    0.00000E+00         0.00000E+00         0.00000E+00
    0.87288E+00        -0.42793E+00         0.00000E+00
    0.85359E+00        -0.41358E+00         0.00000E+00
    0.83369E+00        -0.39956E+00         0.00000E+00
    0.81327E+00        -0.38593E+00         0.00000E+00
    0.79245E+00        -0.37275E+00         0.00000E+00
    0.77131E+00        -0.36003E+00         0.00000E+00
    0.74995E+00        -0.34780E+00         0.00000E+00
    0.72847E+00        -0.33606E+00         0.00000E+00
    0.70693E+00        -0.32479E+00         0.00000E+00
    0.68543E+00        -0.31397E+00         0.00000E+00
    0.66403E+00        -0.30356E+00         0.00000E+00
    0.64278E+00        -0.29355E+00         0.00000E+00
    0.62174E+00        -0.28388E+00         0.00000E+00
    0.60095E+00        -0.27450E+00         0.00000E+00
    0.58043E+00        -0.26538E+00         0.00000E+00
    0.56023E+00        -0.25647E+00         0.00000E+00
    0.54034E+00        -0.24772E+00         0.00000E+00
    0.52077E+00        -0.23909E+00         0.00000E+00
    0.50154E+00        -0.23054E+00         0.00000E+00
    0.48262E+00        -0.22203E+00         0.00000E+00
    0.46400E+00        -0.21353E+00         0.00000E+00
    0.44567E+00        -0.20501E+00         0.00000E+00
    0.42761E+00        -0.19646E+00         0.00000E+00
    0.40979E+00        -0.18785E+00         0.00000E+00
    0.39219E+00        -0.17917E+00         0.00000E+00
    0.37477E+00        -0.17041E+00         0.00000E+00
    0.35751E+00        -0.16159E+00         0.00000E+00
    0.34039E+00        -0.15269E+00         0.00000E+00
    0.32337E+00        -0.14374E+00         0.00000E+00
    0.30644E+00        -0.13475E+00         0.00000E+00
    0.28957E+00        -0.12574E+00         0.00000E+00
    0.27275E+00        -0.11674E+00         0.00000E+00
    0.25596E+00        -0.10778E+00         0.00000E+00
    0.23921E+00        -0.98891E-01         0.00000E+00
    0.22250E+00        -0.90122E-01         0.00000E+00
    0.20584E+00        -0.81511E-01         0.00000E+00
    0.18924E+00        -0.73105E-01         0.00000E+00
    0.17274E+00        -0.64950E-01         0.00000E+00
    0.15637E+00        -0.57096E-01         0.00000E+00
    0.14019E+00        -0.49590E-01         0.00000E+00
    0.12425E+00        -0.42480E-01         0.00000E+00
    0.10863E+00        -0.35811E-01         0.00000E+00
    0.93405E-01        -0.29625E-01         0.00000E+00
    0.78681E-01        -0.23958E-01         0.00000E+00
    0.64563E-01        -0.18838E-01         0.00000E+00
    0.51171E-01        -0.14288E-01         0.00000E+00
    0.38636E-01        -0.10318E-01         0.00000E+00
    0.27098E-01        -0.69268E-02         0.00000E+00
    0.16707E-01        -0.40999E-02         0.00000E+00
    0.76203E-02        -0.18067E-02         0.00000E+00
    0.00000E+00         0.00000E+00         0.00000E+00
    0.96994E+00        -0.53621E+00         0.00000E+00
    0.94511E+00        -0.52156E+00         0.00000E+00
    0.91985E+00        -0.50732E+00         0.00000E+00
    0.89430E+00        -0.49358E+00         0.00000E+00
    0.86859E+00        -0.48036E+00         0.00000E+00
    0.84287E+00        -0.46770E+00         0.00000E+00
    0.81726E+00        -0.45559E+00         0.00000E+00
    0.79187E+00        -0.44403E+00         0.00000E+00
    0.76682E+00        -0.43296E+00         0.00000E+00
    0.74218E+00        -0.42234E+00         0.00000E+00
    0.71804E+00        -0.41212E+00         0.00000E+00
    0.69446E+00        -0.40223E+00         0.00000E+00
    0.67148E+00        -0.39260E+00         0.00000E+00
    0.64914E+00        -0.38315E+00         0.00000E+00
    0.62745E+00        -0.37382E+00         0.00000E+00
    0.60641E+00        -0.36454E+00         0.00000E+00
    0.58602E+00        -0.35523E+00         0.00000E+00
    0.56625E+00        -0.34585E+00         0.00000E+00
    0.54706E+00        -0.33633E+00         0.00000E+00
    0.52842E+00        -0.32662E+00         0.00000E+00
    0.51028E+00        -0.31669E+00         0.00000E+00
    0.49259E+00        -0.30650E+00         0.00000E+00
    0.47528E+00        -0.29603E+00         0.00000E+00
    0.45830E+00        -0.28526E+00         0.00000E+00
    0.44158E+00        -0.27418E+00         0.00000E+00
    0.42506E+00        -0.26279E+00         0.00000E+00
    0.40867E+00        -0.25108E+00         0.00000E+00
    0.39236E+00        -0.23908E+00         0.00000E+00
    0.37606E+00        -0.22681E+00         0.00000E+00
    0.35971E+00        -0.21429E+00         0.00000E+00
    0.34326E+00        -0.20156E+00         0.00000E+00
    0.32666E+00        -0.18866E+00         0.00000E+00
    0.30988E+00        -0.17564E+00         0.00000E+00
    0.29288E+00        -0.16255E+00         0.00000E+00
    0.27563E+00        -0.14945E+00         0.00000E+00
    0.25812E+00        -0.13642E+00         0.00000E+00
    0.24036E+00        -0.12352E+00         0.00000E+00
    0.22234E+00        -0.11083E+00         0.00000E+00
    0.20409E+00        -0.98437E-01         0.00000E+00
    0.18565E+00        -0.86415E-01         0.00000E+00
    0.16707E+00        -0.74851E-01         0.00000E+00
    0.14844E+00        -0.63831E-01         0.00000E+00
    0.12984E+00        -0.53436E-01         0.00000E+00
    0.11139E+00        -0.43744E-01         0.00000E+00
    0.93209E-01        -0.34826E-01         0.00000E+00
    0.75465E-01        -0.26745E-01         0.00000E+00
    0.58327E-01        -0.19549E-01         0.00000E+00
    0.41990E-01        -0.13272E-01         0.00000E+00
    0.26666E-01        -0.79300E-02         0.00000E+00
    0.12588E-01        -0.35170E-02         0.00000E+00
    0.00000E+00         0.00000E+00         0.00000E+00
    0.10739E+01        -0.67630E+00         0.00000E+00
    0.10419E+01        -0.66194E+00         0.00000E+00
    0.10098E+01        -0.64813E+00         0.00000E+00
    0.97773E+00        -0.63493E+00         0.00000E+00
    0.94591E+00        -0.62239E+00         0.00000E+00
    0.91456E+00        -0.61051E+00         0.00000E+00
    0.88386E+00        -0.59926E+00         0.00000E+00
    0.85397E+00        -0.58858E+00         0.00000E+00
    0.82504E+00        -0.57838E+00         0.00000E+00
    0.79716E+00        -0.56857E+00         0.00000E+00
    0.77041E+00        -0.55905E+00         0.00000E+00
    0.74485E+00        -0.54970E+00         0.00000E+00
    0.72051E+00        -0.54042E+00         0.00000E+00
    0.69736E+00        -0.53110E+00         0.00000E+00
    0.67540E+00        -0.52163E+00         0.00000E+00
    0.65458E+00        -0.51193E+00         0.00000E+00
    0.63483E+00        -0.50190E+00         0.00000E+00
    0.61609E+00        -0.49149E+00         0.00000E+00
    0.59826E+00        -0.48062E+00         0.00000E+00
    0.58125E+00        -0.46924E+00         0.00000E+00
    0.56495E+00        -0.45732E+00         0.00000E+00
    0.54927E+00        -0.44483E+00         0.00000E+00
    0.53410E+00        -0.43174E+00         0.00000E+00
    0.51932E+00        -0.41804E+00         0.00000E+00
    0.50482E+00        -0.40374E+00         0.00000E+00
    0.49050E+00        -0.38884E+00         0.00000E+00
    0.47625E+00        -0.37335E+00         0.00000E+00
    0.46197E+00        -0.35730E+00         0.00000E+00
    0.44754E+00        -0.34071E+00         0.00000E+00
    0.43287E+00        -0.32364E+00         0.00000E+00
    0.41787E+00        -0.30611E+00         0.00000E+00
    0.40245E+00        -0.28819E+00         0.00000E+00
    0.38652E+00        -0.26995E+00         0.00000E+00
    0.37001E+00        -0.25144E+00         0.00000E+00
    0.35285E+00        -0.23275E+00         0.00000E+00
    0.33498E+00        -0.21396E+00         0.00000E+00
    0.31636E+00        -0.19518E+00         0.00000E+00
    0.29696E+00        -0.17651E+00         0.00000E+00
    0.27676E+00        -0.15805E+00         0.00000E+00
    0.25576E+00        -0.13994E+00         0.00000E+00
    0.23400E+00        -0.12230E+00         0.00000E+00
    0.21151E+00        -0.10527E+00         0.00000E+00
    0.18838E+00        -0.88974E-01         0.00000E+00
    0.16471E+00        -0.73556E-01         0.00000E+00
    0.14064E+00        -0.59148E-01         0.00000E+00
    0.11635E+00        -0.45878E-01         0.00000E+00
    0.92027E-01        -0.33864E-01         0.00000E+00
    0.67933E-01        -0.23206E-01         0.00000E+00
    0.44348E-01        -0.13982E-01         0.00000E+00
    0.21584E-01        -0.62393E-02         0.00000E+00
    0.00000E+00         0.00000E+00         0.00000E+00
    0.11843E+01        -0.85848E+00         0.00000E+00
    0.11426E+01        -0.84529E+00         0.00000E+00
    0.11011E+01        -0.83284E+00         0.00000E+00
    0.10603E+01        -0.82122E+00         0.00000E+00
    0.10204E+01        -0.81041E+00         0.00000E+00
    0.98202E+00        -0.80033E+00         0.00000E+00
    0.94523E+00        -0.79087E+00         0.00000E+00
    0.91030E+00        -0.78189E+00         0.00000E+00
    0.87739E+00        -0.77322E+00         0.00000E+00
    0.84659E+00        -0.76469E+00         0.00000E+00
    0.81793E+00        -0.75612E+00         0.00000E+00
    0.79140E+00        -0.74734E+00         0.00000E+00
    0.76695E+00        -0.73821E+00         0.00000E+00
    0.74448E+00        -0.72859E+00         0.00000E+00
    0.72386E+00        -0.71838E+00         0.00000E+00
    0.70495E+00        -0.70747E+00         0.00000E+00
    0.68761E+00        -0.69581E+00         0.00000E+00
    0.67166E+00        -0.68333E+00         0.00000E+00
    0.65694E+00        -0.66998E+00         0.00000E+00
    0.64327E+00        -0.65575E+00         0.00000E+00
    0.63050E+00        -0.64061E+00         0.00000E+00
    0.61844E+00        -0.62457E+00         0.00000E+00
    0.60694E+00        -0.60762E+00         0.00000E+00
    0.59585E+00        -0.58978E+00         0.00000E+00
    0.58499E+00        -0.57105E+00         0.00000E+00
    0.57423E+00        -0.55148E+00         0.00000E+00
    0.56342E+00        -0.53108E+00         0.00000E+00
    0.55241E+00        -0.50988E+00         0.00000E+00
    0.54106E+00        -0.48793E+00         0.00000E+00
    0.52923E+00        -0.46528E+00         0.00000E+00
    0.51679E+00        -0.44196E+00         0.00000E+00
    0.50361E+00        -0.41804E+00         0.00000E+00
    0.48954E+00        -0.39357E+00         0.00000E+00
    0.47447E+00        -0.36863E+00         0.00000E+00
    0.45827E+00        -0.34331E+00         0.00000E+00
    0.44082E+00        -0.31768E+00         0.00000E+00
    0.42200E+00        -0.29186E+00         0.00000E+00
    0.40172E+00        -0.26595E+00         0.00000E+00
    0.37987E+00        -0.24009E+00         0.00000E+00
    0.35638E+00        -0.21443E+00         0.00000E+00
    0.33119E+00        -0.18913E+00         0.00000E+00
    0.30428E+00        -0.16436E+00         0.00000E+00
    0.27564E+00        -0.14032E+00         0.00000E+00
    0.24531E+00        -0.11722E+00         0.00000E+00
    0.21338E+00        -0.95280E-01         0.00000E+00
    0.17998E+00        -0.74717E-01         0.00000E+00
    0.14531E+00        -0.55758E-01         0.00000E+00
    0.10961E+00        -0.38619E-01         0.00000E+00
    0.73212E-01        -0.23503E-01         0.00000E+00
    0.36527E-01        -0.10590E-01         0.00000E+00
    0.00000E+00         0.00000E+00         0.00000E+00
    0.13002E+01        -0.11024E+01         0.00000E+00
    0.12433E+01        -0.10915E+01         0.00000E+00
    0.11878E+01        -0.10818E+01         0.00000E+00
    0.11345E+01        -0.10730E+01         0.00000E+00
    0.10840E+01        -0.10651E+01         0.00000E+00
    0.10367E+01        -0.10577E+01         0.00000E+00
    0.99314E+00        -0.10506E+01         0.00000E+00
    0.95337E+00        -0.10435E+01         0.00000E+00
    0.91747E+00        -0.10360E+01         0.00000E+00
    0.88535E+00        -0.10279E+01         0.00000E+00
    0.85684E+00        -0.10190E+01         0.00000E+00
    0.83170E+00        -0.10090E+01         0.00000E+00
    0.80965E+00        -0.99799E+00         0.00000E+00
    0.79037E+00        -0.98576E+00         0.00000E+00
    0.77358E+00        -0.97229E+00         0.00000E+00
    0.75895E+00        -0.95757E+00         0.00000E+00
    0.74622E+00        -0.94160E+00         0.00000E+00
    0.73509E+00        -0.92439E+00         0.00000E+00
    0.72530E+00        -0.90597E+00         0.00000E+00
    0.71662E+00        -0.88638E+00         0.00000E+00
    0.70882E+00        -0.86566E+00         0.00000E+00
    0.70168E+00        -0.84385E+00         0.00000E+00
    0.69501E+00        -0.82100E+00         0.00000E+00
    0.68862E+00        -0.79714E+00         0.00000E+00
    0.68233E+00        -0.77233E+00         0.00000E+00
    0.67598E+00        -0.74660E+00         0.00000E+00
    0.66939E+00        -0.72000E+00         0.00000E+00
    0.66242E+00        -0.69256E+00         0.00000E+00
    0.65490E+00        -0.66431E+00         0.00000E+00
    0.64668E+00        -0.63531E+00         0.00000E+00
    0.63759E+00        -0.60557E+00         0.00000E+00
    0.62747E+00        -0.57513E+00         0.00000E+00
    0.61615E+00        -0.54405E+00         0.00000E+00
    0.60346E+00        -0.51236E+00         0.00000E+00
    0.58920E+00        -0.48010E+00         0.00000E+00
    0.57319E+00        -0.44734E+00         0.00000E+00
    0.55523E+00        -0.41415E+00         0.00000E+00
    0.53510E+00        -0.38061E+00         0.00000E+00
    0.51259E+00        -0.34683E+00         0.00000E+00
    0.48747E+00        -0.31292E+00         0.00000E+00
    0.45953E+00        -0.27903E+00         0.00000E+00
    0.42857E+00        -0.24536E+00         0.00000E+00
    0.39438E+00        -0.21211E+00         0.00000E+00
    0.35681E+00        -0.17955E+00         0.00000E+00
    0.31576E+00        -0.14797E+00         0.00000E+00
    0.27117E+00        -0.11771E+00         0.00000E+00
    0.22309E+00        -0.89160E-01         0.00000E+00
    0.17163E+00        -0.62701E-01         0.00000E+00
    0.11703E+00        -0.38740E-01         0.00000E+00
    0.59615E-01        -0.17684E-01         0.00000E+00
    0.00000E+00         0.00000E+00         0.00000E+00
    0.14106E+01        -0.14508E+01         0.00000E+00
    0.13276E+01        -0.14428E+01         0.00000E+00
    0.12500E+01        -0.14361E+01         0.00000E+00
    0.11787E+01        -0.14303E+01         0.00000E+00
    0.11148E+01        -0.14247E+01         0.00000E+00
    0.10586E+01        -0.14184E+01         0.00000E+00
    0.10101E+01        -0.14108E+01         0.00000E+00
    0.96873E+00        -0.14016E+01         0.00000E+00
    0.93387E+00        -0.13903E+01         0.00000E+00
    0.90479E+00        -0.13771E+01         0.00000E+00
    0.88073E+00        -0.13617E+01         0.00000E+00
    0.86099E+00        -0.13444E+01         0.00000E+00
    0.84493E+00        -0.13251E+01         0.00000E+00
    0.83196E+00        -0.13040E+01         0.00000E+00
    0.82157E+00        -0.12813E+01         0.00000E+00
    0.81331E+00        -0.12571E+01         0.00000E+00
    0.80679E+00        -0.12315E+01         0.00000E+00
    0.80165E+00        -0.12047E+01         0.00000E+00
    0.79760E+00        -0.11768E+01         0.00000E+00
    0.79438E+00        -0.11479E+01         0.00000E+00
    0.79176E+00        -0.11180E+01         0.00000E+00
    0.78953E+00        -0.10873E+01         0.00000E+00
    0.78751E+00        -0.10559E+01         0.00000E+00
    0.78552E+00        -0.10238E+01         0.00000E+00
    0.78343E+00        -0.99103E+00         0.00000E+00
    0.78107E+00        -0.95767E+00         0.00000E+00
    0.77831E+00        -0.92374E+00         0.00000E+00
    0.77501E+00        -0.88927E+00         0.00000E+00
    0.77102E+00        -0.85427E+00         0.00000E+00
    0.76621E+00        -0.81875E+00         0.00000E+00
    0.76041E+00        -0.78271E+00         0.00000E+00
    0.75347E+00        -0.74614E+00         0.00000E+00
    0.74520E+00        -0.70904E+00         0.00000E+00
    0.73540E+00        -0.67140E+00         0.00000E+00
    0.72387E+00        -0.63319E+00         0.00000E+00
    0.71035E+00        -0.59442E+00         0.00000E+00
    0.69456E+00        -0.55506E+00         0.00000E+00
    0.67621E+00        -0.51512E+00         0.00000E+00
    0.65493E+00        -0.47460E+00         0.00000E+00
    0.63033E+00        -0.43351E+00         0.00000E+00
    0.60197E+00        -0.39191E+00         0.00000E+00
    0.56937E+00        -0.34987E+00         0.00000E+00
    0.53200E+00        -0.30752E+00         0.00000E+00
    0.48928E+00        -0.26502E+00         0.00000E+00
    0.44063E+00        -0.22264E+00         0.00000E+00
    0.38548E+00        -0.18076E+00         0.00000E+00
    0.32332E+00        -0.13984E+00         0.00000E+00
    0.25379E+00        -0.10053E+00         0.00000E+00
    0.17673E+00        -0.63580E-01         0.00000E+00
    0.92193E-01        -0.29839E-01         0.00000E+00
    0.00000E+00         0.00000E+00         0.00000E+00
    0.14509E+01        -0.19905E+01         0.00000E+00
    0.13241E+01        -0.19793E+01         0.00000E+00
    0.12152E+01        -0.19694E+01         0.00000E+00
    0.11259E+01        -0.19573E+01         0.00000E+00
    0.10546E+01        -0.19416E+01         0.00000E+00
    0.99841E+00        -0.19217E+01         0.00000E+00
    0.95457E+00        -0.18977E+01         0.00000E+00
    0.92065E+00        -0.18701E+01         0.00000E+00
    0.89462E+00        -0.18393E+01         0.00000E+00
    0.87484E+00        -0.18058E+01         0.00000E+00
    0.85999E+00        -0.17701E+01         0.00000E+00
    0.84901E+00        -0.17326E+01         0.00000E+00
    0.84108E+00        -0.16937E+01         0.00000E+00
    0.83550E+00        -0.16537E+01         0.00000E+00
    0.83176E+00        -0.16130E+01         0.00000E+00
    0.82942E+00        -0.15716E+01         0.00000E+00
    0.82813E+00        -0.15299E+01         0.00000E+00
    0.82761E+00        -0.14879E+01         0.00000E+00
    0.82763E+00        -0.14458E+01         0.00000E+00
    0.82800E+00        -0.14036E+01         0.00000E+00
    0.82855E+00        -0.13615E+01         0.00000E+00
    0.82916E+00        -0.13194E+01         0.00000E+00
    0.82970E+00        -0.12775E+01         0.00000E+00
    0.83007E+00        -0.12356E+01         0.00000E+00
    0.83017E+00        -0.11939E+01         0.00000E+00
    0.82990E+00        -0.11524E+01         0.00000E+00
    0.82917E+00        -0.11109E+01         0.00000E+00
    0.82789E+00        -0.10696E+01         0.00000E+00
    0.82597E+00        -0.10283E+01         0.00000E+00
    0.82330E+00        -0.98708E+00         0.00000E+00
    0.81976E+00        -0.94581E+00         0.00000E+00
    0.81522E+00        -0.90447E+00         0.00000E+00
    0.80954E+00        -0.86300E+00         0.00000E+00
    0.80254E+00        -0.82133E+00         0.00000E+00
    0.79402E+00        -0.77936E+00         0.00000E+00
    0.78375E+00        -0.73703E+00         0.00000E+00
    0.77145E+00        -0.69422E+00         0.00000E+00
    0.75678E+00        -0.65082E+00         0.00000E+00
    0.73935E+00        -0.60673E+00         0.00000E+00
    0.71868E+00        -0.56180E+00         0.00000E+00
    0.69421E+00        -0.51590E+00         0.00000E+00
    0.66523E+00        -0.46889E+00         0.00000E+00
    0.63091E+00        -0.42065E+00         0.00000E+00
    0.59022E+00        -0.37104E+00         0.00000E+00
    0.54196E+00        -0.31999E+00         0.00000E+00
    0.48464E+00        -0.26750E+00         0.00000E+00
    0.41653E+00        -0.21370E+00         0.00000E+00
    0.33569E+00        -0.15894E+00         0.00000E+00
    0.24008E+00        -0.10398E+00         0.00000E+00
    0.12813E+00        -0.50189E-01         0.00000E+00
    0.00000E+00         0.00000E+00         0.00000E+00
    0.11548E+01        -0.28128E+01         0.00000E+00
    0.99449E+00        -0.27657E+01         0.00000E+00
    0.88844E+00        -0.27088E+01         0.00000E+00
    0.81649E+00        -0.26448E+01         0.00000E+00
    0.76677E+00        -0.25760E+01         0.00000E+00
    0.73198E+00        -0.25046E+01         0.00000E+00
    0.70746E+00        -0.24319E+01         0.00000E+00
    0.69013E+00        -0.23591E+01         0.00000E+00
    0.67792E+00        -0.22869E+01         0.00000E+00
    0.66940E+00        -0.22158E+01         0.00000E+00
    0.66355E+00        -0.21460E+01         0.00000E+00
    0.65964E+00        -0.20779E+01         0.00000E+00
    0.65716E+00        -0.20114E+01         0.00000E+00
    0.65571E+00        -0.19467E+01         0.00000E+00
    0.65499E+00        -0.18838E+01         0.00000E+00
    0.65480E+00        -0.18225E+01         0.00000E+00
    0.65497E+00        -0.17629E+01         0.00000E+00
    0.65536E+00        -0.17048E+01         0.00000E+00
    0.65588E+00        -0.16483E+01         0.00000E+00
    0.65644E+00        -0.15933E+01         0.00000E+00
    0.65697E+00        -0.15395E+01         0.00000E+00
    0.65743E+00        -0.14871E+01         0.00000E+00
    0.65776E+00        -0.14358E+01         0.00000E+00
    0.65792E+00        -0.13857E+01         0.00000E+00
    0.65786E+00        -0.13366E+01         0.00000E+00
    0.65755E+00        -0.12884E+01         0.00000E+00
    0.65695E+00        -0.12412E+01         0.00000E+00
    0.65600E+00        -0.11947E+01         0.00000E+00
    0.65467E+00        -0.11489E+01         0.00000E+00
    0.65289E+00        -0.11037E+01         0.00000E+00
    0.65061E+00        -0.10591E+01         0.00000E+00
    0.64775E+00        -0.10150E+01         0.00000E+00
    0.64423E+00        -0.97116E+00         0.00000E+00
    0.63994E+00        -0.92760E+00         0.00000E+00
    0.63477E+00        -0.88417E+00         0.00000E+00
    0.62856E+00        -0.84074E+00         0.00000E+00
    0.62114E+00        -0.79718E+00         0.00000E+00
    0.61229E+00        -0.75332E+00         0.00000E+00
    0.60174E+00        -0.70897E+00         0.00000E+00
    0.58915E+00        -0.66392E+00         0.00000E+00
    0.57410E+00        -0.61791E+00         0.00000E+00
    0.55604E+00        -0.57064E+00         0.00000E+00
    0.53429E+00        -0.52174E+00         0.00000E+00
    0.50794E+00        -0.47080E+00         0.00000E+00
    0.47578E+00        -0.41729E+00         0.00000E+00
    0.43620E+00        -0.36060E+00         0.00000E+00
    0.38694E+00        -0.29998E+00         0.00000E+00
    0.32483E+00        -0.23458E+00         0.00000E+00
    0.24517E+00        -0.16341E+00         0.00000E+00
    0.14076E+00        -0.85471E-01         0.00000E+00
    0.00000E+00         0.00000E+00         0.00000E+00
    0.00000E+00        -0.35293E+01         0.00000E+00
    0.00000E+00        -0.33698E+01         0.00000E+00
    0.00000E+00        -0.32171E+01         0.00000E+00
    0.00000E+00        -0.30738E+01         0.00000E+00
    0.00000E+00        -0.29401E+01         0.00000E+00
    0.00000E+00        -0.28157E+01         0.00000E+00
    0.00000E+00        -0.26996E+01         0.00000E+00
    0.00000E+00        -0.25911E+01         0.00000E+00
    0.00000E+00        -0.24894E+01         0.00000E+00
    0.00000E+00        -0.23938E+01         0.00000E+00
    0.00000E+00        -0.23035E+01         0.00000E+00
    0.00000E+00        -0.22180E+01         0.00000E+00
    0.00000E+00        -0.21368E+01         0.00000E+00
    0.00000E+00        -0.20595E+01         0.00000E+00
    0.00000E+00        -0.19858E+01         0.00000E+00
    0.00000E+00        -0.19152E+01         0.00000E+00
    0.00000E+00        -0.18475E+01         0.00000E+00
    0.00000E+00        -0.17824E+01         0.00000E+00
    0.00000E+00        -0.17198E+01         0.00000E+00
    0.00000E+00        -0.16593E+01         0.00000E+00
    0.00000E+00        -0.16009E+01         0.00000E+00
    0.00000E+00        -0.15443E+01         0.00000E+00
    0.00000E+00        -0.14894E+01         0.00000E+00
    0.00000E+00        -0.14360E+01         0.00000E+00
    0.00000E+00        -0.13841E+01         0.00000E+00
    0.00000E+00        -0.13335E+01         0.00000E+00
    0.00000E+00        -0.12841E+01         0.00000E+00
    0.00000E+00        -0.12357E+01         0.00000E+00
    0.00000E+00        -0.11884E+01         0.00000E+00
    0.00000E+00        -0.11419E+01         0.00000E+00
    0.00000E+00        -0.10962E+01         0.00000E+00
    0.00000E+00        -0.10511E+01         0.00000E+00
    0.00000E+00        -0.10066E+01         0.00000E+00
    0.00000E+00        -0.96259E+00         0.00000E+00
    0.00000E+00        -0.91888E+00         0.00000E+00
    0.00000E+00        -0.87538E+00         0.00000E+00
    0.00000E+00        -0.83193E+00         0.00000E+00
    0.00000E+00        -0.78837E+00         0.00000E+00
    0.00000E+00        -0.74450E+00         0.00000E+00
    0.00000E+00        -0.70011E+00         0.00000E+00
    0.00000E+00        -0.65493E+00         0.00000E+00
    0.00000E+00        -0.60861E+00         0.00000E+00
    0.00000E+00        -0.56076E+00         0.00000E+00
    0.00000E+00        -0.51085E+00         0.00000E+00
    0.00000E+00        -0.45822E+00         0.00000E+00
    0.00000E+00        -0.40196E+00         0.00000E+00
    0.00000E+00        -0.34088E+00         0.00000E+00
    0.00000E+00        -0.27329E+00         0.00000E+00
    0.00000E+00        -0.19675E+00         0.00000E+00
    0.00000E+00        -0.10758E+00         0.00000E+00
    0.00000E+00         0.00000E+00         0.00000E+00
CELL_DATA       5000
VECTORS vDarcy double 
    0.13267E-05         0.97897E-08         0.00000E+00
    0.13201E-05         0.23316E-07         0.00000E+00
    0.13096E-05         0.29355E-07         0.00000E+00
    0.12975E-05         0.31249E-07         0.00000E+00
    0.12849E-05         0.31434E-07         0.00000E+00
    0.12725E-05         0.30850E-07         0.00000E+00
    0.12603E-05         0.29870E-07         0.00000E+00
    0.12486E-05         0.28705E-07         0.00000E+00
    0.12374E-05         0.27469E-07         0.00000E+00
    0.12266E-05         0.26226E-07         0.00000E+00
    0.12164E-05         0.25011E-07         0.00000E+00
    0.12066E-05         0.23842E-07         0.00000E+00
    0.11973E-05         0.22727E-07         0.00000E+00
    0.11884E-05         0.21672E-07         0.00000E+00
    0.11800E-05         0.20678E-07         0.00000E+00
    0.11719E-05         0.19746E-07         0.00000E+00
    0.11641E-05         0.18876E-07         0.00000E+00
    0.11568E-05         0.18067E-07         0.00000E+00
    0.11497E-05         0.17319E-07         0.00000E+00
    0.11429E-05         0.16630E-07         0.00000E+00
    0.11364E-05         0.16001E-07         0.00000E+00
    0.11301E-05         0.15429E-07         0.00000E+00
    0.11240E-05         0.14914E-07         0.00000E+00
    0.11181E-05         0.14454E-07         0.00000E+00
    0.11124E-05         0.14050E-07         0.00000E+00
    0.11069E-05         0.13700E-07         0.00000E+00
    0.11015E-05         0.13403E-07         0.00000E+00
    0.10962E-05         0.13158E-07         0.00000E+00
    0.10909E-05         0.12964E-07         0.00000E+00
    0.10858E-05         0.12821E-07         0.00000E+00
    0.10807E-05         0.12728E-07         0.00000E+00
    0.10756E-05         0.12684E-07         0.00000E+00
    0.10705E-05         0.12687E-07         0.00000E+00
    0.10654E-05         0.12736E-07         0.00000E+00
    0.10603E-05         0.12829E-07         0.00000E+00
    0.10551E-05         0.12963E-07         0.00000E+00
    0.10499E-05         0.13133E-07         0.00000E+00
    0.10446E-05         0.13332E-07         0.00000E+00
    0.10393E-05         0.13553E-07         0.00000E+00
    0.10338E-05         0.13779E-07         0.00000E+00
    0.10282E-05         0.13993E-07         0.00000E+00
    0.10226E-05         0.14164E-07         0.00000E+00
    0.10169E-05         0.14251E-07         0.00000E+00
    0.10112E-05         0.14193E-07         0.00000E+00
    0.10056E-05         0.13907E-07         0.00000E+00
    0.10002E-05         0.13270E-07         0.00000E+00
    0.99510E-06         0.12117E-07         0.00000E+00
    0.99064E-06         0.10223E-07         0.00000E+00
    0.98713E-06         0.72966E-08         0.00000E+00
    0.98508E-06         0.29874E-08         0.00000E+00
    0.54168E-06         0.10663E-07         0.00000E+00
    0.54769E-06         0.25508E-07         0.00000E+00
    0.55696E-06         0.33464E-07         0.00000E+00
    0.56700E-06         0.37550E-07         0.00000E+00
    0.57660E-06         0.39795E-07         0.00000E+00
    0.58535E-06         0.41025E-07         0.00000E+00
    0.59311E-06         0.41604E-07         0.00000E+00
    0.59987E-06         0.41748E-07         0.00000E+00
    0.60568E-06         0.41585E-07         0.00000E+00
    0.61060E-06         0.41198E-07         0.00000E+00
    0.61472E-06         0.40642E-07         0.00000E+00
    0.61815E-06         0.39956E-07         0.00000E+00
    0.62095E-06         0.39171E-07         0.00000E+00
    0.62321E-06         0.38314E-07         0.00000E+00
    0.62501E-06         0.37406E-07         0.00000E+00
    0.62640E-06         0.36468E-07         0.00000E+00
    0.62745E-06         0.35515E-07         0.00000E+00
    0.62821E-06         0.34564E-07         0.00000E+00
    0.62873E-06         0.33628E-07         0.00000E+00
    0.62904E-06         0.32717E-07         0.00000E+00
    0.62918E-06         0.31842E-07         0.00000E+00
    0.62918E-06         0.31009E-07         0.00000E+00
    0.62907E-06         0.30226E-07         0.00000E+00
    0.62888E-06         0.29498E-07         0.00000E+00
    0.62861E-06         0.28829E-07         0.00000E+00
    0.62830E-06         0.28221E-07         0.00000E+00
    0.62796E-06         0.27677E-07         0.00000E+00
    0.62761E-06         0.27197E-07         0.00000E+00
    0.62727E-06         0.26782E-07         0.00000E+00
    0.62694E-06         0.26431E-07         0.00000E+00
    0.62664E-06         0.26142E-07         0.00000E+00
    0.62640E-06         0.25915E-07         0.00000E+00
    0.62621E-06         0.25745E-07         0.00000E+00
    0.62611E-06         0.25628E-07         0.00000E+00
    0.62610E-06         0.25558E-07         0.00000E+00
    0.62620E-06         0.25529E-07         0.00000E+00
    0.62642E-06         0.25530E-07         0.00000E+00
    0.62679E-06         0.25549E-07         0.00000E+00
    0.62732E-06         0.25570E-07         0.00000E+00
    0.62803E-06         0.25570E-07         0.00000E+00
    0.62892E-06         0.25520E-07         0.00000E+00
    0.63000E-06         0.25380E-07         0.00000E+00
    0.63127E-06         0.25093E-07         0.00000E+00
    0.63272E-06         0.24584E-07         0.00000E+00
    0.63429E-06         0.23744E-07         0.00000E+00
    0.63593E-06         0.22415E-07         0.00000E+00
    0.63753E-06         0.20371E-07         0.00000E+00
    0.63893E-06         0.17268E-07         0.00000E+00
    0.63997E-06         0.12574E-07         0.00000E+00
    0.64049E-06         0.54198E-08         0.00000E+00
    0.92972E-07        -0.26759E-08         0.00000E+00
    0.95951E-07        -0.60906E-08         0.00000E+00
    0.10105E-06        -0.67843E-08         0.00000E+00
    0.10770E-06        -0.56750E-08         0.00000E+00
    0.11541E-06        -0.35439E-08         0.00000E+00
    0.12370E-06        -0.85074E-09         0.00000E+00
    0.13222E-06         0.21067E-08         0.00000E+00
    0.14068E-06         0.51139E-08         0.00000E+00
    0.14892E-06         0.80220E-08         0.00000E+00
    0.15681E-06         0.10733E-07         0.00000E+00
    0.16426E-06         0.13187E-07         0.00000E+00
    0.17125E-06         0.15354E-07         0.00000E+00
    0.17776E-06         0.17224E-07         0.00000E+00
    0.18379E-06         0.18803E-07         0.00000E+00
    0.18936E-06         0.20106E-07         0.00000E+00
    0.19448E-06         0.21154E-07         0.00000E+00
    0.19920E-06         0.21971E-07         0.00000E+00
    0.20355E-06         0.22583E-07         0.00000E+00
    0.20755E-06         0.23016E-07         0.00000E+00
    0.21125E-06         0.23293E-07         0.00000E+00
    0.21467E-06         0.23437E-07         0.00000E+00
    0.21786E-06         0.23468E-07         0.00000E+00
    0.22084E-06         0.23404E-07         0.00000E+00
    0.22365E-06         0.23259E-07         0.00000E+00
    0.22632E-06         0.23047E-07         0.00000E+00
    0.22888E-06         0.22777E-07         0.00000E+00
    0.23135E-06         0.22457E-07         0.00000E+00
    0.23376E-06         0.22094E-07         0.00000E+00
    0.23615E-06         0.21690E-07         0.00000E+00
    0.23853E-06         0.21248E-07         0.00000E+00
    0.24094E-06         0.20766E-07         0.00000E+00
    0.24339E-06         0.20245E-07         0.00000E+00
    0.24592E-06         0.19680E-07         0.00000E+00
    0.24855E-06         0.19068E-07         0.00000E+00
    0.25131E-06         0.18403E-07         0.00000E+00
    0.25421E-06         0.17680E-07         0.00000E+00
    0.25728E-06         0.16894E-07         0.00000E+00
    0.26054E-06         0.16040E-07         0.00000E+00
    0.26400E-06         0.15115E-07         0.00000E+00
    0.26768E-06         0.14118E-07         0.00000E+00
    0.27157E-06         0.13052E-07         0.00000E+00
    0.27567E-06         0.11925E-07         0.00000E+00
    0.27996E-06         0.10748E-07         0.00000E+00
    0.28440E-06         0.95413E-08         0.00000E+00
    0.28891E-06         0.83246E-08         0.00000E+00
    0.29342E-06         0.71168E-08         0.00000E+00
    0.29777E-06         0.59195E-08         0.00000E+00
    0.30177E-06         0.46908E-08         0.00000E+00
    0.30510E-06         0.32958E-08         0.00000E+00
    0.30724E-06         0.14256E-08         0.00000E+00
   -0.11562E-07        -0.67768E-08         0.00000E+00
   -0.11564E-07        -0.16877E-07         0.00000E+00
   -0.11199E-07        -0.23303E-07         0.00000E+00
   -0.10313E-07        -0.26865E-07         0.00000E+00
   -0.88544E-08        -0.28190E-07         0.00000E+00
   -0.68203E-08        -0.27842E-07         0.00000E+00
   -0.42537E-08        -0.26298E-07         0.00000E+00
   -0.12276E-08        -0.23947E-07         0.00000E+00
    0.21715E-08        -0.21097E-07         0.00000E+00
    0.58542E-08        -0.17985E-07         0.00000E+00
    0.97358E-08        -0.14791E-07         0.00000E+00
    0.13741E-07        -0.11643E-07         0.00000E+00
    0.17804E-07        -0.86339E-08         0.00000E+00
    0.21872E-07        -0.58241E-08         0.00000E+00
    0.25903E-07        -0.32510E-08         0.00000E+00
    0.29864E-07        -0.93429E-09         0.00000E+00
    0.33732E-07         0.11193E-08         0.00000E+00
    0.37493E-07         0.29119E-08         0.00000E+00
    0.41138E-07         0.44517E-08         0.00000E+00
    0.44663E-07         0.57508E-08         0.00000E+00
    0.48069E-07         0.68229E-08         0.00000E+00
    0.51361E-07         0.76828E-08         0.00000E+00
    0.54547E-07         0.83448E-08         0.00000E+00
    0.57636E-07         0.88223E-08         0.00000E+00
    0.60640E-07         0.91275E-08         0.00000E+00
    0.63570E-07         0.92709E-08         0.00000E+00
    0.66439E-07         0.92612E-08         0.00000E+00
    0.69261E-07         0.91053E-08         0.00000E+00
    0.72050E-07         0.88086E-08         0.00000E+00
    0.74818E-07         0.83747E-08         0.00000E+00
    0.77578E-07         0.78062E-08         0.00000E+00
    0.80342E-07         0.71046E-08         0.00000E+00
    0.83121E-07         0.62713E-08         0.00000E+00
    0.85925E-07         0.53076E-08         0.00000E+00
    0.88760E-07         0.42164E-08         0.00000E+00
    0.91631E-07         0.30022E-08         0.00000E+00
    0.94541E-07         0.16734E-08         0.00000E+00
    0.97485E-07         0.24338E-09         0.00000E+00
    0.10046E-06        -0.12674E-08         0.00000E+00
    0.10345E-06        -0.28292E-08         0.00000E+00
    0.10643E-06        -0.44002E-08         0.00000E+00
    0.10939E-06        -0.59238E-08         0.00000E+00
    0.11229E-06        -0.73260E-08         0.00000E+00
    0.11508E-06        -0.85122E-08         0.00000E+00
    0.11771E-06        -0.93658E-08         0.00000E+00
    0.12012E-06        -0.97457E-08         0.00000E+00
    0.12222E-06        -0.94859E-08         0.00000E+00
    0.12392E-06        -0.83907E-08         0.00000E+00
    0.12510E-06        -0.62219E-08         0.00000E+00
    0.12569E-06        -0.26617E-08         0.00000E+00
   -0.19198E-07        -0.57063E-08         0.00000E+00
   -0.19718E-07        -0.15334E-07         0.00000E+00
   -0.20546E-07        -0.22533E-07         0.00000E+00
   -0.21446E-07        -0.27568E-07         0.00000E+00
   -0.22248E-07        -0.30769E-07         0.00000E+00
   -0.22845E-07        -0.32450E-07         0.00000E+00
   -0.23168E-07        -0.32905E-07         0.00000E+00
   -0.23182E-07        -0.32401E-07         0.00000E+00
   -0.22875E-07        -0.31174E-07         0.00000E+00
   -0.22254E-07        -0.29429E-07         0.00000E+00
   -0.21338E-07        -0.27335E-07         0.00000E+00
   -0.20156E-07        -0.25033E-07         0.00000E+00
   -0.18741E-07        -0.22636E-07         0.00000E+00
   -0.17127E-07        -0.20232E-07         0.00000E+00
   -0.15348E-07        -0.17889E-07         0.00000E+00
   -0.13437E-07        -0.15656E-07         0.00000E+00
   -0.11424E-07        -0.13570E-07         0.00000E+00
   -0.93335E-08        -0.11655E-07         0.00000E+00
   -0.71892E-08        -0.99257E-08         0.00000E+00
   -0.50099E-08        -0.83922E-08         0.00000E+00
   -0.28115E-08        -0.70577E-08         0.00000E+00
   -0.60667E-09        -0.59227E-08         0.00000E+00
    0.15943E-08        -0.49849E-08         0.00000E+00
    0.37837E-08        -0.42406E-08         0.00000E+00
    0.59555E-08        -0.36853E-08         0.00000E+00
    0.81051E-08        -0.33140E-08         0.00000E+00
    0.10229E-07        -0.31217E-08         0.00000E+00
    0.12326E-07        -0.31036E-08         0.00000E+00
    0.14392E-07        -0.32546E-08         0.00000E+00
    0.16425E-07        -0.35701E-08         0.00000E+00
    0.18424E-07        -0.40447E-08         0.00000E+00
    0.20386E-07        -0.46727E-08         0.00000E+00
    0.22305E-07        -0.54470E-08         0.00000E+00
    0.24179E-07        -0.63585E-08         0.00000E+00
    0.25999E-07        -0.73951E-08         0.00000E+00
    0.27759E-07        -0.85409E-08         0.00000E+00
    0.29448E-07        -0.97746E-08         0.00000E+00
    0.31055E-07        -0.11068E-07         0.00000E+00
    0.32567E-07        -0.12384E-07         0.00000E+00
    0.33970E-07        -0.13675E-07         0.00000E+00
    0.35249E-07        -0.14882E-07         0.00000E+00
    0.36388E-07        -0.15928E-07         0.00000E+00
    0.37373E-07        -0.16722E-07         0.00000E+00
    0.38190E-07        -0.17152E-07         0.00000E+00
    0.38831E-07        -0.17087E-07         0.00000E+00
    0.39294E-07        -0.16371E-07         0.00000E+00
    0.39586E-07        -0.14828E-07         0.00000E+00
    0.39729E-07        -0.12264E-07         0.00000E+00
    0.39767E-07        -0.84767E-08         0.00000E+00
    0.39762E-07        -0.32884E-08         0.00000E+00
   -0.11546E-07        -0.43544E-08         0.00000E+00
   -0.11974E-07        -0.11943E-07         0.00000E+00
   -0.12718E-07        -0.18067E-07         0.00000E+00
   -0.13662E-07        -0.22817E-07         0.00000E+00
   -0.14700E-07        -0.26314E-07         0.00000E+00
   -0.15743E-07        -0.28706E-07         0.00000E+00
   -0.16720E-07        -0.30151E-07         0.00000E+00
   -0.17576E-07        -0.30802E-07         0.00000E+00
   -0.18277E-07        -0.30806E-07         0.00000E+00
   -0.18798E-07        -0.30297E-07         0.00000E+00
   -0.19129E-07        -0.29393E-07         0.00000E+00
   -0.19266E-07        -0.28200E-07         0.00000E+00
   -0.19214E-07        -0.26807E-07         0.00000E+00
   -0.18982E-07        -0.25291E-07         0.00000E+00
   -0.18584E-07        -0.23714E-07         0.00000E+00
   -0.18034E-07        -0.22130E-07         0.00000E+00
   -0.17351E-07        -0.20580E-07         0.00000E+00
   -0.16551E-07        -0.19096E-07         0.00000E+00
   -0.15651E-07        -0.17705E-07         0.00000E+00
   -0.14669E-07        -0.16424E-07         0.00000E+00
   -0.13618E-07        -0.15270E-07         0.00000E+00
   -0.12515E-07        -0.14251E-07         0.00000E+00
   -0.11373E-07        -0.13374E-07         0.00000E+00
   -0.10204E-07        -0.12643E-07         0.00000E+00
   -0.90198E-08        -0.12061E-07         0.00000E+00
   -0.78319E-08        -0.11626E-07         0.00000E+00
   -0.66503E-08        -0.11339E-07         0.00000E+00
   -0.54844E-08        -0.11196E-07         0.00000E+00
   -0.43438E-08        -0.11195E-07         0.00000E+00
   -0.32375E-08        -0.11330E-07         0.00000E+00
   -0.21746E-08        -0.11594E-07         0.00000E+00
   -0.11644E-08        -0.11981E-07         0.00000E+00
   -0.21606E-09        -0.12479E-07         0.00000E+00
    0.66077E-09        -0.13077E-07         0.00000E+00
    0.14565E-08        -0.13757E-07         0.00000E+00
    0.21614E-08        -0.14501E-07         0.00000E+00
    0.27659E-08        -0.15283E-07         0.00000E+00
    0.32610E-08        -0.16071E-07         0.00000E+00
    0.36385E-08        -0.16830E-07         0.00000E+00
    0.38918E-08        -0.17512E-07         0.00000E+00
    0.40167E-08        -0.18063E-07         0.00000E+00
    0.40122E-08        -0.18419E-07         0.00000E+00
    0.38818E-08        -0.18502E-07         0.00000E+00
    0.36348E-08        -0.18225E-07         0.00000E+00
    0.32882E-08        -0.17489E-07         0.00000E+00
    0.28682E-08        -0.16184E-07         0.00000E+00
    0.24118E-08        -0.14193E-07         0.00000E+00
    0.19677E-08        -0.11395E-07         0.00000E+00
    0.15957E-08        -0.76731E-08         0.00000E+00
    0.13662E-08        -0.29183E-08         0.00000E+00
   -0.46400E-08        -0.33485E-08         0.00000E+00
   -0.49387E-08        -0.93130E-08         0.00000E+00
   -0.54790E-08        -0.14278E-07         0.00000E+00
   -0.61960E-08        -0.18302E-07         0.00000E+00
   -0.70311E-08        -0.21460E-07         0.00000E+00
   -0.79318E-08        -0.23840E-07         0.00000E+00
   -0.88521E-08        -0.25533E-07         0.00000E+00
   -0.97528E-08        -0.26632E-07         0.00000E+00
   -0.10602E-07        -0.27226E-07         0.00000E+00
   -0.11377E-07        -0.27400E-07         0.00000E+00
   -0.12058E-07        -0.27232E-07         0.00000E+00
   -0.12635E-07        -0.26793E-07         0.00000E+00
   -0.13100E-07        -0.26147E-07         0.00000E+00
   -0.13452E-07        -0.25348E-07         0.00000E+00
   -0.13693E-07        -0.24446E-07         0.00000E+00
   -0.13825E-07        -0.23481E-07         0.00000E+00
   -0.13857E-07        -0.22488E-07         0.00000E+00
   -0.13795E-07        -0.21497E-07         0.00000E+00
   -0.13649E-07        -0.20531E-07         0.00000E+00
   -0.13430E-07        -0.19610E-07         0.00000E+00
   -0.13147E-07        -0.18751E-07         0.00000E+00
   -0.12811E-07        -0.17965E-07         0.00000E+00
   -0.12433E-07        -0.17261E-07         0.00000E+00
   -0.12024E-07        -0.16646E-07         0.00000E+00
   -0.11594E-07        -0.16126E-07         0.00000E+00
   -0.11154E-07        -0.15701E-07         0.00000E+00
   -0.10714E-07        -0.15374E-07         0.00000E+00
   -0.10283E-07        -0.15144E-07         0.00000E+00
   -0.98720E-08        -0.15007E-07         0.00000E+00
   -0.94898E-08        -0.14960E-07         0.00000E+00
   -0.91459E-08        -0.14998E-07         0.00000E+00
   -0.88492E-08        -0.15112E-07         0.00000E+00
   -0.86086E-08        -0.15293E-07         0.00000E+00
   -0.84322E-08        -0.15529E-07         0.00000E+00
   -0.83278E-08        -0.15805E-07         0.00000E+00
   -0.83023E-08        -0.16104E-07         0.00000E+00
   -0.83617E-08        -0.16405E-07         0.00000E+00
   -0.85104E-08        -0.16681E-07         0.00000E+00
   -0.87510E-08        -0.16904E-07         0.00000E+00
   -0.90839E-08        -0.17040E-07         0.00000E+00
   -0.95065E-08        -0.17048E-07         0.00000E+00
   -0.10012E-07        -0.16882E-07         0.00000E+00
   -0.10591E-07        -0.16493E-07         0.00000E+00
   -0.11226E-07        -0.15823E-07         0.00000E+00
   -0.11895E-07        -0.14810E-07         0.00000E+00
   -0.12571E-07        -0.13387E-07         0.00000E+00
   -0.13215E-07        -0.11485E-07         0.00000E+00
   -0.13784E-07        -0.90343E-08         0.00000E+00
   -0.14226E-07        -0.59647E-08         0.00000E+00
   -0.14479E-07        -0.22146E-08         0.00000E+00
   -0.21025E-10        -0.26604E-08         0.00000E+00
   -0.23535E-09        -0.74359E-08         0.00000E+00
   -0.63061E-09        -0.11478E-07         0.00000E+00
   -0.11691E-08        -0.14825E-07         0.00000E+00
   -0.18148E-08        -0.17533E-07         0.00000E+00
   -0.25344E-08        -0.19666E-07         0.00000E+00
   -0.32985E-08        -0.21287E-07         0.00000E+00
   -0.40813E-08        -0.22461E-07         0.00000E+00
   -0.48606E-08        -0.23251E-07         0.00000E+00
   -0.56183E-08        -0.23714E-07         0.00000E+00
   -0.63396E-08        -0.23904E-07         0.00000E+00
   -0.70133E-08        -0.23869E-07         0.00000E+00
   -0.76313E-08        -0.23653E-07         0.00000E+00
   -0.81884E-08        -0.23295E-07         0.00000E+00
   -0.86819E-08        -0.22830E-07         0.00000E+00
   -0.91111E-08        -0.22287E-07         0.00000E+00
   -0.94775E-08        -0.21693E-07         0.00000E+00
   -0.97837E-08        -0.21069E-07         0.00000E+00
   -0.10034E-07        -0.20436E-07         0.00000E+00
   -0.10233E-07        -0.19807E-07         0.00000E+00
   -0.10387E-07        -0.19198E-07         0.00000E+00
   -0.10503E-07        -0.18618E-07         0.00000E+00
   -0.10587E-07        -0.18076E-07         0.00000E+00
   -0.10647E-07        -0.17578E-07         0.00000E+00
   -0.10690E-07        -0.17129E-07         0.00000E+00
   -0.10724E-07        -0.16731E-07         0.00000E+00
   -0.10755E-07        -0.16387E-07         0.00000E+00
   -0.10793E-07        -0.16096E-07         0.00000E+00
   -0.10843E-07        -0.15857E-07         0.00000E+00
   -0.10914E-07        -0.15667E-07         0.00000E+00
   -0.11012E-07        -0.15521E-07         0.00000E+00
   -0.11144E-07        -0.15413E-07         0.00000E+00
   -0.11316E-07        -0.15336E-07         0.00000E+00
   -0.11533E-07        -0.15282E-07         0.00000E+00
   -0.11800E-07        -0.15238E-07         0.00000E+00
   -0.12122E-07        -0.15193E-07         0.00000E+00
   -0.12499E-07        -0.15130E-07         0.00000E+00
   -0.12935E-07        -0.15034E-07         0.00000E+00
   -0.13428E-07        -0.14884E-07         0.00000E+00
   -0.13976E-07        -0.14657E-07         0.00000E+00
   -0.14573E-07        -0.14330E-07         0.00000E+00
   -0.15212E-07        -0.13874E-07         0.00000E+00
   -0.15882E-07        -0.13259E-07         0.00000E+00
   -0.16568E-07        -0.12452E-07         0.00000E+00
   -0.17251E-07        -0.11419E-07         0.00000E+00
   -0.17907E-07        -0.10122E-07         0.00000E+00
   -0.18508E-07        -0.85237E-08         0.00000E+00
   -0.19020E-07        -0.65869E-08         0.00000E+00
   -0.19406E-07        -0.42762E-08         0.00000E+00
   -0.19621E-07        -0.15608E-08         0.00000E+00
    0.29398E-08        -0.21530E-08         0.00000E+00
    0.27724E-08        -0.60348E-08         0.00000E+00
    0.24611E-08        -0.93458E-08         0.00000E+00
    0.20322E-08        -0.12120E-07         0.00000E+00
    0.15106E-08        -0.14402E-07         0.00000E+00
    0.91910E-09        -0.16241E-07         0.00000E+00
    0.27823E-09        -0.17686E-07         0.00000E+00
   -0.39382E-09        -0.18787E-07         0.00000E+00
   -0.10814E-08        -0.19590E-07         0.00000E+00
   -0.17711E-08        -0.20138E-07         0.00000E+00
   -0.24519E-08        -0.20469E-07         0.00000E+00
   -0.31150E-08        -0.20620E-07         0.00000E+00
   -0.37533E-08        -0.20621E-07         0.00000E+00
   -0.43618E-08        -0.20500E-07         0.00000E+00
   -0.49370E-08        -0.20282E-07         0.00000E+00
   -0.54770E-08        -0.19989E-07         0.00000E+00
   -0.59811E-08        -0.19639E-07         0.00000E+00
   -0.64496E-08        -0.19249E-07         0.00000E+00
   -0.68841E-08        -0.18832E-07         0.00000E+00
   -0.72868E-08        -0.18401E-07         0.00000E+00
   -0.76607E-08        -0.17964E-07         0.00000E+00
   -0.80093E-08        -0.17530E-07         0.00000E+00
   -0.83367E-08        -0.17106E-07         0.00000E+00
   -0.86470E-08        -0.16697E-07         0.00000E+00
   -0.89449E-08        -0.16306E-07         0.00000E+00
   -0.92352E-08        -0.15935E-07         0.00000E+00
   -0.95226E-08        -0.15587E-07         0.00000E+00
   -0.98120E-08        -0.15262E-07         0.00000E+00
   -0.10108E-07        -0.14958E-07         0.00000E+00
   -0.10416E-07        -0.14674E-07         0.00000E+00
   -0.10739E-07        -0.14407E-07         0.00000E+00
   -0.11082E-07        -0.14153E-07         0.00000E+00
   -0.11448E-07        -0.13907E-07         0.00000E+00
   -0.11840E-07        -0.13663E-07         0.00000E+00
   -0.12261E-07        -0.13415E-07         0.00000E+00
   -0.12713E-07        -0.13153E-07         0.00000E+00
   -0.13195E-07        -0.12869E-07         0.00000E+00
   -0.13708E-07        -0.12552E-07         0.00000E+00
   -0.14250E-07        -0.12191E-07         0.00000E+00
   -0.14818E-07        -0.11774E-07         0.00000E+00
   -0.15406E-07        -0.11285E-07         0.00000E+00
   -0.16008E-07        -0.10712E-07         0.00000E+00
   -0.16615E-07        -0.10037E-07         0.00000E+00
   -0.17216E-07        -0.92438E-08         0.00000E+00
   -0.17795E-07        -0.83156E-08         0.00000E+00
   -0.18337E-07        -0.72345E-08         0.00000E+00
   -0.18822E-07        -0.59827E-08         0.00000E+00
   -0.19227E-07        -0.45433E-08         0.00000E+00
   -0.19525E-07        -0.29000E-08         0.00000E+00
   -0.19689E-07        -0.10386E-08         0.00000E+00
    0.47897E-08        -0.17477E-08         0.00000E+00
    0.46506E-08        -0.49075E-08         0.00000E+00
    0.43907E-08        -0.76172E-08         0.00000E+00
    0.40308E-08        -0.99047E-08         0.00000E+00
    0.35900E-08        -0.11806E-07         0.00000E+00
    0.30858E-08        -0.13359E-07         0.00000E+00
    0.25337E-08        -0.14604E-07         0.00000E+00
    0.19477E-08        -0.15579E-07         0.00000E+00
    0.13395E-08        -0.16320E-07         0.00000E+00
    0.71922E-09        -0.16859E-07         0.00000E+00
    0.95466E-10        -0.17226E-07         0.00000E+00
   -0.52481E-09        -0.17447E-07         0.00000E+00
   -0.11360E-08        -0.17546E-07         0.00000E+00
   -0.17338E-08        -0.17543E-07         0.00000E+00
   -0.23149E-08        -0.17457E-07         0.00000E+00
   -0.28773E-08        -0.17303E-07         0.00000E+00
   -0.34195E-08        -0.17095E-07         0.00000E+00
   -0.39410E-08        -0.16844E-07         0.00000E+00
   -0.44421E-08        -0.16560E-07         0.00000E+00
   -0.49235E-08        -0.16252E-07         0.00000E+00
   -0.53865E-08        -0.15927E-07         0.00000E+00
   -0.58329E-08        -0.15592E-07         0.00000E+00
   -0.62646E-08        -0.15249E-07         0.00000E+00
   -0.66841E-08        -0.14904E-07         0.00000E+00
   -0.70937E-08        -0.14560E-07         0.00000E+00
   -0.74963E-08        -0.14217E-07         0.00000E+00
   -0.78946E-08        -0.13878E-07         0.00000E+00
   -0.82912E-08        -0.13542E-07         0.00000E+00
   -0.86889E-08        -0.13209E-07         0.00000E+00
   -0.90902E-08        -0.12879E-07         0.00000E+00
   -0.94976E-08        -0.12550E-07         0.00000E+00
   -0.99131E-08        -0.12219E-07         0.00000E+00
   -0.10339E-07        -0.11884E-07         0.00000E+00
   -0.10775E-07        -0.11540E-07         0.00000E+00
   -0.11225E-07        -0.11186E-07         0.00000E+00
   -0.11686E-07        -0.10815E-07         0.00000E+00
   -0.12161E-07        -0.10423E-07         0.00000E+00
   -0.12646E-07        -0.10004E-07         0.00000E+00
   -0.13141E-07        -0.95539E-08         0.00000E+00
   -0.13643E-07        -0.90650E-08         0.00000E+00
   -0.14147E-07        -0.85315E-08         0.00000E+00
   -0.14649E-07        -0.79467E-08         0.00000E+00
   -0.15141E-07        -0.73040E-08         0.00000E+00
   -0.15617E-07        -0.65968E-08         0.00000E+00
   -0.16066E-07        -0.58186E-08         0.00000E+00
   -0.16477E-07        -0.49631E-08         0.00000E+00
   -0.16839E-07        -0.40244E-08         0.00000E+00
   -0.17135E-07        -0.29971E-08         0.00000E+00
   -0.17350E-07        -0.18763E-08         0.00000E+00
   -0.17467E-07        -0.65753E-09         0.00000E+00
    0.58552E-08        -0.14071E-08         0.00000E+00
    0.57363E-08        -0.39578E-08         0.00000E+00
    0.55137E-08        -0.61551E-08         0.00000E+00
    0.52046E-08        -0.80214E-08         0.00000E+00
    0.48245E-08        -0.95845E-08         0.00000E+00
    0.43878E-08        -0.10875E-07         0.00000E+00
    0.39069E-08        -0.11923E-07         0.00000E+00
    0.33929E-08        -0.12759E-07         0.00000E+00
    0.28553E-08        -0.13410E-07         0.00000E+00
    0.23022E-08        -0.13902E-07         0.00000E+00
    0.17404E-08        -0.14255E-07         0.00000E+00
    0.11756E-08        -0.14492E-07         0.00000E+00
    0.61238E-09        -0.14629E-07         0.00000E+00
    0.54385E-10        -0.14681E-07         0.00000E+00
   -0.49554E-09        -0.14663E-07         0.00000E+00
   -0.10353E-08        -0.14586E-07         0.00000E+00
   -0.15634E-08        -0.14460E-07         0.00000E+00
   -0.20790E-08        -0.14293E-07         0.00000E+00
   -0.25816E-08        -0.14092E-07         0.00000E+00
   -0.30713E-08        -0.13864E-07         0.00000E+00
   -0.35484E-08        -0.13615E-07         0.00000E+00
   -0.40136E-08        -0.13347E-07         0.00000E+00
   -0.44677E-08        -0.13065E-07         0.00000E+00
   -0.49119E-08        -0.12771E-07         0.00000E+00
   -0.53474E-08        -0.12467E-07         0.00000E+00
   -0.57754E-08        -0.12156E-07         0.00000E+00
   -0.61974E-08        -0.11837E-07         0.00000E+00
   -0.66147E-08        -0.11512E-07         0.00000E+00
   -0.70286E-08        -0.11181E-07         0.00000E+00
   -0.74404E-08        -0.10842E-07         0.00000E+00
   -0.78512E-08        -0.10496E-07         0.00000E+00
   -0.82619E-08        -0.10141E-07         0.00000E+00
   -0.86732E-08        -0.97768E-08         0.00000E+00
   -0.90857E-08        -0.94007E-08         0.00000E+00
   -0.94993E-08        -0.90113E-08         0.00000E+00
   -0.99140E-08        -0.86067E-08         0.00000E+00
   -0.10329E-07        -0.81847E-08         0.00000E+00
   -0.10743E-07        -0.77433E-08         0.00000E+00
   -0.11155E-07        -0.72804E-08         0.00000E+00
   -0.11563E-07        -0.67938E-08         0.00000E+00
   -0.11963E-07        -0.62819E-08         0.00000E+00
   -0.12352E-07        -0.57429E-08         0.00000E+00
   -0.12726E-07        -0.51755E-08         0.00000E+00
   -0.13079E-07        -0.45790E-08         0.00000E+00
   -0.13407E-07        -0.39529E-08         0.00000E+00
   -0.13702E-07        -0.32973E-08         0.00000E+00
   -0.13956E-07        -0.26128E-08         0.00000E+00
   -0.14161E-07        -0.19003E-08         0.00000E+00
   -0.14308E-07        -0.11609E-08         0.00000E+00
   -0.14387E-07        -0.39528E-09         0.00000E+00
    0.63434E-08        -0.11163E-08         0.00000E+00
    0.62417E-08        -0.31454E-08         0.00000E+00
    0.60511E-08        -0.49019E-08         0.00000E+00
    0.57858E-08        -0.64024E-08         0.00000E+00
    0.54588E-08        -0.76682E-08         0.00000E+00
    0.50818E-08        -0.87226E-08         0.00000E+00
    0.46653E-08        -0.95888E-08         0.00000E+00
    0.42183E-08        -0.10289E-07         0.00000E+00
    0.37486E-08        -0.10844E-07         0.00000E+00
    0.32629E-08        -0.11274E-07         0.00000E+00
    0.27668E-08        -0.11594E-07         0.00000E+00
    0.22649E-08        -0.11820E-07         0.00000E+00
    0.17612E-08        -0.11966E-07         0.00000E+00
    0.12588E-08        -0.12042E-07         0.00000E+00
    0.76010E-09        -0.12060E-07         0.00000E+00
    0.26716E-09        -0.12026E-07         0.00000E+00
   -0.21859E-09        -0.11950E-07         0.00000E+00
   -0.69609E-09        -0.11837E-07         0.00000E+00
   -0.11646E-08        -0.11692E-07         0.00000E+00
   -0.16238E-08        -0.11520E-07         0.00000E+00
   -0.20735E-08        -0.11325E-07         0.00000E+00
   -0.25137E-08        -0.11110E-07         0.00000E+00
   -0.29447E-08        -0.10877E-07         0.00000E+00
   -0.33667E-08        -0.10628E-07         0.00000E+00
   -0.37803E-08        -0.10365E-07         0.00000E+00
   -0.41859E-08        -0.10090E-07         0.00000E+00
   -0.45840E-08        -0.98028E-08         0.00000E+00
   -0.49753E-08        -0.95043E-08         0.00000E+00
   -0.53601E-08        -0.91948E-08         0.00000E+00
   -0.57390E-08        -0.88745E-08         0.00000E+00
   -0.61123E-08        -0.85433E-08         0.00000E+00
   -0.64802E-08        -0.82009E-08         0.00000E+00
   -0.68430E-08        -0.78469E-08         0.00000E+00
   -0.72005E-08        -0.74810E-08         0.00000E+00
   -0.75525E-08        -0.71026E-08         0.00000E+00
   -0.78987E-08        -0.67114E-08         0.00000E+00
   -0.82383E-08        -0.63070E-08         0.00000E+00
   -0.85703E-08        -0.58892E-08         0.00000E+00
   -0.88937E-08        -0.54580E-08         0.00000E+00
   -0.92068E-08        -0.50137E-08         0.00000E+00
   -0.95079E-08        -0.45569E-08         0.00000E+00
   -0.97946E-08        -0.40886E-08         0.00000E+00
   -0.10065E-07        -0.36104E-08         0.00000E+00
   -0.10315E-07        -0.31245E-08         0.00000E+00
   -0.10542E-07        -0.26334E-08         0.00000E+00
   -0.10743E-07        -0.21404E-08         0.00000E+00
   -0.10912E-07        -0.16492E-08         0.00000E+00
   -0.11047E-07        -0.11638E-08         0.00000E+00
   -0.11142E-07        -0.68797E-09         0.00000E+00
   -0.11192E-07        -0.22487E-09         0.00000E+00
    0.64087E-08        -0.86950E-09         0.00000E+00
    0.63230E-08        -0.24552E-08         0.00000E+00
    0.61622E-08        -0.38350E-08         0.00000E+00
    0.59378E-08        -0.50211E-08         0.00000E+00
    0.56607E-08        -0.60291E-08         0.00000E+00
    0.53405E-08        -0.68760E-08         0.00000E+00
    0.49858E-08        -0.75790E-08         0.00000E+00
    0.46039E-08        -0.81544E-08         0.00000E+00
    0.42014E-08        -0.86178E-08         0.00000E+00
    0.37837E-08        -0.89831E-08         0.00000E+00
    0.33555E-08        -0.92629E-08         0.00000E+00
    0.29208E-08        -0.94683E-08         0.00000E+00
    0.24828E-08        -0.96091E-08         0.00000E+00
    0.20442E-08        -0.96939E-08         0.00000E+00
    0.16072E-08        -0.97299E-08         0.00000E+00
    0.11736E-08        -0.97236E-08         0.00000E+00
    0.74481E-09        -0.96803E-08         0.00000E+00
    0.32190E-09        -0.96047E-08         0.00000E+00
   -0.94272E-10        -0.95007E-08         0.00000E+00
   -0.50310E-09        -0.93715E-08         0.00000E+00
   -0.90414E-09        -0.92201E-08         0.00000E+00
   -0.12971E-08        -0.90486E-08         0.00000E+00
   -0.16818E-08        -0.88591E-08         0.00000E+00
   -0.20583E-08        -0.86531E-08         0.00000E+00
   -0.24264E-08        -0.84319E-08         0.00000E+00
   -0.27861E-08        -0.81965E-08         0.00000E+00
   -0.31377E-08        -0.79477E-08         0.00000E+00
   -0.34811E-08        -0.76862E-08         0.00000E+00
   -0.38164E-08        -0.74124E-08         0.00000E+00
   -0.41435E-08        -0.71267E-08         0.00000E+00
   -0.44626E-08        -0.68295E-08         0.00000E+00
   -0.47734E-08        -0.65208E-08         0.00000E+00
   -0.50758E-08        -0.62010E-08         0.00000E+00
   -0.53696E-08        -0.58703E-08         0.00000E+00
   -0.56544E-08        -0.55289E-08         0.00000E+00
   -0.59298E-08        -0.51773E-08         0.00000E+00
   -0.61952E-08        -0.48161E-08         0.00000E+00
   -0.64500E-08        -0.44461E-08         0.00000E+00
   -0.66932E-08        -0.40682E-08         0.00000E+00
   -0.69240E-08        -0.36840E-08         0.00000E+00
   -0.71412E-08        -0.32951E-08         0.00000E+00
   -0.73437E-08        -0.29039E-08         0.00000E+00
   -0.75302E-08        -0.25130E-08         0.00000E+00
   -0.76992E-08        -0.21258E-08         0.00000E+00
   -0.78492E-08        -0.17461E-08         0.00000E+00
   -0.79785E-08        -0.13783E-08         0.00000E+00
   -0.80855E-08        -0.10272E-08         0.00000E+00
   -0.81684E-08        -0.69765E-09         0.00000E+00
   -0.82255E-08        -0.39440E-09         0.00000E+00
   -0.82550E-08        -0.12132E-09         0.00000E+00
    0.61779E-08        -0.66384E-09         0.00000E+00
    0.61073E-08        -0.18790E-08         0.00000E+00
    0.59744E-08        -0.29428E-08         0.00000E+00
    0.57888E-08        -0.38636E-08         0.00000E+00
    0.55591E-08        -0.46524E-08         0.00000E+00
    0.52930E-08        -0.53212E-08         0.00000E+00
    0.49975E-08        -0.58823E-08         0.00000E+00
    0.46786E-08        -0.63473E-08         0.00000E+00
    0.43415E-08        -0.67272E-08         0.00000E+00
    0.39909E-08        -0.70321E-08         0.00000E+00
    0.36305E-08        -0.72711E-08         0.00000E+00
    0.32637E-08        -0.74521E-08         0.00000E+00
    0.28930E-08        -0.75822E-08         0.00000E+00
    0.25210E-08        -0.76676E-08         0.00000E+00
    0.21495E-08        -0.77135E-08         0.00000E+00
    0.17800E-08        -0.77246E-08         0.00000E+00
    0.14139E-08        -0.77048E-08         0.00000E+00
    0.10522E-08        -0.76574E-08         0.00000E+00
    0.69590E-09        -0.75854E-08         0.00000E+00
    0.34560E-09        -0.74911E-08         0.00000E+00
    0.18943E-11        -0.73767E-08         0.00000E+00
   -0.33476E-09        -0.72439E-08         0.00000E+00
   -0.66399E-09        -0.70941E-08         0.00000E+00
   -0.98549E-09        -0.69285E-08         0.00000E+00
   -0.12990E-08        -0.67483E-08         0.00000E+00
   -0.16044E-08        -0.65543E-08         0.00000E+00
   -0.19013E-08        -0.63472E-08         0.00000E+00
   -0.21898E-08        -0.61277E-08         0.00000E+00
   -0.24694E-08        -0.58963E-08         0.00000E+00
   -0.27401E-08        -0.56535E-08         0.00000E+00
   -0.30017E-08        -0.53997E-08         0.00000E+00
   -0.32539E-08        -0.51356E-08         0.00000E+00
   -0.34964E-08        -0.48615E-08         0.00000E+00
   -0.37289E-08        -0.45781E-08         0.00000E+00
   -0.39512E-08        -0.42859E-08         0.00000E+00
   -0.41627E-08        -0.39858E-08         0.00000E+00
   -0.43630E-08        -0.36788E-08         0.00000E+00
   -0.45518E-08        -0.33659E-08         0.00000E+00
   -0.47285E-08        -0.30488E-08         0.00000E+00
   -0.48926E-08        -0.27291E-08         0.00000E+00
   -0.50435E-08        -0.24090E-08         0.00000E+00
   -0.51808E-08        -0.20909E-08         0.00000E+00
   -0.53039E-08        -0.17779E-08         0.00000E+00
   -0.54124E-08        -0.14734E-08         0.00000E+00
   -0.55059E-08        -0.11814E-08         0.00000E+00
   -0.55839E-08        -0.90606E-09         0.00000E+00
   -0.56464E-08        -0.65213E-09         0.00000E+00
   -0.56931E-08        -0.42433E-09         0.00000E+00
   -0.57242E-08        -0.22715E-09         0.00000E+00
   -0.57396E-08        -0.64266E-10         0.00000E+00
    0.57563E-08        -0.49642E-09         0.00000E+00
    0.56995E-08        -0.14091E-08         0.00000E+00
    0.55925E-08        -0.22137E-08         0.00000E+00
    0.54427E-08        -0.29157E-08         0.00000E+00
    0.52568E-08        -0.35224E-08         0.00000E+00
    0.50411E-08        -0.40420E-08         0.00000E+00
    0.48009E-08        -0.44829E-08         0.00000E+00
    0.45412E-08        -0.48531E-08         0.00000E+00
    0.42659E-08        -0.51602E-08         0.00000E+00
    0.39789E-08        -0.54110E-08         0.00000E+00
    0.36833E-08        -0.56120E-08         0.00000E+00
    0.33816E-08        -0.57687E-08         0.00000E+00
    0.30763E-08        -0.58859E-08         0.00000E+00
    0.27692E-08        -0.59681E-08         0.00000E+00
    0.24619E-08        -0.60189E-08         0.00000E+00
    0.21559E-08        -0.60417E-08         0.00000E+00
    0.18523E-08        -0.60393E-08         0.00000E+00
    0.15521E-08        -0.60139E-08         0.00000E+00
    0.12562E-08        -0.59678E-08         0.00000E+00
    0.96533E-09        -0.59027E-08         0.00000E+00
    0.67999E-09        -0.58200E-08         0.00000E+00
    0.40078E-09        -0.57212E-08         0.00000E+00
    0.12813E-09        -0.56073E-08         0.00000E+00
   -0.13754E-09        -0.54794E-08         0.00000E+00
   -0.39588E-09        -0.53381E-08         0.00000E+00
   -0.64656E-09        -0.51844E-08         0.00000E+00
   -0.88926E-09        -0.50188E-08         0.00000E+00
   -0.11237E-08        -0.48419E-08         0.00000E+00
   -0.13496E-08        -0.46543E-08         0.00000E+00
   -0.15666E-08        -0.44566E-08         0.00000E+00
   -0.17745E-08        -0.42492E-08         0.00000E+00
   -0.19730E-08        -0.40327E-08         0.00000E+00
   -0.21619E-08        -0.38078E-08         0.00000E+00
   -0.23407E-08        -0.35750E-08         0.00000E+00
   -0.25092E-08        -0.33353E-08         0.00000E+00
   -0.26671E-08        -0.30893E-08         0.00000E+00
   -0.28141E-08        -0.28382E-08         0.00000E+00
   -0.29500E-08        -0.25833E-08         0.00000E+00
   -0.30744E-08        -0.23258E-08         0.00000E+00
   -0.31872E-08        -0.20676E-08         0.00000E+00
   -0.32882E-08        -0.18107E-08         0.00000E+00
   -0.33774E-08        -0.15572E-08         0.00000E+00
   -0.34546E-08        -0.13099E-08         0.00000E+00
   -0.35201E-08        -0.10717E-08         0.00000E+00
   -0.35740E-08        -0.84616E-09         0.00000E+00
   -0.36168E-08        -0.63678E-09         0.00000E+00
   -0.36492E-08        -0.44751E-09         0.00000E+00
   -0.36718E-08        -0.28227E-09         0.00000E+00
   -0.36856E-08        -0.14476E-09         0.00000E+00
   -0.36919E-08        -0.38022E-10         0.00000E+00
    0.52282E-08        -0.36360E-09         0.00000E+00
    0.51838E-08        -0.10356E-08         0.00000E+00
    0.50999E-08        -0.16328E-08         0.00000E+00
    0.49821E-08        -0.21587E-08         0.00000E+00
    0.48357E-08        -0.26179E-08         0.00000E+00
    0.46652E-08        -0.30157E-08         0.00000E+00
    0.44750E-08        -0.33574E-08         0.00000E+00
    0.42687E-08        -0.36484E-08         0.00000E+00
    0.40497E-08        -0.38936E-08         0.00000E+00
    0.38207E-08        -0.40978E-08         0.00000E+00
    0.35843E-08        -0.42649E-08         0.00000E+00
    0.33426E-08        -0.43989E-08         0.00000E+00
    0.30974E-08        -0.45030E-08         0.00000E+00
    0.28504E-08        -0.45802E-08         0.00000E+00
    0.26029E-08        -0.46329E-08         0.00000E+00
    0.23560E-08        -0.46635E-08         0.00000E+00
    0.21109E-08        -0.46739E-08         0.00000E+00
    0.18684E-08        -0.46658E-08         0.00000E+00
    0.16292E-08        -0.46406E-08         0.00000E+00
    0.13941E-08        -0.45996E-08         0.00000E+00
    0.11636E-08        -0.45440E-08         0.00000E+00
    0.93832E-09        -0.44746E-08         0.00000E+00
    0.71865E-09        -0.43923E-08         0.00000E+00
    0.50504E-09        -0.42980E-08         0.00000E+00
    0.29791E-09        -0.41922E-08         0.00000E+00
    0.97612E-10        -0.40755E-08         0.00000E+00
   -0.95502E-10        -0.39486E-08         0.00000E+00
   -0.28110E-09        -0.38119E-08         0.00000E+00
   -0.45888E-09        -0.36660E-08         0.00000E+00
   -0.62852E-09        -0.35114E-08         0.00000E+00
   -0.78974E-09        -0.33486E-08         0.00000E+00
   -0.94226E-09        -0.31781E-08         0.00000E+00
   -0.10858E-08        -0.30006E-08         0.00000E+00
   -0.12201E-08        -0.28166E-08         0.00000E+00
   -0.13449E-08        -0.26269E-08         0.00000E+00
   -0.14601E-08        -0.24323E-08         0.00000E+00
   -0.15653E-08        -0.22337E-08         0.00000E+00
   -0.16606E-08        -0.20322E-08         0.00000E+00
   -0.17457E-08        -0.18290E-08         0.00000E+00
   -0.18207E-08        -0.16254E-08         0.00000E+00
   -0.18857E-08        -0.14231E-08         0.00000E+00
   -0.19407E-08        -0.12239E-08         0.00000E+00
   -0.19861E-08        -0.10299E-08         0.00000E+00
   -0.20223E-08        -0.84333E-09         0.00000E+00
   -0.20500E-08        -0.66677E-09         0.00000E+00
   -0.20698E-08        -0.50293E-09         0.00000E+00
   -0.20828E-08        -0.35470E-09         0.00000E+00
   -0.20902E-08        -0.22493E-09         0.00000E+00
   -0.20935E-08        -0.11631E-09         0.00000E+00
   -0.20943E-08        -0.31030E-10         0.00000E+00
    0.46581E-08        -0.26107E-09         0.00000E+00
    0.46243E-08        -0.74661E-09         0.00000E+00
    0.45603E-08        -0.11823E-08         0.00000E+00
    0.44702E-08        -0.15701E-08         0.00000E+00
    0.43579E-08        -0.19127E-08         0.00000E+00
    0.42268E-08        -0.22132E-08         0.00000E+00
    0.40801E-08        -0.24751E-08         0.00000E+00
    0.39205E-08        -0.27016E-08         0.00000E+00
    0.37507E-08        -0.28958E-08         0.00000E+00
    0.35726E-08        -0.30606E-08         0.00000E+00
    0.33884E-08        -0.31987E-08         0.00000E+00
    0.31996E-08        -0.33125E-08         0.00000E+00
    0.30077E-08        -0.34040E-08         0.00000E+00
    0.28139E-08        -0.34753E-08         0.00000E+00
    0.26195E-08        -0.35280E-08         0.00000E+00
    0.24253E-08        -0.35635E-08         0.00000E+00
    0.22323E-08        -0.35832E-08         0.00000E+00
    0.20412E-08        -0.35883E-08         0.00000E+00
    0.18526E-08        -0.35796E-08         0.00000E+00
    0.16673E-08        -0.35582E-08         0.00000E+00
    0.14856E-08        -0.35248E-08         0.00000E+00
    0.13082E-08        -0.34801E-08         0.00000E+00
    0.11355E-08        -0.34247E-08         0.00000E+00
    0.96781E-09        -0.33593E-08         0.00000E+00
    0.80562E-09        -0.32843E-08         0.00000E+00
    0.64927E-09        -0.32002E-08         0.00000E+00
    0.49910E-09        -0.31075E-08         0.00000E+00
    0.35543E-09        -0.30066E-08         0.00000E+00
    0.21856E-09        -0.28981E-08         0.00000E+00
    0.88773E-10        -0.27822E-08         0.00000E+00
   -0.33647E-10        -0.26596E-08         0.00000E+00
   -0.14845E-09        -0.25306E-08         0.00000E+00
   -0.25541E-09        -0.23957E-08         0.00000E+00
   -0.35430E-09        -0.22555E-08         0.00000E+00
   -0.44495E-09        -0.21106E-08         0.00000E+00
   -0.52722E-09        -0.19616E-08         0.00000E+00
   -0.60098E-09        -0.18093E-08         0.00000E+00
   -0.66620E-09        -0.16544E-08         0.00000E+00
   -0.72288E-09        -0.14977E-08         0.00000E+00
   -0.77110E-09        -0.13405E-08         0.00000E+00
   -0.81105E-09        -0.11836E-08         0.00000E+00
   -0.84301E-09        -0.10285E-08         0.00000E+00
   -0.86740E-09        -0.87638E-09         0.00000E+00
   -0.88477E-09        -0.72888E-09         0.00000E+00
   -0.89588E-09        -0.58760E-09         0.00000E+00
   -0.90163E-09        -0.45426E-09         0.00000E+00
   -0.90316E-09        -0.33066E-09         0.00000E+00
   -0.90181E-09        -0.21857E-09         0.00000E+00
   -0.89914E-09        -0.11960E-09         0.00000E+00
   -0.89690E-09        -0.35085E-10         0.00000E+00
    0.40918E-08        -0.18415E-09         0.00000E+00
    0.40668E-08        -0.52923E-09         0.00000E+00
    0.40194E-08        -0.84244E-09         0.00000E+00
    0.39524E-08        -0.11247E-08         0.00000E+00
    0.38687E-08        -0.13775E-08         0.00000E+00
    0.37706E-08        -0.16025E-08         0.00000E+00
    0.36605E-08        -0.18017E-08         0.00000E+00
    0.35404E-08        -0.19769E-08         0.00000E+00
    0.34121E-08        -0.21299E-08         0.00000E+00
    0.32773E-08        -0.22624E-08         0.00000E+00
    0.31373E-08        -0.23760E-08         0.00000E+00
    0.29935E-08        -0.24722E-08         0.00000E+00
    0.28471E-08        -0.25523E-08         0.00000E+00
    0.26989E-08        -0.26174E-08         0.00000E+00
    0.25499E-08        -0.26686E-08         0.00000E+00
    0.24008E-08        -0.27068E-08         0.00000E+00
    0.22524E-08        -0.27329E-08         0.00000E+00
    0.21054E-08        -0.27476E-08         0.00000E+00
    0.19602E-08        -0.27516E-08         0.00000E+00
    0.18174E-08        -0.27455E-08         0.00000E+00
    0.16775E-08        -0.27298E-08         0.00000E+00
    0.15410E-08        -0.27051E-08         0.00000E+00
    0.14081E-08        -0.26717E-08         0.00000E+00
    0.12793E-08        -0.26302E-08         0.00000E+00
    0.11550E-08        -0.25809E-08         0.00000E+00
    0.10355E-08        -0.25242E-08         0.00000E+00
    0.92111E-09        -0.24605E-08         0.00000E+00
    0.81207E-09        -0.23901E-08         0.00000E+00
    0.70870E-09        -0.23134E-08         0.00000E+00
    0.61124E-09        -0.22307E-08         0.00000E+00
    0.51993E-09        -0.21425E-08         0.00000E+00
    0.43500E-09        -0.20490E-08         0.00000E+00
    0.35663E-09        -0.19507E-08         0.00000E+00
    0.28499E-09        -0.18479E-08         0.00000E+00
    0.22021E-09        -0.17411E-08         0.00000E+00
    0.16240E-09        -0.16308E-08         0.00000E+00
    0.11161E-09        -0.15173E-08         0.00000E+00
    0.67837E-10        -0.14013E-08         0.00000E+00
    0.31019E-10        -0.12833E-08         0.00000E+00
    0.10204E-11        -0.11638E-08         0.00000E+00
   -0.22384E-10        -0.10435E-08         0.00000E+00
   -0.39521E-10        -0.92309E-09         0.00000E+00
   -0.50840E-10        -0.80324E-09         0.00000E+00
   -0.56923E-10        -0.68472E-09         0.00000E+00
   -0.58508E-10        -0.56831E-09         0.00000E+00
   -0.56503E-10        -0.45481E-09         0.00000E+00
   -0.51998E-10        -0.34498E-09         0.00000E+00
   -0.46276E-10        -0.23959E-09         0.00000E+00
   -0.40803E-10        -0.13929E-09         0.00000E+00
   -0.37215E-10        -0.44581E-10         0.00000E+00
    0.35594E-08        -0.12819E-09         0.00000E+00
    0.35415E-08        -0.37058E-09         0.00000E+00
    0.35074E-08        -0.59355E-09         0.00000E+00
    0.34591E-08        -0.79742E-09         0.00000E+00
    0.33985E-08        -0.98282E-09         0.00000E+00
    0.33273E-08        -0.11506E-08         0.00000E+00
    0.32470E-08        -0.13016E-08         0.00000E+00
    0.31591E-08        -0.14369E-08         0.00000E+00
    0.30648E-08        -0.15573E-08         0.00000E+00
    0.29654E-08        -0.16639E-08         0.00000E+00
    0.28619E-08        -0.17574E-08         0.00000E+00
    0.27553E-08        -0.18387E-08         0.00000E+00
    0.26463E-08        -0.19085E-08         0.00000E+00
    0.25357E-08        -0.19675E-08         0.00000E+00
    0.24243E-08        -0.20163E-08         0.00000E+00
    0.23126E-08        -0.20555E-08         0.00000E+00
    0.22012E-08        -0.20855E-08         0.00000E+00
    0.20907E-08        -0.21069E-08         0.00000E+00
    0.19814E-08        -0.21201E-08         0.00000E+00
    0.18739E-08        -0.21254E-08         0.00000E+00
    0.17684E-08        -0.21233E-08         0.00000E+00
    0.16655E-08        -0.21141E-08         0.00000E+00
    0.15655E-08        -0.20981E-08         0.00000E+00
    0.14686E-08        -0.20756E-08         0.00000E+00
    0.13752E-08        -0.20469E-08         0.00000E+00
    0.12855E-08        -0.20124E-08         0.00000E+00
    0.11999E-08        -0.19722E-08         0.00000E+00
    0.11186E-08        -0.19266E-08         0.00000E+00
    0.10418E-08        -0.18760E-08         0.00000E+00
    0.96977E-09        -0.18206E-08         0.00000E+00
    0.90268E-09        -0.17606E-08         0.00000E+00
    0.84072E-09        -0.16963E-08         0.00000E+00
    0.78404E-09        -0.16280E-08         0.00000E+00
    0.73277E-09        -0.15560E-08         0.00000E+00
    0.68701E-09        -0.14804E-08         0.00000E+00
    0.64682E-09        -0.14015E-08         0.00000E+00
    0.61223E-09        -0.13197E-08         0.00000E+00
    0.58321E-09        -0.12350E-08         0.00000E+00
    0.55968E-09        -0.11478E-08         0.00000E+00
    0.54150E-09        -0.10583E-08         0.00000E+00
    0.52842E-09        -0.96661E-09         0.00000E+00
    0.52014E-09        -0.87291E-09         0.00000E+00
    0.51624E-09        -0.77733E-09         0.00000E+00
    0.51619E-09        -0.67995E-09         0.00000E+00
    0.51932E-09        -0.58080E-09         0.00000E+00
    0.52482E-09        -0.47985E-09         0.00000E+00
    0.53173E-09        -0.37703E-09         0.00000E+00
    0.53894E-09        -0.27221E-09         0.00000E+00
    0.54518E-09        -0.16521E-09         0.00000E+00
    0.54903E-09        -0.55856E-10         0.00000E+00
    0.30782E-08        -0.88844E-10         0.00000E+00
    0.30659E-08        -0.25856E-09         0.00000E+00
    0.30422E-08        -0.41708E-09         0.00000E+00
    0.30086E-08        -0.56437E-09         0.00000E+00
    0.29662E-08        -0.70057E-09         0.00000E+00
    0.29160E-08        -0.82596E-09         0.00000E+00
    0.28593E-08        -0.94091E-09         0.00000E+00
    0.27968E-08        -0.10458E-08         0.00000E+00
    0.27296E-08        -0.11411E-08         0.00000E+00
    0.26584E-08        -0.12271E-08         0.00000E+00
    0.25840E-08        -0.13044E-08         0.00000E+00
    0.25069E-08        -0.13732E-08         0.00000E+00
    0.24279E-08        -0.14341E-08         0.00000E+00
    0.23475E-08        -0.14872E-08         0.00000E+00
    0.22663E-08        -0.15331E-08         0.00000E+00
    0.21846E-08        -0.15718E-08         0.00000E+00
    0.21029E-08        -0.16039E-08         0.00000E+00
    0.20217E-08        -0.16295E-08         0.00000E+00
    0.19412E-08        -0.16490E-08         0.00000E+00
    0.18619E-08        -0.16624E-08         0.00000E+00
    0.17841E-08        -0.16702E-08         0.00000E+00
    0.17081E-08        -0.16726E-08         0.00000E+00
    0.16342E-08        -0.16697E-08         0.00000E+00
    0.15626E-08        -0.16617E-08         0.00000E+00
    0.14937E-08        -0.16490E-08         0.00000E+00
    0.14276E-08        -0.16316E-08         0.00000E+00
    0.13645E-08        -0.16098E-08         0.00000E+00
    0.13048E-08        -0.15838E-08         0.00000E+00
    0.12485E-08        -0.15537E-08         0.00000E+00
    0.11959E-08        -0.15198E-08         0.00000E+00
    0.11472E-08        -0.14822E-08         0.00000E+00
    0.11024E-08        -0.14410E-08         0.00000E+00
    0.10617E-08        -0.13965E-08         0.00000E+00
    0.10252E-08        -0.13487E-08         0.00000E+00
    0.99302E-09        -0.12978E-08         0.00000E+00
    0.96513E-09        -0.12437E-08         0.00000E+00
    0.94155E-09        -0.11867E-08         0.00000E+00
    0.92226E-09        -0.11265E-08         0.00000E+00
    0.90717E-09        -0.10633E-08         0.00000E+00
    0.89615E-09        -0.99682E-09         0.00000E+00
    0.88900E-09        -0.92695E-09         0.00000E+00
    0.88544E-09        -0.85337E-09         0.00000E+00
    0.88511E-09        -0.77574E-09         0.00000E+00
    0.88757E-09        -0.69357E-09         0.00000E+00
    0.89227E-09        -0.60628E-09         0.00000E+00
    0.89853E-09        -0.51319E-09         0.00000E+00
    0.90558E-09        -0.41351E-09         0.00000E+00
    0.91250E-09        -0.30640E-09         0.00000E+00
    0.91826E-09        -0.19103E-09         0.00000E+00
    0.92173E-09        -0.66658E-10         0.00000E+00
    0.26563E-08        -0.62233E-10         0.00000E+00
    0.26481E-08        -0.18242E-09         0.00000E+00
    0.26324E-08        -0.29646E-09         0.00000E+00
    0.26099E-08        -0.40418E-09         0.00000E+00
    0.25813E-08        -0.50549E-09         0.00000E+00
    0.25473E-08        -0.60038E-09         0.00000E+00
    0.25085E-08        -0.68892E-09         0.00000E+00
    0.24656E-08        -0.77120E-09         0.00000E+00
    0.24192E-08        -0.84734E-09         0.00000E+00
    0.23697E-08        -0.91747E-09         0.00000E+00
    0.23177E-08        -0.98176E-09         0.00000E+00
    0.22636E-08        -0.10404E-08         0.00000E+00
    0.22079E-08        -0.10934E-08         0.00000E+00
    0.21510E-08        -0.11412E-08         0.00000E+00
    0.20932E-08        -0.11837E-08         0.00000E+00
    0.20348E-08        -0.12212E-08         0.00000E+00
    0.19763E-08        -0.12538E-08         0.00000E+00
    0.19180E-08        -0.12816E-08         0.00000E+00
    0.18600E-08        -0.13049E-08         0.00000E+00
    0.18028E-08        -0.13238E-08         0.00000E+00
    0.17465E-08        -0.13384E-08         0.00000E+00
    0.16914E-08        -0.13489E-08         0.00000E+00
    0.16377E-08        -0.13554E-08         0.00000E+00
    0.15857E-08        -0.13581E-08         0.00000E+00
    0.15356E-08        -0.13571E-08         0.00000E+00
    0.14875E-08        -0.13525E-08         0.00000E+00
    0.14417E-08        -0.13445E-08         0.00000E+00
    0.13983E-08        -0.13333E-08         0.00000E+00
    0.13574E-08        -0.13188E-08         0.00000E+00
    0.13193E-08        -0.13012E-08         0.00000E+00
    0.12841E-08        -0.12807E-08         0.00000E+00
    0.12518E-08        -0.12572E-08         0.00000E+00
    0.12225E-08        -0.12308E-08         0.00000E+00
    0.11965E-08        -0.12016E-08         0.00000E+00
    0.11736E-08        -0.11694E-08         0.00000E+00
    0.11539E-08        -0.11343E-08         0.00000E+00
    0.11375E-08        -0.10961E-08         0.00000E+00
    0.11243E-08        -0.10545E-08         0.00000E+00
    0.11142E-08        -0.10094E-08         0.00000E+00
    0.11071E-08        -0.96023E-09         0.00000E+00
    0.11029E-08        -0.90662E-09         0.00000E+00
    0.11013E-08        -0.84791E-09         0.00000E+00
    0.11020E-08        -0.78336E-09         0.00000E+00
    0.11048E-08        -0.71205E-09         0.00000E+00
    0.11091E-08        -0.63294E-09         0.00000E+00
    0.11145E-08        -0.54483E-09         0.00000E+00
    0.11204E-08        -0.44640E-09         0.00000E+00
    0.11260E-08        -0.33627E-09         0.00000E+00
    0.11306E-08        -0.21310E-09         0.00000E+00
    0.11334E-08        -0.75731E-10         0.00000E+00
    0.22949E-08        -0.45075E-10         0.00000E+00
    0.22898E-08        -0.13296E-09         0.00000E+00
    0.22799E-08        -0.21752E-09         0.00000E+00
    0.22655E-08        -0.29854E-09         0.00000E+00
    0.22470E-08        -0.37588E-09         0.00000E+00
    0.22249E-08        -0.44941E-09         0.00000E+00
    0.21995E-08        -0.51907E-09         0.00000E+00
    0.21712E-08        -0.58484E-09         0.00000E+00
    0.21402E-08        -0.64669E-09         0.00000E+00
    0.21070E-08        -0.70463E-09         0.00000E+00
    0.20718E-08        -0.75871E-09         0.00000E+00
    0.20350E-08        -0.80895E-09         0.00000E+00
    0.19968E-08        -0.85542E-09         0.00000E+00
    0.19575E-08        -0.89816E-09         0.00000E+00
    0.19175E-08        -0.93726E-09         0.00000E+00
    0.18768E-08        -0.97279E-09         0.00000E+00
    0.18359E-08        -0.10048E-08         0.00000E+00
    0.17948E-08        -0.10334E-08         0.00000E+00
    0.17539E-08        -0.10587E-08         0.00000E+00
    0.17133E-08        -0.10808E-08         0.00000E+00
    0.16733E-08        -0.10997E-08         0.00000E+00
    0.16340E-08        -0.11156E-08         0.00000E+00
    0.15956E-08        -0.11285E-08         0.00000E+00
    0.15583E-08        -0.11385E-08         0.00000E+00
    0.15222E-08        -0.11458E-08         0.00000E+00
    0.14876E-08        -0.11503E-08         0.00000E+00
    0.14545E-08        -0.11522E-08         0.00000E+00
    0.14231E-08        -0.11516E-08         0.00000E+00
    0.13936E-08        -0.11484E-08         0.00000E+00
    0.13659E-08        -0.11428E-08         0.00000E+00
    0.13403E-08        -0.11348E-08         0.00000E+00
    0.13169E-08        -0.11243E-08         0.00000E+00
    0.12956E-08        -0.11113E-08         0.00000E+00
    0.12766E-08        -0.10957E-08         0.00000E+00
    0.12599E-08        -0.10774E-08         0.00000E+00
    0.12455E-08        -0.10562E-08         0.00000E+00
    0.12335E-08        -0.10319E-08         0.00000E+00
    0.12238E-08        -0.10040E-08         0.00000E+00
    0.12163E-08        -0.97207E-09         0.00000E+00
    0.12110E-08        -0.93560E-09         0.00000E+00
    0.12078E-08        -0.89384E-09         0.00000E+00
    0.12064E-08        -0.84592E-09         0.00000E+00
    0.12067E-08        -0.79081E-09         0.00000E+00
    0.12085E-08        -0.72728E-09         0.00000E+00
    0.12114E-08        -0.65394E-09         0.00000E+00
    0.12151E-08        -0.56922E-09         0.00000E+00
    0.12191E-08        -0.47143E-09         0.00000E+00
    0.12230E-08        -0.35881E-09         0.00000E+00
    0.12262E-08        -0.22965E-09         0.00000E+00
    0.12281E-08        -0.82500E-10         0.00000E+00
    0.19911E-08        -0.34677E-10         0.00000E+00
    0.19881E-08        -0.10266E-09         0.00000E+00
    0.19822E-08        -0.16860E-09         0.00000E+00
    0.19736E-08        -0.23235E-09         0.00000E+00
    0.19623E-08        -0.29376E-09         0.00000E+00
    0.19487E-08        -0.35276E-09         0.00000E+00
    0.19328E-08        -0.40924E-09         0.00000E+00
    0.19149E-08        -0.46317E-09         0.00000E+00
    0.18951E-08        -0.51451E-09         0.00000E+00
    0.18736E-08        -0.56322E-09         0.00000E+00
    0.18506E-08        -0.60932E-09         0.00000E+00
    0.18263E-08        -0.65279E-09         0.00000E+00
    0.18009E-08        -0.69365E-09         0.00000E+00
    0.17745E-08        -0.73193E-09         0.00000E+00
    0.17475E-08        -0.76765E-09         0.00000E+00
    0.17198E-08        -0.80085E-09         0.00000E+00
    0.16917E-08        -0.83156E-09         0.00000E+00
    0.16634E-08        -0.85984E-09         0.00000E+00
    0.16350E-08        -0.88573E-09         0.00000E+00
    0.16066E-08        -0.90929E-09         0.00000E+00
    0.15785E-08        -0.93056E-09         0.00000E+00
    0.15508E-08        -0.94960E-09         0.00000E+00
    0.15236E-08        -0.96646E-09         0.00000E+00
    0.14970E-08        -0.98121E-09         0.00000E+00
    0.14712E-08        -0.99387E-09         0.00000E+00
    0.14463E-08        -0.10045E-08         0.00000E+00
    0.14224E-08        -0.10131E-08         0.00000E+00
    0.13997E-08        -0.10198E-08         0.00000E+00
    0.13781E-08        -0.10245E-08         0.00000E+00
    0.13578E-08        -0.10272E-08         0.00000E+00
    0.13389E-08        -0.10279E-08         0.00000E+00
    0.13215E-08        -0.10266E-08         0.00000E+00
    0.13055E-08        -0.10230E-08         0.00000E+00
    0.12911E-08        -0.10171E-08         0.00000E+00
    0.12783E-08        -0.10086E-08         0.00000E+00
    0.12671E-08        -0.99730E-09         0.00000E+00
    0.12576E-08        -0.98278E-09         0.00000E+00
    0.12496E-08        -0.96457E-09         0.00000E+00
    0.12432E-08        -0.94211E-09         0.00000E+00
    0.12383E-08        -0.91466E-09         0.00000E+00
    0.12349E-08        -0.88136E-09         0.00000E+00
    0.12328E-08        -0.84115E-09         0.00000E+00
    0.12319E-08        -0.79282E-09         0.00000E+00
    0.12321E-08        -0.73494E-09         0.00000E+00
    0.12331E-08        -0.66587E-09         0.00000E+00
    0.12347E-08        -0.58382E-09         0.00000E+00
    0.12367E-08        -0.48684E-09         0.00000E+00
    0.12387E-08        -0.37293E-09         0.00000E+00
    0.12404E-08        -0.24014E-09         0.00000E+00
    0.12415E-08        -0.86830E-10         0.00000E+00
    0.17391E-08        -0.28912E-10         0.00000E+00
    0.17376E-08        -0.85537E-10         0.00000E+00
    0.17344E-08        -0.14043E-09         0.00000E+00
    0.17296E-08        -0.19353E-09         0.00000E+00
    0.17233E-08        -0.24479E-09         0.00000E+00
    0.17154E-08        -0.29417E-09         0.00000E+00
    0.17061E-08        -0.34166E-09         0.00000E+00
    0.16953E-08        -0.38724E-09         0.00000E+00
    0.16832E-08        -0.43091E-09         0.00000E+00
    0.16699E-08        -0.47269E-09         0.00000E+00
    0.16554E-08        -0.51257E-09         0.00000E+00
    0.16399E-08        -0.55057E-09         0.00000E+00
    0.16235E-08        -0.58671E-09         0.00000E+00
    0.16063E-08        -0.62101E-09         0.00000E+00
    0.15883E-08        -0.65349E-09         0.00000E+00
    0.15698E-08        -0.68418E-09         0.00000E+00
    0.15509E-08        -0.71309E-09         0.00000E+00
    0.15316E-08        -0.74028E-09         0.00000E+00
    0.15121E-08        -0.76576E-09         0.00000E+00
    0.14925E-08        -0.78956E-09         0.00000E+00
    0.14729E-08        -0.81172E-09         0.00000E+00
    0.14534E-08        -0.83228E-09         0.00000E+00
    0.14341E-08        -0.85125E-09         0.00000E+00
    0.14151E-08        -0.86867E-09         0.00000E+00
    0.13965E-08        -0.88456E-09         0.00000E+00
    0.13784E-08        -0.89892E-09         0.00000E+00
    0.13610E-08        -0.91177E-09         0.00000E+00
    0.13441E-08        -0.92309E-09         0.00000E+00
    0.13280E-08        -0.93286E-09         0.00000E+00
    0.13127E-08        -0.94103E-09         0.00000E+00
    0.12983E-08        -0.94751E-09         0.00000E+00
    0.12848E-08        -0.95220E-09         0.00000E+00
    0.12723E-08        -0.95494E-09         0.00000E+00
    0.12607E-08        -0.95552E-09         0.00000E+00
    0.12502E-08        -0.95368E-09         0.00000E+00
    0.12408E-08        -0.94907E-09         0.00000E+00
    0.12324E-08        -0.94125E-09         0.00000E+00
    0.12251E-08        -0.92968E-09         0.00000E+00
    0.12188E-08        -0.91370E-09         0.00000E+00
    0.12136E-08        -0.89249E-09         0.00000E+00
    0.12093E-08        -0.86510E-09         0.00000E+00
    0.12060E-08        -0.83036E-09         0.00000E+00
    0.12036E-08        -0.78695E-09         0.00000E+00
    0.12019E-08        -0.73329E-09         0.00000E+00
    0.12009E-08        -0.66765E-09         0.00000E+00
    0.12005E-08        -0.58808E-09         0.00000E+00
    0.12005E-08        -0.49249E-09         0.00000E+00
    0.12008E-08        -0.37875E-09         0.00000E+00
    0.12011E-08        -0.24479E-09         0.00000E+00
    0.12014E-08        -0.88859E-10         0.00000E+00
    0.15324E-08        -0.26152E-10         0.00000E+00
    0.15317E-08        -0.77019E-10         0.00000E+00
    0.15302E-08        -0.12590E-09         0.00000E+00
    0.15279E-08        -0.17282E-09         0.00000E+00
    0.15247E-08        -0.21785E-09         0.00000E+00
    0.15206E-08        -0.26105E-09         0.00000E+00
    0.15155E-08        -0.30249E-09         0.00000E+00
    0.15094E-08        -0.34223E-09         0.00000E+00
    0.15024E-08        -0.38036E-09         0.00000E+00
    0.14945E-08        -0.41691E-09         0.00000E+00
    0.14857E-08        -0.45195E-09         0.00000E+00
    0.14760E-08        -0.48553E-09         0.00000E+00
    0.14657E-08        -0.51770E-09         0.00000E+00
    0.14546E-08        -0.54848E-09         0.00000E+00
    0.14429E-08        -0.57792E-09         0.00000E+00
    0.14306E-08        -0.60606E-09         0.00000E+00
    0.14179E-08        -0.63291E-09         0.00000E+00
    0.14048E-08        -0.65852E-09         0.00000E+00
    0.13914E-08        -0.68291E-09         0.00000E+00
    0.13778E-08        -0.70610E-09         0.00000E+00
    0.13640E-08        -0.72811E-09         0.00000E+00
    0.13501E-08        -0.74897E-09         0.00000E+00
    0.13362E-08        -0.76868E-09         0.00000E+00
    0.13224E-08        -0.78726E-09         0.00000E+00
    0.13087E-08        -0.80472E-09         0.00000E+00
    0.12952E-08        -0.82103E-09         0.00000E+00
    0.12820E-08        -0.83619E-09         0.00000E+00
    0.12692E-08        -0.85015E-09         0.00000E+00
    0.12567E-08        -0.86288E-09         0.00000E+00
    0.12446E-08        -0.87428E-09         0.00000E+00
    0.12331E-08        -0.88426E-09         0.00000E+00
    0.12220E-08        -0.89266E-09         0.00000E+00
    0.12115E-08        -0.89932E-09         0.00000E+00
    0.12016E-08        -0.90397E-09         0.00000E+00
    0.11923E-08        -0.90633E-09         0.00000E+00
    0.11837E-08        -0.90599E-09         0.00000E+00
    0.11757E-08        -0.90250E-09         0.00000E+00
    0.11684E-08        -0.89526E-09         0.00000E+00
    0.11617E-08        -0.88356E-09         0.00000E+00
    0.11558E-08        -0.86655E-09         0.00000E+00
    0.11504E-08        -0.84322E-09         0.00000E+00
    0.11458E-08        -0.81236E-09         0.00000E+00
    0.11418E-08        -0.77257E-09         0.00000E+00
    0.11383E-08        -0.72226E-09         0.00000E+00
    0.11355E-08        -0.65961E-09         0.00000E+00
    0.11332E-08        -0.58264E-09         0.00000E+00
    0.11315E-08        -0.48921E-09         0.00000E+00
    0.11302E-08        -0.37711E-09         0.00000E+00
    0.11294E-08        -0.24427E-09         0.00000E+00
    0.11290E-08        -0.88871E-10         0.00000E+00
    0.13637E-08        -0.25198E-10         0.00000E+00
    0.13635E-08        -0.73714E-10         0.00000E+00
    0.13631E-08        -0.11970E-09         0.00000E+00
    0.13622E-08        -0.16329E-09         0.00000E+00
    0.13609E-08        -0.20465E-09         0.00000E+00
    0.13589E-08        -0.24394E-09         0.00000E+00
    0.13564E-08        -0.28135E-09         0.00000E+00
    0.13532E-08        -0.31701E-09         0.00000E+00
    0.13493E-08        -0.35108E-09         0.00000E+00
    0.13447E-08        -0.38368E-09         0.00000E+00
    0.13395E-08        -0.41492E-09         0.00000E+00
    0.13336E-08        -0.44490E-09         0.00000E+00
    0.13270E-08        -0.47370E-09         0.00000E+00
    0.13199E-08        -0.50140E-09         0.00000E+00
    0.13122E-08        -0.52804E-09         0.00000E+00
    0.13040E-08        -0.55368E-09         0.00000E+00
    0.12953E-08        -0.57837E-09         0.00000E+00
    0.12862E-08        -0.60213E-09         0.00000E+00
    0.12768E-08        -0.62501E-09         0.00000E+00
    0.12671E-08        -0.64701E-09         0.00000E+00
    0.12571E-08        -0.66818E-09         0.00000E+00
    0.12469E-08        -0.68850E-09         0.00000E+00
    0.12365E-08        -0.70800E-09         0.00000E+00
    0.12261E-08        -0.72666E-09         0.00000E+00
    0.12156E-08        -0.74449E-09         0.00000E+00
    0.12051E-08        -0.76146E-09         0.00000E+00
    0.11946E-08        -0.77754E-09         0.00000E+00
    0.11843E-08        -0.79267E-09         0.00000E+00
    0.11741E-08        -0.80679E-09         0.00000E+00
    0.11640E-08        -0.81981E-09         0.00000E+00
    0.11541E-08        -0.83159E-09         0.00000E+00
    0.11445E-08        -0.84199E-09         0.00000E+00
    0.11352E-08        -0.85078E-09         0.00000E+00
    0.11261E-08        -0.85772E-09         0.00000E+00
    0.11174E-08        -0.86247E-09         0.00000E+00
    0.11090E-08        -0.86464E-09         0.00000E+00
    0.11009E-08        -0.86373E-09         0.00000E+00
    0.10933E-08        -0.85914E-09         0.00000E+00
    0.10860E-08        -0.85014E-09         0.00000E+00
    0.10792E-08        -0.83587E-09         0.00000E+00
    0.10728E-08        -0.81530E-09         0.00000E+00
    0.10668E-08        -0.78722E-09         0.00000E+00
    0.10613E-08        -0.75023E-09         0.00000E+00
    0.10564E-08        -0.70273E-09         0.00000E+00
    0.10520E-08        -0.64292E-09         0.00000E+00
    0.10482E-08        -0.56882E-09         0.00000E+00
    0.10450E-08        -0.47830E-09         0.00000E+00
    0.10424E-08        -0.36920E-09         0.00000E+00
    0.10407E-08        -0.23943E-09         0.00000E+00
    0.10398E-08        -0.87221E-10         0.00000E+00
    0.12264E-08        -0.25195E-10         0.00000E+00
    0.12265E-08        -0.73209E-10         0.00000E+00
    0.12265E-08        -0.11806E-09         0.00000E+00
    0.12264E-08        -0.15998E-09         0.00000E+00
    0.12260E-08        -0.19921E-09         0.00000E+00
    0.12252E-08        -0.23602E-09         0.00000E+00
    0.12240E-08        -0.27069E-09         0.00000E+00
    0.12224E-08        -0.30344E-09         0.00000E+00
    0.12202E-08        -0.33449E-09         0.00000E+00
    0.12176E-08        -0.36404E-09         0.00000E+00
    0.12144E-08        -0.39225E-09         0.00000E+00
    0.12106E-08        -0.41927E-09         0.00000E+00
    0.12063E-08        -0.44521E-09         0.00000E+00
    0.12015E-08        -0.47019E-09         0.00000E+00
    0.11962E-08        -0.49428E-09         0.00000E+00
    0.11904E-08        -0.51755E-09         0.00000E+00
    0.11842E-08        -0.54007E-09         0.00000E+00
    0.11776E-08        -0.56188E-09         0.00000E+00
    0.11706E-08        -0.58302E-09         0.00000E+00
    0.11633E-08        -0.60351E-09         0.00000E+00
    0.11556E-08        -0.62338E-09         0.00000E+00
    0.11477E-08        -0.64263E-09         0.00000E+00
    0.11395E-08        -0.66127E-09         0.00000E+00
    0.11311E-08        -0.67930E-09         0.00000E+00
    0.11226E-08        -0.69669E-09         0.00000E+00
    0.11139E-08        -0.71342E-09         0.00000E+00
    0.11051E-08        -0.72945E-09         0.00000E+00
    0.10963E-08        -0.74472E-09         0.00000E+00
    0.10874E-08        -0.75914E-09         0.00000E+00
    0.10785E-08        -0.77262E-09         0.00000E+00
    0.10696E-08        -0.78501E-09         0.00000E+00
    0.10607E-08        -0.79616E-09         0.00000E+00
    0.10519E-08        -0.80584E-09         0.00000E+00
    0.10432E-08        -0.81379E-09         0.00000E+00
    0.10346E-08        -0.81967E-09         0.00000E+00
    0.10261E-08        -0.82308E-09         0.00000E+00
    0.10178E-08        -0.82353E-09         0.00000E+00
    0.10097E-08        -0.82041E-09         0.00000E+00
    0.10018E-08        -0.81301E-09         0.00000E+00
    0.99410E-09        -0.80047E-09         0.00000E+00
    0.98672E-09        -0.78179E-09         0.00000E+00
    0.97968E-09        -0.75578E-09         0.00000E+00
    0.97302E-09        -0.72107E-09         0.00000E+00
    0.96682E-09        -0.67610E-09         0.00000E+00
    0.96115E-09        -0.61912E-09         0.00000E+00
    0.95609E-09        -0.54821E-09         0.00000E+00
    0.95177E-09        -0.46130E-09         0.00000E+00
    0.94830E-09        -0.35630E-09         0.00000E+00
    0.94582E-09        -0.23120E-09         0.00000E+00
    0.94450E-09        -0.84273E-10         0.00000E+00
    0.11145E-08        -0.25567E-10         0.00000E+00
    0.11146E-08        -0.73860E-10         0.00000E+00
    0.11148E-08        -0.11839E-09         0.00000E+00
    0.11149E-08        -0.15946E-09         0.00000E+00
    0.11148E-08        -0.19740E-09         0.00000E+00
    0.11145E-08        -0.23255E-09         0.00000E+00
    0.11139E-08        -0.26526E-09         0.00000E+00
    0.11129E-08        -0.29583E-09         0.00000E+00
    0.11116E-08        -0.32456E-09         0.00000E+00
    0.11098E-08        -0.35168E-09         0.00000E+00
    0.11076E-08        -0.37742E-09         0.00000E+00
    0.11049E-08        -0.40195E-09         0.00000E+00
    0.11018E-08        -0.42545E-09         0.00000E+00
    0.10982E-08        -0.44803E-09         0.00000E+00
    0.10942E-08        -0.46981E-09         0.00000E+00
    0.10897E-08        -0.49089E-09         0.00000E+00
    0.10848E-08        -0.51132E-09         0.00000E+00
    0.10796E-08        -0.53117E-09         0.00000E+00
    0.10739E-08        -0.55048E-09         0.00000E+00
    0.10679E-08        -0.56929E-09         0.00000E+00
    0.10616E-08        -0.58763E-09         0.00000E+00
    0.10549E-08        -0.60549E-09         0.00000E+00
    0.10480E-08        -0.62289E-09         0.00000E+00
    0.10408E-08        -0.63982E-09         0.00000E+00
    0.10334E-08        -0.65626E-09         0.00000E+00
    0.10257E-08        -0.67217E-09         0.00000E+00
    0.10178E-08        -0.68751E-09         0.00000E+00
    0.10098E-08        -0.70222E-09         0.00000E+00
    0.10016E-08        -0.71622E-09         0.00000E+00
    0.99330E-09        -0.72938E-09         0.00000E+00
    0.98486E-09        -0.74159E-09         0.00000E+00
    0.97634E-09        -0.75265E-09         0.00000E+00
    0.96774E-09        -0.76236E-09         0.00000E+00
    0.95910E-09        -0.77046E-09         0.00000E+00
    0.95042E-09        -0.77661E-09         0.00000E+00
    0.94175E-09        -0.78042E-09         0.00000E+00
    0.93311E-09        -0.78140E-09         0.00000E+00
    0.92452E-09        -0.77897E-09         0.00000E+00
    0.91603E-09        -0.77244E-09         0.00000E+00
    0.90768E-09        -0.76099E-09         0.00000E+00
    0.89953E-09        -0.74363E-09         0.00000E+00
    0.89163E-09        -0.71924E-09         0.00000E+00
    0.88407E-09        -0.68651E-09         0.00000E+00
    0.87693E-09        -0.64394E-09         0.00000E+00
    0.87032E-09        -0.58986E-09         0.00000E+00
    0.86436E-09        -0.52244E-09         0.00000E+00
    0.85922E-09        -0.43972E-09         0.00000E+00
    0.85505E-09        -0.33969E-09         0.00000E+00
    0.85205E-09        -0.22045E-09         0.00000E+00
    0.85045E-09        -0.80369E-10         0.00000E+00
    0.10226E-08        -0.25944E-10         0.00000E+00
    0.10227E-08        -0.74613E-10         0.00000E+00
    0.10228E-08        -0.11903E-09         0.00000E+00
    0.10229E-08        -0.15953E-09         0.00000E+00
    0.10228E-08        -0.19652E-09         0.00000E+00
    0.10225E-08        -0.23041E-09         0.00000E+00
    0.10219E-08        -0.26158E-09         0.00000E+00
    0.10211E-08        -0.29042E-09         0.00000E+00
    0.10199E-08        -0.31725E-09         0.00000E+00
    0.10183E-08        -0.34236E-09         0.00000E+00
    0.10164E-08        -0.36602E-09         0.00000E+00
    0.10141E-08        -0.38844E-09         0.00000E+00
    0.10114E-08        -0.40980E-09         0.00000E+00
    0.10083E-08        -0.43027E-09         0.00000E+00
    0.10048E-08        -0.44997E-09         0.00000E+00
    0.10009E-08        -0.46901E-09         0.00000E+00
    0.99666E-09        -0.48748E-09         0.00000E+00
    0.99201E-09        -0.50544E-09         0.00000E+00
    0.98700E-09        -0.52295E-09         0.00000E+00
    0.98165E-09        -0.54004E-09         0.00000E+00
    0.97595E-09        -0.55674E-09         0.00000E+00
    0.96994E-09        -0.57306E-09         0.00000E+00
    0.96361E-09        -0.58902E-09         0.00000E+00
    0.95699E-09        -0.60460E-09         0.00000E+00
    0.95009E-09        -0.61979E-09         0.00000E+00
    0.94293E-09        -0.63454E-09         0.00000E+00
    0.93552E-09        -0.64881E-09         0.00000E+00
    0.92788E-09        -0.66254E-09         0.00000E+00
    0.92001E-09        -0.67565E-09         0.00000E+00
    0.91195E-09        -0.68802E-09         0.00000E+00
    0.90370E-09        -0.69952E-09         0.00000E+00
    0.89527E-09        -0.70998E-09         0.00000E+00
    0.88670E-09        -0.71919E-09         0.00000E+00
    0.87799E-09        -0.72688E-09         0.00000E+00
    0.86918E-09        -0.73276E-09         0.00000E+00
    0.86028E-09        -0.73642E-09         0.00000E+00
    0.85134E-09        -0.73742E-09         0.00000E+00
    0.84237E-09        -0.73520E-09         0.00000E+00
    0.83344E-09        -0.72909E-09         0.00000E+00
    0.82458E-09        -0.71831E-09         0.00000E+00
    0.81586E-09        -0.70195E-09         0.00000E+00
    0.80736E-09        -0.67893E-09         0.00000E+00
    0.79916E-09        -0.64802E-09         0.00000E+00
    0.79138E-09        -0.60780E-09         0.00000E+00
    0.78413E-09        -0.55672E-09         0.00000E+00
    0.77758E-09        -0.49304E-09         0.00000E+00
    0.77189E-09        -0.41493E-09         0.00000E+00
    0.76726E-09        -0.32051E-09         0.00000E+00
    0.76392E-09        -0.20797E-09         0.00000E+00
    0.76212E-09        -0.75809E-10         0.00000E+00
    0.94659E-09        -0.26114E-10         0.00000E+00
    0.94658E-09        -0.74848E-10         0.00000E+00
    0.94651E-09        -0.11897E-09         0.00000E+00
    0.94632E-09        -0.15886E-09         0.00000E+00
    0.94597E-09        -0.19494E-09         0.00000E+00
    0.94541E-09        -0.22768E-09         0.00000E+00
    0.94461E-09        -0.25751E-09         0.00000E+00
    0.94353E-09        -0.28483E-09         0.00000E+00
    0.94215E-09        -0.31002E-09         0.00000E+00
    0.94046E-09        -0.33340E-09         0.00000E+00
    0.93843E-09        -0.35525E-09         0.00000E+00
    0.93606E-09        -0.37581E-09         0.00000E+00
    0.93334E-09        -0.39530E-09         0.00000E+00
    0.93026E-09        -0.41389E-09         0.00000E+00
    0.92683E-09        -0.43172E-09         0.00000E+00
    0.92305E-09        -0.44891E-09         0.00000E+00
    0.91891E-09        -0.46556E-09         0.00000E+00
    0.91443E-09        -0.48174E-09         0.00000E+00
    0.90961E-09        -0.49751E-09         0.00000E+00
    0.90446E-09        -0.51291E-09         0.00000E+00
    0.89898E-09        -0.52799E-09         0.00000E+00
    0.89318E-09        -0.54274E-09         0.00000E+00
    0.88707E-09        -0.55719E-09         0.00000E+00
    0.88067E-09        -0.57131E-09         0.00000E+00
    0.87397E-09        -0.58510E-09         0.00000E+00
    0.86699E-09        -0.59852E-09         0.00000E+00
    0.85974E-09        -0.61153E-09         0.00000E+00
    0.85223E-09        -0.62406E-09         0.00000E+00
    0.84447E-09        -0.63603E-09         0.00000E+00
    0.83648E-09        -0.64733E-09         0.00000E+00
    0.82826E-09        -0.65784E-09         0.00000E+00
    0.81983E-09        -0.66739E-09         0.00000E+00
    0.81120E-09        -0.67579E-09         0.00000E+00
    0.80241E-09        -0.68277E-09         0.00000E+00
    0.79346E-09        -0.68806E-09         0.00000E+00
    0.78439E-09        -0.69128E-09         0.00000E+00
    0.77522E-09        -0.69199E-09         0.00000E+00
    0.76600E-09        -0.68969E-09         0.00000E+00
    0.75676E-09        -0.68375E-09         0.00000E+00
    0.74758E-09        -0.67344E-09         0.00000E+00
    0.73851E-09        -0.65789E-09         0.00000E+00
    0.72964E-09        -0.63611E-09         0.00000E+00
    0.72106E-09        -0.60695E-09         0.00000E+00
    0.71289E-09        -0.56910E-09         0.00000E+00
    0.70527E-09        -0.52110E-09         0.00000E+00
    0.69836E-09        -0.46135E-09         0.00000E+00
    0.69236E-09        -0.38813E-09         0.00000E+00
    0.68747E-09        -0.29971E-09         0.00000E+00
    0.68393E-09        -0.19442E-09         0.00000E+00
    0.68203E-09        -0.70846E-10         0.00000E+00
    0.88280E-09        -0.25971E-10         0.00000E+00
    0.88266E-09        -0.74254E-10         0.00000E+00
    0.88236E-09        -0.11771E-09         0.00000E+00
    0.88187E-09        -0.15673E-09         0.00000E+00
    0.88117E-09        -0.19179E-09         0.00000E+00
    0.88023E-09        -0.22334E-09         0.00000E+00
    0.87903E-09        -0.25185E-09         0.00000E+00
    0.87756E-09        -0.27775E-09         0.00000E+00
    0.87581E-09        -0.30144E-09         0.00000E+00
    0.87376E-09        -0.32324E-09         0.00000E+00
    0.87140E-09        -0.34347E-09         0.00000E+00
    0.86873E-09        -0.36238E-09         0.00000E+00
    0.86574E-09        -0.38020E-09         0.00000E+00
    0.86244E-09        -0.39710E-09         0.00000E+00
    0.85881E-09        -0.41324E-09         0.00000E+00
    0.85487E-09        -0.42875E-09         0.00000E+00
    0.85060E-09        -0.44373E-09         0.00000E+00
    0.84603E-09        -0.45826E-09         0.00000E+00
    0.84113E-09        -0.47241E-09         0.00000E+00
    0.83593E-09        -0.48622E-09         0.00000E+00
    0.83042E-09        -0.49973E-09         0.00000E+00
    0.82460E-09        -0.51295E-09         0.00000E+00
    0.81850E-09        -0.52590E-09         0.00000E+00
    0.81209E-09        -0.53856E-09         0.00000E+00
    0.80541E-09        -0.55093E-09         0.00000E+00
    0.79844E-09        -0.56297E-09         0.00000E+00
    0.79120E-09        -0.57464E-09         0.00000E+00
    0.78370E-09        -0.58588E-09         0.00000E+00
    0.77594E-09        -0.59661E-09         0.00000E+00
    0.76793E-09        -0.60673E-09         0.00000E+00
    0.75969E-09        -0.61612E-09         0.00000E+00
    0.75122E-09        -0.62463E-09         0.00000E+00
    0.74255E-09        -0.63206E-09         0.00000E+00
    0.73368E-09        -0.63819E-09         0.00000E+00
    0.72465E-09        -0.64273E-09         0.00000E+00
    0.71548E-09        -0.64536E-09         0.00000E+00
    0.70619E-09        -0.64566E-09         0.00000E+00
    0.69684E-09        -0.64315E-09         0.00000E+00
    0.68747E-09        -0.63726E-09         0.00000E+00
    0.67813E-09        -0.62731E-09         0.00000E+00
    0.66890E-09        -0.61251E-09         0.00000E+00
    0.65986E-09        -0.59193E-09         0.00000E+00
    0.65111E-09        -0.56450E-09         0.00000E+00
    0.64277E-09        -0.52904E-09         0.00000E+00
    0.63500E-09        -0.48418E-09         0.00000E+00
    0.62794E-09        -0.42846E-09         0.00000E+00
    0.62180E-09        -0.36030E-09         0.00000E+00
    0.61681E-09        -0.27810E-09         0.00000E+00
    0.61320E-09        -0.18033E-09         0.00000E+00
    0.61125E-09        -0.65682E-10         0.00000E+00
    0.82851E-09        -0.25481E-10         0.00000E+00
    0.82824E-09        -0.72727E-10         0.00000E+00
    0.82771E-09        -0.11507E-09         0.00000E+00
    0.82690E-09        -0.15291E-09         0.00000E+00
    0.82582E-09        -0.18670E-09         0.00000E+00
    0.82447E-09        -0.21694E-09         0.00000E+00
    0.82283E-09        -0.24409E-09         0.00000E+00
    0.82091E-09        -0.26858E-09         0.00000E+00
    0.81871E-09        -0.29082E-09         0.00000E+00
    0.81622E-09        -0.31115E-09         0.00000E+00
    0.81344E-09        -0.32988E-09         0.00000E+00
    0.81037E-09        -0.34729E-09         0.00000E+00
    0.80702E-09        -0.36358E-09         0.00000E+00
    0.80337E-09        -0.37895E-09         0.00000E+00
    0.79943E-09        -0.39357E-09         0.00000E+00
    0.79520E-09        -0.40756E-09         0.00000E+00
    0.79069E-09        -0.42102E-09         0.00000E+00
    0.78588E-09        -0.43405E-09         0.00000E+00
    0.78079E-09        -0.44670E-09         0.00000E+00
    0.77541E-09        -0.45903E-09         0.00000E+00
    0.76975E-09        -0.47107E-09         0.00000E+00
    0.76381E-09        -0.48285E-09         0.00000E+00
    0.75760E-09        -0.49437E-09         0.00000E+00
    0.75111E-09        -0.50563E-09         0.00000E+00
    0.74435E-09        -0.51662E-09         0.00000E+00
    0.73732E-09        -0.52731E-09         0.00000E+00
    0.73003E-09        -0.53766E-09         0.00000E+00
    0.72249E-09        -0.54762E-09         0.00000E+00
    0.71469E-09        -0.55710E-09         0.00000E+00
    0.70666E-09        -0.56603E-09         0.00000E+00
    0.69839E-09        -0.57428E-09         0.00000E+00
    0.68991E-09        -0.58171E-09         0.00000E+00
    0.68122E-09        -0.58815E-09         0.00000E+00
    0.67234E-09        -0.59338E-09         0.00000E+00
    0.66329E-09        -0.59715E-09         0.00000E+00
    0.65411E-09        -0.59915E-09         0.00000E+00
    0.64481E-09        -0.59899E-09         0.00000E+00
    0.63545E-09        -0.59625E-09         0.00000E+00
    0.62607E-09        -0.59038E-09         0.00000E+00
    0.61673E-09        -0.58078E-09         0.00000E+00
    0.60749E-09        -0.56670E-09         0.00000E+00
    0.59845E-09        -0.54732E-09         0.00000E+00
    0.58970E-09        -0.52164E-09         0.00000E+00
    0.58138E-09        -0.48858E-09         0.00000E+00
    0.57361E-09        -0.44690E-09         0.00000E+00
    0.56656E-09        -0.39525E-09         0.00000E+00
    0.56044E-09        -0.33220E-09         0.00000E+00
    0.55545E-09        -0.25628E-09         0.00000E+00
    0.55185E-09        -0.16611E-09         0.00000E+00
    0.54991E-09        -0.60471E-10         0.00000E+00
    0.78160E-09        -0.24660E-10         0.00000E+00
    0.78121E-09        -0.70298E-10         0.00000E+00
    0.78046E-09        -0.11107E-09         0.00000E+00
    0.77936E-09        -0.14738E-09         0.00000E+00
    0.77793E-09        -0.17968E-09         0.00000E+00
    0.77618E-09        -0.20844E-09         0.00000E+00
    0.77413E-09        -0.23413E-09         0.00000E+00
    0.77178E-09        -0.25718E-09         0.00000E+00
    0.76913E-09        -0.27799E-09         0.00000E+00
    0.76621E-09        -0.29691E-09         0.00000E+00
    0.76301E-09        -0.31423E-09         0.00000E+00
    0.75953E-09        -0.33023E-09         0.00000E+00
    0.75579E-09        -0.34512E-09         0.00000E+00
    0.75177E-09        -0.35910E-09         0.00000E+00
    0.74749E-09        -0.37233E-09         0.00000E+00
    0.74295E-09        -0.38494E-09         0.00000E+00
    0.73814E-09        -0.39702E-09         0.00000E+00
    0.73308E-09        -0.40868E-09         0.00000E+00
    0.72775E-09        -0.41997E-09         0.00000E+00
    0.72216E-09        -0.43095E-09         0.00000E+00
    0.71632E-09        -0.44164E-09         0.00000E+00
    0.71022E-09        -0.45209E-09         0.00000E+00
    0.70387E-09        -0.46229E-09         0.00000E+00
    0.69727E-09        -0.47224E-09         0.00000E+00
    0.69041E-09        -0.48194E-09         0.00000E+00
    0.68331E-09        -0.49136E-09         0.00000E+00
    0.67597E-09        -0.50046E-09         0.00000E+00
    0.66839E-09        -0.50919E-09         0.00000E+00
    0.66057E-09        -0.51749E-09         0.00000E+00
    0.65253E-09        -0.52527E-09         0.00000E+00
    0.64428E-09        -0.53243E-09         0.00000E+00
    0.63581E-09        -0.53883E-09         0.00000E+00
    0.62716E-09        -0.54431E-09         0.00000E+00
    0.61833E-09        -0.54868E-09         0.00000E+00
    0.60935E-09        -0.55171E-09         0.00000E+00
    0.60024E-09        -0.55311E-09         0.00000E+00
    0.59103E-09        -0.55253E-09         0.00000E+00
    0.58176E-09        -0.54958E-09         0.00000E+00
    0.57249E-09        -0.54377E-09         0.00000E+00
    0.56326E-09        -0.53453E-09         0.00000E+00
    0.55414E-09        -0.52121E-09         0.00000E+00
    0.54523E-09        -0.50304E-09         0.00000E+00
    0.53662E-09        -0.47913E-09         0.00000E+00
    0.52842E-09        -0.44848E-09         0.00000E+00
    0.52079E-09        -0.40997E-09         0.00000E+00
    0.51387E-09        -0.36238E-09         0.00000E+00
    0.50786E-09        -0.30440E-09         0.00000E+00
    0.50297E-09        -0.23472E-09         0.00000E+00
    0.49945E-09        -0.15205E-09         0.00000E+00
    0.49755E-09        -0.55327E-10         0.00000E+00
    0.74050E-09        -0.23547E-10         0.00000E+00
    0.74002E-09        -0.67069E-10         0.00000E+00
    0.73908E-09        -0.10587E-09         0.00000E+00
    0.73773E-09        -0.14033E-09         0.00000E+00
    0.73600E-09        -0.17090E-09         0.00000E+00
    0.73391E-09        -0.19802E-09         0.00000E+00
    0.73149E-09        -0.22216E-09         0.00000E+00
    0.72876E-09        -0.24373E-09         0.00000E+00
    0.72573E-09        -0.26310E-09         0.00000E+00
    0.72242E-09        -0.28063E-09         0.00000E+00
    0.71884E-09        -0.29660E-09         0.00000E+00
    0.71499E-09        -0.31127E-09         0.00000E+00
    0.71090E-09        -0.32486E-09         0.00000E+00
    0.70655E-09        -0.33756E-09         0.00000E+00
    0.70196E-09        -0.34952E-09         0.00000E+00
    0.69712E-09        -0.36087E-09         0.00000E+00
    0.69205E-09        -0.37170E-09         0.00000E+00
    0.68674E-09        -0.38212E-09         0.00000E+00
    0.68120E-09        -0.39217E-09         0.00000E+00
    0.67542E-09        -0.40192E-09         0.00000E+00
    0.66941E-09        -0.41140E-09         0.00000E+00
    0.66316E-09        -0.42063E-09         0.00000E+00
    0.65669E-09        -0.42962E-09         0.00000E+00
    0.64999E-09        -0.43838E-09         0.00000E+00
    0.64306E-09        -0.44689E-09         0.00000E+00
    0.63591E-09        -0.45514E-09         0.00000E+00
    0.62854E-09        -0.46310E-09         0.00000E+00
    0.62095E-09        -0.47070E-09         0.00000E+00
    0.61315E-09        -0.47791E-09         0.00000E+00
    0.60515E-09        -0.48463E-09         0.00000E+00
    0.59694E-09        -0.49078E-09         0.00000E+00
    0.58856E-09        -0.49623E-09         0.00000E+00
    0.58000E-09        -0.50084E-09         0.00000E+00
    0.57128E-09        -0.50443E-09         0.00000E+00
    0.56243E-09        -0.50679E-09         0.00000E+00
    0.55346E-09        -0.50765E-09         0.00000E+00
    0.54442E-09        -0.50672E-09         0.00000E+00
    0.53533E-09        -0.50362E-09         0.00000E+00
    0.52625E-09        -0.49792E-09         0.00000E+00
    0.51722E-09        -0.48911E-09         0.00000E+00
    0.50833E-09        -0.47658E-09         0.00000E+00
    0.49964E-09        -0.45965E-09         0.00000E+00
    0.49125E-09        -0.43751E-09         0.00000E+00
    0.48328E-09        -0.40926E-09         0.00000E+00
    0.47586E-09        -0.37390E-09         0.00000E+00
    0.46915E-09        -0.33030E-09         0.00000E+00
    0.46333E-09        -0.27731E-09         0.00000E+00
    0.45859E-09        -0.21372E-09         0.00000E+00
    0.45518E-09        -0.13838E-09         0.00000E+00
    0.45335E-09        -0.50328E-10         0.00000E+00
    0.70408E-09        -0.22196E-10         0.00000E+00
    0.70352E-09        -0.63185E-10         0.00000E+00
    0.70243E-09        -0.99676E-10         0.00000E+00
    0.70088E-09        -0.13203E-09         0.00000E+00
    0.69891E-09        -0.16066E-09         0.00000E+00
    0.69655E-09        -0.18601E-09         0.00000E+00
    0.69383E-09        -0.20850E-09         0.00000E+00
    0.69079E-09        -0.22852E-09         0.00000E+00
    0.68745E-09        -0.24645E-09         0.00000E+00
    0.68383E-09        -0.26260E-09         0.00000E+00
    0.67994E-09        -0.27726E-09         0.00000E+00
    0.67579E-09        -0.29067E-09         0.00000E+00
    0.67141E-09        -0.30304E-09         0.00000E+00
    0.66679E-09        -0.31455E-09         0.00000E+00
    0.66194E-09        -0.32534E-09         0.00000E+00
    0.65687E-09        -0.33553E-09         0.00000E+00
    0.65158E-09        -0.34523E-09         0.00000E+00
    0.64608E-09        -0.35452E-09         0.00000E+00
    0.64036E-09        -0.36346E-09         0.00000E+00
    0.63443E-09        -0.37210E-09         0.00000E+00
    0.62830E-09        -0.38047E-09         0.00000E+00
    0.62195E-09        -0.38861E-09         0.00000E+00
    0.61540E-09        -0.39651E-09         0.00000E+00
    0.60864E-09        -0.40419E-09         0.00000E+00
    0.60168E-09        -0.41164E-09         0.00000E+00
    0.59452E-09        -0.41883E-09         0.00000E+00
    0.58716E-09        -0.42575E-09         0.00000E+00
    0.57961E-09        -0.43234E-09         0.00000E+00
    0.57186E-09        -0.43856E-09         0.00000E+00
    0.56394E-09        -0.44433E-09         0.00000E+00
    0.55584E-09        -0.44958E-09         0.00000E+00
    0.54758E-09        -0.45418E-09         0.00000E+00
    0.53916E-09        -0.45801E-09         0.00000E+00
    0.53061E-09        -0.46092E-09         0.00000E+00
    0.52194E-09        -0.46270E-09         0.00000E+00
    0.51318E-09        -0.46313E-09         0.00000E+00
    0.50436E-09        -0.46192E-09         0.00000E+00
    0.49552E-09        -0.45876E-09         0.00000E+00
    0.48669E-09        -0.45323E-09         0.00000E+00
    0.47793E-09        -0.44490E-09         0.00000E+00
    0.46932E-09        -0.43321E-09         0.00000E+00
    0.46091E-09        -0.41754E-09         0.00000E+00
    0.45281E-09        -0.39718E-09         0.00000E+00
    0.44512E-09        -0.37131E-09         0.00000E+00
    0.43798E-09        -0.33903E-09         0.00000E+00
    0.43152E-09        -0.29934E-09         0.00000E+00
    0.42593E-09        -0.25118E-09         0.00000E+00
    0.42138E-09        -0.19349E-09         0.00000E+00
    0.41812E-09        -0.12523E-09         0.00000E+00
    0.41636E-09        -0.45522E-10         0.00000E+00
    0.67152E-09        -0.20661E-10         0.00000E+00
    0.67090E-09        -0.58794E-10         0.00000E+00
    0.66971E-09        -0.92712E-10         0.00000E+00
    0.66801E-09        -0.12275E-09         0.00000E+00
    0.66585E-09        -0.14929E-09         0.00000E+00
    0.66329E-09        -0.17274E-09         0.00000E+00
    0.66035E-09        -0.19351E-09         0.00000E+00
    0.65708E-09        -0.21196E-09         0.00000E+00
    0.65351E-09        -0.22843E-09         0.00000E+00
    0.64965E-09        -0.24322E-09         0.00000E+00
    0.64553E-09        -0.25660E-09         0.00000E+00
    0.64117E-09        -0.26880E-09         0.00000E+00
    0.63657E-09        -0.28001E-09         0.00000E+00
    0.63175E-09        -0.29039E-09         0.00000E+00
    0.62672E-09        -0.30010E-09         0.00000E+00
    0.62148E-09        -0.30923E-09         0.00000E+00
    0.61604E-09        -0.31789E-09         0.00000E+00
    0.61040E-09        -0.32616E-09         0.00000E+00
    0.60457E-09        -0.33409E-09         0.00000E+00
    0.59855E-09        -0.34172E-09         0.00000E+00
    0.59234E-09        -0.34911E-09         0.00000E+00
    0.58594E-09        -0.35625E-09         0.00000E+00
    0.57936E-09        -0.36318E-09         0.00000E+00
    0.57259E-09        -0.36990E-09         0.00000E+00
    0.56564E-09        -0.37639E-09         0.00000E+00
    0.55851E-09        -0.38264E-09         0.00000E+00
    0.55121E-09        -0.38863E-09         0.00000E+00
    0.54373E-09        -0.39432E-09         0.00000E+00
    0.53609E-09        -0.39966E-09         0.00000E+00
    0.52829E-09        -0.40460E-09         0.00000E+00
    0.52033E-09        -0.40904E-09         0.00000E+00
    0.51224E-09        -0.41291E-09         0.00000E+00
    0.50401E-09        -0.41607E-09         0.00000E+00
    0.49567E-09        -0.41839E-09         0.00000E+00
    0.48723E-09        -0.41970E-09         0.00000E+00
    0.47871E-09        -0.41978E-09         0.00000E+00
    0.47016E-09        -0.41839E-09         0.00000E+00
    0.46159E-09        -0.41523E-09         0.00000E+00
    0.45306E-09        -0.40996E-09         0.00000E+00
    0.44461E-09        -0.40215E-09         0.00000E+00
    0.43631E-09        -0.39134E-09         0.00000E+00
    0.42822E-09        -0.37696E-09         0.00000E+00
    0.42045E-09        -0.35836E-09         0.00000E+00
    0.41307E-09        -0.33483E-09         0.00000E+00
    0.40623E-09        -0.30556E-09         0.00000E+00
    0.40005E-09        -0.26965E-09         0.00000E+00
    0.39471E-09        -0.22616E-09         0.00000E+00
    0.39038E-09        -0.17414E-09         0.00000E+00
    0.38726E-09        -0.11266E-09         0.00000E+00
    0.38559E-09        -0.40934E-10         0.00000E+00
    0.64228E-09        -0.18995E-10         0.00000E+00
    0.64162E-09        -0.54042E-10         0.00000E+00
    0.64035E-09        -0.85197E-10         0.00000E+00
    0.63855E-09        -0.11276E-09         0.00000E+00
    0.63627E-09        -0.13710E-09         0.00000E+00
    0.63357E-09        -0.15858E-09         0.00000E+00
    0.63049E-09        -0.17757E-09         0.00000E+00
    0.62706E-09        -0.19442E-09         0.00000E+00
    0.62333E-09        -0.20942E-09         0.00000E+00
    0.61931E-09        -0.22286E-09         0.00000E+00
    0.61504E-09        -0.23499E-09         0.00000E+00
    0.61053E-09        -0.24602E-09         0.00000E+00
    0.60579E-09        -0.25612E-09         0.00000E+00
    0.60084E-09        -0.26545E-09         0.00000E+00
    0.59570E-09        -0.27414E-09         0.00000E+00
    0.59036E-09        -0.28229E-09         0.00000E+00
    0.58483E-09        -0.29000E-09         0.00000E+00
    0.57912E-09        -0.29733E-09         0.00000E+00
    0.57323E-09        -0.30433E-09         0.00000E+00
    0.56717E-09        -0.31107E-09         0.00000E+00
    0.56094E-09        -0.31755E-09         0.00000E+00
    0.55454E-09        -0.32382E-09         0.00000E+00
    0.54798E-09        -0.32987E-09         0.00000E+00
    0.54124E-09        -0.33572E-09         0.00000E+00
    0.53435E-09        -0.34136E-09         0.00000E+00
    0.52730E-09        -0.34677E-09         0.00000E+00
    0.52009E-09        -0.35194E-09         0.00000E+00
    0.51273E-09        -0.35683E-09         0.00000E+00
    0.50523E-09        -0.36141E-09         0.00000E+00
    0.49758E-09        -0.36561E-09         0.00000E+00
    0.48980E-09        -0.36936E-09         0.00000E+00
    0.48190E-09        -0.37259E-09         0.00000E+00
    0.47389E-09        -0.37519E-09         0.00000E+00
    0.46578E-09        -0.37702E-09         0.00000E+00
    0.45760E-09        -0.37795E-09         0.00000E+00
    0.44936E-09        -0.37777E-09         0.00000E+00
    0.44109E-09        -0.37628E-09         0.00000E+00
    0.43283E-09        -0.37321E-09         0.00000E+00
    0.42461E-09        -0.36824E-09         0.00000E+00
    0.41649E-09        -0.36102E-09         0.00000E+00
    0.40852E-09        -0.35111E-09         0.00000E+00
    0.40077E-09        -0.33802E-09         0.00000E+00
    0.39332E-09        -0.32117E-09         0.00000E+00
    0.38628E-09        -0.29993E-09         0.00000E+00
    0.37975E-09        -0.27358E-09         0.00000E+00
    0.37386E-09        -0.24132E-09         0.00000E+00
    0.36877E-09        -0.20232E-09         0.00000E+00
    0.36465E-09        -0.15572E-09         0.00000E+00
    0.36169E-09        -0.10070E-09         0.00000E+00
    0.36010E-09        -0.36576E-10         0.00000E+00
    0.61599E-09        -0.17244E-10         0.00000E+00
    0.61531E-09        -0.49055E-10         0.00000E+00
    0.61400E-09        -0.77324E-10         0.00000E+00
    0.61214E-09        -0.10233E-09         0.00000E+00
    0.60979E-09        -0.12439E-09         0.00000E+00
    0.60700E-09        -0.14384E-09         0.00000E+00
    0.60383E-09        -0.16103E-09         0.00000E+00
    0.60031E-09        -0.17625E-09         0.00000E+00
    0.59648E-09        -0.18979E-09         0.00000E+00
    0.59238E-09        -0.20190E-09         0.00000E+00
    0.58802E-09        -0.21280E-09         0.00000E+00
    0.58343E-09        -0.22269E-09         0.00000E+00
    0.57862E-09        -0.23173E-09         0.00000E+00
    0.57361E-09        -0.24005E-09         0.00000E+00
    0.56841E-09        -0.24779E-09         0.00000E+00
    0.56303E-09        -0.25502E-09         0.00000E+00
    0.55747E-09        -0.26184E-09         0.00000E+00
    0.55174E-09        -0.26831E-09         0.00000E+00
    0.54585E-09        -0.27448E-09         0.00000E+00
    0.53981E-09        -0.28038E-09         0.00000E+00
    0.53360E-09        -0.28606E-09         0.00000E+00
    0.52724E-09        -0.29152E-09         0.00000E+00
    0.52074E-09        -0.29679E-09         0.00000E+00
    0.51408E-09        -0.30187E-09         0.00000E+00
    0.50728E-09        -0.30674E-09         0.00000E+00
    0.50034E-09        -0.31142E-09         0.00000E+00
    0.49326E-09        -0.31586E-09         0.00000E+00
    0.48604E-09        -0.32005E-09         0.00000E+00
    0.47870E-09        -0.32395E-09         0.00000E+00
    0.47124E-09        -0.32751E-09         0.00000E+00
    0.46366E-09        -0.33067E-09         0.00000E+00
    0.45597E-09        -0.33336E-09         0.00000E+00
    0.44820E-09        -0.33548E-09         0.00000E+00
    0.44034E-09        -0.33692E-09         0.00000E+00
    0.43242E-09        -0.33754E-09         0.00000E+00
    0.42447E-09        -0.33719E-09         0.00000E+00
    0.41649E-09        -0.33567E-09         0.00000E+00
    0.40854E-09        -0.33274E-09         0.00000E+00
    0.40065E-09        -0.32814E-09         0.00000E+00
    0.39285E-09        -0.32153E-09         0.00000E+00
    0.38521E-09        -0.31255E-09         0.00000E+00
    0.37780E-09        -0.30075E-09         0.00000E+00
    0.37068E-09        -0.28563E-09         0.00000E+00
    0.36396E-09        -0.26662E-09         0.00000E+00
    0.35773E-09        -0.24309E-09         0.00000E+00
    0.35212E-09        -0.21434E-09         0.00000E+00
    0.34728E-09        -0.17963E-09         0.00000E+00
    0.34337E-09        -0.13821E-09         0.00000E+00
    0.34056E-09        -0.89352E-10         0.00000E+00
    0.33905E-09        -0.32443E-10         0.00000E+00
    0.59245E-09        -0.15445E-10         0.00000E+00
    0.59175E-09        -0.43937E-10         0.00000E+00
    0.59042E-09        -0.69254E-10         0.00000E+00
    0.58853E-09        -0.91640E-10         0.00000E+00
    0.58614E-09        -0.11139E-09         0.00000E+00
    0.58332E-09        -0.12879E-09         0.00000E+00
    0.58011E-09        -0.14415E-09         0.00000E+00
    0.57655E-09        -0.15775E-09         0.00000E+00
    0.57269E-09        -0.16983E-09         0.00000E+00
    0.56855E-09        -0.18063E-09         0.00000E+00
    0.56416E-09        -0.19033E-09         0.00000E+00
    0.55954E-09        -0.19911E-09         0.00000E+00
    0.55471E-09        -0.20713E-09         0.00000E+00
    0.54969E-09        -0.21450E-09         0.00000E+00
    0.54449E-09        -0.22132E-09         0.00000E+00
    0.53911E-09        -0.22769E-09         0.00000E+00
    0.53357E-09        -0.23368E-09         0.00000E+00
    0.52787E-09        -0.23935E-09         0.00000E+00
    0.52202E-09        -0.24474E-09         0.00000E+00
    0.51603E-09        -0.24989E-09         0.00000E+00
    0.50989E-09        -0.25483E-09         0.00000E+00
    0.50361E-09        -0.25957E-09         0.00000E+00
    0.49719E-09        -0.26413E-09         0.00000E+00
    0.49064E-09        -0.26850E-09         0.00000E+00
    0.48396E-09        -0.27270E-09         0.00000E+00
    0.47715E-09        -0.27671E-09         0.00000E+00
    0.47022E-09        -0.28051E-09         0.00000E+00
    0.46317E-09        -0.28408E-09         0.00000E+00
    0.45601E-09        -0.28739E-09         0.00000E+00
    0.44874E-09        -0.29040E-09         0.00000E+00
    0.44137E-09        -0.29305E-09         0.00000E+00
    0.43391E-09        -0.29527E-09         0.00000E+00
    0.42638E-09        -0.29699E-09         0.00000E+00
    0.41877E-09        -0.29811E-09         0.00000E+00
    0.41112E-09        -0.29851E-09         0.00000E+00
    0.40345E-09        -0.29805E-09         0.00000E+00
    0.39577E-09        -0.29656E-09         0.00000E+00
    0.38812E-09        -0.29384E-09         0.00000E+00
    0.38054E-09        -0.28964E-09         0.00000E+00
    0.37306E-09        -0.28368E-09         0.00000E+00
    0.36574E-09        -0.27563E-09         0.00000E+00
    0.35865E-09        -0.26511E-09         0.00000E+00
    0.35185E-09        -0.25168E-09         0.00000E+00
    0.34543E-09        -0.23485E-09         0.00000E+00
    0.33949E-09        -0.21404E-09         0.00000E+00
    0.33415E-09        -0.18866E-09         0.00000E+00
    0.32954E-09        -0.15806E-09         0.00000E+00
    0.32581E-09        -0.12158E-09         0.00000E+00
    0.32314E-09        -0.78579E-10         0.00000E+00
    0.32171E-09        -0.28523E-10         0.00000E+00
    0.57150E-09        -0.13629E-10         0.00000E+00
    0.57080E-09        -0.38771E-10         0.00000E+00
    0.56947E-09        -0.61110E-10         0.00000E+00
    0.56757E-09        -0.80863E-10         0.00000E+00
    0.56518E-09        -0.98283E-10         0.00000E+00
    0.56236E-09        -0.11364E-09         0.00000E+00
    0.55914E-09        -0.12718E-09         0.00000E+00
    0.55559E-09        -0.13916E-09         0.00000E+00
    0.55173E-09        -0.14980E-09         0.00000E+00
    0.54759E-09        -0.15929E-09         0.00000E+00
    0.54321E-09        -0.16782E-09         0.00000E+00
    0.53861E-09        -0.17553E-09         0.00000E+00
    0.53381E-09        -0.18255E-09         0.00000E+00
    0.52882E-09        -0.18900E-09         0.00000E+00
    0.52365E-09        -0.19496E-09         0.00000E+00
    0.51832E-09        -0.20052E-09         0.00000E+00
    0.51283E-09        -0.20573E-09         0.00000E+00
    0.50719E-09        -0.21064E-09         0.00000E+00
    0.50142E-09        -0.21531E-09         0.00000E+00
    0.49550E-09        -0.21976E-09         0.00000E+00
    0.48945E-09        -0.22401E-09         0.00000E+00
    0.48327E-09        -0.22809E-09         0.00000E+00
    0.47697E-09        -0.23200E-09         0.00000E+00
    0.47054E-09        -0.23575E-09         0.00000E+00
    0.46400E-09        -0.23933E-09         0.00000E+00
    0.45734E-09        -0.24275E-09         0.00000E+00
    0.45057E-09        -0.24597E-09         0.00000E+00
    0.44370E-09        -0.24900E-09         0.00000E+00
    0.43672E-09        -0.25178E-09         0.00000E+00
    0.42965E-09        -0.25430E-09         0.00000E+00
    0.42249E-09        -0.25651E-09         0.00000E+00
    0.41526E-09        -0.25834E-09         0.00000E+00
    0.40795E-09        -0.25973E-09         0.00000E+00
    0.40060E-09        -0.26060E-09         0.00000E+00
    0.39321E-09        -0.26084E-09         0.00000E+00
    0.38581E-09        -0.26032E-09         0.00000E+00
    0.37841E-09        -0.25891E-09         0.00000E+00
    0.37104E-09        -0.25643E-09         0.00000E+00
    0.36375E-09        -0.25266E-09         0.00000E+00
    0.35657E-09        -0.24737E-09         0.00000E+00
    0.34955E-09        -0.24026E-09         0.00000E+00
    0.34275E-09        -0.23101E-09         0.00000E+00
    0.33625E-09        -0.21924E-09         0.00000E+00
    0.33011E-09        -0.20450E-09         0.00000E+00
    0.32443E-09        -0.18633E-09         0.00000E+00
    0.31934E-09        -0.16419E-09         0.00000E+00
    0.31494E-09        -0.13752E-09         0.00000E+00
    0.31139E-09        -0.10575E-09         0.00000E+00
    0.30885E-09        -0.68335E-10         0.00000E+00
    0.30749E-09        -0.24799E-10         0.00000E+00
    0.55309E-09        -0.11817E-10         0.00000E+00
    0.55240E-09        -0.33616E-10         0.00000E+00
    0.55107E-09        -0.52986E-10         0.00000E+00
    0.54919E-09        -0.70113E-10         0.00000E+00
    0.54682E-09        -0.85217E-10         0.00000E+00
    0.54401E-09        -0.98528E-10         0.00000E+00
    0.54082E-09        -0.11027E-09         0.00000E+00
    0.53729E-09        -0.12065E-09         0.00000E+00
    0.53347E-09        -0.12986E-09         0.00000E+00
    0.52937E-09        -0.13808E-09         0.00000E+00
    0.52503E-09        -0.14546E-09         0.00000E+00
    0.52048E-09        -0.15212E-09         0.00000E+00
    0.51572E-09        -0.15818E-09         0.00000E+00
    0.51079E-09        -0.16374E-09         0.00000E+00
    0.50568E-09        -0.16887E-09         0.00000E+00
    0.50042E-09        -0.17364E-09         0.00000E+00
    0.49501E-09        -0.17811E-09         0.00000E+00
    0.48945E-09        -0.18232E-09         0.00000E+00
    0.48377E-09        -0.18630E-09         0.00000E+00
    0.47795E-09        -0.19010E-09         0.00000E+00
    0.47201E-09        -0.19372E-09         0.00000E+00
    0.46594E-09        -0.19718E-09         0.00000E+00
    0.45977E-09        -0.20050E-09         0.00000E+00
    0.45347E-09        -0.20367E-09         0.00000E+00
    0.44707E-09        -0.20669E-09         0.00000E+00
    0.44057E-09        -0.20957E-09         0.00000E+00
    0.43396E-09        -0.21227E-09         0.00000E+00
    0.42726E-09        -0.21480E-09         0.00000E+00
    0.42047E-09        -0.21713E-09         0.00000E+00
    0.41359E-09        -0.21922E-09         0.00000E+00
    0.40664E-09        -0.22104E-09         0.00000E+00
    0.39961E-09        -0.22253E-09         0.00000E+00
    0.39254E-09        -0.22365E-09         0.00000E+00
    0.38542E-09        -0.22431E-09         0.00000E+00
    0.37827E-09        -0.22444E-09         0.00000E+00
    0.37111E-09        -0.22391E-09         0.00000E+00
    0.36397E-09        -0.22262E-09         0.00000E+00
    0.35687E-09        -0.22041E-09         0.00000E+00
    0.34985E-09        -0.21710E-09         0.00000E+00
    0.34294E-09        -0.21248E-09         0.00000E+00
    0.33619E-09        -0.20631E-09         0.00000E+00
    0.32966E-09        -0.19831E-09         0.00000E+00
    0.32341E-09        -0.18815E-09         0.00000E+00
    0.31753E-09        -0.17546E-09         0.00000E+00
    0.31209E-09        -0.15983E-09         0.00000E+00
    0.30721E-09        -0.14080E-09         0.00000E+00
    0.30300E-09        -0.11791E-09         0.00000E+00
    0.29961E-09        -0.90652E-10         0.00000E+00
    0.29718E-09        -0.58567E-10         0.00000E+00
    0.29588E-09        -0.21250E-10         0.00000E+00
    0.53719E-09        -0.10022E-10         0.00000E+00
    0.53650E-09        -0.28511E-10         0.00000E+00
    0.53520E-09        -0.44941E-10         0.00000E+00
    0.53334E-09        -0.59469E-10         0.00000E+00
    0.53100E-09        -0.72282E-10         0.00000E+00
    0.52823E-09        -0.83572E-10         0.00000E+00
    0.52508E-09        -0.93530E-10         0.00000E+00
    0.52159E-09        -0.10233E-09         0.00000E+00
    0.51782E-09        -0.11014E-09         0.00000E+00
    0.51377E-09        -0.11711E-09         0.00000E+00
    0.50949E-09        -0.12335E-09         0.00000E+00
    0.50500E-09        -0.12899E-09         0.00000E+00
    0.50032E-09        -0.13411E-09         0.00000E+00
    0.49545E-09        -0.13881E-09         0.00000E+00
    0.49043E-09        -0.14313E-09         0.00000E+00
    0.48525E-09        -0.14715E-09         0.00000E+00
    0.47992E-09        -0.15091E-09         0.00000E+00
    0.47446E-09        -0.15445E-09         0.00000E+00
    0.46887E-09        -0.15779E-09         0.00000E+00
    0.46316E-09        -0.16097E-09         0.00000E+00
    0.45733E-09        -0.16399E-09         0.00000E+00
    0.45139E-09        -0.16688E-09         0.00000E+00
    0.44534E-09        -0.16964E-09         0.00000E+00
    0.43918E-09        -0.17228E-09         0.00000E+00
    0.43292E-09        -0.17478E-09         0.00000E+00
    0.42656E-09        -0.17716E-09         0.00000E+00
    0.42011E-09        -0.17940E-09         0.00000E+00
    0.41358E-09        -0.18148E-09         0.00000E+00
    0.40696E-09        -0.18339E-09         0.00000E+00
    0.40026E-09        -0.18510E-09         0.00000E+00
    0.39350E-09        -0.18657E-09         0.00000E+00
    0.38667E-09        -0.18778E-09         0.00000E+00
    0.37980E-09        -0.18866E-09         0.00000E+00
    0.37289E-09        -0.18916E-09         0.00000E+00
    0.36596E-09        -0.18921E-09         0.00000E+00
    0.35903E-09        -0.18871E-09         0.00000E+00
    0.35212E-09        -0.18757E-09         0.00000E+00
    0.34526E-09        -0.18565E-09         0.00000E+00
    0.33847E-09        -0.18281E-09         0.00000E+00
    0.33180E-09        -0.17887E-09         0.00000E+00
    0.32529E-09        -0.17363E-09         0.00000E+00
    0.31900E-09        -0.16686E-09         0.00000E+00
    0.31298E-09        -0.15827E-09         0.00000E+00
    0.30731E-09        -0.14756E-09         0.00000E+00
    0.30208E-09        -0.13439E-09         0.00000E+00
    0.29739E-09        -0.11837E-09         0.00000E+00
    0.29335E-09        -0.99105E-10         0.00000E+00
    0.29009E-09        -0.76185E-10         0.00000E+00
    0.28775E-09        -0.49213E-10         0.00000E+00
    0.28650E-09        -0.17854E-10         0.00000E+00
    0.52379E-09        -0.82532E-11         0.00000E+00
    0.52312E-09        -0.23480E-10         0.00000E+00
    0.52183E-09        -0.37011E-10         0.00000E+00
    0.52000E-09        -0.48976E-10         0.00000E+00
    0.51770E-09        -0.59529E-10         0.00000E+00
    0.51497E-09        -0.68827E-10         0.00000E+00
    0.51187E-09        -0.77027E-10         0.00000E+00
    0.50844E-09        -0.84275E-10         0.00000E+00
    0.50472E-09        -0.90705E-10         0.00000E+00
    0.50074E-09        -0.96435E-10         0.00000E+00
    0.49652E-09        -0.10157E-09         0.00000E+00
    0.49210E-09        -0.10620E-09         0.00000E+00
    0.48749E-09        -0.11041E-09         0.00000E+00
    0.48271E-09        -0.11426E-09         0.00000E+00
    0.47776E-09        -0.11781E-09         0.00000E+00
    0.47267E-09        -0.12110E-09         0.00000E+00
    0.46743E-09        -0.12417E-09         0.00000E+00
    0.46207E-09        -0.12706E-09         0.00000E+00
    0.45658E-09        -0.12979E-09         0.00000E+00
    0.45097E-09        -0.13238E-09         0.00000E+00
    0.44525E-09        -0.13484E-09         0.00000E+00
    0.43942E-09        -0.13718E-09         0.00000E+00
    0.43349E-09        -0.13942E-09         0.00000E+00
    0.42746E-09        -0.14155E-09         0.00000E+00
    0.42133E-09        -0.14358E-09         0.00000E+00
    0.41511E-09        -0.14549E-09         0.00000E+00
    0.40881E-09        -0.14729E-09         0.00000E+00
    0.40242E-09        -0.14896E-09         0.00000E+00
    0.39596E-09        -0.15049E-09         0.00000E+00
    0.38942E-09        -0.15185E-09         0.00000E+00
    0.38283E-09        -0.15302E-09         0.00000E+00
    0.37618E-09        -0.15397E-09         0.00000E+00
    0.36949E-09        -0.15465E-09         0.00000E+00
    0.36277E-09        -0.15502E-09         0.00000E+00
    0.35603E-09        -0.15502E-09         0.00000E+00
    0.34929E-09        -0.15457E-09         0.00000E+00
    0.34258E-09        -0.15359E-09         0.00000E+00
    0.33592E-09        -0.15199E-09         0.00000E+00
    0.32934E-09        -0.14963E-09         0.00000E+00
    0.32287E-09        -0.14637E-09         0.00000E+00
    0.31657E-09        -0.14205E-09         0.00000E+00
    0.31047E-09        -0.13648E-09         0.00000E+00
    0.30465E-09        -0.12943E-09         0.00000E+00
    0.29916E-09        -0.12065E-09         0.00000E+00
    0.29411E-09        -0.10986E-09         0.00000E+00
    0.28957E-09        -0.96753E-10         0.00000E+00
    0.28567E-09        -0.80997E-10         0.00000E+00
    0.28252E-09        -0.62257E-10         0.00000E+00
    0.28027E-09        -0.40213E-10         0.00000E+00
    0.27907E-09        -0.14588E-10         0.00000E+00
    0.51291E-09        -0.65139E-11         0.00000E+00
    0.51225E-09        -0.18531E-10         0.00000E+00
    0.51098E-09        -0.29209E-10         0.00000E+00
    0.50918E-09        -0.38651E-10         0.00000E+00
    0.50691E-09        -0.46977E-10         0.00000E+00
    0.50423E-09        -0.54313E-10         0.00000E+00
    0.50118E-09        -0.60781E-10         0.00000E+00
    0.49780E-09        -0.66497E-10         0.00000E+00
    0.49414E-09        -0.71566E-10         0.00000E+00
    0.49022E-09        -0.76082E-10         0.00000E+00
    0.48607E-09        -0.80128E-10         0.00000E+00
    0.48172E-09        -0.83775E-10         0.00000E+00
    0.47718E-09        -0.87085E-10         0.00000E+00
    0.47247E-09        -0.90111E-10         0.00000E+00
    0.46760E-09        -0.92896E-10         0.00000E+00
    0.46259E-09        -0.95477E-10         0.00000E+00
    0.45744E-09        -0.97886E-10         0.00000E+00
    0.45216E-09        -0.10015E-09         0.00000E+00
    0.44677E-09        -0.10228E-09         0.00000E+00
    0.44126E-09        -0.10430E-09         0.00000E+00
    0.43563E-09        -0.10621E-09         0.00000E+00
    0.42991E-09        -0.10804E-09         0.00000E+00
    0.42408E-09        -0.10978E-09         0.00000E+00
    0.41816E-09        -0.11143E-09         0.00000E+00
    0.41215E-09        -0.11300E-09         0.00000E+00
    0.40605E-09        -0.11448E-09         0.00000E+00
    0.39987E-09        -0.11587E-09         0.00000E+00
    0.39362E-09        -0.11716E-09         0.00000E+00
    0.38729E-09        -0.11833E-09         0.00000E+00
    0.38089E-09        -0.11937E-09         0.00000E+00
    0.37444E-09        -0.12026E-09         0.00000E+00
    0.36794E-09        -0.12098E-09         0.00000E+00
    0.36140E-09        -0.12148E-09         0.00000E+00
    0.35483E-09        -0.12175E-09         0.00000E+00
    0.34826E-09        -0.12172E-09         0.00000E+00
    0.34168E-09        -0.12134E-09         0.00000E+00
    0.33514E-09        -0.12054E-09         0.00000E+00
    0.32864E-09        -0.11926E-09         0.00000E+00
    0.32223E-09        -0.11738E-09         0.00000E+00
    0.31593E-09        -0.11480E-09         0.00000E+00
    0.30979E-09        -0.11140E-09         0.00000E+00
    0.30386E-09        -0.10701E-09         0.00000E+00
    0.29820E-09        -0.10146E-09         0.00000E+00
    0.29287E-09        -0.94566E-10         0.00000E+00
    0.28795E-09        -0.86097E-10         0.00000E+00
    0.28355E-09        -0.75815E-10         0.00000E+00
    0.27976E-09        -0.63462E-10         0.00000E+00
    0.27670E-09        -0.48776E-10         0.00000E+00
    0.27451E-09        -0.31503E-10         0.00000E+00
    0.27335E-09        -0.11428E-10         0.00000E+00
    0.50456E-09        -0.48029E-11         0.00000E+00
    0.50391E-09        -0.13661E-10         0.00000E+00
    0.50266E-09        -0.21530E-10         0.00000E+00
    0.50089E-09        -0.28486E-10         0.00000E+00
    0.49866E-09        -0.34618E-10         0.00000E+00
    0.49601E-09        -0.40019E-10         0.00000E+00
    0.49300E-09        -0.44780E-10         0.00000E+00
    0.48967E-09        -0.48984E-10         0.00000E+00
    0.48606E-09        -0.52711E-10         0.00000E+00
    0.48220E-09        -0.56029E-10         0.00000E+00
    0.47811E-09        -0.58999E-10         0.00000E+00
    0.47382E-09        -0.61675E-10         0.00000E+00
    0.46934E-09        -0.64101E-10         0.00000E+00
    0.46470E-09        -0.66316E-10         0.00000E+00
    0.45990E-09        -0.68353E-10         0.00000E+00
    0.45495E-09        -0.70239E-10         0.00000E+00
    0.44988E-09        -0.71996E-10         0.00000E+00
    0.44467E-09        -0.73642E-10         0.00000E+00
    0.43935E-09        -0.75194E-10         0.00000E+00
    0.43392E-09        -0.76660E-10         0.00000E+00
    0.42838E-09        -0.78052E-10         0.00000E+00
    0.42274E-09        -0.79375E-10         0.00000E+00
    0.41701E-09        -0.80633E-10         0.00000E+00
    0.41118E-09        -0.81828E-10         0.00000E+00
    0.40526E-09        -0.82960E-10         0.00000E+00
    0.39926E-09        -0.84027E-10         0.00000E+00
    0.39318E-09        -0.85025E-10         0.00000E+00
    0.38703E-09        -0.85948E-10         0.00000E+00
    0.38081E-09        -0.86786E-10         0.00000E+00
    0.37452E-09        -0.87528E-10         0.00000E+00
    0.36819E-09        -0.88159E-10         0.00000E+00
    0.36180E-09        -0.88661E-10         0.00000E+00
    0.35538E-09        -0.89011E-10         0.00000E+00
    0.34894E-09        -0.89181E-10         0.00000E+00
    0.34249E-09        -0.89137E-10         0.00000E+00
    0.33605E-09        -0.88839E-10         0.00000E+00
    0.32963E-09        -0.88238E-10         0.00000E+00
    0.32327E-09        -0.87277E-10         0.00000E+00
    0.31699E-09        -0.85885E-10         0.00000E+00
    0.31082E-09        -0.83983E-10         0.00000E+00
    0.30481E-09        -0.81476E-10         0.00000E+00
    0.29901E-09        -0.78252E-10         0.00000E+00
    0.29347E-09        -0.74186E-10         0.00000E+00
    0.28826E-09        -0.69134E-10         0.00000E+00
    0.28345E-09        -0.62936E-10         0.00000E+00
    0.27915E-09        -0.55414E-10         0.00000E+00
    0.27544E-09        -0.46383E-10         0.00000E+00
    0.27246E-09        -0.35648E-10         0.00000E+00
    0.27032E-09        -0.23025E-10         0.00000E+00
    0.26918E-09        -0.83530E-11         0.00000E+00
    0.49877E-09        -0.31162E-11         0.00000E+00
    0.49812E-09        -0.88597E-11         0.00000E+00
    0.49689E-09        -0.13957E-10         0.00000E+00
    0.49514E-09        -0.18459E-10         0.00000E+00
    0.49293E-09        -0.22424E-10         0.00000E+00
    0.49032E-09        -0.25913E-10         0.00000E+00
    0.48735E-09        -0.28985E-10         0.00000E+00
    0.48406E-09        -0.31695E-10         0.00000E+00
    0.48049E-09        -0.34094E-10         0.00000E+00
    0.47667E-09        -0.36226E-10         0.00000E+00
    0.47262E-09        -0.38133E-10         0.00000E+00
    0.46838E-09        -0.39847E-10         0.00000E+00
    0.46395E-09        -0.41399E-10         0.00000E+00
    0.45935E-09        -0.42814E-10         0.00000E+00
    0.45460E-09        -0.44112E-10         0.00000E+00
    0.44971E-09        -0.45312E-10         0.00000E+00
    0.44469E-09        -0.46428E-10         0.00000E+00
    0.43954E-09        -0.47471E-10         0.00000E+00
    0.43428E-09        -0.48453E-10         0.00000E+00
    0.42891E-09        -0.49379E-10         0.00000E+00
    0.42343E-09        -0.50257E-10         0.00000E+00
    0.41786E-09        -0.51089E-10         0.00000E+00
    0.41218E-09        -0.51879E-10         0.00000E+00
    0.40642E-09        -0.52628E-10         0.00000E+00
    0.40057E-09        -0.53337E-10         0.00000E+00
    0.39465E-09        -0.54003E-10         0.00000E+00
    0.38864E-09        -0.54624E-10         0.00000E+00
    0.38256E-09        -0.55197E-10         0.00000E+00
    0.37642E-09        -0.55715E-10         0.00000E+00
    0.37022E-09        -0.56171E-10         0.00000E+00
    0.36396E-09        -0.56556E-10         0.00000E+00
    0.35766E-09        -0.56859E-10         0.00000E+00
    0.35133E-09        -0.57064E-10         0.00000E+00
    0.34498E-09        -0.57154E-10         0.00000E+00
    0.33862E-09        -0.57107E-10         0.00000E+00
    0.33227E-09        -0.56899E-10         0.00000E+00
    0.32595E-09        -0.56497E-10         0.00000E+00
    0.31968E-09        -0.55865E-10         0.00000E+00
    0.31349E-09        -0.54960E-10         0.00000E+00
    0.30742E-09        -0.53729E-10         0.00000E+00
    0.30151E-09        -0.52112E-10         0.00000E+00
    0.29580E-09        -0.50040E-10         0.00000E+00
    0.29035E-09        -0.47431E-10         0.00000E+00
    0.28522E-09        -0.44195E-10         0.00000E+00
    0.28049E-09        -0.40228E-10         0.00000E+00
    0.27626E-09        -0.35417E-10         0.00000E+00
    0.27262E-09        -0.29644E-10         0.00000E+00
    0.26968E-09        -0.22784E-10         0.00000E+00
    0.26758E-09        -0.14718E-10         0.00000E+00
    0.26646E-09        -0.53408E-11         0.00000E+00
    0.49555E-09        -0.14473E-11         0.00000E+00
    0.49491E-09        -0.41081E-11         0.00000E+00
    0.49369E-09        -0.64612E-11         0.00000E+00
    0.49196E-09        -0.85321E-11         0.00000E+00
    0.48977E-09        -0.10349E-10         0.00000E+00
    0.48717E-09        -0.11942E-10         0.00000E+00
    0.48422E-09        -0.13338E-10         0.00000E+00
    0.48096E-09        -0.14564E-10         0.00000E+00
    0.47741E-09        -0.15645E-10         0.00000E+00
    0.47362E-09        -0.16601E-10         0.00000E+00
    0.46960E-09        -0.17450E-10         0.00000E+00
    0.46538E-09        -0.18210E-10         0.00000E+00
    0.46098E-09        -0.18894E-10         0.00000E+00
    0.45642E-09        -0.19514E-10         0.00000E+00
    0.45170E-09        -0.20080E-10         0.00000E+00
    0.44684E-09        -0.20599E-10         0.00000E+00
    0.44185E-09        -0.21080E-10         0.00000E+00
    0.43674E-09        -0.21527E-10         0.00000E+00
    0.43151E-09        -0.21946E-10         0.00000E+00
    0.42617E-09        -0.22338E-10         0.00000E+00
    0.42073E-09        -0.22709E-10         0.00000E+00
    0.41519E-09        -0.23058E-10         0.00000E+00
    0.40956E-09        -0.23389E-10         0.00000E+00
    0.40384E-09        -0.23701E-10         0.00000E+00
    0.39803E-09        -0.23994E-10         0.00000E+00
    0.39215E-09        -0.24268E-10         0.00000E+00
    0.38618E-09        -0.24522E-10         0.00000E+00
    0.38015E-09        -0.24754E-10         0.00000E+00
    0.37406E-09        -0.24961E-10         0.00000E+00
    0.36790E-09        -0.25142E-10         0.00000E+00
    0.36170E-09        -0.25290E-10         0.00000E+00
    0.35545E-09        -0.25402E-10         0.00000E+00
    0.34917E-09        -0.25471E-10         0.00000E+00
    0.34287E-09        -0.25489E-10         0.00000E+00
    0.33657E-09        -0.25446E-10         0.00000E+00
    0.33027E-09        -0.25333E-10         0.00000E+00
    0.32401E-09        -0.25135E-10         0.00000E+00
    0.31780E-09        -0.24835E-10         0.00000E+00
    0.31167E-09        -0.24416E-10         0.00000E+00
    0.30566E-09        -0.23854E-10         0.00000E+00
    0.29980E-09        -0.23123E-10         0.00000E+00
    0.29414E-09        -0.22192E-10         0.00000E+00
    0.28875E-09        -0.21027E-10         0.00000E+00
    0.28367E-09        -0.19585E-10         0.00000E+00
    0.27899E-09        -0.17824E-10         0.00000E+00
    0.27480E-09        -0.15692E-10         0.00000E+00
    0.27120E-09        -0.13135E-10         0.00000E+00
    0.26829E-09        -0.10099E-10         0.00000E+00
    0.26622E-09        -0.65270E-11         0.00000E+00
    0.26511E-09        -0.23711E-11         0.00000E+00
    0.49495E-09         0.21193E-12         0.00000E+00
    0.49431E-09         0.61698E-12         0.00000E+00
    0.49309E-09         0.99416E-12         0.00000E+00
    0.49136E-09         0.13430E-11         0.00000E+00
    0.48918E-09         0.16646E-11         0.00000E+00
    0.48659E-09         0.19609E-11         0.00000E+00
    0.48364E-09         0.22340E-11         0.00000E+00
    0.48039E-09         0.24866E-11         0.00000E+00
    0.47685E-09         0.27209E-11         0.00000E+00
    0.47306E-09         0.29392E-11         0.00000E+00
    0.46905E-09         0.31437E-11         0.00000E+00
    0.46484E-09         0.33361E-11         0.00000E+00
    0.46045E-09         0.35180E-11         0.00000E+00
    0.45589E-09         0.36909E-11         0.00000E+00
    0.45118E-09         0.38559E-11         0.00000E+00
    0.44633E-09         0.40140E-11         0.00000E+00
    0.44135E-09         0.41661E-11         0.00000E+00
    0.43624E-09         0.43127E-11         0.00000E+00
    0.43102E-09         0.44544E-11         0.00000E+00
    0.42569E-09         0.45917E-11         0.00000E+00
    0.42026E-09         0.47248E-11         0.00000E+00
    0.41473E-09         0.48539E-11         0.00000E+00
    0.40911E-09         0.49790E-11         0.00000E+00
    0.40340E-09         0.51003E-11         0.00000E+00
    0.39760E-09         0.52175E-11         0.00000E+00
    0.39172E-09         0.53303E-11         0.00000E+00
    0.38577E-09         0.54386E-11         0.00000E+00
    0.37976E-09         0.55416E-11         0.00000E+00
    0.37367E-09         0.56387E-11         0.00000E+00
    0.36753E-09         0.57291E-11         0.00000E+00
    0.36134E-09         0.58116E-11         0.00000E+00
    0.35511E-09         0.58848E-11         0.00000E+00
    0.34885E-09         0.59470E-11         0.00000E+00
    0.34257E-09         0.59960E-11         0.00000E+00
    0.33628E-09         0.60293E-11         0.00000E+00
    0.33000E-09         0.60437E-11         0.00000E+00
    0.32376E-09         0.60354E-11         0.00000E+00
    0.31757E-09         0.60000E-11         0.00000E+00
    0.31146E-09         0.59322E-11         0.00000E+00
    0.30547E-09         0.58257E-11         0.00000E+00
    0.29963E-09         0.56732E-11         0.00000E+00
    0.29400E-09         0.54664E-11         0.00000E+00
    0.28862E-09         0.51959E-11         0.00000E+00
    0.28356E-09         0.48512E-11         0.00000E+00
    0.27890E-09         0.44206E-11         0.00000E+00
    0.27473E-09         0.38921E-11         0.00000E+00
    0.27114E-09         0.32536E-11         0.00000E+00
    0.26825E-09         0.24935E-11         0.00000E+00
    0.26618E-09         0.16026E-11         0.00000E+00
    0.26507E-09         0.57622E-12         0.00000E+00
    0.49698E-09         0.18711E-11         0.00000E+00
    0.49634E-09         0.53424E-11         0.00000E+00
    0.49512E-09         0.84509E-11         0.00000E+00
    0.49338E-09         0.11221E-10         0.00000E+00
    0.49119E-09         0.13684E-10         0.00000E+00
    0.48859E-09         0.15871E-10         0.00000E+00
    0.48564E-09         0.17816E-10         0.00000E+00
    0.48236E-09         0.19550E-10         0.00000E+00
    0.47881E-09         0.21102E-10         0.00000E+00
    0.47501E-09         0.22497E-10         0.00000E+00
    0.47099E-09         0.23758E-10         0.00000E+00
    0.46676E-09         0.24905E-10         0.00000E+00
    0.46235E-09         0.25955E-10         0.00000E+00
    0.45778E-09         0.26923E-10         0.00000E+00
    0.45305E-09         0.27820E-10         0.00000E+00
    0.44818E-09         0.28657E-10         0.00000E+00
    0.44318E-09         0.29443E-10         0.00000E+00
    0.43805E-09         0.30184E-10         0.00000E+00
    0.43281E-09         0.30886E-10         0.00000E+00
    0.42746E-09         0.31553E-10         0.00000E+00
    0.42201E-09         0.32190E-10         0.00000E+00
    0.41646E-09         0.32797E-10         0.00000E+00
    0.41081E-09         0.33377E-10         0.00000E+00
    0.40508E-09         0.33930E-10         0.00000E+00
    0.39926E-09         0.34456E-10         0.00000E+00
    0.39336E-09         0.34954E-10         0.00000E+00
    0.38739E-09         0.35422E-10         0.00000E+00
    0.38135E-09         0.35858E-10         0.00000E+00
    0.37525E-09         0.36258E-10         0.00000E+00
    0.36909E-09         0.36616E-10         0.00000E+00
    0.36287E-09         0.36927E-10         0.00000E+00
    0.35662E-09         0.37183E-10         0.00000E+00
    0.35034E-09         0.37373E-10         0.00000E+00
    0.34404E-09         0.37486E-10         0.00000E+00
    0.33773E-09         0.37507E-10         0.00000E+00
    0.33144E-09         0.37420E-10         0.00000E+00
    0.32517E-09         0.37202E-10         0.00000E+00
    0.31897E-09         0.36829E-10         0.00000E+00
    0.31284E-09         0.36271E-10         0.00000E+00
    0.30683E-09         0.35494E-10         0.00000E+00
    0.30098E-09         0.34456E-10         0.00000E+00
    0.29533E-09         0.33110E-10         0.00000E+00
    0.28994E-09         0.31402E-10         0.00000E+00
    0.28487E-09         0.29271E-10         0.00000E+00
    0.28020E-09         0.26648E-10         0.00000E+00
    0.27601E-09         0.23460E-10         0.00000E+00
    0.27241E-09         0.19628E-10         0.00000E+00
    0.26952E-09         0.15074E-10         0.00000E+00
    0.26744E-09         0.97243E-11         0.00000E+00
    0.26633E-09         0.35204E-11         0.00000E+00
    0.50167E-09         0.35406E-11         0.00000E+00
    0.50102E-09         0.10097E-10         0.00000E+00
    0.49979E-09         0.15955E-10         0.00000E+00
    0.49804E-09         0.21163E-10         0.00000E+00
    0.49582E-09         0.25780E-10         0.00000E+00
    0.49320E-09         0.29872E-10         0.00000E+00
    0.49022E-09         0.33501E-10         0.00000E+00
    0.48692E-09         0.36727E-10         0.00000E+00
    0.48333E-09         0.39606E-10         0.00000E+00
    0.47949E-09         0.42186E-10         0.00000E+00
    0.47543E-09         0.44511E-10         0.00000E+00
    0.47116E-09         0.46620E-10         0.00000E+00
    0.46671E-09         0.48544E-10         0.00000E+00
    0.46209E-09         0.50312E-10         0.00000E+00
    0.45732E-09         0.51946E-10         0.00000E+00
    0.45240E-09         0.53467E-10         0.00000E+00
    0.44735E-09         0.54891E-10         0.00000E+00
    0.44218E-09         0.56231E-10         0.00000E+00
    0.43689E-09         0.57497E-10         0.00000E+00
    0.43148E-09         0.58697E-10         0.00000E+00
    0.42598E-09         0.59840E-10         0.00000E+00
    0.42037E-09         0.60927E-10         0.00000E+00
    0.41468E-09         0.61964E-10         0.00000E+00
    0.40889E-09         0.62951E-10         0.00000E+00
    0.40301E-09         0.63887E-10         0.00000E+00
    0.39706E-09         0.64772E-10         0.00000E+00
    0.39103E-09         0.65602E-10         0.00000E+00
    0.38494E-09         0.66371E-10         0.00000E+00
    0.37877E-09         0.67074E-10         0.00000E+00
    0.37256E-09         0.67700E-10         0.00000E+00
    0.36629E-09         0.68239E-10         0.00000E+00
    0.35998E-09         0.68676E-10         0.00000E+00
    0.35364E-09         0.68994E-10         0.00000E+00
    0.34728E-09         0.69169E-10         0.00000E+00
    0.34091E-09         0.69177E-10         0.00000E+00
    0.33456E-09         0.68985E-10         0.00000E+00
    0.32824E-09         0.68555E-10         0.00000E+00
    0.32198E-09         0.67841E-10         0.00000E+00
    0.31580E-09         0.66789E-10         0.00000E+00
    0.30973E-09         0.65335E-10         0.00000E+00
    0.30383E-09         0.63405E-10         0.00000E+00
    0.29813E-09         0.60913E-10         0.00000E+00
    0.29269E-09         0.57758E-10         0.00000E+00
    0.28758E-09         0.53829E-10         0.00000E+00
    0.28286E-09         0.49000E-10         0.00000E+00
    0.27864E-09         0.43136E-10         0.00000E+00
    0.27501E-09         0.36093E-10         0.00000E+00
    0.27209E-09         0.27723E-10         0.00000E+00
    0.27000E-09         0.17890E-10         0.00000E+00
    0.26888E-09         0.64805E-11         0.00000E+00
    0.50906E-09         0.52314E-11         0.00000E+00
    0.50840E-09         0.14913E-10         0.00000E+00
    0.50715E-09         0.23555E-10         0.00000E+00
    0.50537E-09         0.31230E-10         0.00000E+00
    0.50312E-09         0.38030E-10         0.00000E+00
    0.50046E-09         0.44050E-10         0.00000E+00
    0.49743E-09         0.49384E-10         0.00000E+00
    0.49407E-09         0.54121E-10         0.00000E+00
    0.49043E-09         0.58344E-10         0.00000E+00
    0.48653E-09         0.62124E-10         0.00000E+00
    0.48241E-09         0.65527E-10         0.00000E+00
    0.47807E-09         0.68609E-10         0.00000E+00
    0.47355E-09         0.71418E-10         0.00000E+00
    0.46886E-09         0.73996E-10         0.00000E+00
    0.46401E-09         0.76376E-10         0.00000E+00
    0.45902E-09         0.78589E-10         0.00000E+00
    0.45389E-09         0.80658E-10         0.00000E+00
    0.44864E-09         0.82603E-10         0.00000E+00
    0.44327E-09         0.84440E-10         0.00000E+00
    0.43778E-09         0.86180E-10         0.00000E+00
    0.43219E-09         0.87834E-10         0.00000E+00
    0.42650E-09         0.89407E-10         0.00000E+00
    0.42072E-09         0.90906E-10         0.00000E+00
    0.41484E-09         0.92331E-10         0.00000E+00
    0.40888E-09         0.93682E-10         0.00000E+00
    0.40283E-09         0.94958E-10         0.00000E+00
    0.39671E-09         0.96152E-10         0.00000E+00
    0.39052E-09         0.97259E-10         0.00000E+00
    0.38427E-09         0.98268E-10         0.00000E+00
    0.37796E-09         0.99165E-10         0.00000E+00
    0.37159E-09         0.99934E-10         0.00000E+00
    0.36519E-09         0.10055E-09         0.00000E+00
    0.35875E-09         0.10100E-09         0.00000E+00
    0.35230E-09         0.10124E-09         0.00000E+00
    0.34583E-09         0.10123E-09         0.00000E+00
    0.33939E-09         0.10093E-09         0.00000E+00
    0.33297E-09         0.10029E-09         0.00000E+00
    0.32661E-09         0.99227E-10         0.00000E+00
    0.32034E-09         0.97675E-10         0.00000E+00
    0.31418E-09         0.95536E-10         0.00000E+00
    0.30819E-09         0.92703E-10         0.00000E+00
    0.30240E-09         0.89048E-10         0.00000E+00
    0.29688E-09         0.84429E-10         0.00000E+00
    0.29169E-09         0.78680E-10         0.00000E+00
    0.28691E-09         0.71619E-10         0.00000E+00
    0.28262E-09         0.63047E-10         0.00000E+00
    0.27894E-09         0.52753E-10         0.00000E+00
    0.27597E-09         0.40523E-10         0.00000E+00
    0.27385E-09         0.26153E-10         0.00000E+00
    0.27271E-09         0.94757E-11         0.00000E+00
    0.51917E-09         0.69545E-11         0.00000E+00
    0.51850E-09         0.19820E-10         0.00000E+00
    0.51722E-09         0.31299E-10         0.00000E+00
    0.51540E-09         0.41489E-10         0.00000E+00
    0.51310E-09         0.50512E-10         0.00000E+00
    0.51038E-09         0.58496E-10         0.00000E+00
    0.50729E-09         0.65566E-10         0.00000E+00
    0.50386E-09         0.71841E-10         0.00000E+00
    0.50014E-09         0.77430E-10         0.00000E+00
    0.49616E-09         0.82431E-10         0.00000E+00
    0.49195E-09         0.86930E-10         0.00000E+00
    0.48752E-09         0.91002E-10         0.00000E+00
    0.48290E-09         0.94712E-10         0.00000E+00
    0.47811E-09         0.98113E-10         0.00000E+00
    0.47316E-09         0.10125E-09         0.00000E+00
    0.46806E-09         0.10417E-09         0.00000E+00
    0.46283E-09         0.10689E-09         0.00000E+00
    0.45747E-09         0.10945E-09         0.00000E+00
    0.45198E-09         0.11187E-09         0.00000E+00
    0.44638E-09         0.11416E-09         0.00000E+00
    0.44068E-09         0.11633E-09         0.00000E+00
    0.43487E-09         0.11840E-09         0.00000E+00
    0.42896E-09         0.12037E-09         0.00000E+00
    0.42296E-09         0.12224E-09         0.00000E+00
    0.41688E-09         0.12401E-09         0.00000E+00
    0.41071E-09         0.12569E-09         0.00000E+00
    0.40446E-09         0.12725E-09         0.00000E+00
    0.39814E-09         0.12870E-09         0.00000E+00
    0.39176E-09         0.13002E-09         0.00000E+00
    0.38531E-09         0.13120E-09         0.00000E+00
    0.37882E-09         0.13220E-09         0.00000E+00
    0.37228E-09         0.13301E-09         0.00000E+00
    0.36571E-09         0.13358E-09         0.00000E+00
    0.35912E-09         0.13389E-09         0.00000E+00
    0.35252E-09         0.13387E-09         0.00000E+00
    0.34594E-09         0.13346E-09         0.00000E+00
    0.33938E-09         0.13259E-09         0.00000E+00
    0.33289E-09         0.13118E-09         0.00000E+00
    0.32648E-09         0.12912E-09         0.00000E+00
    0.32020E-09         0.12628E-09         0.00000E+00
    0.31408E-09         0.12253E-09         0.00000E+00
    0.30817E-09         0.11769E-09         0.00000E+00
    0.30253E-09         0.11158E-09         0.00000E+00
    0.29723E-09         0.10398E-09         0.00000E+00
    0.29235E-09         0.94649E-10         0.00000E+00
    0.28797E-09         0.83320E-10         0.00000E+00
    0.28421E-09         0.69716E-10         0.00000E+00
    0.28118E-09         0.53554E-10         0.00000E+00
    0.27901E-09         0.34566E-10         0.00000E+00
    0.27785E-09         0.12525E-10         0.00000E+00
    0.53205E-09         0.87210E-11         0.00000E+00
    0.53136E-09         0.24851E-10         0.00000E+00
    0.53005E-09         0.39236E-10         0.00000E+00
    0.52818E-09         0.52002E-10         0.00000E+00
    0.52582E-09         0.63302E-10         0.00000E+00
    0.52302E-09         0.73296E-10         0.00000E+00
    0.51984E-09         0.82142E-10         0.00000E+00
    0.51632E-09         0.89990E-10         0.00000E+00
    0.51250E-09         0.96978E-10         0.00000E+00
    0.50841E-09         0.10323E-09         0.00000E+00
    0.50409E-09         0.10885E-09         0.00000E+00
    0.49954E-09         0.11393E-09         0.00000E+00
    0.49481E-09         0.11856E-09         0.00000E+00
    0.48989E-09         0.12280E-09         0.00000E+00
    0.48481E-09         0.12672E-09         0.00000E+00
    0.47958E-09         0.13035E-09         0.00000E+00
    0.47421E-09         0.13375E-09         0.00000E+00
    0.46870E-09         0.13694E-09         0.00000E+00
    0.46308E-09         0.13994E-09         0.00000E+00
    0.45733E-09         0.14279E-09         0.00000E+00
    0.45148E-09         0.14550E-09         0.00000E+00
    0.44552E-09         0.14807E-09         0.00000E+00
    0.43946E-09         0.15052E-09         0.00000E+00
    0.43331E-09         0.15285E-09         0.00000E+00
    0.42706E-09         0.15506E-09         0.00000E+00
    0.42073E-09         0.15714E-09         0.00000E+00
    0.41432E-09         0.15909E-09         0.00000E+00
    0.40784E-09         0.16089E-09         0.00000E+00
    0.40129E-09         0.16253E-09         0.00000E+00
    0.39467E-09         0.16399E-09         0.00000E+00
    0.38800E-09         0.16523E-09         0.00000E+00
    0.38129E-09         0.16623E-09         0.00000E+00
    0.37455E-09         0.16694E-09         0.00000E+00
    0.36778E-09         0.16731E-09         0.00000E+00
    0.36101E-09         0.16728E-09         0.00000E+00
    0.35425E-09         0.16676E-09         0.00000E+00
    0.34752E-09         0.16568E-09         0.00000E+00
    0.34086E-09         0.16390E-09         0.00000E+00
    0.33428E-09         0.16132E-09         0.00000E+00
    0.32782E-09         0.15777E-09         0.00000E+00
    0.32154E-09         0.15308E-09         0.00000E+00
    0.31547E-09         0.14703E-09         0.00000E+00
    0.30968E-09         0.13940E-09         0.00000E+00
    0.30423E-09         0.12990E-09         0.00000E+00
    0.29922E-09         0.11824E-09         0.00000E+00
    0.29472E-09         0.10408E-09         0.00000E+00
    0.29086E-09         0.87092E-10         0.00000E+00
    0.28774E-09         0.66903E-10         0.00000E+00
    0.28552E-09         0.43183E-10         0.00000E+00
    0.28433E-09         0.15649E-10         0.00000E+00
    0.54773E-09         0.10541E-10         0.00000E+00
    0.54702E-09         0.30034E-10         0.00000E+00
    0.54566E-09         0.47413E-10         0.00000E+00
    0.54373E-09         0.62831E-10         0.00000E+00
    0.54129E-09         0.76473E-10         0.00000E+00
    0.53840E-09         0.88534E-10         0.00000E+00
    0.53512E-09         0.99206E-10         0.00000E+00
    0.53149E-09         0.10867E-09         0.00000E+00
    0.52755E-09         0.11709E-09         0.00000E+00
    0.52334E-09         0.12463E-09         0.00000E+00
    0.51888E-09         0.13139E-09         0.00000E+00
    0.51419E-09         0.13752E-09         0.00000E+00
    0.50931E-09         0.14309E-09         0.00000E+00
    0.50424E-09         0.14819E-09         0.00000E+00
    0.49900E-09         0.15290E-09         0.00000E+00
    0.49361E-09         0.15727E-09         0.00000E+00
    0.48808E-09         0.16136E-09         0.00000E+00
    0.48241E-09         0.16519E-09         0.00000E+00
    0.47661E-09         0.16881E-09         0.00000E+00
    0.47069E-09         0.17224E-09         0.00000E+00
    0.46466E-09         0.17549E-09         0.00000E+00
    0.45852E-09         0.17859E-09         0.00000E+00
    0.45227E-09         0.18153E-09         0.00000E+00
    0.44593E-09         0.18433E-09         0.00000E+00
    0.43949E-09         0.18698E-09         0.00000E+00
    0.43297E-09         0.18948E-09         0.00000E+00
    0.42636E-09         0.19183E-09         0.00000E+00
    0.41967E-09         0.19399E-09         0.00000E+00
    0.41292E-09         0.19597E-09         0.00000E+00
    0.40610E-09         0.19772E-09         0.00000E+00
    0.39922E-09         0.19922E-09         0.00000E+00
    0.39230E-09         0.20042E-09         0.00000E+00
    0.38534E-09         0.20127E-09         0.00000E+00
    0.37836E-09         0.20172E-09         0.00000E+00
    0.37137E-09         0.20167E-09         0.00000E+00
    0.36440E-09         0.20105E-09         0.00000E+00
    0.35745E-09         0.19973E-09         0.00000E+00
    0.35057E-09         0.19760E-09         0.00000E+00
    0.34378E-09         0.19448E-09         0.00000E+00
    0.33711E-09         0.19020E-09         0.00000E+00
    0.33062E-09         0.18454E-09         0.00000E+00
    0.32436E-09         0.17725E-09         0.00000E+00
    0.31837E-09         0.16805E-09         0.00000E+00
    0.31275E-09         0.15660E-09         0.00000E+00
    0.30757E-09         0.14254E-09         0.00000E+00
    0.30292E-09         0.12548E-09         0.00000E+00
    0.29893E-09         0.10499E-09         0.00000E+00
    0.29571E-09         0.80657E-10         0.00000E+00
    0.29341E-09         0.52062E-10         0.00000E+00
    0.29218E-09         0.18868E-10         0.00000E+00
    0.56624E-09         0.12425E-10         0.00000E+00
    0.56550E-09         0.35397E-10         0.00000E+00
    0.56409E-09         0.55871E-10         0.00000E+00
    0.56209E-09         0.74030E-10         0.00000E+00
    0.55957E-09         0.90092E-10         0.00000E+00
    0.55658E-09         0.10429E-09         0.00000E+00
    0.55318E-09         0.11684E-09         0.00000E+00
    0.54942E-09         0.12798E-09         0.00000E+00
    0.54534E-09         0.13788E-09         0.00000E+00
    0.54098E-09         0.14673E-09         0.00000E+00
    0.53637E-09         0.15468E-09         0.00000E+00
    0.53152E-09         0.16187E-09         0.00000E+00
    0.52647E-09         0.16842E-09         0.00000E+00
    0.52123E-09         0.17441E-09         0.00000E+00
    0.51581E-09         0.17994E-09         0.00000E+00
    0.51023E-09         0.18507E-09         0.00000E+00
    0.50451E-09         0.18986E-09         0.00000E+00
    0.49864E-09         0.19437E-09         0.00000E+00
    0.49265E-09         0.19861E-09         0.00000E+00
    0.48653E-09         0.20264E-09         0.00000E+00
    0.48029E-09         0.20646E-09         0.00000E+00
    0.47393E-09         0.21009E-09         0.00000E+00
    0.46747E-09         0.21355E-09         0.00000E+00
    0.46091E-09         0.21684E-09         0.00000E+00
    0.45425E-09         0.21996E-09         0.00000E+00
    0.44750E-09         0.22290E-09         0.00000E+00
    0.44066E-09         0.22565E-09         0.00000E+00
    0.43374E-09         0.22820E-09         0.00000E+00
    0.42674E-09         0.23052E-09         0.00000E+00
    0.41968E-09         0.23259E-09         0.00000E+00
    0.41255E-09         0.23435E-09         0.00000E+00
    0.40538E-09         0.23577E-09         0.00000E+00
    0.39817E-09         0.23677E-09         0.00000E+00
    0.39093E-09         0.23730E-09         0.00000E+00
    0.38369E-09         0.23725E-09         0.00000E+00
    0.37646E-09         0.23652E-09         0.00000E+00
    0.36926E-09         0.23498E-09         0.00000E+00
    0.36212E-09         0.23247E-09         0.00000E+00
    0.35507E-09         0.22880E-09         0.00000E+00
    0.34815E-09         0.22377E-09         0.00000E+00
    0.34142E-09         0.21712E-09         0.00000E+00
    0.33491E-09         0.20855E-09         0.00000E+00
    0.32870E-09         0.19772E-09         0.00000E+00
    0.32286E-09         0.18425E-09         0.00000E+00
    0.31747E-09         0.16771E-09         0.00000E+00
    0.31265E-09         0.14764E-09         0.00000E+00
    0.30850E-09         0.12354E-09         0.00000E+00
    0.30516E-09         0.94910E-10         0.00000E+00
    0.30277E-09         0.61264E-10         0.00000E+00
    0.30149E-09         0.22203E-10         0.00000E+00
    0.58761E-09         0.14381E-10         0.00000E+00
    0.58685E-09         0.40963E-10         0.00000E+00
    0.58538E-09         0.64647E-10         0.00000E+00
    0.58331E-09         0.85646E-10         0.00000E+00
    0.58068E-09         0.10421E-09         0.00000E+00
    0.57758E-09         0.12062E-09         0.00000E+00
    0.57406E-09         0.13513E-09         0.00000E+00
    0.57016E-09         0.14798E-09         0.00000E+00
    0.56593E-09         0.15942E-09         0.00000E+00
    0.56140E-09         0.16963E-09         0.00000E+00
    0.55661E-09         0.17881E-09         0.00000E+00
    0.55159E-09         0.18710E-09         0.00000E+00
    0.54635E-09         0.19465E-09         0.00000E+00
    0.54092E-09         0.20156E-09         0.00000E+00
    0.53530E-09         0.20794E-09         0.00000E+00
    0.52952E-09         0.21386E-09         0.00000E+00
    0.52359E-09         0.21938E-09         0.00000E+00
    0.51750E-09         0.22458E-09         0.00000E+00
    0.51129E-09         0.22948E-09         0.00000E+00
    0.50494E-09         0.23412E-09         0.00000E+00
    0.49847E-09         0.23853E-09         0.00000E+00
    0.49188E-09         0.24273E-09         0.00000E+00
    0.48517E-09         0.24673E-09         0.00000E+00
    0.47836E-09         0.25053E-09         0.00000E+00
    0.47145E-09         0.25414E-09         0.00000E+00
    0.46444E-09         0.25754E-09         0.00000E+00
    0.45733E-09         0.26073E-09         0.00000E+00
    0.45014E-09         0.26368E-09         0.00000E+00
    0.44287E-09         0.26637E-09         0.00000E+00
    0.43553E-09         0.26877E-09         0.00000E+00
    0.42812E-09         0.27082E-09         0.00000E+00
    0.42066E-09         0.27246E-09         0.00000E+00
    0.41316E-09         0.27364E-09         0.00000E+00
    0.40563E-09         0.27426E-09         0.00000E+00
    0.39809E-09         0.27422E-09         0.00000E+00
    0.39055E-09         0.27339E-09         0.00000E+00
    0.38305E-09         0.27162E-09         0.00000E+00
    0.37561E-09         0.26873E-09         0.00000E+00
    0.36827E-09         0.26450E-09         0.00000E+00
    0.36106E-09         0.25870E-09         0.00000E+00
    0.35403E-09         0.25102E-09         0.00000E+00
    0.34724E-09         0.24112E-09         0.00000E+00
    0.34076E-09         0.22861E-09         0.00000E+00
    0.33467E-09         0.21304E-09         0.00000E+00
    0.32905E-09         0.19393E-09         0.00000E+00
    0.32401E-09         0.17073E-09         0.00000E+00
    0.31968E-09         0.14287E-09         0.00000E+00
    0.31619E-09         0.10976E-09         0.00000E+00
    0.31369E-09         0.70852E-10         0.00000E+00
    0.31235E-09         0.25680E-10         0.00000E+00
    0.61188E-09         0.16414E-10         0.00000E+00
    0.61109E-09         0.46747E-10         0.00000E+00
    0.60957E-09         0.73765E-10         0.00000E+00
    0.60741E-09         0.97713E-10         0.00000E+00
    0.60468E-09         0.11888E-09         0.00000E+00
    0.60146E-09         0.13758E-09         0.00000E+00
    0.59780E-09         0.15410E-09         0.00000E+00
    0.59375E-09         0.16875E-09         0.00000E+00
    0.58936E-09         0.18176E-09         0.00000E+00
    0.58466E-09         0.19339E-09         0.00000E+00
    0.57969E-09         0.20383E-09         0.00000E+00
    0.57448E-09         0.21327E-09         0.00000E+00
    0.56904E-09         0.22186E-09         0.00000E+00
    0.56340E-09         0.22973E-09         0.00000E+00
    0.55757E-09         0.23698E-09         0.00000E+00
    0.55157E-09         0.24372E-09         0.00000E+00
    0.54541E-09         0.25001E-09         0.00000E+00
    0.53909E-09         0.25593E-09         0.00000E+00
    0.53264E-09         0.26151E-09         0.00000E+00
    0.52604E-09         0.26680E-09         0.00000E+00
    0.51932E-09         0.27184E-09         0.00000E+00
    0.51247E-09         0.27663E-09         0.00000E+00
    0.50550E-09         0.28119E-09         0.00000E+00
    0.49841E-09         0.28554E-09         0.00000E+00
    0.49122E-09         0.28966E-09         0.00000E+00
    0.48392E-09         0.29356E-09         0.00000E+00
    0.47652E-09         0.29721E-09         0.00000E+00
    0.46903E-09         0.30060E-09         0.00000E+00
    0.46146E-09         0.30369E-09         0.00000E+00
    0.45380E-09         0.30644E-09         0.00000E+00
    0.44608E-09         0.30880E-09         0.00000E+00
    0.43829E-09         0.31071E-09         0.00000E+00
    0.43046E-09         0.31207E-09         0.00000E+00
    0.42260E-09         0.31280E-09         0.00000E+00
    0.41472E-09         0.31278E-09         0.00000E+00
    0.40684E-09         0.31186E-09         0.00000E+00
    0.39900E-09         0.30986E-09         0.00000E+00
    0.39122E-09         0.30659E-09         0.00000E+00
    0.38353E-09         0.30180E-09         0.00000E+00
    0.37598E-09         0.29520E-09         0.00000E+00
    0.36862E-09         0.28645E-09         0.00000E+00
    0.36151E-09         0.27518E-09         0.00000E+00
    0.35472E-09         0.26092E-09         0.00000E+00
    0.34832E-09         0.24317E-09         0.00000E+00
    0.34243E-09         0.22137E-09         0.00000E+00
    0.33715E-09         0.19489E-09         0.00000E+00
    0.33260E-09         0.16310E-09         0.00000E+00
    0.32893E-09         0.12531E-09         0.00000E+00
    0.32631E-09         0.80896E-10         0.00000E+00
    0.32491E-09         0.29322E-10         0.00000E+00
    0.63908E-09         0.18527E-10         0.00000E+00
    0.63826E-09         0.52757E-10         0.00000E+00
    0.63668E-09         0.83237E-10         0.00000E+00
    0.63444E-09         0.11024E-09         0.00000E+00
    0.63161E-09         0.13411E-09         0.00000E+00
    0.62827E-09         0.15518E-09         0.00000E+00
    0.62447E-09         0.17380E-09         0.00000E+00
    0.62027E-09         0.19029E-09         0.00000E+00
    0.61571E-09         0.20495E-09         0.00000E+00
    0.61084E-09         0.21805E-09         0.00000E+00
    0.60568E-09         0.22980E-09         0.00000E+00
    0.60027E-09         0.24043E-09         0.00000E+00
    0.59463E-09         0.25010E-09         0.00000E+00
    0.58878E-09         0.25895E-09         0.00000E+00
    0.58273E-09         0.26713E-09         0.00000E+00
    0.57650E-09         0.27472E-09         0.00000E+00
    0.57010E-09         0.28182E-09         0.00000E+00
    0.56355E-09         0.28849E-09         0.00000E+00
    0.55684E-09         0.29479E-09         0.00000E+00
    0.54998E-09         0.30077E-09         0.00000E+00
    0.54299E-09         0.30646E-09         0.00000E+00
    0.53586E-09         0.31188E-09         0.00000E+00
    0.52861E-09         0.31705E-09         0.00000E+00
    0.52124E-09         0.32198E-09         0.00000E+00
    0.51374E-09         0.32666E-09         0.00000E+00
    0.50614E-09         0.33108E-09         0.00000E+00
    0.49842E-09         0.33524E-09         0.00000E+00
    0.49061E-09         0.33910E-09         0.00000E+00
    0.48270E-09         0.34262E-09         0.00000E+00
    0.47470E-09         0.34577E-09         0.00000E+00
    0.46662E-09         0.34848E-09         0.00000E+00
    0.45848E-09         0.35067E-09         0.00000E+00
    0.45028E-09         0.35225E-09         0.00000E+00
    0.44205E-09         0.35312E-09         0.00000E+00
    0.43379E-09         0.35314E-09         0.00000E+00
    0.42554E-09         0.35214E-09         0.00000E+00
    0.41731E-09         0.34994E-09         0.00000E+00
    0.40914E-09         0.34628E-09         0.00000E+00
    0.40107E-09         0.34091E-09         0.00000E+00
    0.39313E-09         0.33349E-09         0.00000E+00
    0.38540E-09         0.32365E-09         0.00000E+00
    0.37791E-09         0.31094E-09         0.00000E+00
    0.37077E-09         0.29486E-09         0.00000E+00
    0.36404E-09         0.27483E-09         0.00000E+00
    0.35783E-09         0.25021E-09         0.00000E+00
    0.35226E-09         0.22031E-09         0.00000E+00
    0.34747E-09         0.18438E-09         0.00000E+00
    0.34361E-09         0.14167E-09         0.00000E+00
    0.34084E-09         0.91467E-10         0.00000E+00
    0.33936E-09         0.33157E-10         0.00000E+00
    0.66925E-09         0.20717E-10         0.00000E+00
    0.66839E-09         0.58987E-10         0.00000E+00
    0.66676E-09         0.93055E-10         0.00000E+00
    0.66444E-09         0.12323E-09         0.00000E+00
    0.66151E-09         0.14989E-09         0.00000E+00
    0.65805E-09         0.17342E-09         0.00000E+00
    0.65412E-09         0.19421E-09         0.00000E+00
    0.64978E-09         0.21262E-09         0.00000E+00
    0.64506E-09         0.22898E-09         0.00000E+00
    0.64002E-09         0.24359E-09         0.00000E+00
    0.63469E-09         0.25671E-09         0.00000E+00
    0.62909E-09         0.26857E-09         0.00000E+00
    0.62325E-09         0.27936E-09         0.00000E+00
    0.61719E-09         0.28926E-09         0.00000E+00
    0.61092E-09         0.29839E-09         0.00000E+00
    0.60447E-09         0.30688E-09         0.00000E+00
    0.59783E-09         0.31482E-09         0.00000E+00
    0.59103E-09         0.32229E-09         0.00000E+00
    0.58407E-09         0.32936E-09         0.00000E+00
    0.57695E-09         0.33607E-09         0.00000E+00
    0.56968E-09         0.34246E-09         0.00000E+00
    0.56227E-09         0.34855E-09         0.00000E+00
    0.55473E-09         0.35438E-09         0.00000E+00
    0.54705E-09         0.35993E-09         0.00000E+00
    0.53924E-09         0.36521E-09         0.00000E+00
    0.53131E-09         0.37022E-09         0.00000E+00
    0.52326E-09         0.37492E-09         0.00000E+00
    0.51510E-09         0.37930E-09         0.00000E+00
    0.50683E-09         0.38331E-09         0.00000E+00
    0.49846E-09         0.38689E-09         0.00000E+00
    0.49001E-09         0.38999E-09         0.00000E+00
    0.48148E-09         0.39251E-09         0.00000E+00
    0.47289E-09         0.39436E-09         0.00000E+00
    0.46425E-09         0.39540E-09         0.00000E+00
    0.45558E-09         0.39549E-09         0.00000E+00
    0.44690E-09         0.39445E-09         0.00000E+00
    0.43825E-09         0.39204E-09         0.00000E+00
    0.42965E-09         0.38801E-09         0.00000E+00
    0.42115E-09         0.38206E-09         0.00000E+00
    0.41279E-09         0.37381E-09         0.00000E+00
    0.40463E-09         0.36283E-09         0.00000E+00
    0.39674E-09         0.34863E-09         0.00000E+00
    0.38919E-09         0.33065E-09         0.00000E+00
    0.38208E-09         0.30823E-09         0.00000E+00
    0.37552E-09         0.28066E-09         0.00000E+00
    0.36963E-09         0.24715E-09         0.00000E+00
    0.36456E-09         0.20687E-09         0.00000E+00
    0.36047E-09         0.15897E-09         0.00000E+00
    0.35754E-09         0.10264E-09         0.00000E+00
    0.35597E-09         0.37213E-10         0.00000E+00
    0.70241E-09         0.22978E-10         0.00000E+00
    0.70153E-09         0.65416E-10         0.00000E+00
    0.69985E-09         0.10318E-09         0.00000E+00
    0.69747E-09         0.13663E-09         0.00000E+00
    0.69446E-09         0.16617E-09         0.00000E+00
    0.69090E-09         0.19224E-09         0.00000E+00
    0.68685E-09         0.21526E-09         0.00000E+00
    0.68238E-09         0.23565E-09         0.00000E+00
    0.67753E-09         0.25377E-09         0.00000E+00
    0.67233E-09         0.26996E-09         0.00000E+00
    0.66684E-09         0.28449E-09         0.00000E+00
    0.66107E-09         0.29764E-09         0.00000E+00
    0.65505E-09         0.30961E-09         0.00000E+00
    0.64879E-09         0.32058E-09         0.00000E+00
    0.64232E-09         0.33073E-09         0.00000E+00
    0.63566E-09         0.34016E-09         0.00000E+00
    0.62880E-09         0.34900E-09         0.00000E+00
    0.62176E-09         0.35732E-09         0.00000E+00
    0.61455E-09         0.36520E-09         0.00000E+00
    0.60717E-09         0.37269E-09         0.00000E+00
    0.59964E-09         0.37984E-09         0.00000E+00
    0.59195E-09         0.38667E-09         0.00000E+00
    0.58411E-09         0.39320E-09         0.00000E+00
    0.57612E-09         0.39944E-09         0.00000E+00
    0.56799E-09         0.40538E-09         0.00000E+00
    0.55973E-09         0.41103E-09         0.00000E+00
    0.55133E-09         0.41634E-09         0.00000E+00
    0.54281E-09         0.42130E-09         0.00000E+00
    0.53417E-09         0.42585E-09         0.00000E+00
    0.52542E-09         0.42993E-09         0.00000E+00
    0.51657E-09         0.43347E-09         0.00000E+00
    0.50763E-09         0.43638E-09         0.00000E+00
    0.49861E-09         0.43854E-09         0.00000E+00
    0.48953E-09         0.43981E-09         0.00000E+00
    0.48042E-09         0.44001E-09         0.00000E+00
    0.47129E-09         0.43895E-09         0.00000E+00
    0.46218E-09         0.43637E-09         0.00000E+00
    0.45311E-09         0.43199E-09         0.00000E+00
    0.44414E-09         0.42545E-09         0.00000E+00
    0.43531E-09         0.41635E-09         0.00000E+00
    0.42668E-09         0.40421E-09         0.00000E+00
    0.41833E-09         0.38847E-09         0.00000E+00
    0.41034E-09         0.36850E-09         0.00000E+00
    0.40281E-09         0.34358E-09         0.00000E+00
    0.39585E-09         0.31290E-09         0.00000E+00
    0.38961E-09         0.27559E-09         0.00000E+00
    0.38422E-09         0.23071E-09         0.00000E+00
    0.37988E-09         0.17731E-09         0.00000E+00
    0.37676E-09         0.11451E-09         0.00000E+00
    0.37510E-09         0.41520E-10         0.00000E+00
    0.73864E-09         0.25294E-10         0.00000E+00
    0.73774E-09         0.72002E-10         0.00000E+00
    0.73603E-09         0.11356E-09         0.00000E+00
    0.73359E-09         0.15036E-09         0.00000E+00
    0.73052E-09         0.18285E-09         0.00000E+00
    0.72689E-09         0.21152E-09         0.00000E+00
    0.72276E-09         0.23685E-09         0.00000E+00
    0.71819E-09         0.25928E-09         0.00000E+00
    0.71323E-09         0.27921E-09         0.00000E+00
    0.70792E-09         0.29702E-09         0.00000E+00
    0.70229E-09         0.31303E-09         0.00000E+00
    0.69638E-09         0.32751E-09         0.00000E+00
    0.69021E-09         0.34071E-09         0.00000E+00
    0.68380E-09         0.35282E-09         0.00000E+00
    0.67716E-09         0.36403E-09         0.00000E+00
    0.67030E-09         0.37447E-09         0.00000E+00
    0.66325E-09         0.38426E-09         0.00000E+00
    0.65600E-09         0.39349E-09         0.00000E+00
    0.64856E-09         0.40225E-09         0.00000E+00
    0.64095E-09         0.41059E-09         0.00000E+00
    0.63316E-09         0.41856E-09         0.00000E+00
    0.62520E-09         0.42619E-09         0.00000E+00
    0.61708E-09         0.43350E-09         0.00000E+00
    0.60879E-09         0.44050E-09         0.00000E+00
    0.60035E-09         0.44718E-09         0.00000E+00
    0.59176E-09         0.45353E-09         0.00000E+00
    0.58301E-09         0.45953E-09         0.00000E+00
    0.57413E-09         0.46514E-09         0.00000E+00
    0.56511E-09         0.47030E-09         0.00000E+00
    0.55596E-09         0.47496E-09         0.00000E+00
    0.54670E-09         0.47902E-09         0.00000E+00
    0.53733E-09         0.48239E-09         0.00000E+00
    0.52787E-09         0.48492E-09         0.00000E+00
    0.51834E-09         0.48647E-09         0.00000E+00
    0.50875E-09         0.48685E-09         0.00000E+00
    0.49914E-09         0.48582E-09         0.00000E+00
    0.48953E-09         0.48311E-09         0.00000E+00
    0.47996E-09         0.47840E-09         0.00000E+00
    0.47049E-09         0.47130E-09         0.00000E+00
    0.46115E-09         0.46134E-09         0.00000E+00
    0.45202E-09         0.44801E-09         0.00000E+00
    0.44317E-09         0.43067E-09         0.00000E+00
    0.43469E-09         0.40864E-09         0.00000E+00
    0.42670E-09         0.38109E-09         0.00000E+00
    0.41930E-09         0.34714E-09         0.00000E+00
    0.41266E-09         0.30580E-09         0.00000E+00
    0.40693E-09         0.25606E-09         0.00000E+00
    0.40230E-09         0.19683E-09         0.00000E+00
    0.39899E-09         0.12713E-09         0.00000E+00
    0.39721E-09         0.46107E-10         0.00000E+00
    0.77802E-09         0.27641E-10         0.00000E+00
    0.77712E-09         0.78678E-10         0.00000E+00
    0.77539E-09         0.12408E-09         0.00000E+00
    0.77294E-09         0.16428E-09         0.00000E+00
    0.76984E-09         0.19978E-09         0.00000E+00
    0.76617E-09         0.23111E-09         0.00000E+00
    0.76200E-09         0.25878E-09         0.00000E+00
    0.75738E-09         0.28329E-09         0.00000E+00
    0.75236E-09         0.30509E-09         0.00000E+00
    0.74698E-09         0.32458E-09         0.00000E+00
    0.74128E-09         0.34211E-09         0.00000E+00
    0.73528E-09         0.35799E-09         0.00000E+00
    0.72900E-09         0.37247E-09         0.00000E+00
    0.72247E-09         0.38578E-09         0.00000E+00
    0.71570E-09         0.39812E-09         0.00000E+00
    0.70871E-09         0.40963E-09         0.00000E+00
    0.70149E-09         0.42044E-09         0.00000E+00
    0.69407E-09         0.43066E-09         0.00000E+00
    0.68645E-09         0.44037E-09         0.00000E+00
    0.67863E-09         0.44964E-09         0.00000E+00
    0.67062E-09         0.45851E-09         0.00000E+00
    0.66242E-09         0.46702E-09         0.00000E+00
    0.65404E-09         0.47519E-09         0.00000E+00
    0.64548E-09         0.48303E-09         0.00000E+00
    0.63674E-09         0.49054E-09         0.00000E+00
    0.62783E-09         0.49769E-09         0.00000E+00
    0.61875E-09         0.50447E-09         0.00000E+00
    0.60951E-09         0.51082E-09         0.00000E+00
    0.60012E-09         0.51669E-09         0.00000E+00
    0.59058E-09         0.52201E-09         0.00000E+00
    0.58090E-09         0.52668E-09         0.00000E+00
    0.57109E-09         0.53059E-09         0.00000E+00
    0.56118E-09         0.53359E-09         0.00000E+00
    0.55118E-09         0.53550E-09         0.00000E+00
    0.54110E-09         0.53612E-09         0.00000E+00
    0.53099E-09         0.53519E-09         0.00000E+00
    0.52086E-09         0.53241E-09         0.00000E+00
    0.51077E-09         0.52741E-09         0.00000E+00
    0.50075E-09         0.51976E-09         0.00000E+00
    0.49087E-09         0.50896E-09         0.00000E+00
    0.48120E-09         0.49441E-09         0.00000E+00
    0.47182E-09         0.47543E-09         0.00000E+00
    0.46282E-09         0.45124E-09         0.00000E+00
    0.45433E-09         0.42095E-09         0.00000E+00
    0.44646E-09         0.38355E-09         0.00000E+00
    0.43939E-09         0.33797E-09         0.00000E+00
    0.43328E-09         0.28306E-09         0.00000E+00
    0.42835E-09         0.21764E-09         0.00000E+00
    0.42481E-09         0.14061E-09         0.00000E+00
    0.42291E-09         0.51006E-10         0.00000E+00
    0.82071E-09         0.29985E-10         0.00000E+00
    0.81981E-09         0.85349E-10         0.00000E+00
    0.81810E-09         0.13461E-09         0.00000E+00
    0.81566E-09         0.17822E-09         0.00000E+00
    0.81259E-09         0.21673E-09         0.00000E+00
    0.80894E-09         0.25073E-09         0.00000E+00
    0.80478E-09         0.28078E-09         0.00000E+00
    0.80018E-09         0.30742E-09         0.00000E+00
    0.79517E-09         0.33113E-09         0.00000E+00
    0.78979E-09         0.35234E-09         0.00000E+00
    0.78407E-09         0.37144E-09         0.00000E+00
    0.77805E-09         0.38877E-09         0.00000E+00
    0.77174E-09         0.40461E-09         0.00000E+00
    0.76516E-09         0.41919E-09         0.00000E+00
    0.75833E-09         0.43273E-09         0.00000E+00
    0.75125E-09         0.44538E-09         0.00000E+00
    0.74394E-09         0.45730E-09         0.00000E+00
    0.73640E-09         0.46859E-09         0.00000E+00
    0.72865E-09         0.47934E-09         0.00000E+00
    0.72067E-09         0.48963E-09         0.00000E+00
    0.71249E-09         0.49950E-09         0.00000E+00
    0.70409E-09         0.50899E-09         0.00000E+00
    0.69549E-09         0.51813E-09         0.00000E+00
    0.68669E-09         0.52692E-09         0.00000E+00
    0.67769E-09         0.53535E-09         0.00000E+00
    0.66849E-09         0.54342E-09         0.00000E+00
    0.65910E-09         0.55107E-09         0.00000E+00
    0.64953E-09         0.55828E-09         0.00000E+00
    0.63978E-09         0.56497E-09         0.00000E+00
    0.62985E-09         0.57106E-09         0.00000E+00
    0.61977E-09         0.57645E-09         0.00000E+00
    0.60954E-09         0.58100E-09         0.00000E+00
    0.59917E-09         0.58457E-09         0.00000E+00
    0.58869E-09         0.58694E-09         0.00000E+00
    0.57812E-09         0.58790E-09         0.00000E+00
    0.56749E-09         0.58715E-09         0.00000E+00
    0.55684E-09         0.58435E-09         0.00000E+00
    0.54620E-09         0.57912E-09         0.00000E+00
    0.53563E-09         0.57097E-09         0.00000E+00
    0.52519E-09         0.55934E-09         0.00000E+00
    0.51495E-09         0.54357E-09         0.00000E+00
    0.50501E-09         0.52291E-09         0.00000E+00
    0.49546E-09         0.49649E-09         0.00000E+00
    0.48643E-09         0.46332E-09         0.00000E+00
    0.47807E-09         0.42231E-09         0.00000E+00
    0.47054E-09         0.37224E-09         0.00000E+00
    0.46403E-09         0.31186E-09         0.00000E+00
    0.45877E-09         0.23985E-09         0.00000E+00
    0.45499E-09         0.15499E-09         0.00000E+00
    0.45296E-09         0.56242E-10         0.00000E+00
    0.86694E-09         0.32279E-10         0.00000E+00
    0.86607E-09         0.91886E-10         0.00000E+00
    0.86441E-09         0.14493E-09         0.00000E+00
    0.86204E-09         0.19191E-09         0.00000E+00
    0.85905E-09         0.23341E-09         0.00000E+00
    0.85549E-09         0.27008E-09         0.00000E+00
    0.85143E-09         0.30251E-09         0.00000E+00
    0.84692E-09         0.33128E-09         0.00000E+00
    0.84200E-09         0.35693E-09         0.00000E+00
    0.83671E-09         0.37991E-09         0.00000E+00
    0.83107E-09         0.40064E-09         0.00000E+00
    0.82511E-09         0.41948E-09         0.00000E+00
    0.81885E-09         0.43674E-09         0.00000E+00
    0.81231E-09         0.45267E-09         0.00000E+00
    0.80549E-09         0.46749E-09         0.00000E+00
    0.79841E-09         0.48139E-09         0.00000E+00
    0.79108E-09         0.49450E-09         0.00000E+00
    0.78350E-09         0.50697E-09         0.00000E+00
    0.77568E-09         0.51887E-09         0.00000E+00
    0.76762E-09         0.53028E-09         0.00000E+00
    0.75932E-09         0.54127E-09         0.00000E+00
    0.75078E-09         0.55186E-09         0.00000E+00
    0.74202E-09         0.56208E-09         0.00000E+00
    0.73303E-09         0.57194E-09         0.00000E+00
    0.72381E-09         0.58143E-09         0.00000E+00
    0.71437E-09         0.59053E-09         0.00000E+00
    0.70471E-09         0.59920E-09         0.00000E+00
    0.69484E-09         0.60739E-09         0.00000E+00
    0.68476E-09         0.61502E-09         0.00000E+00
    0.67448E-09         0.62202E-09         0.00000E+00
    0.66401E-09         0.62825E-09         0.00000E+00
    0.65337E-09         0.63358E-09         0.00000E+00
    0.64257E-09         0.63782E-09         0.00000E+00
    0.63163E-09         0.64077E-09         0.00000E+00
    0.62058E-09         0.64217E-09         0.00000E+00
    0.60944E-09         0.64170E-09         0.00000E+00
    0.59826E-09         0.63899E-09         0.00000E+00
    0.58708E-09         0.63360E-09         0.00000E+00
    0.57594E-09         0.62500E-09         0.00000E+00
    0.56493E-09         0.61257E-09         0.00000E+00
    0.55412E-09         0.59559E-09         0.00000E+00
    0.54360E-09         0.57322E-09         0.00000E+00
    0.53348E-09         0.54450E-09         0.00000E+00
    0.52391E-09         0.50834E-09         0.00000E+00
    0.51502E-09         0.46352E-09         0.00000E+00
    0.50701E-09         0.40873E-09         0.00000E+00
    0.50009E-09         0.34255E-09         0.00000E+00
    0.49447E-09         0.26355E-09         0.00000E+00
    0.49044E-09         0.17036E-09         0.00000E+00
    0.48828E-09         0.61838E-10         0.00000E+00
    0.91709E-09         0.34466E-10         0.00000E+00
    0.91627E-09         0.98128E-10         0.00000E+00
    0.91471E-09         0.15480E-09         0.00000E+00
    0.91248E-09         0.20503E-09         0.00000E+00
    0.90964E-09         0.24945E-09         0.00000E+00
    0.90626E-09         0.28873E-09         0.00000E+00
    0.90239E-09         0.32351E-09         0.00000E+00
    0.89807E-09         0.35442E-09         0.00000E+00
    0.89334E-09         0.38202E-09         0.00000E+00
    0.88824E-09         0.40681E-09         0.00000E+00
    0.88278E-09         0.42922E-09         0.00000E+00
    0.87699E-09         0.44964E-09         0.00000E+00
    0.87089E-09         0.46840E-09         0.00000E+00
    0.86448E-09         0.48576E-09         0.00000E+00
    0.85778E-09         0.50197E-09         0.00000E+00
    0.85080E-09         0.51721E-09         0.00000E+00
    0.84353E-09         0.53165E-09         0.00000E+00
    0.83600E-09         0.54540E-09         0.00000E+00
    0.82819E-09         0.55857E-09         0.00000E+00
    0.82012E-09         0.57125E-09         0.00000E+00
    0.81179E-09         0.58348E-09         0.00000E+00
    0.80319E-09         0.59531E-09         0.00000E+00
    0.79433E-09         0.60675E-09         0.00000E+00
    0.78521E-09         0.61782E-09         0.00000E+00
    0.77583E-09         0.62851E-09         0.00000E+00
    0.76621E-09         0.63879E-09         0.00000E+00
    0.75633E-09         0.64862E-09         0.00000E+00
    0.74621E-09         0.65794E-09         0.00000E+00
    0.73585E-09         0.66667E-09         0.00000E+00
    0.72526E-09         0.67471E-09         0.00000E+00
    0.71445E-09         0.68193E-09         0.00000E+00
    0.70344E-09         0.68817E-09         0.00000E+00
    0.69224E-09         0.69324E-09         0.00000E+00
    0.68087E-09         0.69690E-09         0.00000E+00
    0.66936E-09         0.69887E-09         0.00000E+00
    0.65773E-09         0.69880E-09         0.00000E+00
    0.64604E-09         0.69628E-09         0.00000E+00
    0.63433E-09         0.69082E-09         0.00000E+00
    0.62264E-09         0.68184E-09         0.00000E+00
    0.61107E-09         0.66866E-09         0.00000E+00
    0.59969E-09         0.65049E-09         0.00000E+00
    0.58859E-09         0.62639E-09         0.00000E+00
    0.57791E-09         0.59531E-09         0.00000E+00
    0.56779E-09         0.55605E-09         0.00000E+00
    0.55838E-09         0.50726E-09         0.00000E+00
    0.54989E-09         0.44749E-09         0.00000E+00
    0.54254E-09         0.37519E-09         0.00000E+00
    0.53657E-09         0.28877E-09         0.00000E+00
    0.53228E-09         0.18673E-09         0.00000E+00
    0.52998E-09         0.67809E-10         0.00000E+00
    0.97174E-09         0.36475E-10         0.00000E+00
    0.97101E-09         0.10388E-09         0.00000E+00
    0.96960E-09         0.16394E-09         0.00000E+00
    0.96756E-09         0.21723E-09         0.00000E+00
    0.96497E-09         0.26441E-09         0.00000E+00
    0.96187E-09         0.30619E-09         0.00000E+00
    0.95829E-09         0.34327E-09         0.00000E+00
    0.95428E-09         0.37630E-09         0.00000E+00
    0.94987E-09         0.40586E-09         0.00000E+00
    0.94507E-09         0.43248E-09         0.00000E+00
    0.93991E-09         0.45663E-09         0.00000E+00
    0.93441E-09         0.47871E-09         0.00000E+00
    0.92857E-09         0.49905E-09         0.00000E+00
    0.92241E-09         0.51796E-09         0.00000E+00
    0.91593E-09         0.53566E-09         0.00000E+00
    0.90914E-09         0.55238E-09         0.00000E+00
    0.90205E-09         0.56826E-09         0.00000E+00
    0.89466E-09         0.58344E-09         0.00000E+00
    0.88696E-09         0.59803E-09         0.00000E+00
    0.87897E-09         0.61211E-09         0.00000E+00
    0.87068E-09         0.62574E-09         0.00000E+00
    0.86210E-09         0.63896E-09         0.00000E+00
    0.85322E-09         0.65179E-09         0.00000E+00
    0.84405E-09         0.66423E-09         0.00000E+00
    0.83459E-09         0.67627E-09         0.00000E+00
    0.82484E-09         0.68789E-09         0.00000E+00
    0.81481E-09         0.69904E-09         0.00000E+00
    0.80450E-09         0.70965E-09         0.00000E+00
    0.79392E-09         0.71964E-09         0.00000E+00
    0.78308E-09         0.72889E-09         0.00000E+00
    0.77199E-09         0.73726E-09         0.00000E+00
    0.76065E-09         0.74457E-09         0.00000E+00
    0.74910E-09         0.75062E-09         0.00000E+00
    0.73735E-09         0.75514E-09         0.00000E+00
    0.72542E-09         0.75782E-09         0.00000E+00
    0.71336E-09         0.75828E-09         0.00000E+00
    0.70120E-09         0.75607E-09         0.00000E+00
    0.68899E-09         0.75064E-09         0.00000E+00
    0.67680E-09         0.74138E-09         0.00000E+00
    0.66470E-09         0.72751E-09         0.00000E+00
    0.65278E-09         0.70817E-09         0.00000E+00
    0.64114E-09         0.68234E-09         0.00000E+00
    0.62992E-09         0.64886E-09         0.00000E+00
    0.61926E-09         0.60640E-09         0.00000E+00
    0.60935E-09         0.55349E-09         0.00000E+00
    0.60040E-09         0.48851E-09         0.00000E+00
    0.59263E-09         0.40978E-09         0.00000E+00
    0.58632E-09         0.31553E-09         0.00000E+00
    0.58178E-09         0.20412E-09         0.00000E+00
    0.57934E-09         0.74155E-10         0.00000E+00
    0.10318E-08         0.38226E-10         0.00000E+00
    0.10311E-08         0.10893E-09         0.00000E+00
    0.10299E-08         0.17201E-09         0.00000E+00
    0.10282E-08         0.22806E-09         0.00000E+00
    0.10259E-08         0.27779E-09         0.00000E+00
    0.10232E-08         0.32194E-09         0.00000E+00
    0.10200E-08         0.36123E-09         0.00000E+00
    0.10165E-08         0.39632E-09         0.00000E+00
    0.10125E-08         0.42784E-09         0.00000E+00
    0.10081E-08         0.45633E-09         0.00000E+00
    0.10034E-08         0.48227E-09         0.00000E+00
    0.99826E-09         0.50609E-09         0.00000E+00
    0.99281E-09         0.52813E-09         0.00000E+00
    0.98700E-09         0.54870E-09         0.00000E+00
    0.98086E-09         0.56804E-09         0.00000E+00
    0.97437E-09         0.58637E-09         0.00000E+00
    0.96755E-09         0.60385E-09         0.00000E+00
    0.96039E-09         0.62062E-09         0.00000E+00
    0.95289E-09         0.63680E-09         0.00000E+00
    0.94507E-09         0.65245E-09         0.00000E+00
    0.93691E-09         0.66765E-09         0.00000E+00
    0.92842E-09         0.68243E-09         0.00000E+00
    0.91960E-09         0.69681E-09         0.00000E+00
    0.91045E-09         0.71079E-09         0.00000E+00
    0.90098E-09         0.72437E-09         0.00000E+00
    0.89118E-09         0.73750E-09         0.00000E+00
    0.88107E-09         0.75015E-09         0.00000E+00
    0.87065E-09         0.76222E-09         0.00000E+00
    0.85992E-09         0.77363E-09         0.00000E+00
    0.84889E-09         0.78425E-09         0.00000E+00
    0.83757E-09         0.79393E-09         0.00000E+00
    0.82599E-09         0.80248E-09         0.00000E+00
    0.81415E-09         0.80966E-09         0.00000E+00
    0.80208E-09         0.81520E-09         0.00000E+00
    0.78981E-09         0.81873E-09         0.00000E+00
    0.77738E-09         0.81986E-09         0.00000E+00
    0.76482E-09         0.81808E-09         0.00000E+00
    0.75219E-09         0.81281E-09         0.00000E+00
    0.73955E-09         0.80335E-09         0.00000E+00
    0.72698E-09         0.78888E-09         0.00000E+00
    0.71458E-09         0.76842E-09         0.00000E+00
    0.70246E-09         0.74088E-09         0.00000E+00
    0.69076E-09         0.70496E-09         0.00000E+00
    0.67963E-09         0.65922E-09         0.00000E+00
    0.66926E-09         0.60204E-09         0.00000E+00
    0.65988E-09         0.53166E-09         0.00000E+00
    0.65174E-09         0.44619E-09         0.00000E+00
    0.64512E-09         0.34374E-09         0.00000E+00
    0.64034E-09         0.22247E-09         0.00000E+00
    0.63778E-09         0.80860E-10         0.00000E+00
    0.10984E-08         0.39636E-10         0.00000E+00
    0.10979E-08         0.11303E-09         0.00000E+00
    0.10970E-08         0.17865E-09         0.00000E+00
    0.10956E-08         0.23711E-09         0.00000E+00
    0.10937E-08         0.28912E-09         0.00000E+00
    0.10915E-08         0.33544E-09         0.00000E+00
    0.10889E-08         0.37680E-09         0.00000E+00
    0.10858E-08         0.41390E-09         0.00000E+00
    0.10824E-08         0.44738E-09         0.00000E+00
    0.10785E-08         0.47778E-09         0.00000E+00
    0.10743E-08         0.50559E-09         0.00000E+00
    0.10697E-08         0.53125E-09         0.00000E+00
    0.10648E-08         0.55511E-09         0.00000E+00
    0.10594E-08         0.57749E-09         0.00000E+00
    0.10537E-08         0.59862E-09         0.00000E+00
    0.10476E-08         0.61873E-09         0.00000E+00
    0.10411E-08         0.63799E-09         0.00000E+00
    0.10343E-08         0.65653E-09         0.00000E+00
    0.10270E-08         0.67447E-09         0.00000E+00
    0.10194E-08         0.69188E-09         0.00000E+00
    0.10115E-08         0.70883E-09         0.00000E+00
    0.10031E-08         0.72535E-09         0.00000E+00
    0.99445E-09         0.74146E-09         0.00000E+00
    0.98538E-09         0.75717E-09         0.00000E+00
    0.97596E-09         0.77246E-09         0.00000E+00
    0.96618E-09         0.78728E-09         0.00000E+00
    0.95605E-09         0.80158E-09         0.00000E+00
    0.94558E-09         0.81529E-09         0.00000E+00
    0.93477E-09         0.82828E-09         0.00000E+00
    0.92362E-09         0.84044E-09         0.00000E+00
    0.91217E-09         0.85159E-09         0.00000E+00
    0.90041E-09         0.86153E-09         0.00000E+00
    0.88837E-09         0.87000E-09         0.00000E+00
    0.87607E-09         0.87668E-09         0.00000E+00
    0.86355E-09         0.88122E-09         0.00000E+00
    0.85083E-09         0.88314E-09         0.00000E+00
    0.83796E-09         0.88193E-09         0.00000E+00
    0.82501E-09         0.87692E-09         0.00000E+00
    0.81202E-09         0.86736E-09         0.00000E+00
    0.79909E-09         0.85235E-09         0.00000E+00
    0.78632E-09         0.83083E-09         0.00000E+00
    0.77381E-09         0.80159E-09         0.00000E+00
    0.76172E-09         0.76323E-09         0.00000E+00
    0.75021E-09         0.71416E-09         0.00000E+00
    0.73947E-09         0.65261E-09         0.00000E+00
    0.72974E-09         0.57664E-09         0.00000E+00
    0.72129E-09         0.48421E-09         0.00000E+00
    0.71441E-09         0.37321E-09         0.00000E+00
    0.70945E-09         0.24166E-09         0.00000E+00
    0.70677E-09         0.87880E-10         0.00000E+00
    0.11734E-08         0.40627E-10         0.00000E+00
    0.11731E-08         0.11600E-09         0.00000E+00
    0.11724E-08         0.18357E-09         0.00000E+00
    0.11715E-08         0.24398E-09         0.00000E+00
    0.11701E-08         0.29794E-09         0.00000E+00
    0.11685E-08         0.34620E-09         0.00000E+00
    0.11664E-08         0.38952E-09         0.00000E+00
    0.11640E-08         0.42858E-09         0.00000E+00
    0.11612E-08         0.46401E-09         0.00000E+00
    0.11579E-08         0.49637E-09         0.00000E+00
    0.11543E-08         0.52616E-09         0.00000E+00
    0.11503E-08         0.55379E-09         0.00000E+00
    0.11459E-08         0.57963E-09         0.00000E+00
    0.11410E-08         0.60398E-09         0.00000E+00
    0.11357E-08         0.62709E-09         0.00000E+00
    0.11301E-08         0.64917E-09         0.00000E+00
    0.11240E-08         0.67040E-09         0.00000E+00
    0.11175E-08         0.69091E-09         0.00000E+00
    0.11105E-08         0.71081E-09         0.00000E+00
    0.11032E-08         0.73017E-09         0.00000E+00
    0.10955E-08         0.74906E-09         0.00000E+00
    0.10873E-08         0.76751E-09         0.00000E+00
    0.10788E-08         0.78554E-09         0.00000E+00
    0.10698E-08         0.80314E-09         0.00000E+00
    0.10605E-08         0.82029E-09         0.00000E+00
    0.10508E-08         0.83696E-09         0.00000E+00
    0.10406E-08         0.85308E-09         0.00000E+00
    0.10302E-08         0.86856E-09         0.00000E+00
    0.10193E-08         0.88328E-09         0.00000E+00
    0.10081E-08         0.89711E-09         0.00000E+00
    0.99661E-09         0.90986E-09         0.00000E+00
    0.98476E-09         0.92131E-09         0.00000E+00
    0.97261E-09         0.93118E-09         0.00000E+00
    0.96018E-09         0.93913E-09         0.00000E+00
    0.94751E-09         0.94477E-09         0.00000E+00
    0.93462E-09         0.94760E-09         0.00000E+00
    0.92157E-09         0.94704E-09         0.00000E+00
    0.90842E-09         0.94238E-09         0.00000E+00
    0.89522E-09         0.93280E-09         0.00000E+00
    0.88207E-09         0.91731E-09         0.00000E+00
    0.86906E-09         0.89479E-09         0.00000E+00
    0.85632E-09         0.86388E-09         0.00000E+00
    0.84398E-09         0.82308E-09         0.00000E+00
    0.83223E-09         0.77065E-09         0.00000E+00
    0.82126E-09         0.70466E-09         0.00000E+00
    0.81131E-09         0.62299E-09         0.00000E+00
    0.80265E-09         0.52341E-09         0.00000E+00
    0.79561E-09         0.40363E-09         0.00000E+00
    0.79052E-09         0.26149E-09         0.00000E+00
    0.78778E-09         0.95138E-10         0.00000E+00
    0.12591E-08         0.41138E-10         0.00000E+00
    0.12590E-08         0.11765E-09         0.00000E+00
    0.12587E-08         0.18654E-09         0.00000E+00
    0.12582E-08         0.24841E-09         0.00000E+00
    0.12574E-08         0.30398E-09         0.00000E+00
    0.12563E-08         0.35397E-09         0.00000E+00
    0.12549E-08         0.39912E-09         0.00000E+00
    0.12531E-08         0.44010E-09         0.00000E+00
    0.12509E-08         0.47753E-09         0.00000E+00
    0.12483E-08         0.51195E-09         0.00000E+00
    0.12453E-08         0.54384E-09         0.00000E+00
    0.12418E-08         0.57361E-09         0.00000E+00
    0.12379E-08         0.60162E-09         0.00000E+00
    0.12335E-08         0.62815E-09         0.00000E+00
    0.12286E-08         0.65346E-09         0.00000E+00
    0.12233E-08         0.67773E-09         0.00000E+00
    0.12176E-08         0.70115E-09         0.00000E+00
    0.12113E-08         0.72384E-09         0.00000E+00
    0.12047E-08         0.74589E-09         0.00000E+00
    0.11975E-08         0.76740E-09         0.00000E+00
    0.11900E-08         0.78841E-09         0.00000E+00
    0.11819E-08         0.80896E-09         0.00000E+00
    0.11735E-08         0.82905E-09         0.00000E+00
    0.11646E-08         0.84869E-09         0.00000E+00
    0.11554E-08         0.86785E-09         0.00000E+00
    0.11457E-08         0.88648E-09         0.00000E+00
    0.11356E-08         0.90451E-09         0.00000E+00
    0.11251E-08         0.92186E-09         0.00000E+00
    0.11143E-08         0.93840E-09         0.00000E+00
    0.11031E-08         0.95397E-09         0.00000E+00
    0.10915E-08         0.96839E-09         0.00000E+00
    0.10796E-08         0.98141E-09         0.00000E+00
    0.10674E-08         0.99274E-09         0.00000E+00
    0.10550E-08         0.10020E-08         0.00000E+00
    0.10423E-08         0.10088E-08         0.00000E+00
    0.10294E-08         0.10126E-08         0.00000E+00
    0.10163E-08         0.10127E-08         0.00000E+00
    0.10031E-08         0.10084E-08         0.00000E+00
    0.98985E-09         0.99887E-09         0.00000E+00
    0.97666E-09         0.98295E-09         0.00000E+00
    0.96361E-09         0.95943E-09         0.00000E+00
    0.95083E-09         0.92689E-09         0.00000E+00
    0.93845E-09         0.88365E-09         0.00000E+00
    0.92665E-09         0.82785E-09         0.00000E+00
    0.91563E-09         0.75739E-09         0.00000E+00
    0.90564E-09         0.66998E-09         0.00000E+00
    0.89694E-09         0.56318E-09         0.00000E+00
    0.88986E-09         0.43452E-09         0.00000E+00
    0.88474E-09         0.28163E-09         0.00000E+00
    0.88198E-09         0.10252E-09         0.00000E+00
    0.13588E-08         0.41149E-10         0.00000E+00
    0.13588E-08         0.11797E-09         0.00000E+00
    0.13589E-08         0.18753E-09         0.00000E+00
    0.13588E-08         0.25040E-09         0.00000E+00
    0.13585E-08         0.30726E-09         0.00000E+00
    0.13580E-08         0.35881E-09         0.00000E+00
    0.13571E-08         0.40573E-09         0.00000E+00
    0.13558E-08         0.44867E-09         0.00000E+00
    0.13542E-08         0.48820E-09         0.00000E+00
    0.13521E-08         0.52484E-09         0.00000E+00
    0.13495E-08         0.55904E-09         0.00000E+00
    0.13464E-08         0.59118E-09         0.00000E+00
    0.13428E-08         0.62159E-09         0.00000E+00
    0.13388E-08         0.65055E-09         0.00000E+00
    0.13341E-08         0.67829E-09         0.00000E+00
    0.13290E-08         0.70500E-09         0.00000E+00
    0.13234E-08         0.73083E-09         0.00000E+00
    0.13173E-08         0.75591E-09         0.00000E+00
    0.13107E-08         0.78033E-09         0.00000E+00
    0.13035E-08         0.80415E-09         0.00000E+00
    0.12960E-08         0.82744E-09         0.00000E+00
    0.12879E-08         0.85021E-09         0.00000E+00
    0.12794E-08         0.87249E-09         0.00000E+00
    0.12705E-08         0.89425E-09         0.00000E+00
    0.12611E-08         0.91547E-09         0.00000E+00
    0.12514E-08         0.93611E-09         0.00000E+00
    0.12412E-08         0.95609E-09         0.00000E+00
    0.12307E-08         0.97532E-09         0.00000E+00
    0.12198E-08         0.99366E-09         0.00000E+00
    0.12085E-08         0.10110E-08         0.00000E+00
    0.11970E-08         0.10270E-08         0.00000E+00
    0.11851E-08         0.10416E-08         0.00000E+00
    0.11729E-08         0.10543E-08         0.00000E+00
    0.11605E-08         0.10648E-08         0.00000E+00
    0.11479E-08         0.10727E-08         0.00000E+00
    0.11351E-08         0.10774E-08         0.00000E+00
    0.11221E-08         0.10781E-08         0.00000E+00
    0.11091E-08         0.10742E-08         0.00000E+00
    0.10960E-08         0.10646E-08         0.00000E+00
    0.10830E-08         0.10482E-08         0.00000E+00
    0.10702E-08         0.10237E-08         0.00000E+00
    0.10576E-08         0.98945E-09         0.00000E+00
    0.10454E-08         0.94378E-09         0.00000E+00
    0.10339E-08         0.88463E-09         0.00000E+00
    0.10231E-08         0.80973E-09         0.00000E+00
    0.10133E-08         0.71661E-09         0.00000E+00
    0.10047E-08         0.60266E-09         0.00000E+00
    0.99779E-09         0.46517E-09         0.00000E+00
    0.99278E-09         0.30162E-09         0.00000E+00
    0.99007E-09         0.10984E-09         0.00000E+00
    0.14766E-08         0.40713E-10         0.00000E+00
    0.14768E-08         0.11710E-09         0.00000E+00
    0.14771E-08         0.18680E-09         0.00000E+00
    0.14773E-08         0.25035E-09         0.00000E+00
    0.14774E-08         0.30833E-09         0.00000E+00
    0.14772E-08         0.36140E-09         0.00000E+00
    0.14766E-08         0.41017E-09         0.00000E+00
    0.14757E-08         0.45521E-09         0.00000E+00
    0.14743E-08         0.49706E-09         0.00000E+00
    0.14723E-08         0.53618E-09         0.00000E+00
    0.14699E-08         0.57297E-09         0.00000E+00
    0.14668E-08         0.60777E-09         0.00000E+00
    0.14632E-08         0.64090E-09         0.00000E+00
    0.14590E-08         0.67259E-09         0.00000E+00
    0.14543E-08         0.70305E-09         0.00000E+00
    0.14490E-08         0.73245E-09         0.00000E+00
    0.14431E-08         0.76094E-09         0.00000E+00
    0.14367E-08         0.78860E-09         0.00000E+00
    0.14297E-08         0.81555E-09         0.00000E+00
    0.14222E-08         0.84183E-09         0.00000E+00
    0.14143E-08         0.86748E-09         0.00000E+00
    0.14058E-08         0.89255E-09         0.00000E+00
    0.13970E-08         0.91702E-09         0.00000E+00
    0.13876E-08         0.94090E-09         0.00000E+00
    0.13779E-08         0.96415E-09         0.00000E+00
    0.13678E-08         0.98672E-09         0.00000E+00
    0.13574E-08         0.10085E-08         0.00000E+00
    0.13466E-08         0.10295E-08         0.00000E+00
    0.13355E-08         0.10495E-08         0.00000E+00
    0.13241E-08         0.10683E-08         0.00000E+00
    0.13124E-08         0.10858E-08         0.00000E+00
    0.13005E-08         0.11017E-08         0.00000E+00
    0.12884E-08         0.11156E-08         0.00000E+00
    0.12760E-08         0.11272E-08         0.00000E+00
    0.12636E-08         0.11359E-08         0.00000E+00
    0.12510E-08         0.11412E-08         0.00000E+00
    0.12383E-08         0.11424E-08         0.00000E+00
    0.12256E-08         0.11386E-08         0.00000E+00
    0.12129E-08         0.11288E-08         0.00000E+00
    0.12004E-08         0.11118E-08         0.00000E+00
    0.11880E-08         0.10861E-08         0.00000E+00
    0.11760E-08         0.10501E-08         0.00000E+00
    0.11644E-08         0.10020E-08         0.00000E+00
    0.11533E-08         0.93950E-09         0.00000E+00
    0.11430E-08         0.86024E-09         0.00000E+00
    0.11337E-08         0.76157E-09         0.00000E+00
    0.11257E-08         0.64067E-09         0.00000E+00
    0.11191E-08         0.49467E-09         0.00000E+00
    0.11144E-08         0.32084E-09         0.00000E+00
    0.11118E-08         0.11688E-09         0.00000E+00
    0.16178E-08         0.39991E-10         0.00000E+00
    0.16180E-08         0.11553E-09         0.00000E+00
    0.16184E-08         0.18516E-09         0.00000E+00
    0.16187E-08         0.24932E-09         0.00000E+00
    0.16188E-08         0.30852E-09         0.00000E+00
    0.16185E-08         0.36331E-09         0.00000E+00
    0.16179E-08         0.41422E-09         0.00000E+00
    0.16167E-08         0.46173E-09         0.00000E+00
    0.16150E-08         0.50629E-09         0.00000E+00
    0.16127E-08         0.54830E-09         0.00000E+00
    0.16097E-08         0.58810E-09         0.00000E+00
    0.16060E-08         0.62599E-09         0.00000E+00
    0.16017E-08         0.66221E-09         0.00000E+00
    0.15968E-08         0.69699E-09         0.00000E+00
    0.15912E-08         0.73048E-09         0.00000E+00
    0.15849E-08         0.76285E-09         0.00000E+00
    0.15781E-08         0.79420E-09         0.00000E+00
    0.15706E-08         0.82463E-09         0.00000E+00
    0.15627E-08         0.85421E-09         0.00000E+00
    0.15542E-08         0.88300E-09         0.00000E+00
    0.15452E-08         0.91103E-09         0.00000E+00
    0.15358E-08         0.93833E-09         0.00000E+00
    0.15259E-08         0.96490E-09         0.00000E+00
    0.15157E-08         0.99073E-09         0.00000E+00
    0.15051E-08         0.10158E-08         0.00000E+00
    0.14942E-08         0.10400E-08         0.00000E+00
    0.14830E-08         0.10634E-08         0.00000E+00
    0.14716E-08         0.10858E-08         0.00000E+00
    0.14599E-08         0.11070E-08         0.00000E+00
    0.14481E-08         0.11270E-08         0.00000E+00
    0.14361E-08         0.11455E-08         0.00000E+00
    0.14240E-08         0.11622E-08         0.00000E+00
    0.14118E-08         0.11768E-08         0.00000E+00
    0.13995E-08         0.11890E-08         0.00000E+00
    0.13872E-08         0.11981E-08         0.00000E+00
    0.13748E-08         0.12036E-08         0.00000E+00
    0.13626E-08         0.12048E-08         0.00000E+00
    0.13504E-08         0.12007E-08         0.00000E+00
    0.13384E-08         0.11902E-08         0.00000E+00
    0.13265E-08         0.11722E-08         0.00000E+00
    0.13150E-08         0.11451E-08         0.00000E+00
    0.13038E-08         0.11072E-08         0.00000E+00
    0.12931E-08         0.10565E-08         0.00000E+00
    0.12830E-08         0.99066E-09         0.00000E+00
    0.12737E-08         0.90715E-09         0.00000E+00
    0.12653E-08         0.80317E-09         0.00000E+00
    0.12580E-08         0.67574E-09         0.00000E+00
    0.12521E-08         0.52181E-09         0.00000E+00
    0.12479E-08         0.33848E-09         0.00000E+00
    0.12456E-08         0.12332E-09         0.00000E+00
    0.17889E-08         0.39308E-10         0.00000E+00
    0.17891E-08         0.11419E-09         0.00000E+00
    0.17892E-08         0.18409E-09         0.00000E+00
    0.17891E-08         0.24933E-09         0.00000E+00
    0.17886E-08         0.31031E-09         0.00000E+00
    0.17877E-08         0.36744E-09         0.00000E+00
    0.17861E-08         0.42114E-09         0.00000E+00
    0.17839E-08         0.47179E-09         0.00000E+00
    0.17809E-08         0.51973E-09         0.00000E+00
    0.17772E-08         0.56527E-09         0.00000E+00
    0.17727E-08         0.60868E-09         0.00000E+00
    0.17673E-08         0.65020E-09         0.00000E+00
    0.17612E-08         0.69001E-09         0.00000E+00
    0.17544E-08         0.72828E-09         0.00000E+00
    0.17468E-08         0.76516E-09         0.00000E+00
    0.17385E-08         0.80075E-09         0.00000E+00
    0.17296E-08         0.83516E-09         0.00000E+00
    0.17201E-08         0.86845E-09         0.00000E+00
    0.17100E-08         0.90069E-09         0.00000E+00
    0.16994E-08         0.93192E-09         0.00000E+00
    0.16884E-08         0.96218E-09         0.00000E+00
    0.16769E-08         0.99149E-09         0.00000E+00
    0.16652E-08         0.10198E-08         0.00000E+00
    0.16531E-08         0.10472E-08         0.00000E+00
    0.16408E-08         0.10737E-08         0.00000E+00
    0.16283E-08         0.10991E-08         0.00000E+00
    0.16157E-08         0.11234E-08         0.00000E+00
    0.16030E-08         0.11465E-08         0.00000E+00
    0.15902E-08         0.11684E-08         0.00000E+00
    0.15774E-08         0.11887E-08         0.00000E+00
    0.15647E-08         0.12075E-08         0.00000E+00
    0.15520E-08         0.12242E-08         0.00000E+00
    0.15394E-08         0.12388E-08         0.00000E+00
    0.15270E-08         0.12506E-08         0.00000E+00
    0.15147E-08         0.12593E-08         0.00000E+00
    0.15027E-08         0.12642E-08         0.00000E+00
    0.14909E-08         0.12645E-08         0.00000E+00
    0.14793E-08         0.12594E-08         0.00000E+00
    0.14681E-08         0.12477E-08         0.00000E+00
    0.14573E-08         0.12281E-08         0.00000E+00
    0.14469E-08         0.11991E-08         0.00000E+00
    0.14369E-08         0.11588E-08         0.00000E+00
    0.14276E-08         0.11053E-08         0.00000E+00
    0.14189E-08         0.10360E-08         0.00000E+00
    0.14109E-08         0.94836E-09         0.00000E+00
    0.14038E-08         0.83943E-09         0.00000E+00
    0.13978E-08         0.70608E-09         0.00000E+00
    0.13929E-08         0.54513E-09         0.00000E+00
    0.13895E-08         0.35355E-09         0.00000E+00
    0.13876E-08         0.12879E-09         0.00000E+00
    0.19978E-08         0.39225E-10         0.00000E+00
    0.19976E-08         0.11470E-09         0.00000E+00
    0.19970E-08         0.18614E-09         0.00000E+00
    0.19958E-08         0.25375E-09         0.00000E+00
    0.19939E-08         0.31778E-09         0.00000E+00
    0.19911E-08         0.37850E-09         0.00000E+00
    0.19874E-08         0.43619E-09         0.00000E+00
    0.19828E-08         0.49110E-09         0.00000E+00
    0.19772E-08         0.54346E-09         0.00000E+00
    0.19705E-08         0.59349E-09         0.00000E+00
    0.19629E-08         0.64135E-09         0.00000E+00
    0.19542E-08         0.68723E-09         0.00000E+00
    0.19447E-08         0.73124E-09         0.00000E+00
    0.19343E-08         0.77350E-09         0.00000E+00
    0.19230E-08         0.81413E-09         0.00000E+00
    0.19110E-08         0.85319E-09         0.00000E+00
    0.18983E-08         0.89076E-09         0.00000E+00
    0.18850E-08         0.92691E-09         0.00000E+00
    0.18712E-08         0.96168E-09         0.00000E+00
    0.18570E-08         0.99511E-09         0.00000E+00
    0.18424E-08         0.10272E-08         0.00000E+00
    0.18275E-08         0.10581E-08         0.00000E+00
    0.18124E-08         0.10876E-08         0.00000E+00
    0.17971E-08         0.11159E-08         0.00000E+00
    0.17818E-08         0.11429E-08         0.00000E+00
    0.17666E-08         0.11686E-08         0.00000E+00
    0.17514E-08         0.11929E-08         0.00000E+00
    0.17363E-08         0.12158E-08         0.00000E+00
    0.17215E-08         0.12371E-08         0.00000E+00
    0.17069E-08         0.12567E-08         0.00000E+00
    0.16927E-08         0.12744E-08         0.00000E+00
    0.16788E-08         0.12900E-08         0.00000E+00
    0.16654E-08         0.13032E-08         0.00000E+00
    0.16524E-08         0.13135E-08         0.00000E+00
    0.16398E-08         0.13204E-08         0.00000E+00
    0.16278E-08         0.13234E-08         0.00000E+00
    0.16164E-08         0.13217E-08         0.00000E+00
    0.16055E-08         0.13143E-08         0.00000E+00
    0.15952E-08         0.13002E-08         0.00000E+00
    0.15856E-08         0.12780E-08         0.00000E+00
    0.15766E-08         0.12462E-08         0.00000E+00
    0.15683E-08         0.12029E-08         0.00000E+00
    0.15606E-08         0.11461E-08         0.00000E+00
    0.15538E-08         0.10732E-08         0.00000E+00
    0.15477E-08         0.98149E-09         0.00000E+00
    0.15424E-08         0.86805E-09         0.00000E+00
    0.15380E-08         0.72962E-09         0.00000E+00
    0.15346E-08         0.56294E-09         0.00000E+00
    0.15322E-08         0.36488E-09         0.00000E+00
    0.15310E-08         0.13283E-09         0.00000E+00
    0.22536E-08         0.40614E-10         0.00000E+00
    0.22526E-08         0.11952E-09         0.00000E+00
    0.22505E-08         0.19520E-09         0.00000E+00
    0.22471E-08         0.26771E-09         0.00000E+00
    0.22423E-08         0.33716E-09         0.00000E+00
    0.22362E-08         0.40364E-09         0.00000E+00
    0.22286E-08         0.46729E-09         0.00000E+00
    0.22196E-08         0.52824E-09         0.00000E+00
    0.22092E-08         0.58659E-09         0.00000E+00
    0.21974E-08         0.64246E-09         0.00000E+00
    0.21843E-08         0.69594E-09         0.00000E+00
    0.21701E-08         0.74713E-09         0.00000E+00
    0.21547E-08         0.79609E-09         0.00000E+00
    0.21382E-08         0.84292E-09         0.00000E+00
    0.21209E-08         0.88766E-09         0.00000E+00
    0.21028E-08         0.93038E-09         0.00000E+00
    0.20839E-08         0.97113E-09         0.00000E+00
    0.20645E-08         0.10100E-08         0.00000E+00
    0.20447E-08         0.10469E-08         0.00000E+00
    0.20245E-08         0.10820E-08         0.00000E+00
    0.20041E-08         0.11154E-08         0.00000E+00
    0.19836E-08         0.11469E-08         0.00000E+00
    0.19631E-08         0.11767E-08         0.00000E+00
    0.19428E-08         0.12048E-08         0.00000E+00
    0.19226E-08         0.12312E-08         0.00000E+00
    0.19028E-08         0.12558E-08         0.00000E+00
    0.18834E-08         0.12786E-08         0.00000E+00
    0.18646E-08         0.12997E-08         0.00000E+00
    0.18463E-08         0.13188E-08         0.00000E+00
    0.18287E-08         0.13359E-08         0.00000E+00
    0.18118E-08         0.13509E-08         0.00000E+00
    0.17957E-08         0.13634E-08         0.00000E+00
    0.17805E-08         0.13733E-08         0.00000E+00
    0.17661E-08         0.13801E-08         0.00000E+00
    0.17528E-08         0.13834E-08         0.00000E+00
    0.17403E-08         0.13825E-08         0.00000E+00
    0.17289E-08         0.13769E-08         0.00000E+00
    0.17185E-08         0.13655E-08         0.00000E+00
    0.17091E-08         0.13474E-08         0.00000E+00
    0.17007E-08         0.13211E-08         0.00000E+00
    0.16933E-08         0.12852E-08         0.00000E+00
    0.16868E-08         0.12378E-08         0.00000E+00
    0.16813E-08         0.11768E-08         0.00000E+00
    0.16767E-08         0.10998E-08         0.00000E+00
    0.16730E-08         0.10041E-08         0.00000E+00
    0.16700E-08         0.88658E-09         0.00000E+00
    0.16678E-08         0.74409E-09         0.00000E+00
    0.16662E-08         0.57333E-09         0.00000E+00
    0.16653E-08         0.37115E-09         0.00000E+00
    0.16648E-08         0.13494E-09         0.00000E+00
    0.25663E-08         0.44761E-10         0.00000E+00
    0.25639E-08         0.13230E-09         0.00000E+00
    0.25591E-08         0.21698E-09         0.00000E+00
    0.25520E-08         0.29872E-09         0.00000E+00
    0.25425E-08         0.37745E-09         0.00000E+00
    0.25307E-08         0.45314E-09         0.00000E+00
    0.25166E-08         0.52580E-09         0.00000E+00
    0.25005E-08         0.59542E-09         0.00000E+00
    0.24824E-08         0.66203E-09         0.00000E+00
    0.24624E-08         0.72565E-09         0.00000E+00
    0.24408E-08         0.78631E-09         0.00000E+00
    0.24176E-08         0.84405E-09         0.00000E+00
    0.23930E-08         0.89890E-09         0.00000E+00
    0.23673E-08         0.95091E-09         0.00000E+00
    0.23405E-08         0.10001E-08         0.00000E+00
    0.23130E-08         0.10466E-08         0.00000E+00
    0.22847E-08         0.10903E-08         0.00000E+00
    0.22559E-08         0.11315E-08         0.00000E+00
    0.22269E-08         0.11700E-08         0.00000E+00
    0.21977E-08         0.12059E-08         0.00000E+00
    0.21685E-08         0.12394E-08         0.00000E+00
    0.21395E-08         0.12704E-08         0.00000E+00
    0.21108E-08         0.12990E-08         0.00000E+00
    0.20826E-08         0.13253E-08         0.00000E+00
    0.20550E-08         0.13492E-08         0.00000E+00
    0.20283E-08         0.13708E-08         0.00000E+00
    0.20023E-08         0.13901E-08         0.00000E+00
    0.19774E-08         0.14071E-08         0.00000E+00
    0.19537E-08         0.14217E-08         0.00000E+00
    0.19311E-08         0.14339E-08         0.00000E+00
    0.19099E-08         0.14435E-08         0.00000E+00
    0.18901E-08         0.14504E-08         0.00000E+00
    0.18717E-08         0.14543E-08         0.00000E+00
    0.18548E-08         0.14549E-08         0.00000E+00
    0.18395E-08         0.14519E-08         0.00000E+00
    0.18259E-08         0.14446E-08         0.00000E+00
    0.18138E-08         0.14324E-08         0.00000E+00
    0.18033E-08         0.14145E-08         0.00000E+00
    0.17944E-08         0.13899E-08         0.00000E+00
    0.17871E-08         0.13573E-08         0.00000E+00
    0.17812E-08         0.13153E-08         0.00000E+00
    0.17768E-08         0.12622E-08         0.00000E+00
    0.17736E-08         0.11958E-08         0.00000E+00
    0.17716E-08         0.11139E-08         0.00000E+00
    0.17706E-08         0.10138E-08         0.00000E+00
    0.17704E-08         0.89266E-09         0.00000E+00
    0.17707E-08         0.74724E-09         0.00000E+00
    0.17715E-08         0.57438E-09         0.00000E+00
    0.17722E-08         0.37100E-09         0.00000E+00
    0.17728E-08         0.13456E-09         0.00000E+00
    0.29463E-08         0.53477E-10         0.00000E+00
    0.29418E-08         0.15815E-09         0.00000E+00
    0.29329E-08         0.25945E-09         0.00000E+00
    0.29198E-08         0.35717E-09         0.00000E+00
    0.29029E-08         0.45114E-09         0.00000E+00
    0.28824E-08         0.54122E-09         0.00000E+00
    0.28585E-08         0.62734E-09         0.00000E+00
    0.28315E-08         0.70943E-09         0.00000E+00
    0.28017E-08         0.78747E-09         0.00000E+00
    0.27694E-08         0.86143E-09         0.00000E+00
    0.27349E-08         0.93133E-09         0.00000E+00
    0.26985E-08         0.99719E-09         0.00000E+00
    0.26604E-08         0.10590E-08         0.00000E+00
    0.26209E-08         0.11169E-08         0.00000E+00
    0.25803E-08         0.11709E-08         0.00000E+00
    0.25388E-08         0.12211E-08         0.00000E+00
    0.24968E-08         0.12674E-08         0.00000E+00
    0.24544E-08         0.13101E-08         0.00000E+00
    0.24119E-08         0.13491E-08         0.00000E+00
    0.23695E-08         0.13846E-08         0.00000E+00
    0.23275E-08         0.14166E-08         0.00000E+00
    0.22861E-08         0.14453E-08         0.00000E+00
    0.22454E-08         0.14706E-08         0.00000E+00
    0.22058E-08         0.14928E-08         0.00000E+00
    0.21673E-08         0.15118E-08         0.00000E+00
    0.21302E-08         0.15277E-08         0.00000E+00
    0.20946E-08         0.15406E-08         0.00000E+00
    0.20607E-08         0.15505E-08         0.00000E+00
    0.20287E-08         0.15574E-08         0.00000E+00
    0.19986E-08         0.15614E-08         0.00000E+00
    0.19705E-08         0.15622E-08         0.00000E+00
    0.19447E-08         0.15599E-08         0.00000E+00
    0.19212E-08         0.15543E-08         0.00000E+00
    0.19000E-08         0.15451E-08         0.00000E+00
    0.18812E-08         0.15321E-08         0.00000E+00
    0.18648E-08         0.15146E-08         0.00000E+00
    0.18509E-08         0.14924E-08         0.00000E+00
    0.18393E-08         0.14645E-08         0.00000E+00
    0.18302E-08         0.14301E-08         0.00000E+00
    0.18233E-08         0.13881E-08         0.00000E+00
    0.18186E-08         0.13373E-08         0.00000E+00
    0.18159E-08         0.12759E-08         0.00000E+00
    0.18150E-08         0.12023E-08         0.00000E+00
    0.18157E-08         0.11141E-08         0.00000E+00
    0.18176E-08         0.10091E-08         0.00000E+00
    0.18205E-08         0.88437E-09         0.00000E+00
    0.18238E-08         0.73712E-09         0.00000E+00
    0.18271E-08         0.56433E-09         0.00000E+00
    0.18299E-08         0.36315E-09         0.00000E+00
    0.18316E-08         0.13119E-09         0.00000E+00
    0.34038E-08         0.69209E-10         0.00000E+00
    0.33960E-08         0.20394E-09         0.00000E+00
    0.33810E-08         0.33331E-09         0.00000E+00
    0.33593E-08         0.45704E-09         0.00000E+00
    0.33315E-08         0.57491E-09         0.00000E+00
    0.32981E-08         0.68682E-09         0.00000E+00
    0.32598E-08         0.79269E-09         0.00000E+00
    0.32171E-08         0.89249E-09         0.00000E+00
    0.31706E-08         0.98624E-09         0.00000E+00
    0.31206E-08         0.10740E-08         0.00000E+00
    0.30677E-08         0.11558E-08         0.00000E+00
    0.30123E-08         0.12317E-08         0.00000E+00
    0.29550E-08         0.13019E-08         0.00000E+00
    0.28960E-08         0.13664E-08         0.00000E+00
    0.28358E-08         0.14254E-08         0.00000E+00
    0.27748E-08         0.14789E-08         0.00000E+00
    0.27134E-08         0.15271E-08         0.00000E+00
    0.26518E-08         0.15702E-08         0.00000E+00
    0.25904E-08         0.16083E-08         0.00000E+00
    0.25296E-08         0.16414E-08         0.00000E+00
    0.24696E-08         0.16698E-08         0.00000E+00
    0.24108E-08         0.16936E-08         0.00000E+00
    0.23533E-08         0.17129E-08         0.00000E+00
    0.22975E-08         0.17279E-08         0.00000E+00
    0.22435E-08         0.17387E-08         0.00000E+00
    0.21917E-08         0.17454E-08         0.00000E+00
    0.21423E-08         0.17481E-08         0.00000E+00
    0.20954E-08         0.17469E-08         0.00000E+00
    0.20513E-08         0.17420E-08         0.00000E+00
    0.20101E-08         0.17334E-08         0.00000E+00
    0.19719E-08         0.17210E-08         0.00000E+00
    0.19370E-08         0.17050E-08         0.00000E+00
    0.19054E-08         0.16851E-08         0.00000E+00
    0.18772E-08         0.16614E-08         0.00000E+00
    0.18524E-08         0.16335E-08         0.00000E+00
    0.18312E-08         0.16012E-08         0.00000E+00
    0.18135E-08         0.15640E-08         0.00000E+00
    0.17993E-08         0.15215E-08         0.00000E+00
    0.17884E-08         0.14730E-08         0.00000E+00
    0.17808E-08         0.14175E-08         0.00000E+00
    0.17763E-08         0.13539E-08         0.00000E+00
    0.17747E-08         0.12810E-08         0.00000E+00
    0.17756E-08         0.11972E-08         0.00000E+00
    0.17786E-08         0.11007E-08         0.00000E+00
    0.17833E-08         0.98933E-09         0.00000E+00
    0.17892E-08         0.86078E-09         0.00000E+00
    0.17955E-08         0.71253E-09         0.00000E+00
    0.18016E-08         0.54198E-09         0.00000E+00
    0.18065E-08         0.34663E-09         0.00000E+00
    0.18095E-08         0.12439E-09         0.00000E+00
    0.39469E-08         0.95153E-10         0.00000E+00
    0.39345E-08         0.27866E-09         0.00000E+00
    0.39108E-08         0.45249E-09         0.00000E+00
    0.38768E-08         0.61640E-09         0.00000E+00
    0.38337E-08         0.77033E-09         0.00000E+00
    0.37824E-08         0.91432E-09         0.00000E+00
    0.37240E-08         0.10485E-08         0.00000E+00
    0.36594E-08         0.11731E-08         0.00000E+00
    0.35895E-08         0.12882E-08         0.00000E+00
    0.35151E-08         0.13942E-08         0.00000E+00
    0.34369E-08         0.14912E-08         0.00000E+00
    0.33556E-08         0.15796E-08         0.00000E+00
    0.32718E-08         0.16596E-08         0.00000E+00
    0.31862E-08         0.17314E-08         0.00000E+00
    0.30994E-08         0.17954E-08         0.00000E+00
    0.30118E-08         0.18518E-08         0.00000E+00
    0.29239E-08         0.19008E-08         0.00000E+00
    0.28363E-08         0.19426E-08         0.00000E+00
    0.27493E-08         0.19776E-08         0.00000E+00
    0.26634E-08         0.20058E-08         0.00000E+00
    0.25790E-08         0.20277E-08         0.00000E+00
    0.24963E-08         0.20433E-08         0.00000E+00
    0.24159E-08         0.20529E-08         0.00000E+00
    0.23379E-08         0.20568E-08         0.00000E+00
    0.22628E-08         0.20551E-08         0.00000E+00
    0.21907E-08         0.20480E-08         0.00000E+00
    0.21221E-08         0.20358E-08         0.00000E+00
    0.20571E-08         0.20186E-08         0.00000E+00
    0.19960E-08         0.19966E-08         0.00000E+00
    0.19390E-08         0.19700E-08         0.00000E+00
    0.18862E-08         0.19388E-08         0.00000E+00
    0.18380E-08         0.19032E-08         0.00000E+00
    0.17944E-08         0.18632E-08         0.00000E+00
    0.17554E-08         0.18188E-08         0.00000E+00
    0.17214E-08         0.17701E-08         0.00000E+00
    0.16921E-08         0.17168E-08         0.00000E+00
    0.16677E-08         0.16589E-08         0.00000E+00
    0.16482E-08         0.15958E-08         0.00000E+00
    0.16333E-08         0.15273E-08         0.00000E+00
    0.16229E-08         0.14528E-08         0.00000E+00
    0.16169E-08         0.13714E-08         0.00000E+00
    0.16147E-08         0.12824E-08         0.00000E+00
    0.16162E-08         0.11844E-08         0.00000E+00
    0.16206E-08         0.10763E-08         0.00000E+00
    0.16273E-08         0.95634E-09         0.00000E+00
    0.16357E-08         0.82282E-09         0.00000E+00
    0.16447E-08         0.67378E-09         0.00000E+00
    0.16533E-08         0.50721E-09         0.00000E+00
    0.16604E-08         0.32115E-09         0.00000E+00
    0.16646E-08         0.11399E-09         0.00000E+00
    0.45800E-08         0.13535E-09         0.00000E+00
    0.45614E-08         0.39360E-09         0.00000E+00
    0.45257E-08         0.63445E-09         0.00000E+00
    0.44750E-08         0.85793E-09         0.00000E+00
    0.44111E-08         0.10643E-08         0.00000E+00
    0.43356E-08         0.12541E-08         0.00000E+00
    0.42501E-08         0.14279E-08         0.00000E+00
    0.41561E-08         0.15864E-08         0.00000E+00
    0.40549E-08         0.17302E-08         0.00000E+00
    0.39478E-08         0.18600E-08         0.00000E+00
    0.38358E-08         0.19764E-08         0.00000E+00
    0.37200E-08         0.20800E-08         0.00000E+00
    0.36013E-08         0.21716E-08         0.00000E+00
    0.34805E-08         0.22515E-08         0.00000E+00
    0.33583E-08         0.23203E-08         0.00000E+00
    0.32356E-08         0.23785E-08         0.00000E+00
    0.31130E-08         0.24266E-08         0.00000E+00
    0.29910E-08         0.24649E-08         0.00000E+00
    0.28702E-08         0.24940E-08         0.00000E+00
    0.27512E-08         0.25140E-08         0.00000E+00
    0.26344E-08         0.25256E-08         0.00000E+00
    0.25204E-08         0.25289E-08         0.00000E+00
    0.24095E-08         0.25243E-08         0.00000E+00
    0.23021E-08         0.25121E-08         0.00000E+00
    0.21987E-08         0.24927E-08         0.00000E+00
    0.20995E-08         0.24663E-08         0.00000E+00
    0.20050E-08         0.24333E-08         0.00000E+00
    0.19154E-08         0.23939E-08         0.00000E+00
    0.18311E-08         0.23485E-08         0.00000E+00
    0.17523E-08         0.22972E-08         0.00000E+00
    0.16793E-08         0.22404E-08         0.00000E+00
    0.16122E-08         0.21782E-08         0.00000E+00
    0.15513E-08         0.21109E-08         0.00000E+00
    0.14966E-08         0.20387E-08         0.00000E+00
    0.14484E-08         0.19617E-08         0.00000E+00
    0.14067E-08         0.18800E-08         0.00000E+00
    0.13715E-08         0.17937E-08         0.00000E+00
    0.13427E-08         0.17028E-08         0.00000E+00
    0.13202E-08         0.16071E-08         0.00000E+00
    0.13039E-08         0.15066E-08         0.00000E+00
    0.12933E-08         0.14008E-08         0.00000E+00
    0.12881E-08         0.12894E-08         0.00000E+00
    0.12878E-08         0.11719E-08         0.00000E+00
    0.12917E-08         0.10475E-08         0.00000E+00
    0.12989E-08         0.91531E-09         0.00000E+00
    0.13084E-08         0.77440E-09         0.00000E+00
    0.13191E-08         0.62361E-09         0.00000E+00
    0.13296E-08         0.46173E-09         0.00000E+00
    0.13383E-08         0.28758E-09         0.00000E+00
    0.13436E-08         0.10020E-09         0.00000E+00
    0.53009E-08         0.19472E-09         0.00000E+00
    0.52739E-08         0.56252E-09         0.00000E+00
    0.52226E-08         0.90043E-09         0.00000E+00
    0.51499E-08         0.12090E-08         0.00000E+00
    0.50586E-08         0.14894E-08         0.00000E+00
    0.49514E-08         0.17428E-08         0.00000E+00
    0.48305E-08         0.19708E-08         0.00000E+00
    0.46983E-08         0.21747E-08         0.00000E+00
    0.45565E-08         0.23563E-08         0.00000E+00
    0.44071E-08         0.25167E-08         0.00000E+00
    0.42515E-08         0.26574E-08         0.00000E+00
    0.40912E-08         0.27796E-08         0.00000E+00
    0.39275E-08         0.28845E-08         0.00000E+00
    0.37614E-08         0.29730E-08         0.00000E+00
    0.35940E-08         0.30462E-08         0.00000E+00
    0.34263E-08         0.31049E-08         0.00000E+00
    0.32590E-08         0.31498E-08         0.00000E+00
    0.30930E-08         0.31817E-08         0.00000E+00
    0.29290E-08         0.32012E-08         0.00000E+00
    0.27676E-08         0.32090E-08         0.00000E+00
    0.26093E-08         0.32055E-08         0.00000E+00
    0.24549E-08         0.31914E-08         0.00000E+00
    0.23047E-08         0.31671E-08         0.00000E+00
    0.21593E-08         0.31330E-08         0.00000E+00
    0.20192E-08         0.30897E-08         0.00000E+00
    0.18847E-08         0.30375E-08         0.00000E+00
    0.17563E-08         0.29768E-08         0.00000E+00
    0.16343E-08         0.29081E-08         0.00000E+00
    0.15192E-08         0.28318E-08         0.00000E+00
    0.14111E-08         0.27482E-08         0.00000E+00
    0.13105E-08         0.26577E-08         0.00000E+00
    0.12176E-08         0.25609E-08         0.00000E+00
    0.11326E-08         0.24579E-08         0.00000E+00
    0.10557E-08         0.23492E-08         0.00000E+00
    0.98707E-09         0.22352E-08         0.00000E+00
    0.92682E-09         0.21163E-08         0.00000E+00
    0.87496E-09         0.19928E-08         0.00000E+00
    0.83145E-09         0.18651E-08         0.00000E+00
    0.79618E-09         0.17335E-08         0.00000E+00
    0.76891E-09         0.15983E-08         0.00000E+00
    0.74932E-09         0.14599E-08         0.00000E+00
    0.73692E-09         0.13183E-08         0.00000E+00
    0.73109E-09         0.11738E-08         0.00000E+00
    0.73103E-09         0.10266E-08         0.00000E+00
    0.73574E-09         0.87665E-09         0.00000E+00
    0.74400E-09         0.72400E-09         0.00000E+00
    0.75439E-09         0.56855E-09         0.00000E+00
    0.76522E-09         0.41016E-09         0.00000E+00
    0.77459E-09         0.24866E-09         0.00000E+00
    0.78037E-09         0.83920E-10         0.00000E+00
    0.60973E-08         0.27905E-09         0.00000E+00
    0.60596E-08         0.80151E-09         0.00000E+00
    0.59882E-08         0.12752E-08         0.00000E+00
    0.58875E-08         0.17017E-08         0.00000E+00
    0.57614E-08         0.20833E-08         0.00000E+00
    0.56139E-08         0.24227E-08         0.00000E+00
    0.54484E-08         0.27229E-08         0.00000E+00
    0.52678E-08         0.29867E-08         0.00000E+00
    0.50750E-08         0.32169E-08         0.00000E+00
    0.48724E-08         0.34162E-08         0.00000E+00
    0.46622E-08         0.35869E-08         0.00000E+00
    0.44463E-08         0.37314E-08         0.00000E+00
    0.42263E-08         0.38515E-08         0.00000E+00
    0.40038E-08         0.39490E-08         0.00000E+00
    0.37801E-08         0.40257E-08         0.00000E+00
    0.35563E-08         0.40828E-08         0.00000E+00
    0.33336E-08         0.41216E-08         0.00000E+00
    0.31129E-08         0.41434E-08         0.00000E+00
    0.28950E-08         0.41490E-08         0.00000E+00
    0.26808E-08         0.41395E-08         0.00000E+00
    0.24709E-08         0.41156E-08         0.00000E+00
    0.22660E-08         0.40781E-08         0.00000E+00
    0.20667E-08         0.40277E-08         0.00000E+00
    0.18735E-08         0.39650E-08         0.00000E+00
    0.16871E-08         0.38907E-08         0.00000E+00
    0.15078E-08         0.38053E-08         0.00000E+00
    0.13362E-08         0.37093E-08         0.00000E+00
    0.11726E-08         0.36033E-08         0.00000E+00
    0.10175E-08         0.34878E-08         0.00000E+00
    0.87130E-09         0.33634E-08         0.00000E+00
    0.73432E-09         0.32306E-08         0.00000E+00
    0.60687E-09         0.30899E-08         0.00000E+00
    0.48927E-09         0.29419E-08         0.00000E+00
    0.38175E-09         0.27872E-08         0.00000E+00
    0.28451E-09         0.26265E-08         0.00000E+00
    0.19771E-09         0.24604E-08         0.00000E+00
    0.12141E-09         0.22896E-08         0.00000E+00
    0.55637E-10         0.21148E-08         0.00000E+00
    0.28225E-12         0.19370E-08         0.00000E+00
   -0.44855E-10         0.17569E-08         0.00000E+00
   -0.80111E-10         0.15755E-08         0.00000E+00
   -0.10597E-09         0.13939E-08         0.00000E+00
   -0.12311E-09         0.12130E-08         0.00000E+00
   -0.13240E-09         0.10341E-08         0.00000E+00
   -0.13494E-09         0.85828E-09         0.00000E+00
   -0.13209E-09         0.68676E-09         0.00000E+00
   -0.12547E-09         0.52076E-09         0.00000E+00
   -0.11701E-09         0.36147E-09         0.00000E+00
   -0.10889E-09         0.20994E-09         0.00000E+00
   -0.10356E-09         0.67073E-10         0.00000E+00
    0.69426E-08         0.39483E-09         0.00000E+00
    0.68916E-08         0.11286E-08         0.00000E+00
    0.67954E-08         0.17865E-08         0.00000E+00
    0.66600E-08         0.23714E-08         0.00000E+00
    0.64911E-08         0.28879E-08         0.00000E+00
    0.62941E-08         0.33406E-08         0.00000E+00
    0.60737E-08         0.37349E-08         0.00000E+00
    0.58341E-08         0.40755E-08         0.00000E+00
    0.55790E-08         0.43674E-08         0.00000E+00
    0.53117E-08         0.46150E-08         0.00000E+00
    0.50351E-08         0.48222E-08         0.00000E+00
    0.47517E-08         0.49928E-08         0.00000E+00
    0.44637E-08         0.51300E-08         0.00000E+00
    0.41730E-08         0.52366E-08         0.00000E+00
    0.38813E-08         0.53153E-08         0.00000E+00
    0.35900E-08         0.53682E-08         0.00000E+00
    0.33004E-08         0.53974E-08         0.00000E+00
    0.30138E-08         0.54045E-08         0.00000E+00
    0.27310E-08         0.53911E-08         0.00000E+00
    0.24530E-08         0.53585E-08         0.00000E+00
    0.21806E-08         0.53080E-08         0.00000E+00
    0.19145E-08         0.52405E-08         0.00000E+00
    0.16555E-08         0.51571E-08         0.00000E+00
    0.14041E-08         0.50585E-08         0.00000E+00
    0.11609E-08         0.49456E-08         0.00000E+00
    0.92645E-09         0.48191E-08         0.00000E+00
    0.70124E-09         0.46797E-08         0.00000E+00
    0.48577E-09         0.45281E-08         0.00000E+00
    0.28048E-09         0.43649E-08         0.00000E+00
    0.85808E-10         0.41908E-08         0.00000E+00
   -0.97851E-10         0.40064E-08         0.00000E+00
   -0.27012E-09         0.38125E-08         0.00000E+00
   -0.43064E-09         0.36099E-08         0.00000E+00
   -0.57910E-09         0.33992E-08         0.00000E+00
   -0.71523E-09         0.31814E-08         0.00000E+00
   -0.83881E-09         0.29574E-08         0.00000E+00
   -0.94968E-09         0.27283E-08         0.00000E+00
   -0.10478E-08         0.24953E-08         0.00000E+00
   -0.11331E-08         0.22598E-08         0.00000E+00
   -0.12057E-08         0.20231E-08         0.00000E+00
   -0.12660E-08         0.17870E-08         0.00000E+00
   -0.13143E-08         0.15533E-08         0.00000E+00
   -0.13512E-08         0.13241E-08         0.00000E+00
   -0.13777E-08         0.11017E-08         0.00000E+00
   -0.13947E-08         0.88854E-09         0.00000E+00
   -0.14037E-08         0.68720E-09         0.00000E+00
   -0.14063E-08         0.50041E-09         0.00000E+00
   -0.14046E-08         0.33085E-09         0.00000E+00
   -0.14008E-08         0.18105E-09         0.00000E+00
   -0.13976E-08         0.53079E-10         0.00000E+00
    0.77910E-08         0.54900E-09         0.00000E+00
    0.77242E-08         0.15631E-08         0.00000E+00
    0.75982E-08         0.24635E-08         0.00000E+00
    0.74213E-08         0.32558E-08         0.00000E+00
    0.72014E-08         0.39472E-08         0.00000E+00
    0.69455E-08         0.45457E-08         0.00000E+00
    0.66600E-08         0.50595E-08         0.00000E+00
    0.63505E-08         0.54968E-08         0.00000E+00
    0.60218E-08         0.58650E-08         0.00000E+00
    0.56783E-08         0.61713E-08         0.00000E+00
    0.53237E-08         0.64220E-08         0.00000E+00
    0.49612E-08         0.66227E-08         0.00000E+00
    0.45935E-08         0.67784E-08         0.00000E+00
    0.42231E-08         0.68937E-08         0.00000E+00
    0.38520E-08         0.69723E-08         0.00000E+00
    0.34820E-08         0.70177E-08         0.00000E+00
    0.31146E-08         0.70327E-08         0.00000E+00
    0.27511E-08         0.70200E-08         0.00000E+00
    0.23926E-08         0.69817E-08         0.00000E+00
    0.20403E-08         0.69197E-08         0.00000E+00
    0.16949E-08         0.68358E-08         0.00000E+00
    0.13572E-08         0.67313E-08         0.00000E+00
    0.10280E-08         0.66075E-08         0.00000E+00
    0.70793E-09         0.64656E-08         0.00000E+00
    0.39751E-09         0.63066E-08         0.00000E+00
    0.97316E-10         0.61313E-08         0.00000E+00
   -0.19213E-09         0.59407E-08         0.00000E+00
   -0.47035E-09         0.57355E-08         0.00000E+00
   -0.73687E-09         0.55165E-08         0.00000E+00
   -0.99123E-09         0.52844E-08         0.00000E+00
   -0.12330E-08         0.50400E-08         0.00000E+00
   -0.14618E-08         0.47842E-08         0.00000E+00
   -0.16772E-08         0.45177E-08         0.00000E+00
   -0.18788E-08         0.42416E-08         0.00000E+00
   -0.20662E-08         0.39568E-08         0.00000E+00
   -0.22391E-08         0.36647E-08         0.00000E+00
   -0.23974E-08         0.33665E-08         0.00000E+00
   -0.25406E-08         0.30638E-08         0.00000E+00
   -0.26688E-08         0.27585E-08         0.00000E+00
   -0.27818E-08         0.24526E-08         0.00000E+00
   -0.28797E-08         0.21485E-08         0.00000E+00
   -0.29629E-08         0.18489E-08         0.00000E+00
   -0.30316E-08         0.15569E-08         0.00000E+00
   -0.30865E-08         0.12759E-08         0.00000E+00
   -0.31286E-08         0.10098E-08         0.00000E+00
   -0.31590E-08         0.76260E-09         0.00000E+00
   -0.31790E-08         0.53861E-09         0.00000E+00
   -0.31907E-08         0.34218E-09         0.00000E+00
   -0.31960E-08         0.17735E-09         0.00000E+00
   -0.31974E-08         0.47486E-10         0.00000E+00
    0.85733E-08         0.74849E-09         0.00000E+00
    0.84881E-08         0.21239E-08         0.00000E+00
    0.83275E-08         0.33355E-08         0.00000E+00
    0.81028E-08         0.43919E-08         0.00000E+00
    0.78240E-08         0.53045E-08         0.00000E+00
    0.75004E-08         0.60856E-08         0.00000E+00
    0.71403E-08         0.67479E-08         0.00000E+00
    0.67508E-08         0.73036E-08         0.00000E+00
    0.63382E-08         0.77643E-08         0.00000E+00
    0.59080E-08         0.81404E-08         0.00000E+00
    0.54650E-08         0.84414E-08         0.00000E+00
    0.50130E-08         0.86758E-08         0.00000E+00
    0.45555E-08         0.88510E-08         0.00000E+00
    0.40954E-08         0.89736E-08         0.00000E+00
    0.36351E-08         0.90491E-08         0.00000E+00
    0.31768E-08         0.90826E-08         0.00000E+00
    0.27221E-08         0.90782E-08         0.00000E+00
    0.22726E-08         0.90395E-08         0.00000E+00
    0.18295E-08         0.89698E-08         0.00000E+00
    0.13939E-08         0.88715E-08         0.00000E+00
    0.96669E-09         0.87471E-08         0.00000E+00
    0.54860E-09         0.85986E-08         0.00000E+00
    0.14035E-09         0.84274E-08         0.00000E+00
   -0.25747E-09         0.82353E-08         0.00000E+00
   -0.64433E-09         0.80233E-08         0.00000E+00
   -0.10197E-08         0.77926E-08         0.00000E+00
   -0.13833E-08         0.75442E-08         0.00000E+00
   -0.17344E-08         0.72789E-08         0.00000E+00
   -0.20729E-08         0.69977E-08         0.00000E+00
   -0.23981E-08         0.67012E-08         0.00000E+00
   -0.27097E-08         0.63903E-08         0.00000E+00
   -0.30074E-08         0.60659E-08         0.00000E+00
   -0.32905E-08         0.57287E-08         0.00000E+00
   -0.35588E-08         0.53798E-08         0.00000E+00
   -0.38117E-08         0.50203E-08         0.00000E+00
   -0.40488E-08         0.46516E-08         0.00000E+00
   -0.42697E-08         0.42751E-08         0.00000E+00
   -0.44740E-08         0.38927E-08         0.00000E+00
   -0.46612E-08         0.35065E-08         0.00000E+00
   -0.48310E-08         0.31190E-08         0.00000E+00
   -0.49833E-08         0.27331E-08         0.00000E+00
   -0.51178E-08         0.23524E-08         0.00000E+00
   -0.52345E-08         0.19806E-08         0.00000E+00
   -0.53336E-08         0.16224E-08         0.00000E+00
   -0.54154E-08         0.12828E-08         0.00000E+00
   -0.54805E-08         0.96707E-09         0.00000E+00
   -0.55299E-08         0.68119E-09         0.00000E+00
   -0.55645E-08         0.43098E-09         0.00000E+00
   -0.55859E-08         0.22198E-09         0.00000E+00
   -0.55957E-08         0.58758E-10         0.00000E+00
    0.91922E-08         0.99967E-09         0.00000E+00
    0.90862E-08         0.28287E-08         0.00000E+00
    0.88871E-08         0.44289E-08         0.00000E+00
    0.86089E-08         0.58132E-08         0.00000E+00
    0.82647E-08         0.69985E-08         0.00000E+00
    0.78660E-08         0.80029E-08         0.00000E+00
    0.74233E-08         0.88449E-08         0.00000E+00
    0.69456E-08         0.95424E-08         0.00000E+00
    0.64409E-08         0.10112E-07         0.00000E+00
    0.59159E-08         0.10569E-07         0.00000E+00
    0.53764E-08         0.10926E-07         0.00000E+00
    0.48272E-08         0.11197E-07         0.00000E+00
    0.42726E-08         0.11391E-07         0.00000E+00
    0.37158E-08         0.11518E-07         0.00000E+00
    0.31598E-08         0.11586E-07         0.00000E+00
    0.26070E-08         0.11602E-07         0.00000E+00
    0.20593E-08         0.11571E-07         0.00000E+00
    0.15183E-08         0.11499E-07         0.00000E+00
    0.98527E-09         0.11391E-07         0.00000E+00
    0.46128E-09         0.11249E-07         0.00000E+00
   -0.52835E-10         0.11077E-07         0.00000E+00
   -0.55641E-09         0.10877E-07         0.00000E+00
   -0.10489E-08         0.10652E-07         0.00000E+00
   -0.15298E-08         0.10404E-07         0.00000E+00
   -0.19989E-08         0.10134E-07         0.00000E+00
   -0.24558E-08         0.98433E-08         0.00000E+00
   -0.29002E-08         0.95330E-08         0.00000E+00
   -0.33318E-08         0.92043E-08         0.00000E+00
   -0.37505E-08         0.88577E-08         0.00000E+00
   -0.41558E-08         0.84942E-08         0.00000E+00
   -0.45476E-08         0.81144E-08         0.00000E+00
   -0.49254E-08         0.77190E-08         0.00000E+00
   -0.52889E-08         0.73087E-08         0.00000E+00
   -0.56375E-08         0.68843E-08         0.00000E+00
   -0.59708E-08         0.64469E-08         0.00000E+00
   -0.62882E-08         0.59976E-08         0.00000E+00
   -0.65891E-08         0.55378E-08         0.00000E+00
   -0.68727E-08         0.50693E-08         0.00000E+00
   -0.71383E-08         0.45941E-08         0.00000E+00
   -0.73852E-08         0.41149E-08         0.00000E+00
   -0.76124E-08         0.36349E-08         0.00000E+00
   -0.78194E-08         0.31577E-08         0.00000E+00
   -0.80051E-08         0.26878E-08         0.00000E+00
   -0.81690E-08         0.22302E-08         0.00000E+00
   -0.83104E-08         0.17909E-08         0.00000E+00
   -0.84287E-08         0.13761E-08         0.00000E+00
   -0.85235E-08         0.99282E-09         0.00000E+00
   -0.85946E-08         0.64802E-09         0.00000E+00
   -0.86419E-08         0.34835E-09         0.00000E+00
   -0.86655E-08         0.99248E-10         0.00000E+00
    0.95198E-08         0.13078E-08         0.00000E+00
    0.93914E-08         0.36919E-08         0.00000E+00
    0.91506E-08         0.57653E-08         0.00000E+00
    0.88148E-08         0.75468E-08         0.00000E+00
    0.84001E-08         0.90599E-08         0.00000E+00
    0.79209E-08         0.10331E-07         0.00000E+00
    0.73901E-08         0.11385E-07         0.00000E+00
    0.68188E-08         0.12247E-07         0.00000E+00
    0.62167E-08         0.12941E-07         0.00000E+00
    0.55921E-08         0.13488E-07         0.00000E+00
    0.49519E-08         0.13906E-07         0.00000E+00
    0.43019E-08         0.14213E-07         0.00000E+00
    0.36472E-08         0.14422E-07         0.00000E+00
    0.29917E-08         0.14548E-07         0.00000E+00
    0.23386E-08         0.14601E-07         0.00000E+00
    0.16907E-08         0.14590E-07         0.00000E+00
    0.10500E-08         0.14524E-07         0.00000E+00
    0.41820E-09         0.14410E-07         0.00000E+00
   -0.20354E-09         0.14254E-07         0.00000E+00
   -0.81428E-09         0.14059E-07         0.00000E+00
   -0.14134E-08         0.13832E-07         0.00000E+00
   -0.20004E-08         0.13575E-07         0.00000E+00
   -0.25752E-08         0.13291E-07         0.00000E+00
   -0.31376E-08         0.12982E-07         0.00000E+00
   -0.36876E-08         0.12651E-07         0.00000E+00
   -0.42253E-08         0.12299E-07         0.00000E+00
   -0.47508E-08         0.11927E-07         0.00000E+00
   -0.52642E-08         0.11536E-07         0.00000E+00
   -0.57656E-08         0.11126E-07         0.00000E+00
   -0.62549E-08         0.10699E-07         0.00000E+00
   -0.67323E-08         0.10255E-07         0.00000E+00
   -0.71976E-08         0.97936E-08         0.00000E+00
   -0.76504E-08         0.93156E-08         0.00000E+00
   -0.80906E-08         0.88213E-08         0.00000E+00
   -0.85174E-08         0.83110E-08         0.00000E+00
   -0.89304E-08         0.77854E-08         0.00000E+00
   -0.93286E-08         0.72453E-08         0.00000E+00
   -0.97110E-08         0.66918E-08         0.00000E+00
   -0.10076E-07         0.61264E-08         0.00000E+00
   -0.10423E-07         0.55513E-08         0.00000E+00
   -0.10750E-07         0.49689E-08         0.00000E+00
   -0.11055E-07         0.43826E-08         0.00000E+00
   -0.11336E-07         0.37964E-08         0.00000E+00
   -0.11591E-07         0.32152E-08         0.00000E+00
   -0.11817E-07         0.26446E-08         0.00000E+00
   -0.12012E-07         0.20910E-08         0.00000E+00
   -0.12174E-07         0.15614E-08         0.00000E+00
   -0.12300E-07         0.10631E-08         0.00000E+00
   -0.12387E-07         0.60289E-09         0.00000E+00
   -0.12431E-07         0.18632E-09         0.00000E+00
    0.93970E-08         0.16771E-08         0.00000E+00
    0.92449E-08         0.47247E-08         0.00000E+00
    0.89600E-08         0.73614E-08         0.00000E+00
    0.85634E-08         0.96128E-08         0.00000E+00
    0.80746E-08         0.11511E-07         0.00000E+00
    0.75113E-08         0.13092E-07         0.00000E+00
    0.68890E-08         0.14389E-07         0.00000E+00
    0.62212E-08         0.15438E-07         0.00000E+00
    0.55197E-08         0.16269E-07         0.00000E+00
    0.47943E-08         0.16910E-07         0.00000E+00
    0.40536E-08         0.17388E-07         0.00000E+00
    0.33045E-08         0.17726E-07         0.00000E+00
    0.25527E-08         0.17942E-07         0.00000E+00
    0.18029E-08         0.18055E-07         0.00000E+00
    0.10589E-08         0.18079E-07         0.00000E+00
    0.32359E-09         0.18028E-07         0.00000E+00
   -0.40095E-09         0.17913E-07         0.00000E+00
   -0.11131E-08         0.17742E-07         0.00000E+00
   -0.18119E-08         0.17524E-07         0.00000E+00
   -0.24967E-08         0.17266E-07         0.00000E+00
   -0.31673E-08         0.16974E-07         0.00000E+00
   -0.38237E-08         0.16651E-07         0.00000E+00
   -0.44665E-08         0.16302E-07         0.00000E+00
   -0.50960E-08         0.15931E-07         0.00000E+00
   -0.57130E-08         0.15538E-07         0.00000E+00
   -0.63182E-08         0.15127E-07         0.00000E+00
   -0.69124E-08         0.14698E-07         0.00000E+00
   -0.74965E-08         0.14252E-07         0.00000E+00
   -0.80712E-08         0.13790E-07         0.00000E+00
   -0.86372E-08         0.13312E-07         0.00000E+00
   -0.91951E-08         0.12818E-07         0.00000E+00
   -0.97453E-08         0.12307E-07         0.00000E+00
   -0.10288E-07         0.11779E-07         0.00000E+00
   -0.10823E-07         0.11234E-07         0.00000E+00
   -0.11350E-07         0.10669E-07         0.00000E+00
   -0.11869E-07         0.10085E-07         0.00000E+00
   -0.12378E-07         0.94816E-08         0.00000E+00
   -0.12876E-07         0.88577E-08         0.00000E+00
   -0.13361E-07         0.82136E-08         0.00000E+00
   -0.13831E-07         0.75495E-08         0.00000E+00
   -0.14284E-07         0.68663E-08         0.00000E+00
   -0.14715E-07         0.61655E-08         0.00000E+00
   -0.15121E-07         0.54492E-08         0.00000E+00
   -0.15498E-07         0.47205E-08         0.00000E+00
   -0.15840E-07         0.39831E-08         0.00000E+00
   -0.16143E-07         0.32417E-08         0.00000E+00
   -0.16399E-07         0.25017E-08         0.00000E+00
   -0.16602E-07         0.17685E-08         0.00000E+00
   -0.16746E-07         0.10477E-08         0.00000E+00
   -0.16821E-07         0.34347E-09         0.00000E+00
    0.86317E-08         0.21116E-08         0.00000E+00
    0.84542E-08         0.59383E-08         0.00000E+00
    0.81220E-08         0.92334E-08         0.00000E+00
    0.76606E-08         0.12031E-07         0.00000E+00
    0.70935E-08         0.14373E-07         0.00000E+00
    0.64419E-08         0.16305E-07         0.00000E+00
    0.57246E-08         0.17874E-07         0.00000E+00
    0.49581E-08         0.19124E-07         0.00000E+00
    0.41566E-08         0.20097E-07         0.00000E+00
    0.33323E-08         0.20830E-07         0.00000E+00
    0.24952E-08         0.21357E-07         0.00000E+00
    0.16538E-08         0.21709E-07         0.00000E+00
    0.81494E-09         0.21912E-07         0.00000E+00
   -0.15903E-10         0.21988E-07         0.00000E+00
   -0.83453E-09         0.21959E-07         0.00000E+00
   -0.16379E-08         0.21842E-07         0.00000E+00
   -0.24237E-08         0.21651E-07         0.00000E+00
   -0.31908E-08         0.21400E-07         0.00000E+00
   -0.39385E-08         0.21099E-07         0.00000E+00
   -0.46670E-08         0.20758E-07         0.00000E+00
   -0.53766E-08         0.20384E-07         0.00000E+00
   -0.60686E-08         0.19983E-07         0.00000E+00
   -0.67442E-08         0.19562E-07         0.00000E+00
   -0.74051E-08         0.19123E-07         0.00000E+00
   -0.80532E-08         0.18671E-07         0.00000E+00
   -0.86904E-08         0.18206E-07         0.00000E+00
   -0.93189E-08         0.17732E-07         0.00000E+00
   -0.99406E-08         0.17247E-07         0.00000E+00
   -0.10558E-07         0.16754E-07         0.00000E+00
   -0.11172E-07         0.16250E-07         0.00000E+00
   -0.11785E-07         0.15735E-07         0.00000E+00
   -0.12398E-07         0.15207E-07         0.00000E+00
   -0.13012E-07         0.14665E-07         0.00000E+00
   -0.13629E-07         0.14106E-07         0.00000E+00
   -0.14248E-07         0.13526E-07         0.00000E+00
   -0.14868E-07         0.12924E-07         0.00000E+00
   -0.15490E-07         0.12296E-07         0.00000E+00
   -0.16111E-07         0.11638E-07         0.00000E+00
   -0.16728E-07         0.10948E-07         0.00000E+00
   -0.17340E-07         0.10222E-07         0.00000E+00
   -0.17940E-07         0.94575E-08         0.00000E+00
   -0.18524E-07         0.86519E-08         0.00000E+00
   -0.19086E-07         0.78030E-08         0.00000E+00
   -0.19618E-07         0.69094E-08         0.00000E+00
   -0.20111E-07         0.59701E-08         0.00000E+00
   -0.20554E-07         0.49850E-08         0.00000E+00
   -0.20937E-07         0.39546E-08         0.00000E+00
   -0.21247E-07         0.28799E-08         0.00000E+00
   -0.21468E-07         0.17620E-08         0.00000E+00
   -0.21587E-07         0.60117E-09         0.00000E+00
    0.69891E-08         0.26197E-08         0.00000E+00
    0.67818E-08         0.73546E-08         0.00000E+00
    0.63947E-08         0.11413E-07         0.00000E+00
    0.58585E-08         0.14838E-07         0.00000E+00
    0.52021E-08         0.17683E-07         0.00000E+00
    0.44514E-08         0.20006E-07         0.00000E+00
    0.36298E-08         0.21867E-07         0.00000E+00
    0.27579E-08         0.23323E-07         0.00000E+00
    0.18533E-08         0.24428E-07         0.00000E+00
    0.93115E-09         0.25231E-07         0.00000E+00
    0.41935E-11         0.25776E-07         0.00000E+00
   -0.91722E-09         0.26104E-07         0.00000E+00
   -0.18248E-08         0.26249E-07         0.00000E+00
   -0.27120E-08         0.26241E-07         0.00000E+00
   -0.35742E-08         0.26110E-07         0.00000E+00
   -0.44081E-08         0.25877E-07         0.00000E+00
   -0.52119E-08         0.25564E-07         0.00000E+00
   -0.59848E-08         0.25187E-07         0.00000E+00
   -0.67272E-08         0.24762E-07         0.00000E+00
   -0.74403E-08         0.24302E-07         0.00000E+00
   -0.81260E-08         0.23817E-07         0.00000E+00
   -0.87871E-08         0.23316E-07         0.00000E+00
   -0.94266E-08         0.22805E-07         0.00000E+00
   -0.10048E-07         0.22292E-07         0.00000E+00
   -0.10655E-07         0.21779E-07         0.00000E+00
   -0.11252E-07         0.21269E-07         0.00000E+00
   -0.11843E-07         0.20765E-07         0.00000E+00
   -0.12432E-07         0.20267E-07         0.00000E+00
   -0.13023E-07         0.19774E-07         0.00000E+00
   -0.13620E-07         0.19285E-07         0.00000E+00
   -0.14226E-07         0.18797E-07         0.00000E+00
   -0.14845E-07         0.18307E-07         0.00000E+00
   -0.15480E-07         0.17811E-07         0.00000E+00
   -0.16132E-07         0.17303E-07         0.00000E+00
   -0.16803E-07         0.16778E-07         0.00000E+00
   -0.17493E-07         0.16228E-07         0.00000E+00
   -0.18203E-07         0.15647E-07         0.00000E+00
   -0.18930E-07         0.15026E-07         0.00000E+00
   -0.19671E-07         0.14356E-07         0.00000E+00
   -0.20423E-07         0.13628E-07         0.00000E+00
   -0.21179E-07         0.12833E-07         0.00000E+00
   -0.21931E-07         0.11961E-07         0.00000E+00
   -0.22671E-07         0.11000E-07         0.00000E+00
   -0.23385E-07         0.99417E-08         0.00000E+00
   -0.24059E-07         0.87752E-08         0.00000E+00
   -0.24678E-07         0.74908E-08         0.00000E+00
   -0.25221E-07         0.60792E-08         0.00000E+00
   -0.25667E-07         0.45316E-08         0.00000E+00
   -0.25991E-07         0.28399E-08         0.00000E+00
   -0.26167E-07         0.99661E-09         0.00000E+00
    0.41528E-08         0.32228E-08         0.00000E+00
    0.39039E-08         0.90324E-08         0.00000E+00
    0.34411E-08         0.13986E-07         0.00000E+00
    0.28037E-08         0.18134E-07         0.00000E+00
    0.20288E-08         0.21544E-07         0.00000E+00
    0.11505E-08         0.24290E-07         0.00000E+00
    0.19930E-09         0.26447E-07         0.00000E+00
   -0.79758E-09         0.28088E-07         0.00000E+00
   -0.18168E-08         0.29283E-07         0.00000E+00
   -0.28385E-08         0.30096E-07         0.00000E+00
   -0.38463E-08         0.30586E-07         0.00000E+00
   -0.48269E-08         0.30805E-07         0.00000E+00
   -0.57702E-08         0.30801E-07         0.00000E+00
   -0.66685E-08         0.30617E-07         0.00000E+00
   -0.75170E-08         0.30288E-07         0.00000E+00
   -0.83126E-08         0.29847E-07         0.00000E+00
   -0.90544E-08         0.29322E-07         0.00000E+00
   -0.97434E-08         0.28738E-07         0.00000E+00
   -0.10382E-07         0.28115E-07         0.00000E+00
   -0.10973E-07         0.27470E-07         0.00000E+00
   -0.11521E-07         0.26819E-07         0.00000E+00
   -0.12032E-07         0.26174E-07         0.00000E+00
   -0.12512E-07         0.25543E-07         0.00000E+00
   -0.12967E-07         0.24935E-07         0.00000E+00
   -0.13404E-07         0.24356E-07         0.00000E+00
   -0.13830E-07         0.23808E-07         0.00000E+00
   -0.14252E-07         0.23294E-07         0.00000E+00
   -0.14678E-07         0.22814E-07         0.00000E+00
   -0.15115E-07         0.22367E-07         0.00000E+00
   -0.15570E-07         0.21949E-07         0.00000E+00
   -0.16048E-07         0.21558E-07         0.00000E+00
   -0.16557E-07         0.21186E-07         0.00000E+00
   -0.17101E-07         0.20826E-07         0.00000E+00
   -0.17686E-07         0.20469E-07         0.00000E+00
   -0.18314E-07         0.20105E-07         0.00000E+00
   -0.18987E-07         0.19722E-07         0.00000E+00
   -0.19708E-07         0.19305E-07         0.00000E+00
   -0.20476E-07         0.18838E-07         0.00000E+00
   -0.21287E-07         0.18305E-07         0.00000E+00
   -0.22136E-07         0.17687E-07         0.00000E+00
   -0.23018E-07         0.16961E-07         0.00000E+00
   -0.23920E-07         0.16107E-07         0.00000E+00
   -0.24830E-07         0.15100E-07         0.00000E+00
   -0.25731E-07         0.13914E-07         0.00000E+00
   -0.26600E-07         0.12524E-07         0.00000E+00
   -0.27414E-07         0.10902E-07         0.00000E+00
   -0.28141E-07         0.90215E-08         0.00000E+00
   -0.28749E-07         0.68555E-08         0.00000E+00
   -0.29197E-07         0.43792E-08         0.00000E+00
   -0.29444E-07         0.15698E-08         0.00000E+00
   -0.37761E-09         0.39772E-08         0.00000E+00
   -0.69584E-09         0.11113E-07         0.00000E+00
   -0.12821E-08         0.17150E-07         0.00000E+00
   -0.20804E-08         0.22147E-07         0.00000E+00
   -0.30368E-08         0.26187E-07         0.00000E+00
   -0.41020E-08         0.29365E-07         0.00000E+00
   -0.52319E-08         0.31778E-07         0.00000E+00
   -0.63881E-08         0.33522E-07         0.00000E+00
   -0.75376E-08         0.34692E-07         0.00000E+00
   -0.86535E-08         0.35374E-07         0.00000E+00
   -0.97141E-08         0.35649E-07         0.00000E+00
   -0.10703E-07         0.35588E-07         0.00000E+00
   -0.11607E-07         0.35259E-07         0.00000E+00
   -0.12421E-07         0.34718E-07         0.00000E+00
   -0.13139E-07         0.34019E-07         0.00000E+00
   -0.13761E-07         0.33205E-07         0.00000E+00
   -0.14290E-07         0.32316E-07         0.00000E+00
   -0.14729E-07         0.31385E-07         0.00000E+00
   -0.15085E-07         0.30440E-07         0.00000E+00
   -0.15365E-07         0.29504E-07         0.00000E+00
   -0.15580E-07         0.28598E-07         0.00000E+00
   -0.15737E-07         0.27738E-07         0.00000E+00
   -0.15849E-07         0.26934E-07         0.00000E+00
   -0.15925E-07         0.26198E-07         0.00000E+00
   -0.15976E-07         0.25536E-07         0.00000E+00
   -0.16015E-07         0.24952E-07         0.00000E+00
   -0.16052E-07         0.24448E-07         0.00000E+00
   -0.16099E-07         0.24024E-07         0.00000E+00
   -0.16166E-07         0.23677E-07         0.00000E+00
   -0.16265E-07         0.23404E-07         0.00000E+00
   -0.16405E-07         0.23197E-07         0.00000E+00
   -0.16597E-07         0.23048E-07         0.00000E+00
   -0.16849E-07         0.22945E-07         0.00000E+00
   -0.17169E-07         0.22875E-07         0.00000E+00
   -0.17566E-07         0.22821E-07         0.00000E+00
   -0.18044E-07         0.22764E-07         0.00000E+00
   -0.18607E-07         0.22682E-07         0.00000E+00
   -0.19257E-07         0.22548E-07         0.00000E+00
   -0.19993E-07         0.22333E-07         0.00000E+00
   -0.20812E-07         0.22003E-07         0.00000E+00
   -0.21706E-07         0.21521E-07         0.00000E+00
   -0.22663E-07         0.20845E-07         0.00000E+00
   -0.23666E-07         0.19929E-07         0.00000E+00
   -0.24694E-07         0.18724E-07         0.00000E+00
   -0.25717E-07         0.17177E-07         0.00000E+00
   -0.26700E-07         0.15233E-07         0.00000E+00
   -0.27601E-07         0.12833E-07         0.00000E+00
   -0.28369E-07         0.99220E-08         0.00000E+00
   -0.28947E-07         0.64447E-08         0.00000E+00
   -0.29271E-07         0.23539E-08         0.00000E+00
   -0.74463E-08         0.49955E-08         0.00000E+00
   -0.78880E-08         0.13894E-07         0.00000E+00
   -0.86875E-08         0.21298E-07         0.00000E+00
   -0.97474E-08         0.27291E-07         0.00000E+00
   -0.10980E-07         0.31989E-07         0.00000E+00
   -0.12307E-07         0.35523E-07         0.00000E+00
   -0.13659E-07         0.38031E-07         0.00000E+00
   -0.14979E-07         0.39651E-07         0.00000E+00
   -0.16221E-07         0.40519E-07         0.00000E+00
   -0.17347E-07         0.40761E-07         0.00000E+00
   -0.18334E-07         0.40495E-07         0.00000E+00
   -0.19162E-07         0.39828E-07         0.00000E+00
   -0.19824E-07         0.38853E-07         0.00000E+00
   -0.20317E-07         0.37654E-07         0.00000E+00
   -0.20643E-07         0.36303E-07         0.00000E+00
   -0.20809E-07         0.34862E-07         0.00000E+00
   -0.20825E-07         0.33382E-07         0.00000E+00
   -0.20704E-07         0.31906E-07         0.00000E+00
   -0.20458E-07         0.30472E-07         0.00000E+00
   -0.20105E-07         0.29107E-07         0.00000E+00
   -0.19658E-07         0.27834E-07         0.00000E+00
   -0.19134E-07         0.26672E-07         0.00000E+00
   -0.18550E-07         0.25635E-07         0.00000E+00
   -0.17921E-07         0.24732E-07         0.00000E+00
   -0.17262E-07         0.23969E-07         0.00000E+00
   -0.16590E-07         0.23351E-07         0.00000E+00
   -0.15919E-07         0.22879E-07         0.00000E+00
   -0.15263E-07         0.22550E-07         0.00000E+00
   -0.14638E-07         0.22363E-07         0.00000E+00
   -0.14058E-07         0.22309E-07         0.00000E+00
   -0.13536E-07         0.22382E-07         0.00000E+00
   -0.13085E-07         0.22568E-07         0.00000E+00
   -0.12719E-07         0.22855E-07         0.00000E+00
   -0.12450E-07         0.23223E-07         0.00000E+00
   -0.12290E-07         0.23652E-07         0.00000E+00
   -0.12248E-07         0.24113E-07         0.00000E+00
   -0.12333E-07         0.24576E-07         0.00000E+00
   -0.12553E-07         0.25003E-07         0.00000E+00
   -0.12911E-07         0.25349E-07         0.00000E+00
   -0.13407E-07         0.25563E-07         0.00000E+00
   -0.14038E-07         0.25584E-07         0.00000E+00
   -0.14794E-07         0.25345E-07         0.00000E+00
   -0.15659E-07         0.24769E-07         0.00000E+00
   -0.16608E-07         0.23770E-07         0.00000E+00
   -0.17610E-07         0.22255E-07         0.00000E+00
   -0.18620E-07         0.20123E-07         0.00000E+00
   -0.19584E-07         0.17270E-07         0.00000E+00
   -0.20437E-07         0.13588E-07         0.00000E+00
   -0.21098E-07         0.89746E-08         0.00000E+00
   -0.21477E-07         0.33335E-08         0.00000E+00
   -0.18039E-07         0.64927E-08         0.00000E+00
   -0.18675E-07         0.17785E-07         0.00000E+00
   -0.19771E-07         0.26884E-07         0.00000E+00
   -0.21156E-07         0.33929E-07         0.00000E+00
   -0.22674E-07         0.39104E-07         0.00000E+00
   -0.24192E-07         0.42632E-07         0.00000E+00
   -0.25605E-07         0.44745E-07         0.00000E+00
   -0.26833E-07         0.45677E-07         0.00000E+00
   -0.27822E-07         0.45647E-07         0.00000E+00
   -0.28540E-07         0.44857E-07         0.00000E+00
   -0.28971E-07         0.43485E-07         0.00000E+00
   -0.29112E-07         0.41689E-07         0.00000E+00
   -0.28972E-07         0.39602E-07         0.00000E+00
   -0.28566E-07         0.37339E-07         0.00000E+00
   -0.27915E-07         0.34993E-07         0.00000E+00
   -0.27043E-07         0.32640E-07         0.00000E+00
   -0.25975E-07         0.30342E-07         0.00000E+00
   -0.24736E-07         0.28146E-07         0.00000E+00
   -0.23353E-07         0.26091E-07         0.00000E+00
   -0.21850E-07         0.24204E-07         0.00000E+00
   -0.20251E-07         0.22505E-07         0.00000E+00
   -0.18575E-07         0.21009E-07         0.00000E+00
   -0.16845E-07         0.19725E-07         0.00000E+00
   -0.15078E-07         0.18659E-07         0.00000E+00
   -0.13291E-07         0.17815E-07         0.00000E+00
   -0.11501E-07         0.17191E-07         0.00000E+00
   -0.97214E-08         0.16786E-07         0.00000E+00
   -0.79674E-08         0.16596E-07         0.00000E+00
   -0.62524E-08         0.16617E-07         0.00000E+00
   -0.45899E-08         0.16840E-07         0.00000E+00
   -0.29933E-08         0.17257E-07         0.00000E+00
   -0.14761E-08         0.17855E-07         0.00000E+00
   -0.52249E-10         0.18619E-07         0.00000E+00
    0.12643E-08         0.19531E-07         0.00000E+00
    0.24591E-08         0.20567E-07         0.00000E+00
    0.35177E-08         0.21695E-07         0.00000E+00
    0.44260E-08         0.22880E-07         0.00000E+00
    0.51704E-08         0.24075E-07         0.00000E+00
    0.57388E-08         0.25224E-07         0.00000E+00
    0.61213E-08         0.26257E-07         0.00000E+00
    0.63116E-08         0.27093E-07         0.00000E+00
    0.63081E-08         0.27634E-07         0.00000E+00
    0.61160E-08         0.27765E-07         0.00000E+00
    0.57495E-08         0.27356E-07         0.00000E+00
    0.52337E-08         0.26256E-07         0.00000E+00
    0.46078E-08         0.24302E-07         0.00000E+00
    0.39271E-08         0.21316E-07         0.00000E+00
    0.32644E-08         0.17117E-07         0.00000E+00
    0.27092E-08         0.11529E-07         0.00000E+00
    0.23665E-08         0.43858E-08         0.00000E+00
   -0.29967E-07         0.84476E-08         0.00000E+00
   -0.30708E-07         0.22717E-07         0.00000E+00
   -0.31896E-07         0.33372E-07         0.00000E+00
   -0.33182E-07         0.40795E-07         0.00000E+00
   -0.34308E-07         0.45460E-07         0.00000E+00
   -0.35105E-07         0.47853E-07         0.00000E+00
   -0.35473E-07         0.48427E-07         0.00000E+00
   -0.35365E-07         0.47593E-07         0.00000E+00
   -0.34770E-07         0.45706E-07         0.00000E+00
   -0.33707E-07         0.43070E-07         0.00000E+00
   -0.32209E-07         0.39938E-07         0.00000E+00
   -0.30323E-07         0.36514E-07         0.00000E+00
   -0.28101E-07         0.32963E-07         0.00000E+00
   -0.25593E-07         0.29413E-07         0.00000E+00
   -0.22853E-07         0.25961E-07         0.00000E+00
   -0.19927E-07         0.22679E-07         0.00000E+00
   -0.16858E-07         0.19617E-07         0.00000E+00
   -0.13684E-07         0.16812E-07         0.00000E+00
   -0.10439E-07         0.14284E-07         0.00000E+00
   -0.71487E-08         0.12045E-07         0.00000E+00
   -0.38363E-08         0.10102E-07         0.00000E+00
   -0.51979E-09         0.84534E-08         0.00000E+00
    0.27866E-08         0.70965E-08         0.00000E+00
    0.60720E-08         0.60255E-08         0.00000E+00
    0.93283E-08         0.52337E-08         0.00000E+00
    0.12549E-07         0.47140E-08         0.00000E+00
    0.15731E-07         0.44589E-08         0.00000E+00
    0.18869E-07         0.44615E-08         0.00000E+00
    0.21962E-07         0.47147E-08         0.00000E+00
    0.25005E-07         0.52114E-08         0.00000E+00
    0.27997E-07         0.59443E-08         0.00000E+00
    0.30932E-07         0.69048E-08         0.00000E+00
    0.33806E-07         0.80824E-08         0.00000E+00
    0.36610E-07         0.94638E-08         0.00000E+00
    0.39336E-07         0.11031E-07         0.00000E+00
    0.41971E-07         0.12761E-07         0.00000E+00
    0.44502E-07         0.14621E-07         0.00000E+00
    0.46910E-07         0.16569E-07         0.00000E+00
    0.49178E-07         0.18550E-07         0.00000E+00
    0.51283E-07         0.20494E-07         0.00000E+00
    0.53202E-07         0.22309E-07         0.00000E+00
    0.54912E-07         0.23883E-07         0.00000E+00
    0.56392E-07         0.25078E-07         0.00000E+00
    0.57622E-07         0.25727E-07         0.00000E+00
    0.58588E-07         0.25631E-07         0.00000E+00
    0.59288E-07         0.24559E-07         0.00000E+00
    0.59731E-07         0.22247E-07         0.00000E+00
    0.59951E-07         0.18401E-07         0.00000E+00
    0.60011E-07         0.12720E-07         0.00000E+00
    0.60005E-07         0.49348E-08         0.00000E+00
   -0.19118E-07         0.10088E-07         0.00000E+00
   -0.19144E-07         0.24917E-07         0.00000E+00
   -0.18542E-07         0.34099E-07         0.00000E+00
   -0.17035E-07         0.38960E-07         0.00000E+00
   -0.14565E-07         0.40579E-07         0.00000E+00
   -0.11186E-07         0.39825E-07         0.00000E+00
   -0.70071E-08         0.37400E-07         0.00000E+00
   -0.21639E-08         0.33862E-07         0.00000E+00
    0.31998E-08         0.29646E-07         0.00000E+00
    0.89452E-08         0.25086E-07         0.00000E+00
    0.14946E-07         0.20431E-07         0.00000E+00
    0.21091E-07         0.15865E-07         0.00000E+00
    0.27288E-07         0.11511E-07         0.00000E+00
    0.33463E-07         0.74559E-08         0.00000E+00
    0.39556E-07         0.37486E-08         0.00000E+00
    0.45525E-07         0.41618E-09         0.00000E+00
    0.51339E-07        -0.25330E-08         0.00000E+00
    0.56979E-07        -0.51031E-08         0.00000E+00
    0.62434E-07        -0.73064E-08         0.00000E+00
    0.67703E-07        -0.91605E-08         0.00000E+00
    0.72789E-07        -0.10686E-07         0.00000E+00
    0.77702E-07        -0.11903E-07         0.00000E+00
    0.82453E-07        -0.12833E-07         0.00000E+00
    0.87057E-07        -0.13495E-07         0.00000E+00
    0.91533E-07        -0.13907E-07         0.00000E+00
    0.95899E-07        -0.14082E-07         0.00000E+00
    0.10018E-06        -0.14034E-07         0.00000E+00
    0.10438E-06        -0.13772E-07         0.00000E+00
    0.10854E-06        -0.13304E-07         0.00000E+00
    0.11267E-06        -0.12633E-07         0.00000E+00
    0.11679E-06        -0.11765E-07         0.00000E+00
    0.12092E-06        -0.10700E-07         0.00000E+00
    0.12507E-06        -0.94396E-08         0.00000E+00
    0.12926E-06        -0.79864E-08         0.00000E+00
    0.13350E-06        -0.63437E-08         0.00000E+00
    0.13779E-06        -0.45184E-08         0.00000E+00
    0.14215E-06        -0.25227E-08         0.00000E+00
    0.14656E-06        -0.37638E-09         0.00000E+00
    0.15101E-06         0.18901E-08         0.00000E+00
    0.15549E-06         0.42321E-08         0.00000E+00
    0.15997E-06         0.65873E-08         0.00000E+00
    0.16440E-06         0.88710E-08         0.00000E+00
    0.16875E-06         0.10972E-07         0.00000E+00
    0.17293E-06         0.12750E-07         0.00000E+00
    0.17688E-06         0.14029E-07         0.00000E+00
    0.18050E-06         0.14598E-07         0.00000E+00
    0.18365E-06         0.14209E-07         0.00000E+00
    0.18621E-06         0.12568E-07         0.00000E+00
    0.18799E-06         0.93196E-08         0.00000E+00
    0.18887E-06         0.39871E-08         0.00000E+00
    0.13668E-06         0.28964E-08         0.00000E+00
    0.14188E-06         0.62323E-08         0.00000E+00
    0.15057E-06         0.63101E-08         0.00000E+00
    0.16154E-06         0.43775E-08         0.00000E+00
    0.17386E-06         0.12298E-08         0.00000E+00
    0.18683E-06        -0.25905E-08         0.00000E+00
    0.19996E-06        -0.67016E-08         0.00000E+00
    0.21287E-06        -0.10834E-07         0.00000E+00
    0.22534E-06        -0.14801E-07         0.00000E+00
    0.23719E-06        -0.18481E-07         0.00000E+00
    0.24835E-06        -0.21800E-07         0.00000E+00
    0.25877E-06        -0.24721E-07         0.00000E+00
    0.26844E-06        -0.27234E-07         0.00000E+00
    0.27737E-06        -0.29346E-07         0.00000E+00
    0.28561E-06        -0.31079E-07         0.00000E+00
    0.29318E-06        -0.32462E-07         0.00000E+00
    0.30014E-06        -0.33529E-07         0.00000E+00
    0.30654E-06        -0.34314E-07         0.00000E+00
    0.31244E-06        -0.34852E-07         0.00000E+00
    0.31788E-06        -0.35177E-07         0.00000E+00
    0.32293E-06        -0.35320E-07         0.00000E+00
    0.32762E-06        -0.35307E-07         0.00000E+00
    0.33202E-06        -0.35162E-07         0.00000E+00
    0.33616E-06        -0.34908E-07         0.00000E+00
    0.34010E-06        -0.34560E-07         0.00000E+00
    0.34387E-06        -0.34134E-07         0.00000E+00
    0.34753E-06        -0.33638E-07         0.00000E+00
    0.35110E-06        -0.33082E-07         0.00000E+00
    0.35464E-06        -0.32469E-07         0.00000E+00
    0.35818E-06        -0.31801E-07         0.00000E+00
    0.36175E-06        -0.31078E-07         0.00000E+00
    0.36541E-06        -0.30297E-07         0.00000E+00
    0.36918E-06        -0.29453E-07         0.00000E+00
    0.37310E-06        -0.28539E-07         0.00000E+00
    0.37721E-06        -0.27547E-07         0.00000E+00
    0.38155E-06        -0.26470E-07         0.00000E+00
    0.38614E-06        -0.25299E-07         0.00000E+00
    0.39102E-06        -0.24026E-07         0.00000E+00
    0.39620E-06        -0.22647E-07         0.00000E+00
    0.40171E-06        -0.21161E-07         0.00000E+00
    0.40754E-06        -0.19572E-07         0.00000E+00
    0.41369E-06        -0.17890E-07         0.00000E+00
    0.42012E-06        -0.16135E-07         0.00000E+00
    0.42677E-06        -0.14333E-07         0.00000E+00
    0.43355E-06        -0.12515E-07         0.00000E+00
    0.44030E-06        -0.10709E-07         0.00000E+00
    0.44683E-06        -0.89163E-08         0.00000E+00
    0.45283E-06        -0.70722E-08         0.00000E+00
    0.45783E-06        -0.49727E-08         0.00000E+00
    0.46104E-06        -0.21519E-08         0.00000E+00
    0.83013E-06        -0.15758E-07         0.00000E+00
    0.83744E-06        -0.37703E-07         0.00000E+00
    0.84885E-06        -0.50262E-07         0.00000E+00
    0.86155E-06        -0.57344E-07         0.00000E+00
    0.87406E-06        -0.61192E-07         0.00000E+00
    0.88567E-06        -0.63104E-07         0.00000E+00
    0.89608E-06        -0.63833E-07         0.00000E+00
    0.90518E-06        -0.63816E-07         0.00000E+00
    0.91302E-06        -0.63315E-07         0.00000E+00
    0.91966E-06        -0.62486E-07         0.00000E+00
    0.92523E-06        -0.61429E-07         0.00000E+00
    0.92984E-06        -0.60209E-07         0.00000E+00
    0.93359E-06        -0.58875E-07         0.00000E+00
    0.93661E-06        -0.57463E-07         0.00000E+00
    0.93899E-06        -0.56003E-07         0.00000E+00
    0.94081E-06        -0.54521E-07         0.00000E+00
    0.94216E-06        -0.53038E-07         0.00000E+00
    0.94312E-06        -0.51574E-07         0.00000E+00
    0.94373E-06        -0.50145E-07         0.00000E+00
    0.94406E-06        -0.48765E-07         0.00000E+00
    0.94416E-06        -0.47446E-07         0.00000E+00
    0.94407E-06        -0.46198E-07         0.00000E+00
    0.94383E-06        -0.45029E-07         0.00000E+00
    0.94346E-06        -0.43947E-07         0.00000E+00
    0.94301E-06        -0.42955E-07         0.00000E+00
    0.94250E-06        -0.42057E-07         0.00000E+00
    0.94195E-06        -0.41256E-07         0.00000E+00
    0.94140E-06        -0.40553E-07         0.00000E+00
    0.94085E-06        -0.39947E-07         0.00000E+00
    0.94033E-06        -0.39437E-07         0.00000E+00
    0.93987E-06        -0.39022E-07         0.00000E+00
    0.93949E-06        -0.38698E-07         0.00000E+00
    0.93920E-06        -0.38460E-07         0.00000E+00
    0.93903E-06        -0.38301E-07         0.00000E+00
    0.93900E-06        -0.38214E-07         0.00000E+00
    0.93914E-06        -0.38186E-07         0.00000E+00
    0.93948E-06        -0.38203E-07         0.00000E+00
    0.94003E-06        -0.38248E-07         0.00000E+00
    0.94082E-06        -0.38294E-07         0.00000E+00
    0.94187E-06        -0.38309E-07         0.00000E+00
    0.94320E-06        -0.38248E-07         0.00000E+00
    0.94482E-06        -0.38051E-07         0.00000E+00
    0.94672E-06        -0.37635E-07         0.00000E+00
    0.94888E-06        -0.36883E-07         0.00000E+00
    0.95124E-06        -0.35631E-07         0.00000E+00
    0.95369E-06        -0.33646E-07         0.00000E+00
    0.95608E-06        -0.30585E-07         0.00000E+00
    0.95819E-06        -0.25932E-07         0.00000E+00
    0.95975E-06        -0.18886E-07         0.00000E+00
    0.96051E-06        -0.81420E-08         0.00000E+00
    0.19807E-05        -0.13316E-07         0.00000E+00
    0.19717E-05        -0.31705E-07         0.00000E+00
    0.19572E-05        -0.40801E-07         0.00000E+00
    0.19401E-05        -0.44731E-07         0.00000E+00
    0.19220E-05        -0.45816E-07         0.00000E+00
    0.19038E-05        -0.45365E-07         0.00000E+00
    0.18859E-05        -0.44115E-07         0.00000E+00
    0.18686E-05        -0.42476E-07         0.00000E+00
    0.18519E-05        -0.40677E-07         0.00000E+00
    0.18360E-05        -0.38841E-07         0.00000E+00
    0.18208E-05        -0.37036E-07         0.00000E+00
    0.18064E-05        -0.35296E-07         0.00000E+00
    0.17926E-05        -0.33639E-07         0.00000E+00
    0.17795E-05        -0.32073E-07         0.00000E+00
    0.17669E-05        -0.30600E-07         0.00000E+00
    0.17550E-05        -0.29223E-07         0.00000E+00
    0.17435E-05        -0.27939E-07         0.00000E+00
    0.17326E-05        -0.26748E-07         0.00000E+00
    0.17221E-05        -0.25648E-07         0.00000E+00
    0.17120E-05        -0.24638E-07         0.00000E+00
    0.17024E-05        -0.23715E-07         0.00000E+00
    0.16931E-05        -0.22878E-07         0.00000E+00
    0.16841E-05        -0.22126E-07         0.00000E+00
    0.16753E-05        -0.21456E-07         0.00000E+00
    0.16669E-05        -0.20868E-07         0.00000E+00
    0.16586E-05        -0.20360E-07         0.00000E+00
    0.16506E-05        -0.19931E-07         0.00000E+00
    0.16427E-05        -0.19579E-07         0.00000E+00
    0.16349E-05        -0.19303E-07         0.00000E+00
    0.16272E-05        -0.19102E-07         0.00000E+00
    0.16196E-05        -0.18975E-07         0.00000E+00
    0.16120E-05        -0.18921E-07         0.00000E+00
    0.16044E-05        -0.18937E-07         0.00000E+00
    0.15969E-05        -0.19021E-07         0.00000E+00
    0.15892E-05        -0.19171E-07         0.00000E+00
    0.15815E-05        -0.19381E-07         0.00000E+00
    0.15737E-05        -0.19645E-07         0.00000E+00
    0.15658E-05        -0.19954E-07         0.00000E+00
    0.15577E-05        -0.20292E-07         0.00000E+00
    0.15495E-05        -0.20640E-07         0.00000E+00
    0.15412E-05        -0.20968E-07         0.00000E+00
    0.15328E-05        -0.21231E-07         0.00000E+00
    0.15243E-05        -0.21368E-07         0.00000E+00
    0.15157E-05        -0.21288E-07         0.00000E+00
    0.15073E-05        -0.20862E-07         0.00000E+00
    0.14991E-05        -0.19911E-07         0.00000E+00
    0.14915E-05        -0.18184E-07         0.00000E+00
    0.14848E-05        -0.15343E-07         0.00000E+00
    0.14796E-05        -0.10953E-07         0.00000E+00
    0.14765E-05        -0.44846E-08         0.00000E+00
POINT_DATA       5151
VECTORS vDarcyNodal double 
    0.13287E-05         0.00000E+00         0.00000E+00
    0.13248E-05         0.00000E+00         0.00000E+00
    0.13155E-05         0.00000E+00         0.00000E+00
    0.13037E-05         0.00000E+00         0.00000E+00
    0.12912E-05         0.00000E+00         0.00000E+00
    0.12786E-05         0.00000E+00         0.00000E+00
    0.12663E-05         0.00000E+00         0.00000E+00
    0.12544E-05         0.00000E+00         0.00000E+00
    0.12429E-05         0.00000E+00         0.00000E+00
    0.12319E-05         0.00000E+00         0.00000E+00
    0.12214E-05         0.00000E+00         0.00000E+00
    0.12114E-05         0.00000E+00         0.00000E+00
    0.12019E-05         0.00000E+00         0.00000E+00
    0.11928E-05         0.00000E+00         0.00000E+00
    0.11841E-05         0.00000E+00         0.00000E+00
    0.11758E-05         0.00000E+00         0.00000E+00
    0.11679E-05         0.00000E+00         0.00000E+00
    0.11604E-05         0.00000E+00         0.00000E+00
    0.11531E-05         0.00000E+00         0.00000E+00
    0.11462E-05         0.00000E+00         0.00000E+00
    0.11396E-05         0.00000E+00         0.00000E+00
    0.11332E-05         0.00000E+00         0.00000E+00
    0.11270E-05         0.00000E+00         0.00000E+00
    0.11210E-05         0.00000E+00         0.00000E+00
    0.11152E-05         0.00000E+00         0.00000E+00
    0.11096E-05         0.00000E+00         0.00000E+00
    0.11041E-05         0.00000E+00         0.00000E+00
    0.10988E-05         0.00000E+00         0.00000E+00
    0.10935E-05         0.00000E+00         0.00000E+00
    0.10883E-05         0.00000E+00         0.00000E+00
    0.10832E-05         0.00000E+00         0.00000E+00
    0.10781E-05         0.00000E+00         0.00000E+00
    0.10730E-05         0.00000E+00         0.00000E+00
    0.10680E-05         0.00000E+00         0.00000E+00
    0.10629E-05         0.00000E+00         0.00000E+00
    0.10577E-05         0.00000E+00         0.00000E+00
    0.10526E-05         0.00000E+00         0.00000E+00
    0.10473E-05         0.00000E+00         0.00000E+00
    0.10420E-05         0.00000E+00         0.00000E+00
    0.10366E-05         0.00000E+00         0.00000E+00
    0.10310E-05         0.00000E+00         0.00000E+00
    0.10254E-05         0.00000E+00         0.00000E+00
    0.10198E-05         0.00000E+00         0.00000E+00
    0.10141E-05         0.00000E+00         0.00000E+00
    0.10084E-05         0.00000E+00         0.00000E+00
    0.10028E-05         0.00000E+00         0.00000E+00
    0.99753E-06         0.00000E+00         0.00000E+00
    0.99268E-06         0.00000E+00         0.00000E+00
    0.98859E-06         0.00000E+00         0.00000E+00
    0.98567E-06         0.00000E+00         0.00000E+00
    0.98448E-06         0.00000E+00         0.00000E+00
    0.93430E-06         0.19579E-07         0.00000E+00
    0.93412E-06         0.33105E-07         0.00000E+00
    0.93368E-06         0.52670E-07         0.00000E+00
    0.93286E-06         0.60603E-07         0.00000E+00
    0.93160E-06         0.62682E-07         0.00000E+00
    0.92993E-06         0.62284E-07         0.00000E+00
    0.92789E-06         0.60720E-07         0.00000E+00
    0.92555E-06         0.58575E-07         0.00000E+00
    0.92294E-06         0.56173E-07         0.00000E+00
    0.92011E-06         0.53695E-07         0.00000E+00
    0.91712E-06         0.51237E-07         0.00000E+00
    0.91399E-06         0.48852E-07         0.00000E+00
    0.91077E-06         0.46569E-07         0.00000E+00
    0.90748E-06         0.44399E-07         0.00000E+00
    0.90415E-06         0.42350E-07         0.00000E+00
    0.90081E-06         0.40424E-07         0.00000E+00
    0.89746E-06         0.38622E-07         0.00000E+00
    0.89414E-06         0.36943E-07         0.00000E+00
    0.89084E-06         0.35386E-07         0.00000E+00
    0.88758E-06         0.33949E-07         0.00000E+00
    0.88436E-06         0.32631E-07         0.00000E+00
    0.88119E-06         0.31429E-07         0.00000E+00
    0.87807E-06         0.30342E-07         0.00000E+00
    0.87501E-06         0.29368E-07         0.00000E+00
    0.87200E-06         0.28505E-07         0.00000E+00
    0.86905E-06         0.27750E-07         0.00000E+00
    0.86614E-06         0.27103E-07         0.00000E+00
    0.86329E-06         0.26561E-07         0.00000E+00
    0.86048E-06         0.26122E-07         0.00000E+00
    0.85772E-06         0.25786E-07         0.00000E+00
    0.85499E-06         0.25550E-07         0.00000E+00
    0.85231E-06         0.25412E-07         0.00000E+00
    0.84967E-06         0.25371E-07         0.00000E+00
    0.84705E-06         0.25423E-07         0.00000E+00
    0.84448E-06         0.25565E-07         0.00000E+00
    0.84193E-06         0.25792E-07         0.00000E+00
    0.83942E-06         0.26095E-07         0.00000E+00
    0.83694E-06         0.26465E-07         0.00000E+00
    0.83449E-06         0.26885E-07         0.00000E+00
    0.83209E-06         0.27332E-07         0.00000E+00
    0.82973E-06         0.27772E-07         0.00000E+00
    0.82743E-06         0.28156E-07         0.00000E+00
    0.82518E-06         0.28414E-07         0.00000E+00
    0.82302E-06         0.28444E-07         0.00000E+00
    0.82094E-06         0.28100E-07         0.00000E+00
    0.81897E-06         0.27177E-07         0.00000E+00
    0.81714E-06         0.25387E-07         0.00000E+00
    0.81549E-06         0.22339E-07         0.00000E+00
    0.81408E-06         0.17519E-07         0.00000E+00
    0.81303E-06         0.10284E-07         0.00000E+00
    0.81254E-06         0.59748E-08         0.00000E+00
    0.31599E-06         0.17471E-08         0.00000E+00
    0.31866E-06         0.30658E-08         0.00000E+00
    0.32498E-06         0.63017E-08         0.00000E+00
    0.33303E-06         0.10411E-07         0.00000E+00
    0.34167E-06         0.14662E-07         0.00000E+00
    0.35034E-06         0.18536E-07         0.00000E+00
    0.35872E-06         0.21909E-07         0.00000E+00
    0.36662E-06         0.24778E-07         0.00000E+00
    0.37394E-06         0.27160E-07         0.00000E+00
    0.38066E-06         0.29089E-07         0.00000E+00
    0.38675E-06         0.30604E-07         0.00000E+00
    0.39224E-06         0.31745E-07         0.00000E+00
    0.39716E-06         0.32558E-07         0.00000E+00
    0.40155E-06         0.33086E-07         0.00000E+00
    0.40545E-06         0.33370E-07         0.00000E+00
    0.40891E-06         0.33449E-07         0.00000E+00
    0.41197E-06         0.33361E-07         0.00000E+00
    0.41468E-06         0.33136E-07         0.00000E+00
    0.41708E-06         0.32806E-07         0.00000E+00
    0.41920E-06         0.32396E-07         0.00000E+00
    0.42109E-06         0.31928E-07         0.00000E+00
    0.42277E-06         0.31422E-07         0.00000E+00
    0.42428E-06         0.30893E-07         0.00000E+00
    0.42564E-06         0.30357E-07         0.00000E+00
    0.42689E-06         0.29823E-07         0.00000E+00
    0.42804E-06         0.29300E-07         0.00000E+00
    0.42913E-06         0.28795E-07         0.00000E+00
    0.43018E-06         0.28313E-07         0.00000E+00
    0.43120E-06         0.27856E-07         0.00000E+00
    0.43222E-06         0.27426E-07         0.00000E+00
    0.43325E-06         0.27023E-07         0.00000E+00
    0.43433E-06         0.26645E-07         0.00000E+00
    0.43546E-06         0.26288E-07         0.00000E+00
    0.43667E-06         0.25949E-07         0.00000E+00
    0.43799E-06         0.25620E-07         0.00000E+00
    0.43942E-06         0.25295E-07         0.00000E+00
    0.44099E-06         0.24963E-07         0.00000E+00
    0.44271E-06         0.24614E-07         0.00000E+00
    0.44462E-06         0.24234E-07         0.00000E+00
    0.44671E-06         0.23808E-07         0.00000E+00
    0.44900E-06         0.23318E-07         0.00000E+00
    0.45149E-06         0.22743E-07         0.00000E+00
    0.45418E-06         0.22059E-07         0.00000E+00
    0.45705E-06         0.21234E-07         0.00000E+00
    0.46006E-06         0.20228E-07         0.00000E+00
    0.46314E-06         0.18982E-07         0.00000E+00
    0.46620E-06         0.17399E-07         0.00000E+00
    0.46909E-06         0.15299E-07         0.00000E+00
    0.47161E-06         0.12322E-07         0.00000E+00
    0.47346E-06         0.77096E-08         0.00000E+00
    0.47426E-06         0.48649E-08         0.00000E+00
    0.40295E-07        -0.70989E-08         0.00000E+00
    0.41115E-07        -0.11832E-07         0.00000E+00
    0.43272E-07        -0.19177E-07         0.00000E+00
    0.46576E-07        -0.22870E-07         0.00000E+00
    0.50814E-07        -0.23881E-07         0.00000E+00
    0.55743E-07        -0.22931E-07         0.00000E+00
    0.61141E-07        -0.20653E-07         0.00000E+00
    0.66822E-07        -0.17557E-07         0.00000E+00
    0.72635E-07        -0.14025E-07         0.00000E+00
    0.78458E-07        -0.10335E-07         0.00000E+00
    0.84202E-07        -0.66839E-08         0.00000E+00
    0.89798E-07        -0.32047E-08         0.00000E+00
    0.95197E-07         0.19492E-10         0.00000E+00
    0.10037E-06         0.29412E-08         0.00000E+00
    0.10529E-06         0.55391E-08         0.00000E+00
    0.10997E-06         0.78103E-08         0.00000E+00
    0.11438E-06         0.97642E-08         0.00000E+00
    0.11855E-06         0.11418E-07         0.00000E+00
    0.12249E-06         0.12793E-07         0.00000E+00
    0.12620E-06         0.13913E-07         0.00000E+00
    0.12971E-06         0.14802E-07         0.00000E+00
    0.13303E-06         0.15484E-07         0.00000E+00
    0.13619E-06         0.15979E-07         0.00000E+00
    0.13920E-06         0.16306E-07         0.00000E+00
    0.14209E-06         0.16483E-07         0.00000E+00
    0.14487E-06         0.16524E-07         0.00000E+00
    0.14757E-06         0.16439E-07         0.00000E+00
    0.15021E-06         0.16239E-07         0.00000E+00
    0.15281E-06         0.15928E-07         0.00000E+00
    0.15539E-06         0.15511E-07         0.00000E+00
    0.15796E-06         0.14991E-07         0.00000E+00
    0.16055E-06         0.14366E-07         0.00000E+00
    0.16318E-06         0.13636E-07         0.00000E+00
    0.16586E-06         0.12799E-07         0.00000E+00
    0.16861E-06         0.11850E-07         0.00000E+00
    0.17145E-06         0.10788E-07         0.00000E+00
    0.17439E-06         0.96107E-08         0.00000E+00
    0.17743E-06         0.83200E-08         0.00000E+00
    0.18059E-06         0.69209E-08         0.00000E+00
    0.18387E-06         0.54251E-08         0.00000E+00
    0.18726E-06         0.38523E-08         0.00000E+00
    0.19075E-06         0.22337E-08         0.00000E+00
    0.19432E-06         0.61441E-09         0.00000E+00
    0.19793E-06        -0.94406E-09         0.00000E+00
    0.20154E-06        -0.23619E-08         0.00000E+00
    0.20508E-06        -0.35404E-08         0.00000E+00
    0.20845E-06        -0.43624E-08         0.00000E+00
    0.21153E-06        -0.46887E-08         0.00000E+00
    0.21415E-06        -0.43358E-08         0.00000E+00
    0.21605E-06        -0.29882E-08         0.00000E+00
    0.21687E-06        -0.20137E-08         0.00000E+00
   -0.15273E-07        -0.64547E-08         0.00000E+00
   -0.15487E-07        -0.11821E-07         0.00000E+00
   -0.15796E-07        -0.21004E-07         0.00000E+00
   -0.15950E-07        -0.27299E-07         0.00000E+00
   -0.15809E-07        -0.31175E-07         0.00000E+00
   -0.15293E-07        -0.33101E-07         0.00000E+00
   -0.14372E-07        -0.33486E-07         0.00000E+00
   -0.13050E-07        -0.32688E-07         0.00000E+00
   -0.11360E-07        -0.31020E-07         0.00000E+00
   -0.93441E-08        -0.28748E-07         0.00000E+00
   -0.70555E-08        -0.26092E-07         0.00000E+00
   -0.45466E-08        -0.23229E-07         0.00000E+00
   -0.18686E-08        -0.20296E-07         0.00000E+00
    0.93184E-09        -0.17399E-07         0.00000E+00
    0.38135E-08        -0.14614E-07         0.00000E+00
    0.67410E-08        -0.11996E-07         0.00000E+00
    0.96854E-08        -0.95792E-08         0.00000E+00
    0.12623E-07        -0.73867E-08         0.00000E+00
    0.15537E-07        -0.54293E-08         0.00000E+00
    0.18412E-07        -0.37107E-08         0.00000E+00
    0.21241E-07        -0.22288E-08         0.00000E+00
    0.24017E-07        -0.97821E-09         0.00000E+00
    0.26738E-07         0.48745E-10         0.00000E+00
    0.29404E-07         0.86067E-09         0.00000E+00
    0.32016E-07         0.14664E-08         0.00000E+00
    0.34579E-07         0.18745E-08         0.00000E+00
    0.37096E-07         0.20927E-08         0.00000E+00
    0.39573E-07         0.21279E-08         0.00000E+00
    0.42014E-07         0.19860E-08         0.00000E+00
    0.44427E-07         0.16719E-08         0.00000E+00
    0.46816E-07         0.11901E-08         0.00000E+00
    0.49186E-07         0.54452E-09         0.00000E+00
    0.51542E-07        -0.26044E-09         0.00000E+00
    0.53885E-07        -0.12196E-08         0.00000E+00
    0.56218E-07        -0.23258E-08         0.00000E+00
    0.58541E-07        -0.35691E-08         0.00000E+00
    0.60849E-07        -0.49351E-08         0.00000E+00
    0.63139E-07        -0.64032E-08         0.00000E+00
    0.65401E-07        -0.79450E-08         0.00000E+00
    0.67624E-07        -0.95217E-08         0.00000E+00
    0.69794E-07        -0.11082E-07         0.00000E+00
    0.71890E-07        -0.12558E-07         0.00000E+00
    0.73891E-07        -0.13864E-07         0.00000E+00
    0.75770E-07        -0.14894E-07         0.00000E+00
    0.77498E-07        -0.15516E-07         0.00000E+00
    0.79042E-07        -0.15571E-07         0.00000E+00
    0.80367E-07        -0.14869E-07         0.00000E+00
    0.81436E-07        -0.13188E-07         0.00000E+00
    0.82210E-07        -0.10277E-07         0.00000E+00
    0.82661E-07        -0.58955E-08         0.00000E+00
    0.82787E-07        -0.33098E-08         0.00000E+00
   -0.15237E-07        -0.49579E-08         0.00000E+00
   -0.15507E-07        -0.92193E-08         0.00000E+00
   -0.16185E-07        -0.16863E-07         0.00000E+00
   -0.17079E-07        -0.22802E-07         0.00000E+00
   -0.18029E-07        -0.27162E-07         0.00000E+00
   -0.18920E-07        -0.30118E-07         0.00000E+00
   -0.19669E-07        -0.31869E-07         0.00000E+00
   -0.20219E-07        -0.32618E-07         0.00000E+00
   -0.20539E-07        -0.32556E-07         0.00000E+00
   -0.20613E-07        -0.31855E-07         0.00000E+00
   -0.20439E-07        -0.30671E-07         0.00000E+00
   -0.20028E-07        -0.29139E-07         0.00000E+00
   -0.19394E-07        -0.27373E-07         0.00000E+00
   -0.18560E-07        -0.25469E-07         0.00000E+00
   -0.17548E-07        -0.23507E-07         0.00000E+00
   -0.16383E-07        -0.21549E-07         0.00000E+00
   -0.15088E-07        -0.19647E-07         0.00000E+00
   -0.13687E-07        -0.17838E-07         0.00000E+00
   -0.12198E-07        -0.16151E-07         0.00000E+00
   -0.10642E-07        -0.14607E-07         0.00000E+00
   -0.90360E-08        -0.13221E-07         0.00000E+00
   -0.73936E-08        -0.12002E-07         0.00000E+00
   -0.57280E-08        -0.10956E-07         0.00000E+00
   -0.40502E-08        -0.10086E-07         0.00000E+00
   -0.23697E-08        -0.93923E-08         0.00000E+00
   -0.69464E-09        -0.88738E-08         0.00000E+00
    0.96781E-09        -0.85284E-08         0.00000E+00
    0.26113E-08        -0.83532E-08         0.00000E+00
    0.42299E-08        -0.83441E-08         0.00000E+00
    0.58179E-08        -0.84966E-08         0.00000E+00
    0.73699E-08        -0.88048E-08         0.00000E+00
    0.88798E-08        -0.92620E-08         0.00000E+00
    0.10341E-07        -0.98593E-08         0.00000E+00
    0.11748E-07        -0.10586E-07         0.00000E+00
    0.13092E-07        -0.11428E-07         0.00000E+00
    0.14364E-07        -0.12367E-07         0.00000E+00
    0.15556E-07        -0.13380E-07         0.00000E+00
    0.16658E-07        -0.14439E-07         0.00000E+00
    0.17658E-07        -0.15507E-07         0.00000E+00
    0.18547E-07        -0.16538E-07         0.00000E+00
    0.19315E-07        -0.17476E-07         0.00000E+00
    0.19951E-07        -0.18252E-07         0.00000E+00
    0.20449E-07        -0.18786E-07         0.00000E+00
    0.20805E-07        -0.18981E-07         0.00000E+00
    0.21020E-07        -0.18723E-07         0.00000E+00
    0.21100E-07        -0.17886E-07         0.00000E+00
    0.21063E-07        -0.16329E-07         0.00000E+00
    0.20935E-07        -0.13904E-07         0.00000E+00
    0.20762E-07        -0.10464E-07         0.00000E+00
    0.20601E-07        -0.58696E-08         0.00000E+00
    0.20527E-07        -0.32670E-08         0.00000E+00
   -0.79924E-08        -0.37508E-08         0.00000E+00
   -0.81935E-08        -0.70776E-08         0.00000E+00
   -0.87194E-08        -0.13146E-07         0.00000E+00
   -0.94772E-08        -0.18083E-07         0.00000E+00
   -0.10380E-07        -0.21969E-07         0.00000E+00
   -0.11351E-07        -0.24902E-07         0.00000E+00
   -0.12324E-07        -0.26988E-07         0.00000E+00
   -0.13248E-07        -0.28335E-07         0.00000E+00
   -0.14082E-07        -0.29053E-07         0.00000E+00
   -0.14798E-07        -0.29248E-07         0.00000E+00
   -0.15377E-07        -0.29019E-07         0.00000E+00
   -0.15810E-07        -0.28454E-07         0.00000E+00
   -0.16091E-07        -0.27634E-07         0.00000E+00
   -0.16223E-07        -0.26628E-07         0.00000E+00
   -0.16211E-07        -0.25498E-07         0.00000E+00
   -0.16065E-07        -0.24295E-07         0.00000E+00
   -0.15795E-07        -0.23063E-07         0.00000E+00
   -0.15413E-07        -0.21838E-07         0.00000E+00
   -0.14933E-07        -0.20650E-07         0.00000E+00
   -0.14368E-07        -0.19522E-07         0.00000E+00
   -0.13731E-07        -0.18473E-07         0.00000E+00
   -0.13034E-07        -0.17518E-07         0.00000E+00
   -0.12292E-07        -0.16668E-07         0.00000E+00
   -0.11514E-07        -0.15931E-07         0.00000E+00
   -0.10714E-07        -0.15311E-07         0.00000E+00
   -0.99006E-08        -0.14813E-07         0.00000E+00
   -0.90856E-08        -0.14437E-07         0.00000E+00
   -0.82785E-08        -0.14182E-07         0.00000E+00
   -0.74891E-08        -0.14047E-07         0.00000E+00
   -0.67267E-08        -0.14028E-07         0.00000E+00
   -0.60006E-08        -0.14119E-07         0.00000E+00
   -0.53199E-08        -0.14313E-07         0.00000E+00
   -0.46937E-08        -0.14601E-07         0.00000E+00
   -0.41309E-08        -0.14970E-07         0.00000E+00
   -0.36405E-08        -0.15406E-07         0.00000E+00
   -0.32308E-08        -0.15891E-07         0.00000E+00
   -0.29101E-08        -0.16403E-07         0.00000E+00
   -0.26857E-08        -0.16915E-07         0.00000E+00
   -0.25637E-08        -0.17394E-07         0.00000E+00
   -0.25488E-08        -0.17804E-07         0.00000E+00
   -0.26433E-08        -0.18100E-07         0.00000E+00
   -0.28465E-08        -0.18230E-07         0.00000E+00
   -0.31537E-08        -0.18134E-07         0.00000E+00
   -0.35554E-08        -0.17746E-07         0.00000E+00
   -0.40357E-08        -0.16990E-07         0.00000E+00
   -0.45715E-08        -0.15786E-07         0.00000E+00
   -0.51308E-08        -0.14047E-07         0.00000E+00
   -0.56723E-08        -0.11683E-07         0.00000E+00
   -0.61444E-08        -0.86040E-08         0.00000E+00
   -0.64860E-08        -0.47219E-08         0.00000E+00
   -0.66268E-08        -0.25697E-08         0.00000E+00
   -0.22617E-08        -0.29463E-08         0.00000E+00
   -0.23993E-08        -0.55839E-08         0.00000E+00
   -0.27747E-08        -0.10445E-07         0.00000E+00
   -0.33349E-08        -0.14498E-07         0.00000E+00
   -0.40302E-08        -0.17793E-07         0.00000E+00
   -0.48156E-08        -0.20399E-07         0.00000E+00
   -0.56506E-08        -0.22386E-07         0.00000E+00
   -0.65000E-08        -0.23831E-07         0.00000E+00
   -0.73341E-08        -0.24805E-07         0.00000E+00
   -0.81290E-08        -0.25377E-07         0.00000E+00
   -0.88661E-08        -0.25612E-07         0.00000E+00
   -0.95316E-08        -0.25571E-07         0.00000E+00
   -0.10116E-07        -0.25306E-07         0.00000E+00
   -0.10615E-07        -0.24867E-07         0.00000E+00
   -0.11026E-07        -0.24296E-07         0.00000E+00
   -0.11349E-07        -0.23632E-07         0.00000E+00
   -0.11588E-07        -0.22906E-07         0.00000E+00
   -0.11747E-07        -0.22147E-07         0.00000E+00
   -0.11832E-07        -0.21378E-07         0.00000E+00
   -0.11851E-07        -0.20620E-07         0.00000E+00
   -0.11812E-07        -0.19888E-07         0.00000E+00
   -0.11722E-07        -0.19197E-07         0.00000E+00
   -0.11592E-07        -0.18557E-07         0.00000E+00
   -0.11429E-07        -0.17976E-07         0.00000E+00
   -0.11243E-07        -0.17460E-07         0.00000E+00
   -0.11042E-07        -0.17014E-07         0.00000E+00
   -0.10836E-07        -0.16639E-07         0.00000E+00
   -0.10633E-07        -0.16336E-07         0.00000E+00
   -0.10443E-07        -0.16103E-07         0.00000E+00
   -0.10273E-07        -0.15939E-07         0.00000E+00
   -0.10131E-07        -0.15839E-07         0.00000E+00
   -0.10027E-07        -0.15797E-07         0.00000E+00
   -0.99666E-08        -0.15804E-07         0.00000E+00
   -0.99579E-08        -0.15852E-07         0.00000E+00
   -0.10007E-07        -0.15928E-07         0.00000E+00
   -0.10121E-07        -0.16019E-07         0.00000E+00
   -0.10303E-07        -0.16106E-07         0.00000E+00
   -0.10558E-07        -0.16171E-07         0.00000E+00
   -0.10887E-07        -0.16191E-07         0.00000E+00
   -0.11292E-07        -0.16140E-07         0.00000E+00
   -0.11768E-07        -0.15987E-07         0.00000E+00
   -0.12312E-07        -0.15700E-07         0.00000E+00
   -0.12913E-07        -0.15242E-07         0.00000E+00
   -0.13560E-07        -0.14570E-07         0.00000E+00
   -0.14234E-07        -0.13642E-07         0.00000E+00
   -0.14912E-07        -0.12411E-07         0.00000E+00
   -0.15565E-07        -0.10825E-07         0.00000E+00
   -0.16158E-07        -0.88364E-08         0.00000E+00
   -0.16647E-07        -0.63951E-08         0.00000E+00
   -0.16985E-07        -0.34575E-08         0.00000E+00
   -0.17116E-07        -0.18595E-08         0.00000E+00
    0.15101E-08        -0.23745E-08         0.00000E+00
    0.14086E-08        -0.45123E-08         0.00000E+00
    0.11284E-08        -0.84686E-08         0.00000E+00
    0.70205E-09        -0.11805E-07         0.00000E+00
    0.16104E-09        -0.14565E-07         0.00000E+00
   -0.46521E-09        -0.16800E-07         0.00000E+00
   -0.11501E-08        -0.18566E-07         0.00000E+00
   -0.18702E-08        -0.19917E-07         0.00000E+00
   -0.26049E-08        -0.20908E-07         0.00000E+00
   -0.33371E-08        -0.21589E-07         0.00000E+00
   -0.40523E-08        -0.22006E-07         0.00000E+00
   -0.47392E-08        -0.22202E-07         0.00000E+00
   -0.53891E-08        -0.22216E-07         0.00000E+00
   -0.59956E-08        -0.22082E-07         0.00000E+00
   -0.65547E-08        -0.21829E-07         0.00000E+00
   -0.70643E-08        -0.21486E-07         0.00000E+00
   -0.75239E-08        -0.21074E-07         0.00000E+00
   -0.79346E-08        -0.20616E-07         0.00000E+00
   -0.82987E-08        -0.20127E-07         0.00000E+00
   -0.86193E-08        -0.19623E-07         0.00000E+00
   -0.89007E-08        -0.19117E-07         0.00000E+00
   -0.91475E-08        -0.18618E-07         0.00000E+00
   -0.93650E-08        -0.18136E-07         0.00000E+00
   -0.95590E-08        -0.17677E-07         0.00000E+00
   -0.97352E-08        -0.17246E-07         0.00000E+00
   -0.98998E-08        -0.16846E-07         0.00000E+00
   -0.10059E-07        -0.16480E-07         0.00000E+00
   -0.10219E-07        -0.16148E-07         0.00000E+00
   -0.10386E-07        -0.15850E-07         0.00000E+00
   -0.10566E-07        -0.15585E-07         0.00000E+00
   -0.10764E-07        -0.15348E-07         0.00000E+00
   -0.10987E-07        -0.15137E-07         0.00000E+00
   -0.11239E-07        -0.14945E-07         0.00000E+00
   -0.11525E-07        -0.14766E-07         0.00000E+00
   -0.11848E-07        -0.14592E-07         0.00000E+00
   -0.12213E-07        -0.14412E-07         0.00000E+00
   -0.12621E-07        -0.14217E-07         0.00000E+00
   -0.13074E-07        -0.13993E-07         0.00000E+00
   -0.13570E-07        -0.13727E-07         0.00000E+00
   -0.14108E-07        -0.13401E-07         0.00000E+00
   -0.14685E-07        -0.13000E-07         0.00000E+00
   -0.15294E-07        -0.12504E-07         0.00000E+00
   -0.15927E-07        -0.11892E-07         0.00000E+00
   -0.16571E-07        -0.11141E-07         0.00000E+00
   -0.17213E-07        -0.10229E-07         0.00000E+00
   -0.17834E-07        -0.91302E-08         0.00000E+00
   -0.18411E-07        -0.78203E-08         0.00000E+00
   -0.18919E-07        -0.62742E-08         0.00000E+00
   -0.19328E-07        -0.44680E-08         0.00000E+00
   -0.19603E-07        -0.23795E-08         0.00000E+00
   -0.19708E-07        -0.12621E-08         0.00000E+00
    0.39053E-08        -0.19315E-08         0.00000E+00
    0.38242E-08        -0.36755E-08         0.00000E+00
    0.35988E-08        -0.69120E-08         0.00000E+00
    0.32531E-08        -0.96608E-08         0.00000E+00
    0.28100E-08        -0.11957E-07         0.00000E+00
    0.22906E-08        -0.13843E-07         0.00000E+00
    0.17142E-08        -0.15362E-07         0.00000E+00
    0.10978E-08        -0.16557E-07         0.00000E+00
    0.45610E-09        -0.17470E-07         0.00000E+00
   -0.19801E-09        -0.18140E-07         0.00000E+00
   -0.85385E-09        -0.18602E-07         0.00000E+00
   -0.15026E-08        -0.18887E-07         0.00000E+00
   -0.21372E-08        -0.19024E-07         0.00000E+00
   -0.27521E-08        -0.19039E-07         0.00000E+00
   -0.33435E-08        -0.18953E-07         0.00000E+00
   -0.39085E-08        -0.18786E-07         0.00000E+00
   -0.44458E-08        -0.18554E-07         0.00000E+00
   -0.49547E-08        -0.18273E-07         0.00000E+00
   -0.54359E-08        -0.17954E-07         0.00000E+00
   -0.58903E-08        -0.17610E-07         0.00000E+00
   -0.63200E-08        -0.17247E-07         0.00000E+00
   -0.67273E-08        -0.16875E-07         0.00000E+00
   -0.71150E-08        -0.16500E-07         0.00000E+00
   -0.74863E-08        -0.16125E-07         0.00000E+00
   -0.78447E-08        -0.15756E-07         0.00000E+00
   -0.81939E-08        -0.15395E-07         0.00000E+00
   -0.85376E-08        -0.15043E-07         0.00000E+00
   -0.88796E-08        -0.14701E-07         0.00000E+00
   -0.92236E-08        -0.14370E-07         0.00000E+00
   -0.95734E-08        -0.14048E-07         0.00000E+00
   -0.99324E-08        -0.13733E-07         0.00000E+00
   -0.10304E-07        -0.13423E-07         0.00000E+00
   -0.10691E-07        -0.13115E-07         0.00000E+00
   -0.11095E-07        -0.12804E-07         0.00000E+00
   -0.11520E-07        -0.12486E-07         0.00000E+00
   -0.11966E-07        -0.12155E-07         0.00000E+00
   -0.12433E-07        -0.11804E-07         0.00000E+00
   -0.12923E-07        -0.11428E-07         0.00000E+00
   -0.13432E-07        -0.11017E-07         0.00000E+00
   -0.13959E-07        -0.10563E-07         0.00000E+00
   -0.14501E-07        -0.10059E-07         0.00000E+00
   -0.15052E-07        -0.94931E-08         0.00000E+00
   -0.15605E-07        -0.88568E-08         0.00000E+00
   -0.16152E-07        -0.81394E-08         0.00000E+00
   -0.16681E-07        -0.73306E-08         0.00000E+00
   -0.17180E-07        -0.64198E-08         0.00000E+00
   -0.17635E-07        -0.53969E-08         0.00000E+00
   -0.18026E-07        -0.42518E-08         0.00000E+00
   -0.18335E-07        -0.29752E-08         0.00000E+00
   -0.18540E-07        -0.15590E-08         0.00000E+00
   -0.18616E-07        -0.81500E-09         0.00000E+00
    0.53565E-08        -0.15639E-08         0.00000E+00
    0.52884E-08        -0.29798E-08         0.00000E+00
    0.50984E-08        -0.56128E-08         0.00000E+00
    0.48060E-08        -0.78611E-08         0.00000E+00
    0.44294E-08        -0.97531E-08         0.00000E+00
    0.39852E-08        -0.11322E-07         0.00000E+00
    0.34884E-08        -0.12601E-07         0.00000E+00
    0.29522E-08        -0.13626E-07         0.00000E+00
    0.23883E-08        -0.14429E-07         0.00000E+00
    0.18064E-08        -0.15039E-07         0.00000E+00
    0.12150E-08        -0.15483E-07         0.00000E+00
    0.62090E-09        -0.15786E-07         0.00000E+00
    0.29893E-10        -0.15968E-07         0.00000E+00
   -0.55353E-09        -0.16050E-07         0.00000E+00
   -0.11259E-08        -0.16047E-07         0.00000E+00
   -0.16846E-08        -0.15974E-07         0.00000E+00
   -0.22279E-08        -0.15843E-07         0.00000E+00
   -0.27549E-08        -0.15665E-07         0.00000E+00
   -0.32651E-08        -0.15449E-07         0.00000E+00
   -0.37586E-08        -0.15203E-07         0.00000E+00
   -0.42362E-08        -0.14932E-07         0.00000E+00
   -0.46988E-08        -0.14644E-07         0.00000E+00
   -0.51477E-08        -0.14341E-07         0.00000E+00
   -0.55846E-08        -0.14028E-07         0.00000E+00
   -0.60113E-08        -0.13708E-07         0.00000E+00
   -0.64298E-08        -0.13382E-07         0.00000E+00
   -0.68420E-08        -0.13052E-07         0.00000E+00
   -0.72500E-08        -0.12718E-07         0.00000E+00
   -0.76559E-08        -0.12381E-07         0.00000E+00
   -0.80616E-08        -0.12041E-07         0.00000E+00
   -0.84690E-08        -0.11696E-07         0.00000E+00
   -0.88797E-08        -0.11346E-07         0.00000E+00
   -0.92952E-08        -0.10987E-07         0.00000E+00
   -0.97166E-08        -0.10620E-07         0.00000E+00
   -0.10145E-07        -0.10240E-07         0.00000E+00
   -0.10579E-07        -0.98457E-08         0.00000E+00
   -0.11021E-07        -0.94333E-08         0.00000E+00
   -0.11469E-07        -0.89998E-08         0.00000E+00
   -0.11921E-07        -0.85417E-08         0.00000E+00
   -0.12376E-07        -0.80555E-08         0.00000E+00
   -0.12830E-07        -0.75378E-08         0.00000E+00
   -0.13280E-07        -0.69850E-08         0.00000E+00
   -0.13720E-07        -0.63939E-08         0.00000E+00
   -0.14146E-07        -0.57615E-08         0.00000E+00
   -0.14550E-07        -0.50849E-08         0.00000E+00
   -0.14923E-07        -0.43619E-08         0.00000E+00
   -0.15256E-07        -0.35907E-08         0.00000E+00
   -0.15538E-07        -0.27698E-08         0.00000E+00
   -0.15758E-07        -0.18981E-08         0.00000E+00
   -0.15901E-07        -0.97479E-09         0.00000E+00
   -0.15953E-07        -0.50006E-09         0.00000E+00
    0.61284E-08        -0.12503E-08         0.00000E+00
    0.60702E-08        -0.23851E-08         0.00000E+00
    0.59077E-08        -0.45001E-08         0.00000E+00
    0.56571E-08        -0.63154E-08         0.00000E+00
    0.53333E-08        -0.78528E-08         0.00000E+00
    0.49500E-08        -0.91378E-08         0.00000E+00
    0.45196E-08        -0.10197E-07         0.00000E+00
    0.40526E-08        -0.11056E-07         0.00000E+00
    0.35585E-08        -0.11741E-07         0.00000E+00
    0.30453E-08        -0.12273E-07         0.00000E+00
    0.25197E-08        -0.12674E-07         0.00000E+00
    0.19874E-08        -0.12962E-07         0.00000E+00
    0.14531E-08        -0.13152E-07         0.00000E+00
    0.92049E-09        -0.13260E-07         0.00000E+00
    0.39265E-09        -0.13298E-07         0.00000E+00
   -0.12809E-09        -0.13275E-07         0.00000E+00
   -0.64003E-09        -0.13203E-07         0.00000E+00
   -0.11420E-08        -0.13087E-07         0.00000E+00
   -0.16331E-08        -0.12936E-07         0.00000E+00
   -0.21131E-08        -0.12754E-07         0.00000E+00
   -0.25820E-08        -0.12547E-07         0.00000E+00
   -0.30399E-08        -0.12318E-07         0.00000E+00
   -0.34874E-08        -0.12070E-07         0.00000E+00
   -0.39250E-08        -0.11807E-07         0.00000E+00
   -0.43536E-08        -0.11531E-07         0.00000E+00
   -0.47740E-08        -0.11242E-07         0.00000E+00
   -0.51872E-08        -0.10942E-07         0.00000E+00
   -0.55942E-08        -0.10632E-07         0.00000E+00
   -0.59958E-08        -0.10312E-07         0.00000E+00
   -0.63929E-08        -0.99819E-08         0.00000E+00
   -0.67864E-08        -0.96421E-08         0.00000E+00
   -0.71770E-08        -0.92920E-08         0.00000E+00
   -0.75651E-08        -0.89308E-08         0.00000E+00
   -0.79511E-08        -0.85577E-08         0.00000E+00
   -0.83351E-08        -0.81719E-08         0.00000E+00
   -0.87168E-08        -0.77724E-08         0.00000E+00
   -0.90959E-08        -0.73581E-08         0.00000E+00
   -0.94714E-08        -0.69283E-08         0.00000E+00
   -0.98422E-08        -0.64820E-08         0.00000E+00
   -0.10207E-07        -0.60186E-08         0.00000E+00
   -0.10563E-07        -0.55379E-08         0.00000E+00
   -0.10908E-07        -0.50397E-08         0.00000E+00
   -0.11239E-07        -0.45244E-08         0.00000E+00
   -0.11552E-07        -0.39931E-08         0.00000E+00
   -0.11843E-07        -0.34470E-08         0.00000E+00
   -0.12106E-07        -0.28883E-08         0.00000E+00
   -0.12338E-07        -0.23194E-08         0.00000E+00
   -0.12530E-07        -0.17433E-08         0.00000E+00
   -0.12678E-07        -0.11630E-08         0.00000E+00
   -0.12772E-07        -0.58137E-09         0.00000E+00
   -0.12806E-07        -0.29051E-09         0.00000E+00
    0.64007E-08        -0.98228E-09         0.00000E+00
    0.63514E-08        -0.18766E-08         0.00000E+00
    0.62133E-08        -0.35472E-08         0.00000E+00
    0.59999E-08        -0.49888E-08         0.00000E+00
    0.57237E-08        -0.62178E-08         0.00000E+00
    0.53958E-08        -0.72530E-08         0.00000E+00
    0.50265E-08        -0.81144E-08         0.00000E+00
    0.46246E-08        -0.88214E-08         0.00000E+00
    0.41976E-08        -0.93925E-08         0.00000E+00
    0.37523E-08        -0.98447E-08         0.00000E+00
    0.32942E-08        -0.10193E-07         0.00000E+00
    0.28280E-08        -0.10452E-07         0.00000E+00
    0.23577E-08        -0.10634E-07         0.00000E+00
    0.18863E-08        -0.10748E-07         0.00000E+00
    0.14166E-08        -0.10804E-07         0.00000E+00
    0.95068E-09        -0.10811E-07         0.00000E+00
    0.49009E-09        -0.10774E-07         0.00000E+00
    0.36127E-10        -0.10700E-07         0.00000E+00
   -0.41031E-09        -0.10593E-07         0.00000E+00
   -0.84860E-09        -0.10458E-07         0.00000E+00
   -0.12783E-08        -0.10298E-07         0.00000E+00
   -0.16993E-08        -0.10117E-07         0.00000E+00
   -0.21115E-08        -0.99157E-08         0.00000E+00
   -0.25150E-08        -0.96972E-08         0.00000E+00
   -0.29100E-08        -0.94627E-08         0.00000E+00
   -0.32967E-08        -0.92137E-08         0.00000E+00
   -0.36754E-08        -0.89510E-08         0.00000E+00
   -0.40464E-08        -0.86754E-08         0.00000E+00
   -0.44100E-08        -0.83875E-08         0.00000E+00
   -0.47665E-08        -0.80875E-08         0.00000E+00
   -0.51160E-08        -0.77757E-08         0.00000E+00
   -0.54588E-08        -0.74522E-08         0.00000E+00
   -0.57948E-08        -0.71170E-08         0.00000E+00
   -0.61240E-08        -0.67701E-08         0.00000E+00
   -0.64461E-08        -0.64116E-08         0.00000E+00
   -0.67609E-08        -0.60416E-08         0.00000E+00
   -0.70677E-08        -0.56602E-08         0.00000E+00
   -0.73658E-08        -0.52679E-08         0.00000E+00
   -0.76545E-08        -0.48652E-08         0.00000E+00
   -0.79324E-08        -0.44530E-08         0.00000E+00
   -0.81984E-08        -0.40327E-08         0.00000E+00
   -0.84507E-08        -0.36058E-08         0.00000E+00
   -0.86877E-08        -0.31746E-08         0.00000E+00
   -0.89072E-08        -0.27419E-08         0.00000E+00
   -0.91069E-08        -0.23109E-08         0.00000E+00
   -0.92844E-08        -0.18855E-08         0.00000E+00
   -0.94368E-08        -0.14703E-08         0.00000E+00
   -0.95612E-08        -0.10698E-08         0.00000E+00
   -0.96544E-08        -0.68877E-09         0.00000E+00
   -0.97131E-08        -0.33147E-09         0.00000E+00
   -0.97338E-08        -0.15923E-09         0.00000E+00
    0.63139E-08        -0.75671E-09         0.00000E+00
    0.62727E-08        -0.14481E-08         0.00000E+00
    0.61575E-08        -0.27430E-08         0.00000E+00
    0.59791E-08        -0.38672E-08         0.00000E+00
    0.57476E-08        -0.48323E-08         0.00000E+00
    0.54722E-08        -0.56520E-08         0.00000E+00
    0.51613E-08        -0.63406E-08         0.00000E+00
    0.48219E-08        -0.69120E-08         0.00000E+00
    0.44605E-08        -0.73798E-08         0.00000E+00
    0.40824E-08        -0.77562E-08         0.00000E+00
    0.36922E-08        -0.80526E-08         0.00000E+00
    0.32938E-08        -0.82788E-08         0.00000E+00
    0.28906E-08        -0.84437E-08         0.00000E+00
    0.24852E-08        -0.85550E-08         0.00000E+00
    0.20800E-08        -0.86194E-08         0.00000E+00
    0.16767E-08        -0.86428E-08         0.00000E+00
    0.12769E-08        -0.86299E-08         0.00000E+00
    0.88179E-09        -0.85852E-08         0.00000E+00
    0.49234E-09        -0.85122E-08         0.00000E+00
    0.10929E-09        -0.84140E-08         0.00000E+00
   -0.26679E-09        -0.82932E-08         0.00000E+00
   -0.63546E-09        -0.81519E-08         0.00000E+00
   -0.99641E-09        -0.79920E-08         0.00000E+00
   -0.13494E-08        -0.78151E-08         0.00000E+00
   -0.16943E-08        -0.76223E-08         0.00000E+00
   -0.20310E-08        -0.74147E-08         0.00000E+00
   -0.23595E-08        -0.71932E-08         0.00000E+00
   -0.26796E-08        -0.69585E-08         0.00000E+00
   -0.29913E-08        -0.67111E-08         0.00000E+00
   -0.32945E-08        -0.64517E-08         0.00000E+00
   -0.35892E-08        -0.61805E-08         0.00000E+00
   -0.38751E-08        -0.58981E-08         0.00000E+00
   -0.41522E-08        -0.56048E-08         0.00000E+00
   -0.44201E-08        -0.53011E-08         0.00000E+00
   -0.46785E-08        -0.49875E-08         0.00000E+00
   -0.49271E-08        -0.46646E-08         0.00000E+00
   -0.51654E-08        -0.43332E-08         0.00000E+00
   -0.53929E-08        -0.39943E-08         0.00000E+00
   -0.56089E-08        -0.36491E-08         0.00000E+00
   -0.58128E-08        -0.32992E-08         0.00000E+00
   -0.60038E-08        -0.29464E-08         0.00000E+00
   -0.61810E-08        -0.25932E-08         0.00000E+00
   -0.63436E-08        -0.22422E-08         0.00000E+00
   -0.64906E-08        -0.18969E-08         0.00000E+00
   -0.66210E-08        -0.15610E-08         0.00000E+00
   -0.67340E-08        -0.12389E-08         0.00000E+00
   -0.68284E-08        -0.93525E-09         0.00000E+00
   -0.69035E-08        -0.65507E-09         0.00000E+00
   -0.69581E-08        -0.40328E-09         0.00000E+00
   -0.69916E-08        -0.18425E-09         0.00000E+00
   -0.70030E-08        -0.83411E-10         0.00000E+00
    0.59838E-08        -0.57098E-09         0.00000E+00
    0.59503E-08        -0.10948E-08         0.00000E+00
    0.58564E-08        -0.20789E-08         0.00000E+00
    0.57106E-08        -0.29392E-08         0.00000E+00
    0.55210E-08        -0.36836E-08         0.00000E+00
    0.52950E-08        -0.43216E-08         0.00000E+00
    0.50391E-08        -0.48629E-08         0.00000E+00
    0.47593E-08        -0.53175E-08         0.00000E+00
    0.44604E-08        -0.56947E-08         0.00000E+00
    0.41470E-08        -0.60031E-08         0.00000E+00
    0.38228E-08        -0.62507E-08         0.00000E+00
    0.34910E-08        -0.64444E-08         0.00000E+00
    0.31543E-08        -0.65907E-08         0.00000E+00
    0.28150E-08        -0.66948E-08         0.00000E+00
    0.24751E-08        -0.67617E-08         0.00000E+00
    0.21362E-08        -0.67954E-08         0.00000E+00
    0.17996E-08        -0.67994E-08         0.00000E+00
    0.14665E-08        -0.67770E-08         0.00000E+00
    0.11378E-08        -0.67306E-08         0.00000E+00
    0.81431E-09        -0.66625E-08         0.00000E+00
    0.49661E-09        -0.65747E-08         0.00000E+00
    0.18528E-09        -0.64687E-08         0.00000E+00
   -0.11926E-09        -0.63459E-08         0.00000E+00
   -0.41660E-09        -0.62075E-08         0.00000E+00
   -0.70644E-09        -0.60546E-08         0.00000E+00
   -0.98847E-09        -0.58879E-08         0.00000E+00
   -0.12625E-08        -0.57083E-08         0.00000E+00
   -0.15281E-08        -0.55164E-08         0.00000E+00
   -0.17853E-08        -0.53128E-08         0.00000E+00
   -0.20337E-08        -0.50980E-08         0.00000E+00
   -0.22731E-08        -0.48727E-08         0.00000E+00
   -0.25032E-08        -0.46372E-08         0.00000E+00
   -0.27238E-08        -0.43923E-08         0.00000E+00
   -0.29345E-08        -0.41384E-08         0.00000E+00
   -0.31351E-08        -0.38764E-08         0.00000E+00
   -0.33252E-08        -0.36071E-08         0.00000E+00
   -0.35045E-08        -0.33313E-08         0.00000E+00
   -0.36726E-08        -0.30504E-08         0.00000E+00
   -0.38292E-08        -0.27657E-08         0.00000E+00
   -0.39738E-08        -0.24788E-08         0.00000E+00
   -0.41061E-08        -0.21917E-08         0.00000E+00
   -0.42257E-08        -0.19067E-08         0.00000E+00
   -0.43325E-08        -0.16266E-08         0.00000E+00
   -0.44261E-08        -0.13545E-08         0.00000E+00
   -0.45064E-08        -0.10938E-08         0.00000E+00
   -0.45735E-08        -0.84855E-09         0.00000E+00
   -0.46273E-08        -0.62295E-09         0.00000E+00
   -0.46682E-08        -0.42139E-09         0.00000E+00
   -0.46967E-08        -0.24819E-09         0.00000E+00
   -0.47131E-08        -0.10716E-09         0.00000E+00
   -0.47184E-08        -0.45121E-10         0.00000E+00
    0.55055E-08        -0.42186E-09         0.00000E+00
    0.54790E-08        -0.81077E-09         0.00000E+00
    0.54043E-08        -0.15440E-08         0.00000E+00
    0.52881E-08        -0.21902E-08         0.00000E+00
    0.51367E-08        -0.27544E-08         0.00000E+00
    0.49558E-08        -0.32429E-08         0.00000E+00
    0.47505E-08        -0.36621E-08         0.00000E+00
    0.45254E-08        -0.40186E-08         0.00000E+00
    0.42845E-08        -0.43186E-08         0.00000E+00
    0.40312E-08        -0.45681E-08         0.00000E+00
    0.37685E-08        -0.47724E-08         0.00000E+00
    0.34991E-08        -0.49362E-08         0.00000E+00
    0.32251E-08        -0.50639E-08         0.00000E+00
    0.29486E-08        -0.51592E-08         0.00000E+00
    0.26710E-08        -0.52254E-08         0.00000E+00
    0.23938E-08        -0.52653E-08         0.00000E+00
    0.21181E-08        -0.52815E-08         0.00000E+00
    0.18451E-08        -0.52762E-08         0.00000E+00
    0.15755E-08        -0.52511E-08         0.00000E+00
    0.13100E-08        -0.52079E-08         0.00000E+00
    0.10494E-08        -0.51480E-08         0.00000E+00
    0.79421E-09        -0.50726E-08         0.00000E+00
    0.54489E-09        -0.49827E-08         0.00000E+00
    0.30189E-09        -0.48792E-08         0.00000E+00
    0.65612E-10        -0.47629E-08         0.00000E+00
   -0.16358E-09        -0.46346E-08         0.00000E+00
   -0.38536E-09        -0.44948E-08         0.00000E+00
   -0.59940E-09        -0.43443E-08         0.00000E+00
   -0.80539E-09        -0.41834E-08         0.00000E+00
   -0.10031E-08        -0.40128E-08         0.00000E+00
   -0.11921E-08        -0.38331E-08         0.00000E+00
   -0.13722E-08        -0.36447E-08         0.00000E+00
   -0.15431E-08        -0.34482E-08         0.00000E+00
   -0.17045E-08        -0.32444E-08         0.00000E+00
   -0.18562E-08        -0.30339E-08         0.00000E+00
   -0.19979E-08        -0.28175E-08         0.00000E+00
   -0.21293E-08        -0.25962E-08         0.00000E+00
   -0.22502E-08        -0.23711E-08         0.00000E+00
   -0.23604E-08        -0.21435E-08         0.00000E+00
   -0.24598E-08        -0.19147E-08         0.00000E+00
   -0.25482E-08        -0.16866E-08         0.00000E+00
   -0.26257E-08        -0.14611E-08         0.00000E+00
   -0.26924E-08        -0.12404E-08         0.00000E+00
   -0.27484E-08        -0.10272E-08         0.00000E+00
   -0.27940E-08        -0.82410E-09         0.00000E+00
   -0.28299E-08        -0.63439E-09         0.00000E+00
   -0.28567E-08        -0.46134E-09         0.00000E+00
   -0.28753E-08        -0.30838E-09         0.00000E+00
   -0.28867E-08        -0.17883E-09         0.00000E+00
   -0.28924E-08        -0.75617E-10         0.00000E+00
   -0.28938E-08        -0.30923E-10         0.00000E+00
    0.49534E-08        -0.30534E-09         0.00000E+00
    0.49329E-08        -0.58845E-09         0.00000E+00
    0.48751E-08        -0.11245E-08         0.00000E+00
    0.47850E-08        -0.16014E-08         0.00000E+00
    0.46673E-08        -0.20222E-08         0.00000E+00
    0.45262E-08        -0.23907E-08         0.00000E+00
    0.43658E-08        -0.27110E-08         0.00000E+00
    0.41893E-08        -0.29872E-08         0.00000E+00
    0.40000E-08        -0.32234E-08         0.00000E+00
    0.38004E-08        -0.34233E-08         0.00000E+00
    0.35930E-08        -0.35903E-08         0.00000E+00
    0.33797E-08        -0.37276E-08         0.00000E+00
    0.31624E-08        -0.38380E-08         0.00000E+00
    0.29427E-08        -0.39240E-08         0.00000E+00
    0.27217E-08        -0.39877E-08         0.00000E+00
    0.25007E-08        -0.40311E-08         0.00000E+00
    0.22807E-08        -0.40559E-08         0.00000E+00
    0.20625E-08        -0.40636E-08         0.00000E+00
    0.18470E-08        -0.40553E-08         0.00000E+00
    0.16348E-08        -0.40323E-08         0.00000E+00
    0.14266E-08        -0.39956E-08         0.00000E+00
    0.12227E-08        -0.39460E-08         0.00000E+00
    0.10238E-08        -0.38843E-08         0.00000E+00
    0.83030E-09        -0.38112E-08         0.00000E+00
    0.64256E-09        -0.37272E-08         0.00000E+00
    0.46098E-09        -0.36331E-08         0.00000E+00
    0.28591E-09        -0.35293E-08         0.00000E+00
    0.11769E-09        -0.34162E-08         0.00000E+00
   -0.43366E-10        -0.32945E-08         0.00000E+00
   -0.19696E-09        -0.31646E-08         0.00000E+00
   -0.34279E-09        -0.30270E-08         0.00000E+00
   -0.48060E-09        -0.28821E-08         0.00000E+00
   -0.61011E-09        -0.27305E-08         0.00000E+00
   -0.73109E-09        -0.25729E-08         0.00000E+00
   -0.84331E-09        -0.24097E-08         0.00000E+00
   -0.94657E-09        -0.22418E-08         0.00000E+00
   -0.10407E-08        -0.20699E-08         0.00000E+00
   -0.11256E-08        -0.18949E-08         0.00000E+00
   -0.12012E-08        -0.17177E-08         0.00000E+00
   -0.12674E-08        -0.15397E-08         0.00000E+00
   -0.13244E-08        -0.13619E-08         0.00000E+00
   -0.13723E-08        -0.11859E-08         0.00000E+00
   -0.14114E-08        -0.10134E-08         0.00000E+00
   -0.14421E-08        -0.84607E-09         0.00000E+00
   -0.14650E-08        -0.68599E-09         0.00000E+00
   -0.14808E-08        -0.53531E-09         0.00000E+00
   -0.14906E-08        -0.39629E-09         0.00000E+00
   -0.14954E-08        -0.27125E-09         0.00000E+00
   -0.14967E-08        -0.16241E-09         0.00000E+00
   -0.14960E-08        -0.71725E-10         0.00000E+00
   -0.14952E-08        -0.31136E-10         0.00000E+00
    0.43827E-08        -0.21680E-09         0.00000E+00
    0.43673E-08        -0.41923E-09         0.00000E+00
    0.43238E-08        -0.80443E-09         0.00000E+00
    0.42559E-08        -0.11510E-08         0.00000E+00
    0.41668E-08        -0.14605E-08         0.00000E+00
    0.40598E-08        -0.17352E-08         0.00000E+00
    0.39376E-08        -0.19774E-08         0.00000E+00
    0.38029E-08        -0.21896E-08         0.00000E+00
    0.36580E-08        -0.23741E-08         0.00000E+00
    0.35048E-08        -0.25332E-08         0.00000E+00
    0.33451E-08        -0.26691E-08         0.00000E+00
    0.31806E-08        -0.27836E-08         0.00000E+00
    0.30125E-08        -0.28785E-08         0.00000E+00
    0.28422E-08        -0.29553E-08         0.00000E+00
    0.26706E-08        -0.30155E-08         0.00000E+00
    0.24987E-08        -0.30603E-08         0.00000E+00
    0.23274E-08        -0.30908E-08         0.00000E+00
    0.21574E-08        -0.31079E-08         0.00000E+00
    0.19892E-08        -0.31126E-08         0.00000E+00
    0.18236E-08        -0.31055E-08         0.00000E+00
    0.16611E-08        -0.30874E-08         0.00000E+00
    0.15021E-08        -0.30589E-08         0.00000E+00
    0.13471E-08        -0.30205E-08         0.00000E+00
    0.11965E-08        -0.29729E-08         0.00000E+00
    0.10507E-08        -0.29163E-08         0.00000E+00
    0.91000E-09        -0.28513E-08         0.00000E+00
    0.77481E-09        -0.27784E-08         0.00000E+00
    0.64540E-09        -0.26979E-08         0.00000E+00
    0.52209E-09        -0.26102E-08         0.00000E+00
    0.40516E-09        -0.25157E-08         0.00000E+00
    0.29485E-09        -0.24149E-08         0.00000E+00
    0.19143E-09        -0.23081E-08         0.00000E+00
    0.95115E-10        -0.21958E-08         0.00000E+00
    0.61059E-11        -0.20784E-08         0.00000E+00
   -0.75420E-10        -0.19565E-08         0.00000E+00
   -0.14932E-09        -0.18305E-08         0.00000E+00
   -0.21549E-09        -0.17010E-08         0.00000E+00
   -0.27388E-09        -0.15688E-08         0.00000E+00
   -0.32449E-09        -0.14344E-08         0.00000E+00
   -0.36738E-09        -0.12985E-08         0.00000E+00
   -0.40271E-09        -0.11622E-08         0.00000E+00
   -0.43073E-09        -0.10261E-08         0.00000E+00
   -0.45180E-09        -0.89146E-09         0.00000E+00
   -0.46643E-09        -0.75919E-09         0.00000E+00
   -0.47526E-09        -0.63048E-09         0.00000E+00
   -0.47912E-09        -0.50655E-09         0.00000E+00
   -0.47901E-09        -0.38863E-09         0.00000E+00
   -0.47615E-09        -0.27798E-09         0.00000E+00
   -0.47194E-09        -0.17576E-09         0.00000E+00
   -0.46801E-09        -0.82963E-10         0.00000E+00
   -0.46611E-09        -0.39034E-10         0.00000E+00
    0.38312E-08        -0.15150E-09         0.00000E+00
    0.38200E-08        -0.29415E-09         0.00000E+00
    0.37883E-08        -0.56724E-09         0.00000E+00
    0.37385E-08        -0.81617E-09         0.00000E+00
    0.36731E-08        -0.10417E-08         0.00000E+00
    0.35941E-08        -0.12448E-08         0.00000E+00
    0.35037E-08        -0.14268E-08         0.00000E+00
    0.34037E-08        -0.15890E-08         0.00000E+00
    0.32957E-08        -0.17327E-08         0.00000E+00
    0.31812E-08        -0.18591E-08         0.00000E+00
    0.30615E-08        -0.19694E-08         0.00000E+00
    0.29378E-08        -0.20647E-08         0.00000E+00
    0.28111E-08        -0.21461E-08         0.00000E+00
    0.26823E-08        -0.22144E-08         0.00000E+00
    0.25523E-08        -0.22705E-08         0.00000E+00
    0.24219E-08        -0.23151E-08         0.00000E+00
    0.22916E-08        -0.23490E-08         0.00000E+00
    0.21621E-08        -0.23726E-08         0.00000E+00
    0.20340E-08        -0.23867E-08         0.00000E+00
    0.19077E-08        -0.23916E-08         0.00000E+00
    0.17836E-08        -0.23879E-08         0.00000E+00
    0.16623E-08        -0.23760E-08         0.00000E+00
    0.15441E-08        -0.23563E-08         0.00000E+00
    0.14294E-08        -0.23291E-08         0.00000E+00
    0.13185E-08        -0.22948E-08         0.00000E+00
    0.12117E-08        -0.22538E-08         0.00000E+00
    0.11093E-08        -0.22063E-08         0.00000E+00
    0.10117E-08        -0.21527E-08         0.00000E+00
    0.91899E-09        -0.20933E-08         0.00000E+00
    0.83152E-09        -0.20284E-08         0.00000E+00
    0.74949E-09        -0.19583E-08         0.00000E+00
    0.67312E-09        -0.18834E-08         0.00000E+00
    0.60259E-09        -0.18039E-08         0.00000E+00
    0.53807E-09        -0.17202E-08         0.00000E+00
    0.47968E-09        -0.16326E-08         0.00000E+00
    0.42754E-09        -0.15414E-08         0.00000E+00
    0.38169E-09        -0.14471E-08         0.00000E+00
    0.34215E-09        -0.13499E-08         0.00000E+00
    0.30890E-09        -0.12503E-08         0.00000E+00
    0.28181E-09        -0.11485E-08         0.00000E+00
    0.26071E-09        -0.10451E-08         0.00000E+00
    0.24533E-09        -0.94046E-09         0.00000E+00
    0.23529E-09        -0.83487E-09         0.00000E+00
    0.23011E-09        -0.72877E-09         0.00000E+00
    0.22916E-09        -0.62256E-09         0.00000E+00
    0.23165E-09        -0.51657E-09         0.00000E+00
    0.23666E-09        -0.41115E-09         0.00000E+00
    0.24307E-09        -0.30659E-09         0.00000E+00
    0.24960E-09        -0.20312E-09         0.00000E+00
    0.25478E-09        -0.10091E-09         0.00000E+00
    0.25704E-09        -0.50129E-10         0.00000E+00
    0.33227E-08        -0.10489E-09         0.00000E+00
    0.33149E-08        -0.20462E-09         0.00000E+00
    0.32925E-08        -0.39689E-09         0.00000E+00
    0.32572E-08        -0.57481E-09         0.00000E+00
    0.32106E-08        -0.73857E-09         0.00000E+00
    0.31541E-08        -0.88857E-09         0.00000E+00
    0.30892E-08        -0.10253E-08         0.00000E+00
    0.30171E-08        -0.11494E-08         0.00000E+00
    0.29388E-08        -0.12615E-08         0.00000E+00
    0.28556E-08        -0.13621E-08         0.00000E+00
    0.27682E-08        -0.14519E-08         0.00000E+00
    0.26776E-08        -0.15314E-08         0.00000E+00
    0.25846E-08        -0.16011E-08         0.00000E+00
    0.24897E-08        -0.16616E-08         0.00000E+00
    0.23936E-08        -0.17133E-08         0.00000E+00
    0.22970E-08        -0.17567E-08         0.00000E+00
    0.22002E-08        -0.17920E-08         0.00000E+00
    0.21039E-08        -0.18198E-08         0.00000E+00
    0.20084E-08        -0.18403E-08         0.00000E+00
    0.19142E-08        -0.18539E-08         0.00000E+00
    0.18216E-08        -0.18608E-08         0.00000E+00
    0.17310E-08        -0.18614E-08         0.00000E+00
    0.16427E-08        -0.18559E-08         0.00000E+00
    0.15570E-08        -0.18446E-08         0.00000E+00
    0.14742E-08        -0.18277E-08         0.00000E+00
    0.13946E-08        -0.18055E-08         0.00000E+00
    0.13185E-08        -0.17783E-08         0.00000E+00
    0.12460E-08        -0.17461E-08         0.00000E+00
    0.11774E-08        -0.17094E-08         0.00000E+00
    0.11129E-08        -0.16682E-08         0.00000E+00
    0.10528E-08        -0.16229E-08         0.00000E+00
    0.99709E-09        -0.15736E-08         0.00000E+00
    0.94603E-09        -0.15205E-08         0.00000E+00
    0.89973E-09        -0.14638E-08         0.00000E+00
    0.85828E-09        -0.14038E-08         0.00000E+00
    0.82175E-09        -0.13405E-08         0.00000E+00
    0.79019E-09        -0.12741E-08         0.00000E+00
    0.76359E-09        -0.12048E-08         0.00000E+00
    0.74188E-09        -0.11326E-08         0.00000E+00
    0.72497E-09        -0.10576E-08         0.00000E+00
    0.71268E-09        -0.97977E-09         0.00000E+00
    0.70474E-09        -0.89906E-09         0.00000E+00
    0.70084E-09        -0.81537E-09         0.00000E+00
    0.70052E-09        -0.72851E-09         0.00000E+00
    0.70324E-09        -0.63819E-09         0.00000E+00
    0.70834E-09        -0.54408E-09         0.00000E+00
    0.71501E-09        -0.44573E-09         0.00000E+00
    0.72230E-09        -0.34265E-09         0.00000E+00
    0.72914E-09        -0.23430E-09         0.00000E+00
    0.73430E-09        -0.12016E-09         0.00000E+00
    0.73646E-09        -0.61583E-10         0.00000E+00
    0.28699E-08        -0.72802E-10         0.00000E+00
    0.28646E-08        -0.14279E-09         0.00000E+00
    0.28494E-08        -0.27876E-09         0.00000E+00
    0.28253E-08        -0.40664E-09         0.00000E+00
    0.27932E-08        -0.52636E-09         0.00000E+00
    0.27542E-08        -0.63795E-09         0.00000E+00
    0.27091E-08        -0.74153E-09         0.00000E+00
    0.26587E-08        -0.83727E-09         0.00000E+00
    0.26038E-08        -0.92538E-09         0.00000E+00
    0.25450E-08        -0.10061E-08         0.00000E+00
    0.24831E-08        -0.10796E-08         0.00000E+00
    0.24186E-08        -0.11462E-08         0.00000E+00
    0.23520E-08        -0.12062E-08         0.00000E+00
    0.22839E-08        -0.12597E-08         0.00000E+00
    0.22147E-08        -0.13069E-08         0.00000E+00
    0.21448E-08        -0.13482E-08         0.00000E+00
    0.20746E-08        -0.13837E-08         0.00000E+00
    0.20046E-08        -0.14136E-08         0.00000E+00
    0.19350E-08        -0.14381E-08         0.00000E+00
    0.18662E-08        -0.14575E-08         0.00000E+00
    0.17985E-08        -0.14719E-08         0.00000E+00
    0.17321E-08        -0.14814E-08         0.00000E+00
    0.16674E-08        -0.14863E-08         0.00000E+00
    0.16045E-08        -0.14868E-08         0.00000E+00
    0.15438E-08        -0.14829E-08         0.00000E+00
    0.14854E-08        -0.14750E-08         0.00000E+00
    0.14296E-08        -0.14631E-08         0.00000E+00
    0.13766E-08        -0.14474E-08         0.00000E+00
    0.13265E-08        -0.14281E-08         0.00000E+00
    0.12795E-08        -0.14053E-08         0.00000E+00
    0.12358E-08        -0.13791E-08         0.00000E+00
    0.11955E-08        -0.13497E-08         0.00000E+00
    0.11587E-08        -0.13171E-08         0.00000E+00
    0.11256E-08        -0.12814E-08         0.00000E+00
    0.10961E-08        -0.12427E-08         0.00000E+00
    0.10705E-08        -0.12010E-08         0.00000E+00
    0.10486E-08        -0.11563E-08         0.00000E+00
    0.10305E-08        -0.11084E-08         0.00000E+00
    0.10161E-08        -0.10572E-08         0.00000E+00
    0.10053E-08        -0.10025E-08         0.00000E+00
    0.99797E-09        -0.94400E-09         0.00000E+00
    0.99391E-09        -0.88126E-09         0.00000E+00
    0.99282E-09        -0.81374E-09         0.00000E+00
    0.99434E-09        -0.74081E-09         0.00000E+00
    0.99804E-09        -0.66166E-09         0.00000E+00
    0.10034E-08        -0.57539E-09         0.00000E+00
    0.10097E-08        -0.48096E-09         0.00000E+00
    0.10163E-08        -0.37725E-09         0.00000E+00
    0.10222E-08        -0.26312E-09         0.00000E+00
    0.10267E-08        -0.13752E-09         0.00000E+00
    0.10285E-08        -0.71733E-10         0.00000E+00
    0.24773E-08        -0.51664E-10         0.00000E+00
    0.24739E-08        -0.10186E-09         0.00000E+00
    0.24640E-08        -0.20012E-09         0.00000E+00
    0.24482E-08        -0.29400E-09         0.00000E+00
    0.24271E-08        -0.38330E-09         0.00000E+00
    0.24012E-08        -0.46792E-09         0.00000E+00
    0.23710E-08        -0.54778E-09         0.00000E+00
    0.23370E-08        -0.62285E-09         0.00000E+00
    0.22998E-08        -0.69316E-09         0.00000E+00
    0.22596E-08        -0.75873E-09         0.00000E+00
    0.22171E-08        -0.81961E-09         0.00000E+00
    0.21724E-08        -0.87589E-09         0.00000E+00
    0.21262E-08        -0.92763E-09         0.00000E+00
    0.20786E-08        -0.97494E-09         0.00000E+00
    0.20300E-08        -0.10179E-08         0.00000E+00
    0.19807E-08        -0.10566E-08         0.00000E+00
    0.19310E-08        -0.10912E-08         0.00000E+00
    0.18812E-08        -0.11218E-08         0.00000E+00
    0.18316E-08        -0.11484E-08         0.00000E+00
    0.17823E-08        -0.11712E-08         0.00000E+00
    0.17337E-08        -0.11904E-08         0.00000E+00
    0.16860E-08        -0.12059E-08         0.00000E+00
    0.16393E-08        -0.12180E-08         0.00000E+00
    0.15940E-08        -0.12267E-08         0.00000E+00
    0.15500E-08        -0.12322E-08         0.00000E+00
    0.15078E-08        -0.12346E-08         0.00000E+00
    0.14673E-08        -0.12340E-08         0.00000E+00
    0.14289E-08        -0.12304E-08         0.00000E+00
    0.13925E-08        -0.12239E-08         0.00000E+00
    0.13585E-08        -0.12147E-08         0.00000E+00
    0.13268E-08        -0.12028E-08         0.00000E+00
    0.12976E-08        -0.11882E-08         0.00000E+00
    0.12710E-08        -0.11710E-08         0.00000E+00
    0.12471E-08        -0.11510E-08         0.00000E+00
    0.12260E-08        -0.11283E-08         0.00000E+00
    0.12076E-08        -0.11028E-08         0.00000E+00
    0.11919E-08        -0.10741E-08         0.00000E+00
    0.11791E-08        -0.10422E-08         0.00000E+00
    0.11690E-08        -0.10067E-08         0.00000E+00
    0.11615E-08        -0.96709E-09         0.00000E+00
    0.11566E-08        -0.92284E-09         0.00000E+00
    0.11540E-08        -0.87327E-09         0.00000E+00
    0.11536E-08        -0.81752E-09         0.00000E+00
    0.11551E-08        -0.75460E-09         0.00000E+00
    0.11582E-08        -0.68333E-09         0.00000E+00
    0.11624E-08        -0.60238E-09         0.00000E+00
    0.11673E-08        -0.51026E-09         0.00000E+00
    0.11723E-08        -0.40541E-09         0.00000E+00
    0.11768E-08        -0.28624E-09         0.00000E+00
    0.11801E-08        -0.15131E-09         0.00000E+00
    0.11814E-08        -0.79730E-10         0.00000E+00
    0.21441E-08        -0.38486E-10         0.00000E+00
    0.21420E-08        -0.76173E-10         0.00000E+00
    0.21359E-08        -0.15036E-09         0.00000E+00
    0.21261E-08        -0.22207E-09         0.00000E+00
    0.21129E-08        -0.29112E-09         0.00000E+00
    0.20965E-08        -0.35737E-09         0.00000E+00
    0.20771E-08        -0.42071E-09         0.00000E+00
    0.20552E-08        -0.48106E-09         0.00000E+00
    0.20308E-08        -0.53836E-09         0.00000E+00
    0.20044E-08        -0.59259E-09         0.00000E+00
    0.19761E-08        -0.64373E-09         0.00000E+00
    0.19462E-08        -0.69177E-09         0.00000E+00
    0.19150E-08        -0.73673E-09         0.00000E+00
    0.18827E-08        -0.77864E-09         0.00000E+00
    0.18494E-08        -0.81753E-09         0.00000E+00
    0.18155E-08        -0.85343E-09         0.00000E+00
    0.17811E-08        -0.88641E-09         0.00000E+00
    0.17464E-08        -0.91651E-09         0.00000E+00
    0.17117E-08        -0.94379E-09         0.00000E+00
    0.16771E-08        -0.96833E-09         0.00000E+00
    0.16428E-08        -0.99017E-09         0.00000E+00
    0.16090E-08        -0.10094E-08         0.00000E+00
    0.15758E-08        -0.10261E-08         0.00000E+00
    0.15434E-08        -0.10403E-08         0.00000E+00
    0.15119E-08        -0.10520E-08         0.00000E+00
    0.14816E-08        -0.10614E-08         0.00000E+00
    0.14524E-08        -0.10686E-08         0.00000E+00
    0.14246E-08        -0.10734E-08         0.00000E+00
    0.13982E-08        -0.10761E-08         0.00000E+00
    0.13734E-08        -0.10766E-08         0.00000E+00
    0.13503E-08        -0.10748E-08         0.00000E+00
    0.13289E-08        -0.10709E-08         0.00000E+00
    0.13094E-08        -0.10646E-08         0.00000E+00
    0.12917E-08        -0.10560E-08         0.00000E+00
    0.12760E-08        -0.10448E-08         0.00000E+00
    0.12622E-08        -0.10309E-08         0.00000E+00
    0.12505E-08        -0.10140E-08         0.00000E+00
    0.12406E-08        -0.99360E-09         0.00000E+00
    0.12328E-08        -0.96933E-09         0.00000E+00
    0.12268E-08        -0.94058E-09         0.00000E+00
    0.12226E-08        -0.90660E-09         0.00000E+00
    0.12201E-08        -0.86650E-09         0.00000E+00
    0.12191E-08        -0.81921E-09         0.00000E+00
    0.12195E-08        -0.76348E-09         0.00000E+00
    0.12211E-08        -0.69788E-09         0.00000E+00
    0.12234E-08        -0.62077E-09         0.00000E+00
    0.12264E-08        -0.53038E-09         0.00000E+00
    0.12294E-08        -0.42482E-09         0.00000E+00
    0.12323E-08        -0.30222E-09         0.00000E+00
    0.12344E-08        -0.16084E-09         0.00000E+00
    0.12352E-08        -0.85270E-10         0.00000E+00
    0.18657E-08        -0.30869E-10         0.00000E+00
    0.18645E-08        -0.61163E-10         0.00000E+00
    0.18611E-08        -0.12090E-09         0.00000E+00
    0.18555E-08        -0.17888E-09         0.00000E+00
    0.18477E-08        -0.23499E-09         0.00000E+00
    0.18379E-08        -0.28915E-09         0.00000E+00
    0.18262E-08        -0.34129E-09         0.00000E+00
    0.18127E-08        -0.39136E-09         0.00000E+00
    0.17975E-08        -0.43932E-09         0.00000E+00
    0.17808E-08        -0.48514E-09         0.00000E+00
    0.17627E-08        -0.52881E-09         0.00000E+00
    0.17433E-08        -0.57033E-09         0.00000E+00
    0.17229E-08        -0.60971E-09         0.00000E+00
    0.17015E-08        -0.64694E-09         0.00000E+00
    0.16793E-08        -0.68205E-09         0.00000E+00
    0.16565E-08        -0.71506E-09         0.00000E+00
    0.16331E-08        -0.74600E-09         0.00000E+00
    0.16094E-08        -0.77489E-09         0.00000E+00
    0.15855E-08        -0.80178E-09         0.00000E+00
    0.15615E-08        -0.82669E-09         0.00000E+00
    0.15376E-08        -0.84967E-09         0.00000E+00
    0.15138E-08        -0.87076E-09         0.00000E+00
    0.14904E-08        -0.89000E-09         0.00000E+00
    0.14673E-08        -0.90742E-09         0.00000E+00
    0.14448E-08        -0.92305E-09         0.00000E+00
    0.14230E-08        -0.93694E-09         0.00000E+00
    0.14018E-08        -0.94909E-09         0.00000E+00
    0.13816E-08        -0.95952E-09         0.00000E+00
    0.13622E-08        -0.96822E-09         0.00000E+00
    0.13439E-08        -0.97518E-09         0.00000E+00
    0.13266E-08        -0.98034E-09         0.00000E+00
    0.13106E-08        -0.98362E-09         0.00000E+00
    0.12957E-08        -0.98492E-09         0.00000E+00
    0.12821E-08        -0.98407E-09         0.00000E+00
    0.12698E-08        -0.98085E-09         0.00000E+00
    0.12588E-08        -0.97499E-09         0.00000E+00
    0.12491E-08        -0.96611E-09         0.00000E+00
    0.12408E-08        -0.95375E-09         0.00000E+00
    0.12338E-08        -0.93735E-09         0.00000E+00
    0.12282E-08        -0.91619E-09         0.00000E+00
    0.12237E-08        -0.88942E-09         0.00000E+00
    0.12205E-08        -0.85601E-09         0.00000E+00
    0.12183E-08        -0.81477E-09         0.00000E+00
    0.12171E-08        -0.76428E-09         0.00000E+00
    0.12168E-08        -0.70293E-09         0.00000E+00
    0.12172E-08        -0.62892E-09         0.00000E+00
    0.12180E-08        -0.54028E-09         0.00000E+00
    0.12192E-08        -0.43494E-09         0.00000E+00
    0.12203E-08        -0.31085E-09         0.00000E+00
    0.12213E-08        -0.16613E-09         0.00000E+00
    0.12217E-08        -0.88390E-10         0.00000E+00
    0.16360E-08        -0.26955E-10         0.00000E+00
    0.16355E-08        -0.53287E-10         0.00000E+00
    0.16338E-08        -0.10507E-09         0.00000E+00
    0.16309E-08        -0.15509E-09         0.00000E+00
    0.16267E-08        -0.20333E-09         0.00000E+00
    0.16213E-08        -0.24981E-09         0.00000E+00
    0.16147E-08        -0.29453E-09         0.00000E+00
    0.16069E-08        -0.33753E-09         0.00000E+00
    0.15979E-08        -0.37883E-09         0.00000E+00
    0.15878E-08        -0.41846E-09         0.00000E+00
    0.15766E-08        -0.45644E-09         0.00000E+00
    0.15645E-08        -0.49280E-09         0.00000E+00
    0.15515E-08        -0.52758E-09         0.00000E+00
    0.15377E-08        -0.56078E-09         0.00000E+00
    0.15232E-08        -0.59245E-09         0.00000E+00
    0.15081E-08        -0.62260E-09         0.00000E+00
    0.14924E-08        -0.65127E-09         0.00000E+00
    0.14764E-08        -0.67848E-09         0.00000E+00
    0.14600E-08        -0.70425E-09         0.00000E+00
    0.14435E-08        -0.72862E-09         0.00000E+00
    0.14268E-08        -0.75161E-09         0.00000E+00
    0.14101E-08        -0.77324E-09         0.00000E+00
    0.13934E-08        -0.79353E-09         0.00000E+00
    0.13769E-08        -0.81251E-09         0.00000E+00
    0.13606E-08        -0.83018E-09         0.00000E+00
    0.13446E-08        -0.84654E-09         0.00000E+00
    0.13291E-08        -0.86161E-09         0.00000E+00
    0.13139E-08        -0.87535E-09         0.00000E+00
    0.12993E-08        -0.88773E-09         0.00000E+00
    0.12854E-08        -0.89871E-09         0.00000E+00
    0.12720E-08        -0.90820E-09         0.00000E+00
    0.12594E-08        -0.91608E-09         0.00000E+00
    0.12474E-08        -0.92221E-09         0.00000E+00
    0.12363E-08        -0.92639E-09         0.00000E+00
    0.12260E-08        -0.92835E-09         0.00000E+00
    0.12165E-08        -0.92776E-09         0.00000E+00
    0.12079E-08        -0.92421E-09         0.00000E+00
    0.12002E-08        -0.91717E-09         0.00000E+00
    0.11933E-08        -0.90603E-09         0.00000E+00
    0.11873E-08        -0.89000E-09         0.00000E+00
    0.11821E-08        -0.86818E-09         0.00000E+00
    0.11777E-08        -0.83945E-09         0.00000E+00
    0.11741E-08        -0.80254E-09         0.00000E+00
    0.11712E-08        -0.75596E-09         0.00000E+00
    0.11690E-08        -0.69802E-09         0.00000E+00
    0.11674E-08        -0.62681E-09         0.00000E+00
    0.11663E-08        -0.54029E-09         0.00000E+00
    0.11657E-08        -0.43630E-09         0.00000E+00
    0.11653E-08        -0.31269E-09         0.00000E+00
    0.11652E-08        -0.16752E-09         0.00000E+00
    0.11652E-08        -0.89327E-10         0.00000E+00
    0.14481E-08        -0.25350E-10         0.00000E+00
    0.14479E-08        -0.49884E-10         0.00000E+00
    0.14473E-08        -0.97845E-10         0.00000E+00
    0.14460E-08        -0.14363E-09         0.00000E+00
    0.14441E-08        -0.18734E-09         0.00000E+00
    0.14415E-08        -0.22909E-09         0.00000E+00
    0.14381E-08        -0.26900E-09         0.00000E+00
    0.14338E-08        -0.30719E-09         0.00000E+00
    0.14288E-08        -0.34376E-09         0.00000E+00
    0.14229E-08        -0.37880E-09         0.00000E+00
    0.14163E-08        -0.41242E-09         0.00000E+00
    0.14089E-08        -0.44468E-09         0.00000E+00
    0.14007E-08        -0.47565E-09         0.00000E+00
    0.13919E-08        -0.50539E-09         0.00000E+00
    0.13825E-08        -0.53395E-09         0.00000E+00
    0.13726E-08        -0.56138E-09         0.00000E+00
    0.13621E-08        -0.58770E-09         0.00000E+00
    0.13512E-08        -0.61295E-09         0.00000E+00
    0.13399E-08        -0.63717E-09         0.00000E+00
    0.13283E-08        -0.66038E-09         0.00000E+00
    0.13165E-08        -0.68260E-09         0.00000E+00
    0.13045E-08        -0.70384E-09         0.00000E+00
    0.12924E-08        -0.72412E-09         0.00000E+00
    0.12803E-08        -0.74344E-09         0.00000E+00
    0.12682E-08        -0.76181E-09         0.00000E+00
    0.12561E-08        -0.77920E-09         0.00000E+00
    0.12442E-08        -0.79561E-09         0.00000E+00
    0.12325E-08        -0.81099E-09         0.00000E+00
    0.12210E-08        -0.82529E-09         0.00000E+00
    0.12098E-08        -0.83844E-09         0.00000E+00
    0.11989E-08        -0.85033E-09         0.00000E+00
    0.11883E-08        -0.86083E-09         0.00000E+00
    0.11782E-08        -0.86977E-09         0.00000E+00
    0.11685E-08        -0.87690E-09         0.00000E+00
    0.11592E-08        -0.88195E-09         0.00000E+00
    0.11505E-08        -0.88456E-09         0.00000E+00
    0.11422E-08        -0.88428E-09         0.00000E+00
    0.11344E-08        -0.88058E-09         0.00000E+00
    0.11272E-08        -0.87279E-09         0.00000E+00
    0.11205E-08        -0.86011E-09         0.00000E+00
    0.11144E-08        -0.84159E-09         0.00000E+00
    0.11088E-08        -0.81612E-09         0.00000E+00
    0.11038E-08        -0.78239E-09         0.00000E+00
    0.10993E-08        -0.73887E-09         0.00000E+00
    0.10954E-08        -0.68386E-09         0.00000E+00
    0.10921E-08        -0.61544E-09         0.00000E+00
    0.10893E-08        -0.53155E-09         0.00000E+00
    0.10871E-08        -0.43002E-09         0.00000E+00
    0.10855E-08        -0.30869E-09         0.00000E+00
    0.10846E-08        -0.16561E-09         0.00000E+00
    0.10842E-08        -0.88416E-10         0.00000E+00
    0.12950E-08        -0.25045E-10         0.00000E+00
    0.12950E-08        -0.49027E-10         0.00000E+00
    0.12949E-08        -0.95570E-10         0.00000E+00
    0.12946E-08        -0.13936E-09         0.00000E+00
    0.12940E-08        -0.18060E-09         0.00000E+00
    0.12929E-08        -0.21950E-09         0.00000E+00
    0.12913E-08        -0.25629E-09         0.00000E+00
    0.12891E-08        -0.29117E-09         0.00000E+00
    0.12864E-08        -0.32433E-09         0.00000E+00
    0.12831E-08        -0.35595E-09         0.00000E+00
    0.12792E-08        -0.38618E-09         0.00000E+00
    0.12747E-08        -0.41514E-09         0.00000E+00
    0.12695E-08        -0.44295E-09         0.00000E+00
    0.12638E-08        -0.46971E-09         0.00000E+00
    0.12576E-08        -0.49548E-09         0.00000E+00
    0.12508E-08        -0.52034E-09         0.00000E+00
    0.12436E-08        -0.54435E-09         0.00000E+00
    0.12360E-08        -0.56754E-09         0.00000E+00
    0.12279E-08        -0.58997E-09         0.00000E+00
    0.12195E-08        -0.61164E-09         0.00000E+00
    0.12108E-08        -0.63259E-09         0.00000E+00
    0.12018E-08        -0.65284E-09         0.00000E+00
    0.11927E-08        -0.67238E-09         0.00000E+00
    0.11833E-08        -0.69122E-09         0.00000E+00
    0.11739E-08        -0.70935E-09         0.00000E+00
    0.11643E-08        -0.72675E-09         0.00000E+00
    0.11547E-08        -0.74339E-09         0.00000E+00
    0.11451E-08        -0.75921E-09         0.00000E+00
    0.11355E-08        -0.77417E-09         0.00000E+00
    0.11259E-08        -0.78816E-09         0.00000E+00
    0.11165E-08        -0.80106E-09         0.00000E+00
    0.11072E-08        -0.81274E-09         0.00000E+00
    0.10980E-08        -0.82300E-09         0.00000E+00
    0.10890E-08        -0.83160E-09         0.00000E+00
    0.10803E-08        -0.83824E-09         0.00000E+00
    0.10717E-08        -0.84255E-09         0.00000E+00
    0.10634E-08        -0.84408E-09         0.00000E+00
    0.10553E-08        -0.84228E-09         0.00000E+00
    0.10476E-08        -0.83649E-09         0.00000E+00
    0.10402E-08        -0.82590E-09         0.00000E+00
    0.10331E-08        -0.80957E-09         0.00000E+00
    0.10264E-08        -0.78639E-09         0.00000E+00
    0.10201E-08        -0.75506E-09         0.00000E+00
    0.10143E-08        -0.71409E-09         0.00000E+00
    0.10089E-08        -0.66179E-09         0.00000E+00
    0.10042E-08        -0.59630E-09         0.00000E+00
    0.10001E-08        -0.51557E-09         0.00000E+00
    0.99666E-09        -0.41748E-09         0.00000E+00
    0.99408E-09        -0.29994E-09         0.00000E+00
    0.99244E-09        -0.16104E-09         0.00000E+00
    0.99185E-09        -0.86027E-10         0.00000E+00
    0.11704E-08        -0.25344E-10         0.00000E+00
    0.11705E-08        -0.49376E-10         0.00000E+00
    0.11706E-08        -0.95701E-10         0.00000E+00
    0.11707E-08        -0.13868E-09         0.00000E+00
    0.11706E-08        -0.17858E-09         0.00000E+00
    0.11702E-08        -0.21573E-09         0.00000E+00
    0.11695E-08        -0.25043E-09         0.00000E+00
    0.11684E-08        -0.28296E-09         0.00000E+00
    0.11669E-08        -0.31360E-09         0.00000E+00
    0.11649E-08        -0.34258E-09         0.00000E+00
    0.11624E-08        -0.37011E-09         0.00000E+00
    0.11595E-08        -0.39638E-09         0.00000E+00
    0.11560E-08        -0.42153E-09         0.00000E+00
    0.11521E-08        -0.44570E-09         0.00000E+00
    0.11476E-08        -0.46899E-09         0.00000E+00
    0.11427E-08        -0.49149E-09         0.00000E+00
    0.11374E-08        -0.51328E-09         0.00000E+00
    0.11317E-08        -0.53441E-09         0.00000E+00
    0.11255E-08        -0.55494E-09         0.00000E+00
    0.11190E-08        -0.57489E-09         0.00000E+00
    0.11122E-08        -0.59430E-09         0.00000E+00
    0.11050E-08        -0.61318E-09         0.00000E+00
    0.10976E-08        -0.63153E-09         0.00000E+00
    0.10899E-08        -0.64936E-09         0.00000E+00
    0.10820E-08        -0.66664E-09         0.00000E+00
    0.10739E-08        -0.68336E-09         0.00000E+00
    0.10657E-08        -0.69949E-09         0.00000E+00
    0.10573E-08        -0.71495E-09         0.00000E+00
    0.10488E-08        -0.72969E-09         0.00000E+00
    0.10402E-08        -0.74360E-09         0.00000E+00
    0.10316E-08        -0.75657E-09         0.00000E+00
    0.10229E-08        -0.76843E-09         0.00000E+00
    0.10142E-08        -0.77900E-09         0.00000E+00
    0.10055E-08        -0.78803E-09         0.00000E+00
    0.99681E-09        -0.79522E-09         0.00000E+00
    0.98820E-09        -0.80020E-09         0.00000E+00
    0.97966E-09        -0.80252E-09         0.00000E+00
    0.97124E-09        -0.80165E-09         0.00000E+00
    0.96295E-09        -0.79693E-09         0.00000E+00
    0.95484E-09        -0.78759E-09         0.00000E+00
    0.94694E-09        -0.77269E-09         0.00000E+00
    0.93931E-09        -0.75118E-09         0.00000E+00
    0.93200E-09        -0.72178E-09         0.00000E+00
    0.92509E-09        -0.68307E-09         0.00000E+00
    0.91866E-09        -0.63342E-09         0.00000E+00
    0.91281E-09        -0.57103E-09         0.00000E+00
    0.90765E-09        -0.49394E-09         0.00000E+00
    0.90333E-09        -0.40012E-09         0.00000E+00
    0.90001E-09        -0.28756E-09         0.00000E+00
    0.89786E-09        -0.15443E-09         0.00000E+00
    0.89708E-09        -0.82519E-10         0.00000E+00
    0.10685E-08        -0.25789E-10         0.00000E+00
    0.10686E-08        -0.50050E-10         0.00000E+00
    0.10687E-08        -0.96553E-10         0.00000E+00
    0.10689E-08        -0.13918E-09         0.00000E+00
    0.10689E-08        -0.17828E-09         0.00000E+00
    0.10687E-08        -0.21422E-09         0.00000E+00
    0.10683E-08        -0.24739E-09         0.00000E+00
    0.10675E-08        -0.27814E-09         0.00000E+00
    0.10665E-08        -0.30680E-09         0.00000E+00
    0.10650E-08        -0.33366E-09         0.00000E+00
    0.10631E-08        -0.35899E-09         0.00000E+00
    0.10609E-08        -0.38300E-09         0.00000E+00
    0.10581E-08        -0.40588E-09         0.00000E+00
    0.10550E-08        -0.42779E-09         0.00000E+00
    0.10515E-08        -0.44886E-09         0.00000E+00
    0.10475E-08        -0.46921E-09         0.00000E+00
    0.10431E-08        -0.48892E-09         0.00000E+00
    0.10384E-08        -0.50807E-09         0.00000E+00
    0.10332E-08        -0.52671E-09         0.00000E+00
    0.10277E-08        -0.54488E-09         0.00000E+00
    0.10219E-08        -0.56262E-09         0.00000E+00
    0.10157E-08        -0.57994E-09         0.00000E+00
    0.10092E-08        -0.59686E-09         0.00000E+00
    0.10024E-08        -0.61336E-09         0.00000E+00
    0.99537E-09        -0.62944E-09         0.00000E+00
    0.98808E-09        -0.64507E-09         0.00000E+00
    0.98055E-09        -0.66020E-09         0.00000E+00
    0.97281E-09        -0.67479E-09         0.00000E+00
    0.96487E-09        -0.68875E-09         0.00000E+00
    0.95676E-09        -0.70200E-09         0.00000E+00
    0.94849E-09        -0.71440E-09         0.00000E+00
    0.94007E-09        -0.72581E-09         0.00000E+00
    0.93154E-09        -0.73602E-09         0.00000E+00
    0.92290E-09        -0.74480E-09         0.00000E+00
    0.91419E-09        -0.75186E-09         0.00000E+00
    0.90542E-09        -0.75683E-09         0.00000E+00
    0.89662E-09        -0.75929E-09         0.00000E+00
    0.88782E-09        -0.75872E-09         0.00000E+00
    0.87907E-09        -0.75448E-09         0.00000E+00
    0.87040E-09        -0.74584E-09         0.00000E+00
    0.86186E-09        -0.73192E-09         0.00000E+00
    0.85353E-09        -0.71169E-09         0.00000E+00
    0.84546E-09        -0.68396E-09         0.00000E+00
    0.83776E-09        -0.64737E-09         0.00000E+00
    0.83054E-09        -0.60037E-09         0.00000E+00
    0.82391E-09        -0.54127E-09         0.00000E+00
    0.81803E-09        -0.46821E-09         0.00000E+00
    0.81307E-09        -0.37929E-09         0.00000E+00
    0.80924E-09        -0.27258E-09         0.00000E+00
    0.80674E-09        -0.14639E-09         0.00000E+00
    0.80583E-09        -0.78218E-10         0.00000E+00
    0.98460E-09        -0.26100E-10         0.00000E+00
    0.98463E-09        -0.50507E-10         0.00000E+00
    0.98468E-09        -0.97087E-10         0.00000E+00
    0.98467E-09        -0.13938E-09         0.00000E+00
    0.98453E-09        -0.17778E-09         0.00000E+00
    0.98422E-09        -0.21271E-09         0.00000E+00
    0.98367E-09        -0.24460E-09         0.00000E+00
    0.98286E-09        -0.27387E-09         0.00000E+00
    0.98174E-09        -0.30087E-09         0.00000E+00
    0.98030E-09        -0.32595E-09         0.00000E+00
    0.97850E-09        -0.34939E-09         0.00000E+00
    0.97635E-09        -0.37146E-09         0.00000E+00
    0.97382E-09        -0.39236E-09         0.00000E+00
    0.97092E-09        -0.41229E-09         0.00000E+00
    0.96765E-09        -0.43138E-09         0.00000E+00
    0.96400E-09        -0.44978E-09         0.00000E+00
    0.95998E-09        -0.46757E-09         0.00000E+00
    0.95559E-09        -0.48485E-09         0.00000E+00
    0.95085E-09        -0.50168E-09         0.00000E+00
    0.94576E-09        -0.51810E-09         0.00000E+00
    0.94034E-09        -0.53415E-09         0.00000E+00
    0.93459E-09        -0.54986E-09         0.00000E+00
    0.92853E-09        -0.56523E-09         0.00000E+00
    0.92216E-09        -0.58027E-09         0.00000E+00
    0.91550E-09        -0.59495E-09         0.00000E+00
    0.90856E-09        -0.60926E-09         0.00000E+00
    0.90136E-09        -0.62315E-09         0.00000E+00
    0.89390E-09        -0.63657E-09         0.00000E+00
    0.88621E-09        -0.64944E-09         0.00000E+00
    0.87828E-09        -0.66167E-09         0.00000E+00
    0.87014E-09        -0.67314E-09         0.00000E+00
    0.86181E-09        -0.68369E-09         0.00000E+00
    0.85329E-09        -0.69315E-09         0.00000E+00
    0.84461E-09        -0.70127E-09         0.00000E+00
    0.83579E-09        -0.70779E-09         0.00000E+00
    0.82685E-09        -0.71235E-09         0.00000E+00
    0.81782E-09        -0.71455E-09         0.00000E+00
    0.80873E-09        -0.71390E-09         0.00000E+00
    0.79963E-09        -0.70980E-09         0.00000E+00
    0.79057E-09        -0.70155E-09         0.00000E+00
    0.78159E-09        -0.68834E-09         0.00000E+00
    0.77278E-09        -0.66918E-09         0.00000E+00
    0.76422E-09        -0.64298E-09         0.00000E+00
    0.75600E-09        -0.60845E-09         0.00000E+00
    0.74826E-09        -0.56415E-09         0.00000E+00
    0.74114E-09        -0.50849E-09         0.00000E+00
    0.73480E-09        -0.43976E-09         0.00000E+00
    0.72944E-09        -0.35615E-09         0.00000E+00
    0.72528E-09        -0.25590E-09         0.00000E+00
    0.72257E-09        -0.13740E-09         0.00000E+00
    0.72158E-09        -0.73400E-10         0.00000E+00
    0.91471E-09        -0.26128E-10         0.00000E+00
    0.91468E-09        -0.50455E-10         0.00000E+00
    0.91456E-09        -0.96730E-10         0.00000E+00
    0.91431E-09        -0.13844E-09         0.00000E+00
    0.91389E-09        -0.17602E-09         0.00000E+00
    0.91326E-09        -0.20991E-09         0.00000E+00
    0.91239E-09        -0.24059E-09         0.00000E+00
    0.91125E-09        -0.26848E-09         0.00000E+00
    0.90984E-09        -0.29398E-09         0.00000E+00
    0.90812E-09        -0.31747E-09         0.00000E+00
    0.90609E-09        -0.33925E-09         0.00000E+00
    0.90374E-09        -0.35960E-09         0.00000E+00
    0.90105E-09        -0.37875E-09         0.00000E+00
    0.89803E-09        -0.39691E-09         0.00000E+00
    0.89467E-09        -0.41423E-09         0.00000E+00
    0.89097E-09        -0.43086E-09         0.00000E+00
    0.88694E-09        -0.44690E-09         0.00000E+00
    0.88258E-09        -0.46245E-09         0.00000E+00
    0.87788E-09        -0.47757E-09         0.00000E+00
    0.87286E-09        -0.49233E-09         0.00000E+00
    0.86752E-09        -0.50675E-09         0.00000E+00
    0.86187E-09        -0.52087E-09         0.00000E+00
    0.85591E-09        -0.53470E-09         0.00000E+00
    0.84966E-09        -0.54823E-09         0.00000E+00
    0.84311E-09        -0.56146E-09         0.00000E+00
    0.83627E-09        -0.57437E-09         0.00000E+00
    0.82916E-09        -0.58690E-09         0.00000E+00
    0.82178E-09        -0.59902E-09         0.00000E+00
    0.81415E-09        -0.61065E-09         0.00000E+00
    0.80626E-09        -0.62169E-09         0.00000E+00
    0.79815E-09        -0.63204E-09         0.00000E+00
    0.78980E-09        -0.64154E-09         0.00000E+00
    0.78125E-09        -0.65003E-09         0.00000E+00
    0.77250E-09        -0.65729E-09         0.00000E+00
    0.76359E-09        -0.66304E-09         0.00000E+00
    0.75452E-09        -0.66698E-09         0.00000E+00
    0.74534E-09        -0.66872E-09         0.00000E+00
    0.73607E-09        -0.66779E-09         0.00000E+00
    0.72676E-09        -0.66364E-09         0.00000E+00
    0.71747E-09        -0.65563E-09         0.00000E+00
    0.70824E-09        -0.64299E-09         0.00000E+00
    0.69917E-09        -0.62482E-09         0.00000E+00
    0.69033E-09        -0.60009E-09         0.00000E+00
    0.68184E-09        -0.56761E-09         0.00000E+00
    0.67383E-09        -0.52606E-09         0.00000E+00
    0.66644E-09        -0.47396E-09         0.00000E+00
    0.65986E-09        -0.40972E-09         0.00000E+00
    0.65430E-09        -0.33169E-09         0.00000E+00
    0.64997E-09        -0.23824E-09         0.00000E+00
    0.64716E-09        -0.12787E-09         0.00000E+00
    0.64612E-09        -0.68292E-10         0.00000E+00
    0.85570E-09        -0.25813E-10         0.00000E+00
    0.85560E-09        -0.49770E-10         0.00000E+00
    0.85530E-09        -0.95234E-10         0.00000E+00
    0.85477E-09        -0.13600E-09         0.00000E+00
    0.85400E-09        -0.17250E-09         0.00000E+00
    0.85299E-09        -0.20521E-09         0.00000E+00
    0.85171E-09        -0.23460E-09         0.00000E+00
    0.85015E-09        -0.26113E-09         0.00000E+00
    0.84832E-09        -0.28521E-09         0.00000E+00
    0.84620E-09        -0.30721E-09         0.00000E+00
    0.84378E-09        -0.32746E-09         0.00000E+00
    0.84106E-09        -0.34625E-09         0.00000E+00
    0.83804E-09        -0.36383E-09         0.00000E+00
    0.83472E-09        -0.38039E-09         0.00000E+00
    0.83109E-09        -0.39611E-09         0.00000E+00
    0.82716E-09        -0.41113E-09         0.00000E+00
    0.82292E-09        -0.42558E-09         0.00000E+00
    0.81837E-09        -0.43955E-09         0.00000E+00
    0.81353E-09        -0.45310E-09         0.00000E+00
    0.80839E-09        -0.46631E-09         0.00000E+00
    0.80295E-09        -0.47920E-09         0.00000E+00
    0.79722E-09        -0.49181E-09         0.00000E+00
    0.79120E-09        -0.50415E-09         0.00000E+00
    0.78489E-09        -0.51623E-09         0.00000E+00
    0.77831E-09        -0.52803E-09         0.00000E+00
    0.77145E-09        -0.53954E-09         0.00000E+00
    0.76431E-09        -0.55071E-09         0.00000E+00
    0.75692E-09        -0.56150E-09         0.00000E+00
    0.74927E-09        -0.57185E-09         0.00000E+00
    0.74137E-09        -0.58165E-09         0.00000E+00
    0.73323E-09        -0.59082E-09         0.00000E+00
    0.72486E-09        -0.59921E-09         0.00000E+00
    0.71627E-09        -0.60666E-09         0.00000E+00
    0.70749E-09        -0.61296E-09         0.00000E+00
    0.69853E-09        -0.61788E-09         0.00000E+00
    0.68941E-09        -0.62111E-09         0.00000E+00
    0.68017E-09        -0.62230E-09         0.00000E+00
    0.67084E-09        -0.62102E-09         0.00000E+00
    0.66146E-09        -0.61677E-09         0.00000E+00
    0.65208E-09        -0.60894E-09         0.00000E+00
    0.64277E-09        -0.59683E-09         0.00000E+00
    0.63361E-09        -0.57961E-09         0.00000E+00
    0.62469E-09        -0.55634E-09         0.00000E+00
    0.61612E-09        -0.52594E-09         0.00000E+00
    0.60803E-09        -0.48717E-09         0.00000E+00
    0.60057E-09        -0.43868E-09         0.00000E+00
    0.59393E-09        -0.37904E-09         0.00000E+00
    0.58831E-09        -0.30671E-09         0.00000E+00
    0.58395E-09        -0.22019E-09         0.00000E+00
    0.58110E-09        -0.11814E-09         0.00000E+00
    0.58006E-09        -0.63071E-10         0.00000E+00
    0.80513E-09        -0.25149E-10         0.00000E+00
    0.80497E-09        -0.48439E-10         0.00000E+00
    0.80448E-09        -0.92562E-10         0.00000E+00
    0.80369E-09        -0.13197E-09         0.00000E+00
    0.80258E-09        -0.16711E-09         0.00000E+00
    0.80117E-09        -0.19843E-09         0.00000E+00
    0.79947E-09        -0.22642E-09         0.00000E+00
    0.79748E-09        -0.25154E-09         0.00000E+00
    0.79520E-09        -0.27419E-09         0.00000E+00
    0.79264E-09        -0.29476E-09         0.00000E+00
    0.78979E-09        -0.31357E-09         0.00000E+00
    0.78666E-09        -0.33092E-09         0.00000E+00
    0.78325E-09        -0.34704E-09         0.00000E+00
    0.77956E-09        -0.36215E-09         0.00000E+00
    0.77559E-09        -0.37642E-09         0.00000E+00
    0.77134E-09        -0.38999E-09         0.00000E+00
    0.76681E-09        -0.40300E-09         0.00000E+00
    0.76202E-09        -0.41552E-09         0.00000E+00
    0.75694E-09        -0.42764E-09         0.00000E+00
    0.75160E-09        -0.43942E-09         0.00000E+00
    0.74598E-09        -0.45090E-09         0.00000E+00
    0.74009E-09        -0.46211E-09         0.00000E+00
    0.73394E-09        -0.47307E-09         0.00000E+00
    0.72753E-09        -0.48378E-09         0.00000E+00
    0.72085E-09        -0.49423E-09         0.00000E+00
    0.71391E-09        -0.50440E-09         0.00000E+00
    0.70672E-09        -0.51427E-09         0.00000E+00
    0.69928E-09        -0.52378E-09         0.00000E+00
    0.69159E-09        -0.53288E-09         0.00000E+00
    0.68367E-09        -0.54148E-09         0.00000E+00
    0.67552E-09        -0.54949E-09         0.00000E+00
    0.66715E-09        -0.55678E-09         0.00000E+00
    0.65857E-09        -0.56321E-09         0.00000E+00
    0.64980E-09        -0.56857E-09         0.00000E+00
    0.64086E-09        -0.57266E-09         0.00000E+00
    0.63178E-09        -0.57519E-09         0.00000E+00
    0.62257E-09        -0.57584E-09         0.00000E+00
    0.61327E-09        -0.57422E-09         0.00000E+00
    0.60394E-09        -0.56986E-09         0.00000E+00
    0.59462E-09        -0.56222E-09         0.00000E+00
    0.58537E-09        -0.55065E-09         0.00000E+00
    0.57627E-09        -0.53441E-09         0.00000E+00
    0.56741E-09        -0.51262E-09         0.00000E+00
    0.55891E-09        -0.48429E-09         0.00000E+00
    0.55089E-09        -0.44831E-09         0.00000E+00
    0.54350E-09        -0.40346E-09         0.00000E+00
    0.53693E-09        -0.34841E-09         0.00000E+00
    0.53137E-09        -0.28178E-09         0.00000E+00
    0.52705E-09        -0.20220E-09         0.00000E+00
    0.52424E-09        -0.10844E-09         0.00000E+00
    0.52322E-09        -0.57871E-10         0.00000E+00
    0.76116E-09        -0.24170E-10         0.00000E+00
    0.76094E-09        -0.46518E-10         0.00000E+00
    0.76029E-09        -0.88808E-10         0.00000E+00
    0.75925E-09        -0.12648E-09         0.00000E+00
    0.75785E-09        -0.15995E-09         0.00000E+00
    0.75609E-09        -0.18968E-09         0.00000E+00
    0.75401E-09        -0.21615E-09         0.00000E+00
    0.75161E-09        -0.23978E-09         0.00000E+00
    0.74892E-09        -0.26099E-09         0.00000E+00
    0.74594E-09        -0.28014E-09         0.00000E+00
    0.74269E-09        -0.29756E-09         0.00000E+00
    0.73916E-09        -0.31354E-09         0.00000E+00
    0.73537E-09        -0.32831E-09         0.00000E+00
    0.73132E-09        -0.34208E-09         0.00000E+00
    0.72701E-09        -0.35502E-09         0.00000E+00
    0.72244E-09        -0.36728E-09         0.00000E+00
    0.71763E-09        -0.37897E-09         0.00000E+00
    0.71257E-09        -0.39019E-09         0.00000E+00
    0.70725E-09        -0.40101E-09         0.00000E+00
    0.70169E-09        -0.41149E-09         0.00000E+00
    0.69589E-09        -0.42169E-09         0.00000E+00
    0.68984E-09        -0.43162E-09         0.00000E+00
    0.68355E-09        -0.44130E-09         0.00000E+00
    0.67701E-09        -0.45075E-09         0.00000E+00
    0.67024E-09        -0.45995E-09         0.00000E+00
    0.66323E-09        -0.46890E-09         0.00000E+00
    0.65599E-09        -0.47755E-09         0.00000E+00
    0.64852E-09        -0.48587E-09         0.00000E+00
    0.64082E-09        -0.49381E-09         0.00000E+00
    0.63290E-09        -0.50128E-09         0.00000E+00
    0.62477E-09        -0.50821E-09         0.00000E+00
    0.61644E-09        -0.51447E-09         0.00000E+00
    0.60793E-09        -0.51994E-09         0.00000E+00
    0.59923E-09        -0.52443E-09         0.00000E+00
    0.59038E-09        -0.52774E-09         0.00000E+00
    0.58139E-09        -0.52963E-09         0.00000E+00
    0.57230E-09        -0.52980E-09         0.00000E+00
    0.56314E-09        -0.52789E-09         0.00000E+00
    0.55395E-09        -0.52348E-09         0.00000E+00
    0.54478E-09        -0.51608E-09         0.00000E+00
    0.53570E-09        -0.50509E-09         0.00000E+00
    0.52677E-09        -0.48984E-09         0.00000E+00
    0.51810E-09        -0.46955E-09         0.00000E+00
    0.50977E-09        -0.44331E-09         0.00000E+00
    0.50193E-09        -0.41013E-09         0.00000E+00
    0.49472E-09        -0.36888E-09         0.00000E+00
    0.48830E-09        -0.31837E-09         0.00000E+00
    0.48288E-09        -0.25734E-09         0.00000E+00
    0.47868E-09        -0.18457E-09         0.00000E+00
    0.47595E-09        -0.98944E-10         0.00000E+00
    0.47495E-09        -0.52784E-10         0.00000E+00
    0.72243E-09        -0.22924E-10         0.00000E+00
    0.72216E-09        -0.44098E-10         0.00000E+00
    0.72138E-09        -0.84133E-10         0.00000E+00
    0.72014E-09        -0.11973E-09         0.00000E+00
    0.71848E-09        -0.15128E-09         0.00000E+00
    0.71643E-09        -0.17924E-09         0.00000E+00
    0.71403E-09        -0.20404E-09         0.00000E+00
    0.71129E-09        -0.22611E-09         0.00000E+00
    0.70825E-09        -0.24584E-09         0.00000E+00
    0.70492E-09        -0.26359E-09         0.00000E+00
    0.70132E-09        -0.27966E-09         0.00000E+00
    0.69745E-09        -0.29432E-09         0.00000E+00
    0.69333E-09        -0.30782E-09         0.00000E+00
    0.68897E-09        -0.32034E-09         0.00000E+00
    0.68437E-09        -0.33206E-09         0.00000E+00
    0.67953E-09        -0.34311E-09         0.00000E+00
    0.67446E-09        -0.35360E-09         0.00000E+00
    0.66917E-09        -0.36364E-09         0.00000E+00
    0.66365E-09        -0.37328E-09         0.00000E+00
    0.65791E-09        -0.38260E-09         0.00000E+00
    0.65194E-09        -0.39163E-09         0.00000E+00
    0.64576E-09        -0.40041E-09         0.00000E+00
    0.63936E-09        -0.40894E-09         0.00000E+00
    0.63273E-09        -0.41725E-09         0.00000E+00
    0.62590E-09        -0.42532E-09         0.00000E+00
    0.61885E-09        -0.43314E-09         0.00000E+00
    0.61158E-09        -0.44069E-09         0.00000E+00
    0.60411E-09        -0.44793E-09         0.00000E+00
    0.59644E-09        -0.45481E-09         0.00000E+00
    0.58857E-09        -0.46126E-09         0.00000E+00
    0.58051E-09        -0.46720E-09         0.00000E+00
    0.57227E-09        -0.47254E-09         0.00000E+00
    0.56386E-09        -0.47714E-09         0.00000E+00
    0.55530E-09        -0.48084E-09         0.00000E+00
    0.54659E-09        -0.48348E-09         0.00000E+00
    0.53778E-09        -0.48481E-09         0.00000E+00
    0.52887E-09        -0.48458E-09         0.00000E+00
    0.51991E-09        -0.48245E-09         0.00000E+00
    0.51094E-09        -0.47806E-09         0.00000E+00
    0.50200E-09        -0.47096E-09         0.00000E+00
    0.49316E-09        -0.46060E-09         0.00000E+00
    0.48448E-09        -0.44639E-09         0.00000E+00
    0.47606E-09        -0.42761E-09         0.00000E+00
    0.46800E-09        -0.40346E-09         0.00000E+00
    0.46041E-09        -0.37303E-09         0.00000E+00
    0.45343E-09        -0.33532E-09         0.00000E+00
    0.44724E-09        -0.28925E-09         0.00000E+00
    0.44201E-09        -0.23369E-09         0.00000E+00
    0.43797E-09        -0.16753E-09         0.00000E+00
    0.43533E-09        -0.89769E-10         0.00000E+00
    0.43437E-09        -0.47872E-10         0.00000E+00
    0.68795E-09        -0.21467E-10         0.00000E+00
    0.68765E-09        -0.41282E-10         0.00000E+00
    0.68677E-09        -0.78727E-10         0.00000E+00
    0.68537E-09        -0.11198E-09         0.00000E+00
    0.68352E-09        -0.14141E-09         0.00000E+00
    0.68124E-09        -0.16743E-09         0.00000E+00
    0.67859E-09        -0.19046E-09         0.00000E+00
    0.67559E-09        -0.21091E-09         0.00000E+00
    0.67228E-09        -0.22913E-09         0.00000E+00
    0.66868E-09        -0.24547E-09         0.00000E+00
    0.66480E-09        -0.26021E-09         0.00000E+00
    0.66067E-09        -0.27361E-09         0.00000E+00
    0.65629E-09        -0.28589E-09         0.00000E+00
    0.65168E-09        -0.29725E-09         0.00000E+00
    0.64685E-09        -0.30782E-09         0.00000E+00
    0.64181E-09        -0.31776E-09         0.00000E+00
    0.63655E-09        -0.32716E-09         0.00000E+00
    0.63108E-09        -0.33612E-09         0.00000E+00
    0.62540E-09        -0.34470E-09         0.00000E+00
    0.61953E-09        -0.35296E-09         0.00000E+00
    0.61345E-09        -0.36094E-09         0.00000E+00
    0.60718E-09        -0.36868E-09         0.00000E+00
    0.60071E-09        -0.37618E-09         0.00000E+00
    0.59404E-09        -0.38346E-09         0.00000E+00
    0.58719E-09        -0.39051E-09         0.00000E+00
    0.58013E-09        -0.39733E-09         0.00000E+00
    0.57290E-09        -0.40389E-09         0.00000E+00
    0.56547E-09        -0.41016E-09         0.00000E+00
    0.55787E-09        -0.41610E-09         0.00000E+00
    0.55009E-09        -0.42164E-09         0.00000E+00
    0.54214E-09        -0.42671E-09         0.00000E+00
    0.53403E-09        -0.43122E-09         0.00000E+00
    0.52578E-09        -0.43506E-09         0.00000E+00
    0.51739E-09        -0.43809E-09         0.00000E+00
    0.50889E-09        -0.44014E-09         0.00000E+00
    0.50028E-09        -0.44102E-09         0.00000E+00
    0.49161E-09        -0.44047E-09         0.00000E+00
    0.48291E-09        -0.43822E-09         0.00000E+00
    0.47420E-09        -0.43393E-09         0.00000E+00
    0.46555E-09        -0.42718E-09         0.00000E+00
    0.45700E-09        -0.41750E-09         0.00000E+00
    0.44863E-09        -0.40436E-09         0.00000E+00
    0.44051E-09        -0.38711E-09         0.00000E+00
    0.43275E-09        -0.36503E-09         0.00000E+00
    0.42545E-09        -0.33730E-09         0.00000E+00
    0.41876E-09        -0.30304E-09         0.00000E+00
    0.41282E-09        -0.26127E-09         0.00000E+00
    0.40782E-09        -0.21098E-09         0.00000E+00
    0.40395E-09        -0.15119E-09         0.00000E+00
    0.40143E-09        -0.80981E-10         0.00000E+00
    0.40051E-09        -0.43171E-10         0.00000E+00
    0.65707E-09        -0.19854E-10         0.00000E+00
    0.65673E-09        -0.38173E-10         0.00000E+00
    0.65578E-09        -0.72779E-10         0.00000E+00
    0.65428E-09        -0.10348E-09         0.00000E+00
    0.65228E-09        -0.13063E-09         0.00000E+00
    0.64985E-09        -0.15460E-09         0.00000E+00
    0.64701E-09        -0.17579E-09         0.00000E+00
    0.64383E-09        -0.19456E-09         0.00000E+00
    0.64032E-09        -0.21125E-09         0.00000E+00
    0.63652E-09        -0.22618E-09         0.00000E+00
    0.63245E-09        -0.23961E-09         0.00000E+00
    0.62812E-09        -0.25179E-09         0.00000E+00
    0.62357E-09        -0.26291E-09         0.00000E+00
    0.61879E-09        -0.27315E-09         0.00000E+00
    0.61380E-09        -0.28266E-09         0.00000E+00
    0.60861E-09        -0.29157E-09         0.00000E+00
    0.60322E-09        -0.29996E-09         0.00000E+00
    0.59764E-09        -0.30793E-09         0.00000E+00
    0.59188E-09        -0.31555E-09         0.00000E+00
    0.58593E-09        -0.32285E-09         0.00000E+00
    0.57980E-09        -0.32989E-09         0.00000E+00
    0.57348E-09        -0.33668E-09         0.00000E+00
    0.56700E-09        -0.34326E-09         0.00000E+00
    0.56033E-09        -0.34962E-09         0.00000E+00
    0.55350E-09        -0.35577E-09         0.00000E+00
    0.54649E-09        -0.36169E-09         0.00000E+00
    0.53932E-09        -0.36738E-09         0.00000E+00
    0.53198E-09        -0.37279E-09         0.00000E+00
    0.52449E-09        -0.37789E-09         0.00000E+00
    0.51683E-09        -0.38262E-09         0.00000E+00
    0.50904E-09        -0.38693E-09         0.00000E+00
    0.50110E-09        -0.39073E-09         0.00000E+00
    0.49304E-09        -0.39392E-09         0.00000E+00
    0.48486E-09        -0.39637E-09         0.00000E+00
    0.47659E-09        -0.39795E-09         0.00000E+00
    0.46824E-09        -0.39846E-09         0.00000E+00
    0.45984E-09        -0.39769E-09         0.00000E+00
    0.45141E-09        -0.39540E-09         0.00000E+00
    0.44301E-09        -0.39126E-09         0.00000E+00
    0.43467E-09        -0.38493E-09         0.00000E+00
    0.42644E-09        -0.37599E-09         0.00000E+00
    0.41839E-09        -0.36394E-09         0.00000E+00
    0.41060E-09        -0.34821E-09         0.00000E+00
    0.40317E-09        -0.32817E-09         0.00000E+00
    0.39619E-09        -0.30309E-09         0.00000E+00
    0.38979E-09        -0.27217E-09         0.00000E+00
    0.38412E-09        -0.23454E-09         0.00000E+00
    0.37935E-09        -0.18932E-09         0.00000E+00
    0.37567E-09        -0.13561E-09         0.00000E+00
    0.37328E-09        -0.72612E-10         0.00000E+00
    0.37241E-09        -0.38698E-10         0.00000E+00
    0.62931E-09        -0.18135E-10         0.00000E+00
    0.62896E-09        -0.34864E-10         0.00000E+00
    0.62796E-09        -0.66460E-10         0.00000E+00
    0.62639E-09        -0.94479E-10         0.00000E+00
    0.62430E-09        -0.11924E-09         0.00000E+00
    0.62176E-09        -0.14108E-09         0.00000E+00
    0.61881E-09        -0.16037E-09         0.00000E+00
    0.61550E-09        -0.17743E-09         0.00000E+00
    0.61187E-09        -0.19258E-09         0.00000E+00
    0.60794E-09        -0.20610E-09         0.00000E+00
    0.60375E-09        -0.21825E-09         0.00000E+00
    0.59931E-09        -0.22923E-09         0.00000E+00
    0.59464E-09        -0.23923E-09         0.00000E+00
    0.58977E-09        -0.24842E-09         0.00000E+00
    0.58469E-09        -0.25692E-09         0.00000E+00
    0.57942E-09        -0.26486E-09         0.00000E+00
    0.57396E-09        -0.27233E-09         0.00000E+00
    0.56833E-09        -0.27939E-09         0.00000E+00
    0.56253E-09        -0.28611E-09         0.00000E+00
    0.55656E-09        -0.29255E-09         0.00000E+00
    0.55042E-09        -0.29873E-09         0.00000E+00
    0.54412E-09        -0.30468E-09         0.00000E+00
    0.53766E-09        -0.31043E-09         0.00000E+00
    0.53105E-09        -0.31597E-09         0.00000E+00
    0.52428E-09        -0.32131E-09         0.00000E+00
    0.51735E-09        -0.32643E-09         0.00000E+00
    0.51028E-09        -0.33134E-09         0.00000E+00
    0.50307E-09        -0.33599E-09         0.00000E+00
    0.49571E-09        -0.34036E-09         0.00000E+00
    0.48822E-09        -0.34439E-09         0.00000E+00
    0.48060E-09        -0.34804E-09         0.00000E+00
    0.47286E-09        -0.35123E-09         0.00000E+00
    0.46501E-09        -0.35386E-09         0.00000E+00
    0.45707E-09        -0.35584E-09         0.00000E+00
    0.44905E-09        -0.35702E-09         0.00000E+00
    0.44097E-09        -0.35726E-09         0.00000E+00
    0.43285E-09        -0.35636E-09         0.00000E+00
    0.42473E-09        -0.35409E-09         0.00000E+00
    0.41664E-09        -0.35018E-09         0.00000E+00
    0.40862E-09        -0.34432E-09         0.00000E+00
    0.40072E-09        -0.33614E-09         0.00000E+00
    0.39301E-09        -0.32519E-09         0.00000E+00
    0.38556E-09        -0.31098E-09         0.00000E+00
    0.37845E-09        -0.29294E-09         0.00000E+00
    0.37179E-09        -0.27043E-09         0.00000E+00
    0.36569E-09        -0.24273E-09         0.00000E+00
    0.36029E-09        -0.20909E-09         0.00000E+00
    0.35576E-09        -0.16871E-09         0.00000E+00
    0.35226E-09        -0.12081E-09         0.00000E+00
    0.34999E-09        -0.64666E-10         0.00000E+00
    0.34916E-09        -0.34454E-10         0.00000E+00
    0.60440E-09        -0.16352E-10         0.00000E+00
    0.60404E-09        -0.31435E-10         0.00000E+00
    0.60302E-09        -0.59919E-10         0.00000E+00
    0.60140E-09        -0.85172E-10         0.00000E+00
    0.59927E-09        -0.10748E-09         0.00000E+00
    0.59666E-09        -0.12715E-09         0.00000E+00
    0.59365E-09        -0.14450E-09         0.00000E+00
    0.59028E-09        -0.15984E-09         0.00000E+00
    0.58658E-09        -0.17345E-09         0.00000E+00
    0.58259E-09        -0.18558E-09         0.00000E+00
    0.57834E-09        -0.19645E-09         0.00000E+00
    0.57384E-09        -0.20626E-09         0.00000E+00
    0.56913E-09        -0.21519E-09         0.00000E+00
    0.56421E-09        -0.22336E-09         0.00000E+00
    0.55909E-09        -0.23092E-09         0.00000E+00
    0.55380E-09        -0.23795E-09         0.00000E+00
    0.54834E-09        -0.24454E-09         0.00000E+00
    0.54270E-09        -0.25076E-09         0.00000E+00
    0.53691E-09        -0.25667E-09         0.00000E+00
    0.53097E-09        -0.26231E-09         0.00000E+00
    0.52487E-09        -0.26771E-09         0.00000E+00
    0.51862E-09        -0.27290E-09         0.00000E+00
    0.51223E-09        -0.27789E-09         0.00000E+00
    0.50570E-09        -0.28269E-09         0.00000E+00
    0.49902E-09        -0.28730E-09         0.00000E+00
    0.49222E-09        -0.29173E-09         0.00000E+00
    0.48528E-09        -0.29594E-09         0.00000E+00
    0.47821E-09        -0.29992E-09         0.00000E+00
    0.47101E-09        -0.30365E-09         0.00000E+00
    0.46370E-09        -0.30707E-09         0.00000E+00
    0.45628E-09        -0.31014E-09         0.00000E+00
    0.44875E-09        -0.31280E-09         0.00000E+00
    0.44113E-09        -0.31497E-09         0.00000E+00
    0.43344E-09        -0.31656E-09         0.00000E+00
    0.42568E-09        -0.31744E-09         0.00000E+00
    0.41787E-09        -0.31747E-09         0.00000E+00
    0.41004E-09        -0.31650E-09         0.00000E+00
    0.40222E-09        -0.31432E-09         0.00000E+00
    0.39444E-09        -0.31070E-09         0.00000E+00
    0.38674E-09        -0.30535E-09         0.00000E+00
    0.37917E-09        -0.29795E-09         0.00000E+00
    0.37179E-09        -0.28811E-09         0.00000E+00
    0.36466E-09        -0.27540E-09         0.00000E+00
    0.35787E-09        -0.25932E-09         0.00000E+00
    0.35151E-09        -0.23929E-09         0.00000E+00
    0.34570E-09        -0.21470E-09         0.00000E+00
    0.34057E-09        -0.18488E-09         0.00000E+00
    0.33625E-09        -0.14913E-09         0.00000E+00
    0.33293E-09        -0.10676E-09         0.00000E+00
    0.33077E-09        -0.57129E-10         0.00000E+00
    0.32999E-09        -0.30431E-10         0.00000E+00
    0.58215E-09        -0.14539E-10         0.00000E+00
    0.58179E-09        -0.27948E-10         0.00000E+00
    0.58076E-09        -0.53272E-10         0.00000E+00
    0.57913E-09        -0.75722E-10         0.00000E+00
    0.57697E-09        -0.95548E-10         0.00000E+00
    0.57435E-09        -0.11303E-09         0.00000E+00
    0.57132E-09        -0.12844E-09         0.00000E+00
    0.56793E-09        -0.14206E-09         0.00000E+00
    0.56421E-09        -0.15413E-09         0.00000E+00
    0.56020E-09        -0.16488E-09         0.00000E+00
    0.55594E-09        -0.17450E-09         0.00000E+00
    0.55143E-09        -0.18318E-09         0.00000E+00
    0.54672E-09        -0.19105E-09         0.00000E+00
    0.54180E-09        -0.19826E-09         0.00000E+00
    0.53670E-09        -0.20490E-09         0.00000E+00
    0.53143E-09        -0.21107E-09         0.00000E+00
    0.52600E-09        -0.21684E-09         0.00000E+00
    0.52040E-09        -0.22227E-09         0.00000E+00
    0.51466E-09        -0.22742E-09         0.00000E+00
    0.50878E-09        -0.23232E-09         0.00000E+00
    0.50275E-09        -0.23701E-09         0.00000E+00
    0.49659E-09        -0.24150E-09         0.00000E+00
    0.49029E-09        -0.24581E-09         0.00000E+00
    0.48387E-09        -0.24994E-09         0.00000E+00
    0.47732E-09        -0.25390E-09         0.00000E+00
    0.47064E-09        -0.25769E-09         0.00000E+00
    0.46385E-09        -0.26128E-09         0.00000E+00
    0.45694E-09        -0.26467E-09         0.00000E+00
    0.44993E-09        -0.26783E-09         0.00000E+00
    0.44280E-09        -0.27072E-09         0.00000E+00
    0.43558E-09        -0.27330E-09         0.00000E+00
    0.42828E-09        -0.27551E-09         0.00000E+00
    0.42089E-09        -0.27729E-09         0.00000E+00
    0.41344E-09        -0.27855E-09         0.00000E+00
    0.40594E-09        -0.27919E-09         0.00000E+00
    0.39840E-09        -0.27910E-09         0.00000E+00
    0.39085E-09        -0.27811E-09         0.00000E+00
    0.38332E-09        -0.27608E-09         0.00000E+00
    0.37584E-09        -0.27277E-09         0.00000E+00
    0.36845E-09        -0.26796E-09         0.00000E+00
    0.36118E-09        -0.26136E-09         0.00000E+00
    0.35411E-09        -0.25263E-09         0.00000E+00
    0.34729E-09        -0.24140E-09         0.00000E+00
    0.34080E-09        -0.22722E-09         0.00000E+00
    0.33473E-09        -0.20960E-09         0.00000E+00
    0.32919E-09        -0.18800E-09         0.00000E+00
    0.32429E-09        -0.16184E-09         0.00000E+00
    0.32019E-09        -0.13051E-09         0.00000E+00
    0.31702E-09        -0.93402E-10         0.00000E+00
    0.31497E-09        -0.49972E-10         0.00000E+00
    0.31423E-09        -0.26614E-10         0.00000E+00
    0.56248E-09        -0.12720E-10         0.00000E+00
    0.56211E-09        -0.24452E-10         0.00000E+00
    0.56108E-09        -0.46609E-10         0.00000E+00
    0.55946E-09        -0.66251E-10         0.00000E+00
    0.55731E-09        -0.83598E-10         0.00000E+00
    0.55470E-09        -0.98890E-10         0.00000E+00
    0.55167E-09        -0.11237E-09         0.00000E+00
    0.54829E-09        -0.12428E-09         0.00000E+00
    0.54459E-09        -0.13483E-09         0.00000E+00
    0.54060E-09        -0.14421E-09         0.00000E+00
    0.53636E-09        -0.15261E-09         0.00000E+00
    0.53189E-09        -0.16018E-09         0.00000E+00
    0.52720E-09        -0.16703E-09         0.00000E+00
    0.52233E-09        -0.17330E-09         0.00000E+00
    0.51728E-09        -0.17906E-09         0.00000E+00
    0.51206E-09        -0.18441E-09         0.00000E+00
    0.50668E-09        -0.18940E-09         0.00000E+00
    0.50116E-09        -0.19409E-09         0.00000E+00
    0.49549E-09        -0.19853E-09         0.00000E+00
    0.48969E-09        -0.20275E-09         0.00000E+00
    0.48376E-09        -0.20676E-09         0.00000E+00
    0.47770E-09        -0.21061E-09         0.00000E+00
    0.47152E-09        -0.21429E-09         0.00000E+00
    0.46522E-09        -0.21781E-09         0.00000E+00
    0.45880E-09        -0.22118E-09         0.00000E+00
    0.45227E-09        -0.22439E-09         0.00000E+00
    0.44564E-09        -0.22744E-09         0.00000E+00
    0.43890E-09        -0.23030E-09         0.00000E+00
    0.43206E-09        -0.23295E-09         0.00000E+00
    0.42513E-09        -0.23537E-09         0.00000E+00
    0.41811E-09        -0.23751E-09         0.00000E+00
    0.41102E-09        -0.23934E-09         0.00000E+00
    0.40385E-09        -0.24078E-09         0.00000E+00
    0.39664E-09        -0.24178E-09         0.00000E+00
    0.38938E-09        -0.24224E-09         0.00000E+00
    0.38210E-09        -0.24206E-09         0.00000E+00
    0.37482E-09        -0.24112E-09         0.00000E+00
    0.36756E-09        -0.23926E-09         0.00000E+00
    0.36036E-09        -0.23631E-09         0.00000E+00
    0.35324E-09        -0.23206E-09         0.00000E+00
    0.34627E-09        -0.22627E-09         0.00000E+00
    0.33948E-09        -0.21864E-09         0.00000E+00
    0.33294E-09        -0.20885E-09         0.00000E+00
    0.32672E-09        -0.19652E-09         0.00000E+00
    0.32091E-09        -0.18123E-09         0.00000E+00
    0.31561E-09        -0.16252E-09         0.00000E+00
    0.31093E-09        -0.13987E-09         0.00000E+00
    0.30701E-09        -0.11276E-09         0.00000E+00
    0.30399E-09        -0.80686E-10         0.00000E+00
    0.30204E-09        -0.43161E-10         0.00000E+00
    0.30133E-09        -0.22983E-10         0.00000E+00
    0.54532E-09        -0.10913E-10         0.00000E+00
    0.54496E-09        -0.20980E-10         0.00000E+00
    0.54394E-09        -0.39992E-10         0.00000E+00
    0.54233E-09        -0.56847E-10         0.00000E+00
    0.54020E-09        -0.71733E-10         0.00000E+00
    0.53761E-09        -0.84855E-10         0.00000E+00
    0.53462E-09        -0.96424E-10         0.00000E+00
    0.53128E-09        -0.10664E-09         0.00000E+00
    0.52761E-09        -0.11569E-09         0.00000E+00
    0.52367E-09        -0.12373E-09         0.00000E+00
    0.51947E-09        -0.13093E-09         0.00000E+00
    0.51505E-09        -0.13740E-09         0.00000E+00
    0.51043E-09        -0.14327E-09         0.00000E+00
    0.50561E-09        -0.14862E-09         0.00000E+00
    0.50063E-09        -0.15354E-09         0.00000E+00
    0.49548E-09        -0.15809E-09         0.00000E+00
    0.49018E-09        -0.16234E-09         0.00000E+00
    0.48475E-09        -0.16633E-09         0.00000E+00
    0.47917E-09        -0.17009E-09         0.00000E+00
    0.47347E-09        -0.17366E-09         0.00000E+00
    0.46764E-09        -0.17705E-09         0.00000E+00
    0.46170E-09        -0.18030E-09         0.00000E+00
    0.45564E-09        -0.18339E-09         0.00000E+00
    0.44947E-09        -0.18635E-09         0.00000E+00
    0.44319E-09        -0.18918E-09         0.00000E+00
    0.43681E-09        -0.19186E-09         0.00000E+00
    0.43033E-09        -0.19440E-09         0.00000E+00
    0.42375E-09        -0.19678E-09         0.00000E+00
    0.41709E-09        -0.19898E-09         0.00000E+00
    0.41034E-09        -0.20098E-09         0.00000E+00
    0.40351E-09        -0.20274E-09         0.00000E+00
    0.39662E-09        -0.20423E-09         0.00000E+00
    0.38967E-09        -0.20540E-09         0.00000E+00
    0.38267E-09        -0.20618E-09         0.00000E+00
    0.37564E-09        -0.20650E-09         0.00000E+00
    0.36859E-09        -0.20629E-09         0.00000E+00
    0.36155E-09        -0.20541E-09         0.00000E+00
    0.35454E-09        -0.20377E-09         0.00000E+00
    0.34759E-09        -0.20119E-09         0.00000E+00
    0.34073E-09        -0.19752E-09         0.00000E+00
    0.33401E-09        -0.19253E-09         0.00000E+00
    0.32747E-09        -0.18599E-09         0.00000E+00
    0.32118E-09        -0.17761E-09         0.00000E+00
    0.31521E-09        -0.16708E-09         0.00000E+00
    0.30963E-09        -0.15405E-09         0.00000E+00
    0.30454E-09        -0.13811E-09         0.00000E+00
    0.30005E-09        -0.11884E-09         0.00000E+00
    0.29629E-09        -0.95795E-10         0.00000E+00
    0.29340E-09        -0.68533E-10         0.00000E+00
    0.29153E-09        -0.36655E-10         0.00000E+00
    0.29085E-09        -0.19517E-10         0.00000E+00
    0.53067E-09        -0.91303E-11         0.00000E+00
    0.53031E-09        -0.17553E-10         0.00000E+00
    0.52931E-09        -0.33460E-10         0.00000E+00
    0.52772E-09        -0.47563E-10         0.00000E+00
    0.52562E-09        -0.60018E-10         0.00000E+00
    0.52307E-09        -0.70999E-10         0.00000E+00
    0.52012E-09        -0.80679E-10         0.00000E+00
    0.51682E-09        -0.89225E-10         0.00000E+00
    0.51321E-09        -0.96792E-10         0.00000E+00
    0.50932E-09        -0.10352E-09         0.00000E+00
    0.50519E-09        -0.10953E-09         0.00000E+00
    0.50083E-09        -0.11494E-09         0.00000E+00
    0.49627E-09        -0.11984E-09         0.00000E+00
    0.49153E-09        -0.12430E-09         0.00000E+00
    0.48663E-09        -0.12840E-09         0.00000E+00
    0.48156E-09        -0.13219E-09         0.00000E+00
    0.47635E-09        -0.13572E-09         0.00000E+00
    0.47100E-09        -0.13903E-09         0.00000E+00
    0.46553E-09        -0.14215E-09         0.00000E+00
    0.45993E-09        -0.14510E-09         0.00000E+00
    0.45421E-09        -0.14791E-09         0.00000E+00
    0.44838E-09        -0.15058E-09         0.00000E+00
    0.44244E-09        -0.15313E-09         0.00000E+00
    0.43639E-09        -0.15556E-09         0.00000E+00
    0.43025E-09        -0.15788E-09         0.00000E+00
    0.42401E-09        -0.16008E-09         0.00000E+00
    0.41767E-09        -0.16216E-09         0.00000E+00
    0.41125E-09        -0.16410E-09         0.00000E+00
    0.40475E-09        -0.16589E-09         0.00000E+00
    0.39817E-09        -0.16750E-09         0.00000E+00
    0.39152E-09        -0.16892E-09         0.00000E+00
    0.38481E-09        -0.17012E-09         0.00000E+00
    0.37805E-09        -0.17104E-09         0.00000E+00
    0.37124E-09        -0.17164E-09         0.00000E+00
    0.36442E-09        -0.17186E-09         0.00000E+00
    0.35758E-09        -0.17163E-09         0.00000E+00
    0.35075E-09        -0.17086E-09         0.00000E+00
    0.34396E-09        -0.16945E-09         0.00000E+00
    0.33722E-09        -0.16726E-09         0.00000E+00
    0.33059E-09        -0.16416E-09         0.00000E+00
    0.32409E-09        -0.15998E-09         0.00000E+00
    0.31777E-09        -0.15451E-09         0.00000E+00
    0.31170E-09        -0.14752E-09         0.00000E+00
    0.30593E-09        -0.13875E-09         0.00000E+00
    0.30055E-09        -0.12790E-09         0.00000E+00
    0.29564E-09        -0.11465E-09         0.00000E+00
    0.29132E-09        -0.98633E-10         0.00000E+00
    0.28770E-09        -0.79495E-10         0.00000E+00
    0.28491E-09        -0.56865E-10         0.00000E+00
    0.28311E-09        -0.30412E-10         0.00000E+00
    0.28246E-09        -0.16191E-10         0.00000E+00
    0.51852E-09        -0.73761E-11         0.00000E+00
    0.51818E-09        -0.14180E-10         0.00000E+00
    0.51719E-09        -0.27031E-10         0.00000E+00
    0.51563E-09        -0.38424E-10         0.00000E+00
    0.51356E-09        -0.48486E-10         0.00000E+00
    0.51105E-09        -0.57357E-10         0.00000E+00
    0.50815E-09        -0.65176E-10         0.00000E+00
    0.50490E-09        -0.72078E-10         0.00000E+00
    0.50134E-09        -0.78188E-10         0.00000E+00
    0.49751E-09        -0.83620E-10         0.00000E+00
    0.49344E-09        -0.88472E-10         0.00000E+00
    0.48916E-09        -0.92834E-10         0.00000E+00
    0.48467E-09        -0.96779E-10         0.00000E+00
    0.48000E-09        -0.10037E-09         0.00000E+00
    0.47517E-09        -0.10367E-09         0.00000E+00
    0.47019E-09        -0.10672E-09         0.00000E+00
    0.46507E-09        -0.10955E-09         0.00000E+00
    0.45981E-09        -0.11221E-09         0.00000E+00
    0.45442E-09        -0.11470E-09         0.00000E+00
    0.44892E-09        -0.11707E-09         0.00000E+00
    0.44331E-09        -0.11931E-09         0.00000E+00
    0.43758E-09        -0.12144E-09         0.00000E+00
    0.43175E-09        -0.12347E-09         0.00000E+00
    0.42582E-09        -0.12541E-09         0.00000E+00
    0.41980E-09        -0.12725E-09         0.00000E+00
    0.41368E-09        -0.12899E-09         0.00000E+00
    0.40748E-09        -0.13063E-09         0.00000E+00
    0.40120E-09        -0.13216E-09         0.00000E+00
    0.39484E-09        -0.13357E-09         0.00000E+00
    0.38841E-09        -0.13484E-09         0.00000E+00
    0.38191E-09        -0.13595E-09         0.00000E+00
    0.37536E-09        -0.13687E-09         0.00000E+00
    0.36876E-09        -0.13758E-09         0.00000E+00
    0.36213E-09        -0.13803E-09         0.00000E+00
    0.35547E-09        -0.13817E-09         0.00000E+00
    0.34881E-09        -0.13796E-09         0.00000E+00
    0.34217E-09        -0.13730E-09         0.00000E+00
    0.33556E-09        -0.13614E-09         0.00000E+00
    0.32901E-09        -0.13435E-09         0.00000E+00
    0.32256E-09        -0.13183E-09         0.00000E+00
    0.31625E-09        -0.12845E-09         0.00000E+00
    0.31011E-09        -0.12403E-09         0.00000E+00
    0.30422E-09        -0.11840E-09         0.00000E+00
    0.29862E-09        -0.11134E-09         0.00000E+00
    0.29341E-09        -0.10262E-09         0.00000E+00
    0.28865E-09        -0.91971E-10         0.00000E+00
    0.28447E-09        -0.79116E-10         0.00000E+00
    0.28096E-09        -0.63759E-10         0.00000E+00
    0.27826E-09        -0.45605E-10         0.00000E+00
    0.27652E-09        -0.24389E-10         0.00000E+00
    0.27589E-09        -0.12984E-10         0.00000E+00
    0.50891E-09        -0.56516E-11         0.00000E+00
    0.50856E-09        -0.10864E-10         0.00000E+00
    0.50759E-09        -0.20708E-10         0.00000E+00
    0.50605E-09        -0.29435E-10         0.00000E+00
    0.50402E-09        -0.37141E-10         0.00000E+00
    0.50155E-09        -0.43933E-10         0.00000E+00
    0.49869E-09        -0.49918E-10         0.00000E+00
    0.49549E-09        -0.55200E-10         0.00000E+00
    0.49199E-09        -0.59875E-10         0.00000E+00
    0.48822E-09        -0.64028E-10         0.00000E+00
    0.48421E-09        -0.67737E-10         0.00000E+00
    0.47998E-09        -0.71069E-10         0.00000E+00
    0.47556E-09        -0.74080E-10         0.00000E+00
    0.47096E-09        -0.76822E-10         0.00000E+00
    0.46620E-09        -0.79334E-10         0.00000E+00
    0.46130E-09        -0.81654E-10         0.00000E+00
    0.45625E-09        -0.83809E-10         0.00000E+00
    0.45107E-09        -0.85824E-10         0.00000E+00
    0.44577E-09        -0.87718E-10         0.00000E+00
    0.44035E-09        -0.89507E-10         0.00000E+00
    0.43483E-09        -0.91202E-10         0.00000E+00
    0.42919E-09        -0.92813E-10         0.00000E+00
    0.42346E-09        -0.94345E-10         0.00000E+00
    0.41763E-09        -0.95803E-10         0.00000E+00
    0.41171E-09        -0.97187E-10         0.00000E+00
    0.40570E-09        -0.98495E-10         0.00000E+00
    0.39961E-09        -0.99725E-10         0.00000E+00
    0.39344E-09        -0.10087E-09         0.00000E+00
    0.38720E-09        -0.10192E-09         0.00000E+00
    0.38089E-09        -0.10287E-09         0.00000E+00
    0.37452E-09        -0.10369E-09         0.00000E+00
    0.36810E-09        -0.10437E-09         0.00000E+00
    0.36164E-09        -0.10488E-09         0.00000E+00
    0.35514E-09        -0.10520E-09         0.00000E+00
    0.34863E-09        -0.10529E-09         0.00000E+00
    0.34212E-09        -0.10510E-09         0.00000E+00
    0.33562E-09        -0.10458E-09         0.00000E+00
    0.32915E-09        -0.10366E-09         0.00000E+00
    0.32276E-09        -0.10228E-09         0.00000E+00
    0.31646E-09        -0.10035E-09         0.00000E+00
    0.31030E-09        -0.97751E-10         0.00000E+00
    0.30431E-09        -0.94372E-10         0.00000E+00
    0.29856E-09        -0.90072E-10         0.00000E+00
    0.29311E-09        -0.84690E-10         0.00000E+00
    0.28802E-09        -0.78046E-10         0.00000E+00
    0.28339E-09        -0.69941E-10         0.00000E+00
    0.27931E-09        -0.60160E-10         0.00000E+00
    0.27589E-09        -0.48479E-10         0.00000E+00
    0.27327E-09        -0.34674E-10         0.00000E+00
    0.27157E-09        -0.18543E-10         0.00000E+00
    0.27096E-09        -0.98722E-11         0.00000E+00
    0.50183E-09        -0.39541E-11         0.00000E+00
    0.50149E-09        -0.75997E-11         0.00000E+00
    0.50053E-09        -0.14483E-10         0.00000E+00
    0.49902E-09        -0.20581E-10         0.00000E+00
    0.49701E-09        -0.25964E-10         0.00000E+00
    0.49458E-09        -0.30705E-10         0.00000E+00
    0.49175E-09        -0.34881E-10         0.00000E+00
    0.48859E-09        -0.38564E-10         0.00000E+00
    0.48514E-09        -0.41820E-10         0.00000E+00
    0.48141E-09        -0.44712E-10         0.00000E+00
    0.47745E-09        -0.47291E-10         0.00000E+00
    0.47328E-09        -0.49605E-10         0.00000E+00
    0.46891E-09        -0.51695E-10         0.00000E+00
    0.46437E-09        -0.53595E-10         0.00000E+00
    0.45967E-09        -0.55334E-10         0.00000E+00
    0.45483E-09        -0.56938E-10         0.00000E+00
    0.44984E-09        -0.58425E-10         0.00000E+00
    0.44473E-09        -0.59814E-10         0.00000E+00
    0.43949E-09        -0.61118E-10         0.00000E+00
    0.43414E-09        -0.62347E-10         0.00000E+00
    0.42869E-09        -0.63510E-10         0.00000E+00
    0.42313E-09        -0.64614E-10         0.00000E+00
    0.41747E-09        -0.65662E-10         0.00000E+00
    0.41172E-09        -0.66658E-10         0.00000E+00
    0.40588E-09        -0.67601E-10         0.00000E+00
    0.39996E-09        -0.68492E-10         0.00000E+00
    0.39395E-09        -0.69328E-10         0.00000E+00
    0.38787E-09        -0.70103E-10         0.00000E+00
    0.38172E-09        -0.70813E-10         0.00000E+00
    0.37551E-09        -0.71449E-10         0.00000E+00
    0.36923E-09        -0.72000E-10         0.00000E+00
    0.36291E-09        -0.72452E-10         0.00000E+00
    0.35655E-09        -0.72789E-10         0.00000E+00
    0.35016E-09        -0.72990E-10         0.00000E+00
    0.34376E-09        -0.73031E-10         0.00000E+00
    0.33735E-09        -0.72880E-10         0.00000E+00
    0.33096E-09        -0.72501E-10         0.00000E+00
    0.32462E-09        -0.71851E-10         0.00000E+00
    0.31833E-09        -0.70878E-10         0.00000E+00
    0.31215E-09        -0.69521E-10         0.00000E+00
    0.30610E-09        -0.67708E-10         0.00000E+00
    0.30023E-09        -0.65355E-10         0.00000E+00
    0.29458E-09        -0.62366E-10         0.00000E+00
    0.28923E-09        -0.58631E-10         0.00000E+00
    0.28424E-09        -0.54025E-10         0.00000E+00
    0.27970E-09        -0.48410E-10         0.00000E+00
    0.27570E-09        -0.41637E-10         0.00000E+00
    0.27236E-09        -0.33552E-10         0.00000E+00
    0.26978E-09        -0.23998E-10         0.00000E+00
    0.26812E-09        -0.12835E-10         0.00000E+00
    0.26752E-09        -0.68338E-11         0.00000E+00
    0.49733E-09        -0.22782E-11         0.00000E+00
    0.49699E-09        -0.43761E-11         0.00000E+00
    0.49604E-09        -0.83341E-11         0.00000E+00
    0.49454E-09        -0.11835E-10         0.00000E+00
    0.49256E-09        -0.14920E-10         0.00000E+00
    0.49014E-09        -0.17632E-10         0.00000E+00
    0.48735E-09        -0.20017E-10         0.00000E+00
    0.48422E-09        -0.22116E-10         0.00000E+00
    0.48079E-09        -0.23968E-10         0.00000E+00
    0.47710E-09        -0.25608E-10         0.00000E+00
    0.47318E-09        -0.27068E-10         0.00000E+00
    0.46904E-09        -0.28374E-10         0.00000E+00
    0.46471E-09        -0.29551E-10         0.00000E+00
    0.46021E-09        -0.30617E-10         0.00000E+00
    0.45555E-09        -0.31591E-10         0.00000E+00
    0.45075E-09        -0.32486E-10         0.00000E+00
    0.44580E-09        -0.33314E-10         0.00000E+00
    0.44074E-09        -0.34085E-10         0.00000E+00
    0.43555E-09        -0.34806E-10         0.00000E+00
    0.43025E-09        -0.35485E-10         0.00000E+00
    0.42484E-09        -0.36125E-10         0.00000E+00
    0.41933E-09        -0.36731E-10         0.00000E+00
    0.41372E-09        -0.37306E-10         0.00000E+00
    0.40802E-09        -0.37849E-10         0.00000E+00
    0.40224E-09        -0.38363E-10         0.00000E+00
    0.39637E-09        -0.38847E-10         0.00000E+00
    0.39042E-09        -0.39299E-10         0.00000E+00
    0.38440E-09        -0.39717E-10         0.00000E+00
    0.37831E-09        -0.40098E-10         0.00000E+00
    0.37216E-09        -0.40437E-10         0.00000E+00
    0.36596E-09        -0.40728E-10         0.00000E+00
    0.35970E-09        -0.40963E-10         0.00000E+00
    0.35341E-09        -0.41133E-10         0.00000E+00
    0.34709E-09        -0.41227E-10         0.00000E+00
    0.34076E-09        -0.41230E-10         0.00000E+00
    0.33443E-09        -0.41126E-10         0.00000E+00
    0.32812E-09        -0.40895E-10         0.00000E+00
    0.32184E-09        -0.40511E-10         0.00000E+00
    0.31564E-09        -0.39947E-10         0.00000E+00
    0.30953E-09        -0.39167E-10         0.00000E+00
    0.30355E-09        -0.38133E-10         0.00000E+00
    0.29776E-09        -0.36797E-10         0.00000E+00
    0.29219E-09        -0.35105E-10         0.00000E+00
    0.28690E-09        -0.32995E-10         0.00000E+00
    0.28198E-09        -0.30398E-10         0.00000E+00
    0.27750E-09        -0.27235E-10         0.00000E+00
    0.27356E-09        -0.23425E-10         0.00000E+00
    0.27025E-09        -0.18877E-10         0.00000E+00
    0.26772E-09        -0.13504E-10         0.00000E+00
    0.26608E-09        -0.72242E-11         0.00000E+00
    0.26549E-09        -0.38479E-11         0.00000E+00
    0.49542E-09        -0.61642E-12         0.00000E+00
    0.49508E-09        -0.11792E-11         0.00000E+00
    0.49414E-09        -0.22352E-11         0.00000E+00
    0.49265E-09        -0.31582E-11         0.00000E+00
    0.49067E-09        -0.39614E-11         0.00000E+00
    0.48827E-09        -0.46585E-11         0.00000E+00
    0.48549E-09        -0.52628E-11         0.00000E+00
    0.48238E-09        -0.57867E-11         0.00000E+00
    0.47897E-09        -0.62415E-11         0.00000E+00
    0.47529E-09        -0.66372E-11         0.00000E+00
    0.47138E-09        -0.69828E-11         0.00000E+00
    0.46727E-09        -0.72860E-11         0.00000E+00
    0.46296E-09        -0.75534E-11         0.00000E+00
    0.45847E-09        -0.77906E-11         0.00000E+00
    0.45383E-09        -0.80024E-11         0.00000E+00
    0.44905E-09        -0.81929E-11         0.00000E+00
    0.44412E-09        -0.83653E-11         0.00000E+00
    0.43907E-09        -0.85224E-11         0.00000E+00
    0.43391E-09        -0.86664E-11         0.00000E+00
    0.42863E-09        -0.87992E-11         0.00000E+00
    0.42324E-09        -0.89220E-11         0.00000E+00
    0.41775E-09        -0.90359E-11         0.00000E+00
    0.41217E-09        -0.91418E-11         0.00000E+00
    0.40650E-09        -0.92400E-11         0.00000E+00
    0.40074E-09        -0.93309E-11         0.00000E+00
    0.39489E-09        -0.94144E-11         0.00000E+00
    0.38898E-09        -0.94903E-11         0.00000E+00
    0.38298E-09        -0.95581E-11         0.00000E+00
    0.37692E-09        -0.96170E-11         0.00000E+00
    0.37080E-09        -0.96662E-11         0.00000E+00
    0.36463E-09        -0.97041E-11         0.00000E+00
    0.35841E-09        -0.97293E-11         0.00000E+00
    0.35215E-09        -0.97396E-11         0.00000E+00
    0.34587E-09        -0.97325E-11         0.00000E+00
    0.33957E-09        -0.97049E-11         0.00000E+00
    0.33328E-09        -0.96532E-11         0.00000E+00
    0.32700E-09        -0.95729E-11         0.00000E+00
    0.32077E-09        -0.94587E-11         0.00000E+00
    0.31460E-09        -0.93043E-11         0.00000E+00
    0.30853E-09        -0.91023E-11         0.00000E+00
    0.30259E-09        -0.88437E-11         0.00000E+00
    0.29684E-09        -0.85183E-11         0.00000E+00
    0.29130E-09        -0.81140E-11         0.00000E+00
    0.28606E-09        -0.76171E-11         0.00000E+00
    0.28117E-09        -0.70116E-11         0.00000E+00
    0.27672E-09        -0.62798E-11         0.00000E+00
    0.27281E-09        -0.54020E-11         0.00000E+00
    0.26953E-09        -0.43567E-11         0.00000E+00
    0.26701E-09        -0.31215E-11         0.00000E+00
    0.26538E-09        -0.16739E-11         0.00000E+00
    0.26479E-09        -0.89425E-12         0.00000E+00
    0.49613E-09         0.10403E-11         0.00000E+00
    0.49580E-09         0.20082E-11         0.00000E+00
    0.49485E-09         0.38464E-11         0.00000E+00
    0.49336E-09         0.54954E-11         0.00000E+00
    0.49138E-09         0.69691E-11         0.00000E+00
    0.48898E-09         0.82840E-11         0.00000E+00
    0.48620E-09         0.94577E-11         0.00000E+00
    0.48308E-09         0.10507E-10         0.00000E+00
    0.47967E-09         0.11449E-10         0.00000E+00
    0.47599E-09         0.12297E-10         0.00000E+00
    0.47208E-09         0.13066E-10         0.00000E+00
    0.46796E-09         0.13766E-10         0.00000E+00
    0.46364E-09         0.14407E-10         0.00000E+00
    0.45916E-09         0.15000E-10         0.00000E+00
    0.45451E-09         0.15549E-10         0.00000E+00
    0.44972E-09         0.16063E-10         0.00000E+00
    0.44479E-09         0.16545E-10         0.00000E+00
    0.43973E-09         0.17001E-10         0.00000E+00
    0.43456E-09         0.17434E-10         0.00000E+00
    0.42927E-09         0.17845E-10         0.00000E+00
    0.42388E-09         0.18238E-10         0.00000E+00
    0.41839E-09         0.18615E-10         0.00000E+00
    0.41280E-09         0.18975E-10         0.00000E+00
    0.40712E-09         0.19319E-10         0.00000E+00
    0.40135E-09         0.19649E-10         0.00000E+00
    0.39551E-09         0.19962E-10         0.00000E+00
    0.38958E-09         0.20259E-10         0.00000E+00
    0.38358E-09         0.20538E-10         0.00000E+00
    0.37752E-09         0.20797E-10         0.00000E+00
    0.37140E-09         0.21034E-10         0.00000E+00
    0.36522E-09         0.21245E-10         0.00000E+00
    0.35900E-09         0.21426E-10         0.00000E+00
    0.35274E-09         0.21571E-10         0.00000E+00
    0.34645E-09         0.21675E-10         0.00000E+00
    0.34015E-09         0.21730E-10         0.00000E+00
    0.33386E-09         0.21726E-10         0.00000E+00
    0.32758E-09         0.21652E-10         0.00000E+00
    0.32135E-09         0.21494E-10         0.00000E+00
    0.31518E-09         0.21237E-10         0.00000E+00
    0.30912E-09         0.20860E-10         0.00000E+00
    0.30318E-09         0.20343E-10         0.00000E+00
    0.29743E-09         0.19658E-10         0.00000E+00
    0.29190E-09         0.18776E-10         0.00000E+00
    0.28666E-09         0.17664E-10         0.00000E+00
    0.28177E-09         0.16283E-10         0.00000E+00
    0.27733E-09         0.14593E-10         0.00000E+00
    0.27341E-09         0.12548E-10         0.00000E+00
    0.27014E-09         0.10104E-10         0.00000E+00
    0.26762E-09         0.72176E-11         0.00000E+00
    0.26600E-09         0.38528E-11         0.00000E+00
    0.26541E-09         0.20467E-11         0.00000E+00
    0.49949E-09         0.27019E-11         0.00000E+00
    0.49916E-09         0.52053E-11         0.00000E+00
    0.49820E-09         0.99470E-11         0.00000E+00
    0.49670E-09         0.14177E-10         0.00000E+00
    0.49472E-09         0.17936E-10         0.00000E+00
    0.49230E-09         0.21271E-10         0.00000E+00
    0.48950E-09         0.24230E-10         0.00000E+00
    0.48636E-09         0.26859E-10         0.00000E+00
    0.48292E-09         0.29204E-10         0.00000E+00
    0.47922E-09         0.31302E-10         0.00000E+00
    0.47529E-09         0.33190E-10         0.00000E+00
    0.47113E-09         0.34898E-10         0.00000E+00
    0.46679E-09         0.36453E-10         0.00000E+00
    0.46227E-09         0.37878E-10         0.00000E+00
    0.45760E-09         0.39193E-10         0.00000E+00
    0.45277E-09         0.40414E-10         0.00000E+00
    0.44781E-09         0.41554E-10         0.00000E+00
    0.44272E-09         0.42625E-10         0.00000E+00
    0.43751E-09         0.43636E-10         0.00000E+00
    0.43219E-09         0.44594E-10         0.00000E+00
    0.42676E-09         0.45505E-10         0.00000E+00
    0.42123E-09         0.46372E-10         0.00000E+00
    0.41560E-09         0.47199E-10         0.00000E+00
    0.40988E-09         0.47987E-10         0.00000E+00
    0.40408E-09         0.48737E-10         0.00000E+00
    0.39819E-09         0.49447E-10         0.00000E+00
    0.39223E-09         0.50117E-10         0.00000E+00
    0.38620E-09         0.50742E-10         0.00000E+00
    0.38009E-09         0.51319E-10         0.00000E+00
    0.37393E-09         0.51840E-10         0.00000E+00
    0.36771E-09         0.52299E-10         0.00000E+00
    0.36145E-09         0.52684E-10         0.00000E+00
    0.35515E-09         0.52984E-10         0.00000E+00
    0.34883E-09         0.53183E-10         0.00000E+00
    0.34249E-09         0.53263E-10         0.00000E+00
    0.33616E-09         0.53201E-10         0.00000E+00
    0.32984E-09         0.52969E-10         0.00000E+00
    0.32357E-09         0.52537E-10         0.00000E+00
    0.31737E-09         0.51864E-10         0.00000E+00
    0.31127E-09         0.50905E-10         0.00000E+00
    0.30530E-09         0.49607E-10         0.00000E+00
    0.29951E-09         0.47908E-10         0.00000E+00
    0.29395E-09         0.45736E-10         0.00000E+00
    0.28868E-09         0.43009E-10         0.00000E+00
    0.28377E-09         0.39636E-10         0.00000E+00
    0.27929E-09         0.35515E-10         0.00000E+00
    0.27536E-09         0.30540E-10         0.00000E+00
    0.27207E-09         0.24598E-10         0.00000E+00
    0.26954E-09         0.17580E-10         0.00000E+00
    0.26790E-09         0.93919E-11         0.00000E+00
    0.26731E-09         0.49941E-11         0.00000E+00
    0.50553E-09         0.43793E-11         0.00000E+00
    0.50519E-09         0.84327E-11         0.00000E+00
    0.50423E-09         0.16105E-10         0.00000E+00
    0.50271E-09         0.22941E-10         0.00000E+00
    0.50070E-09         0.29007E-10         0.00000E+00
    0.49825E-09         0.34381E-10         0.00000E+00
    0.49541E-09         0.39143E-10         0.00000E+00
    0.49223E-09         0.43368E-10         0.00000E+00
    0.48876E-09         0.47129E-10         0.00000E+00
    0.48501E-09         0.50490E-10         0.00000E+00
    0.48102E-09         0.53508E-10         0.00000E+00
    0.47682E-09         0.56234E-10         0.00000E+00
    0.47242E-09         0.58711E-10         0.00000E+00
    0.46784E-09         0.60978E-10         0.00000E+00
    0.46311E-09         0.63065E-10         0.00000E+00
    0.45822E-09         0.65000E-10         0.00000E+00
    0.45320E-09         0.66804E-10         0.00000E+00
    0.44804E-09         0.68496E-10         0.00000E+00
    0.44277E-09         0.70091E-10         0.00000E+00
    0.43738E-09         0.71600E-10         0.00000E+00
    0.43188E-09         0.73032E-10         0.00000E+00
    0.42629E-09         0.74395E-10         0.00000E+00
    0.42059E-09         0.75693E-10         0.00000E+00
    0.41480E-09         0.76928E-10         0.00000E+00
    0.40893E-09         0.78101E-10         0.00000E+00
    0.40297E-09         0.79212E-10         0.00000E+00
    0.39693E-09         0.80256E-10         0.00000E+00
    0.39082E-09         0.81230E-10         0.00000E+00
    0.38464E-09         0.82126E-10         0.00000E+00
    0.37840E-09         0.82934E-10         0.00000E+00
    0.37211E-09         0.83641E-10         0.00000E+00
    0.36577E-09         0.84232E-10         0.00000E+00
    0.35939E-09         0.84686E-10         0.00000E+00
    0.35299E-09         0.84980E-10         0.00000E+00
    0.34658E-09         0.85084E-10         0.00000E+00
    0.34017E-09         0.84962E-10         0.00000E+00
    0.33378E-09         0.84571E-10         0.00000E+00
    0.32743E-09         0.83859E-10         0.00000E+00
    0.32116E-09         0.82766E-10         0.00000E+00
    0.31498E-09         0.81219E-10         0.00000E+00
    0.30894E-09         0.79133E-10         0.00000E+00
    0.30308E-09         0.76410E-10         0.00000E+00
    0.29745E-09         0.72934E-10         0.00000E+00
    0.29212E-09         0.68578E-10         0.00000E+00
    0.28715E-09         0.63194E-10         0.00000E+00
    0.28262E-09         0.56622E-10         0.00000E+00
    0.27864E-09         0.48689E-10         0.00000E+00
    0.27531E-09         0.39218E-10         0.00000E+00
    0.27275E-09         0.28033E-10         0.00000E+00
    0.27110E-09         0.14979E-10         0.00000E+00
    0.27050E-09         0.79670E-11         0.00000E+00
    0.51429E-09         0.60834E-11         0.00000E+00
    0.51394E-09         0.11712E-10         0.00000E+00
    0.51296E-09         0.22362E-10         0.00000E+00
    0.51141E-09         0.31844E-10         0.00000E+00
    0.50936E-09         0.40254E-10         0.00000E+00
    0.50686E-09         0.47699E-10         0.00000E+00
    0.50397E-09         0.54292E-10         0.00000E+00
    0.50074E-09         0.60137E-10         0.00000E+00
    0.49719E-09         0.65336E-10         0.00000E+00
    0.49338E-09         0.69978E-10         0.00000E+00
    0.48932E-09         0.74143E-10         0.00000E+00
    0.48504E-09         0.77902E-10         0.00000E+00
    0.48056E-09         0.81315E-10         0.00000E+00
    0.47590E-09         0.84436E-10         0.00000E+00
    0.47107E-09         0.87307E-10         0.00000E+00
    0.46610E-09         0.89966E-10         0.00000E+00
    0.46098E-09         0.92443E-10         0.00000E+00
    0.45574E-09         0.94765E-10         0.00000E+00
    0.45037E-09         0.96952E-10         0.00000E+00
    0.44488E-09         0.99020E-10         0.00000E+00
    0.43928E-09         0.10098E-09         0.00000E+00
    0.43358E-09         0.10285E-09         0.00000E+00
    0.42779E-09         0.10462E-09         0.00000E+00
    0.42189E-09         0.10631E-09         0.00000E+00
    0.41591E-09         0.10791E-09         0.00000E+00
    0.40984E-09         0.10943E-09         0.00000E+00
    0.40370E-09         0.11085E-09         0.00000E+00
    0.39748E-09         0.11218E-09         0.00000E+00
    0.39119E-09         0.11340E-09         0.00000E+00
    0.38484E-09         0.11450E-09         0.00000E+00
    0.37843E-09         0.11546E-09         0.00000E+00
    0.37198E-09         0.11626E-09         0.00000E+00
    0.36549E-09         0.11687E-09         0.00000E+00
    0.35897E-09         0.11726E-09         0.00000E+00
    0.35244E-09         0.11739E-09         0.00000E+00
    0.34591E-09         0.11720E-09         0.00000E+00
    0.33941E-09         0.11665E-09         0.00000E+00
    0.33295E-09         0.11566E-09         0.00000E+00
    0.32656E-09         0.11414E-09         0.00000E+00
    0.32027E-09         0.11199E-09         0.00000E+00
    0.31412E-09         0.10911E-09         0.00000E+00
    0.30815E-09         0.10534E-09         0.00000E+00
    0.30242E-09         0.10054E-09         0.00000E+00
    0.29699E-09         0.94531E-10         0.00000E+00
    0.29193E-09         0.87106E-10         0.00000E+00
    0.28732E-09         0.78045E-10         0.00000E+00
    0.28327E-09         0.67111E-10         0.00000E+00
    0.27988E-09         0.54058E-10         0.00000E+00
    0.27727E-09         0.38643E-10         0.00000E+00
    0.27559E-09         0.20650E-10         0.00000E+00
    0.27498E-09         0.10984E-10         0.00000E+00
    0.52579E-09         0.78255E-11         0.00000E+00
    0.52544E-09         0.15063E-10         0.00000E+00
    0.52443E-09         0.28757E-10         0.00000E+00
    0.52284E-09         0.40943E-10         0.00000E+00
    0.52074E-09         0.51747E-10         0.00000E+00
    0.51818E-09         0.61308E-10         0.00000E+00
    0.51522E-09         0.69770E-10         0.00000E+00
    0.51191E-09         0.77269E-10         0.00000E+00
    0.50828E-09         0.83935E-10         0.00000E+00
    0.50437E-09         0.89884E-10         0.00000E+00
    0.50021E-09         0.95219E-10         0.00000E+00
    0.49582E-09         0.10003E-09         0.00000E+00
    0.49124E-09         0.10440E-09         0.00000E+00
    0.48647E-09         0.10839E-09         0.00000E+00
    0.48153E-09         0.11206E-09         0.00000E+00
    0.47644E-09         0.11546E-09         0.00000E+00
    0.47120E-09         0.11862E-09         0.00000E+00
    0.46583E-09         0.12158E-09         0.00000E+00
    0.46034E-09         0.12437E-09         0.00000E+00
    0.45472E-09         0.12701E-09         0.00000E+00
    0.44899E-09         0.12951E-09         0.00000E+00
    0.44316E-09         0.13189E-09         0.00000E+00
    0.43723E-09         0.13415E-09         0.00000E+00
    0.43120E-09         0.13630E-09         0.00000E+00
    0.42507E-09         0.13834E-09         0.00000E+00
    0.41887E-09         0.14027E-09         0.00000E+00
    0.41258E-09         0.14209E-09         0.00000E+00
    0.40621E-09         0.14378E-09         0.00000E+00
    0.39977E-09         0.14533E-09         0.00000E+00
    0.39327E-09         0.14672E-09         0.00000E+00
    0.38671E-09         0.14794E-09         0.00000E+00
    0.38011E-09         0.14895E-09         0.00000E+00
    0.37346E-09         0.14972E-09         0.00000E+00
    0.36679E-09         0.15021E-09         0.00000E+00
    0.36011E-09         0.15037E-09         0.00000E+00
    0.35342E-09         0.15012E-09         0.00000E+00
    0.34676E-09         0.14940E-09         0.00000E+00
    0.34015E-09         0.14812E-09         0.00000E+00
    0.33360E-09         0.14617E-09         0.00000E+00
    0.32716E-09         0.14341E-09         0.00000E+00
    0.32086E-09         0.13971E-09         0.00000E+00
    0.31475E-09         0.13489E-09         0.00000E+00
    0.30889E-09         0.12874E-09         0.00000E+00
    0.30332E-09         0.12104E-09         0.00000E+00
    0.29814E-09         0.11153E-09         0.00000E+00
    0.29342E-09         0.99924E-10         0.00000E+00
    0.28927E-09         0.85925E-10         0.00000E+00
    0.28579E-09         0.69213E-10         0.00000E+00
    0.28313E-09         0.49477E-10         0.00000E+00
    0.28140E-09         0.26441E-10         0.00000E+00
    0.28078E-09         0.14066E-10         0.00000E+00
    0.54007E-09         0.96164E-11         0.00000E+00
    0.53971E-09         0.18509E-10         0.00000E+00
    0.53867E-09         0.35330E-10         0.00000E+00
    0.53704E-09         0.50294E-10         0.00000E+00
    0.53487E-09         0.63557E-10         0.00000E+00
    0.53224E-09         0.75289E-10         0.00000E+00
    0.52919E-09         0.85668E-10         0.00000E+00
    0.52578E-09         0.94863E-10         0.00000E+00
    0.52204E-09         0.10303E-09         0.00000E+00
    0.51802E-09         0.11032E-09         0.00000E+00
    0.51374E-09         0.11686E-09         0.00000E+00
    0.50923E-09         0.12275E-09         0.00000E+00
    0.50451E-09         0.12809E-09         0.00000E+00
    0.49960E-09         0.13297E-09         0.00000E+00
    0.49453E-09         0.13746E-09         0.00000E+00
    0.48929E-09         0.14161E-09         0.00000E+00
    0.48390E-09         0.14548E-09         0.00000E+00
    0.47838E-09         0.14910E-09         0.00000E+00
    0.47273E-09         0.15251E-09         0.00000E+00
    0.46696E-09         0.15573E-09         0.00000E+00
    0.46107E-09         0.15878E-09         0.00000E+00
    0.45507E-09         0.16169E-09         0.00000E+00
    0.44897E-09         0.16445E-09         0.00000E+00
    0.44276E-09         0.16707E-09         0.00000E+00
    0.43647E-09         0.16957E-09         0.00000E+00
    0.43008E-09         0.17192E-09         0.00000E+00
    0.42361E-09         0.17414E-09         0.00000E+00
    0.41707E-09         0.17620E-09         0.00000E+00
    0.41045E-09         0.17809E-09         0.00000E+00
    0.40376E-09         0.17979E-09         0.00000E+00
    0.39701E-09         0.18128E-09         0.00000E+00
    0.39021E-09         0.18251E-09         0.00000E+00
    0.38338E-09         0.18345E-09         0.00000E+00
    0.37651E-09         0.18404E-09         0.00000E+00
    0.36963E-09         0.18422E-09         0.00000E+00
    0.36275E-09         0.18392E-09         0.00000E+00
    0.35589E-09         0.18303E-09         0.00000E+00
    0.34908E-09         0.18146E-09         0.00000E+00
    0.34234E-09         0.17906E-09         0.00000E+00
    0.33571E-09         0.17568E-09         0.00000E+00
    0.32923E-09         0.17114E-09         0.00000E+00
    0.32293E-09         0.16523E-09         0.00000E+00
    0.31689E-09         0.15769E-09         0.00000E+00
    0.31116E-09         0.14826E-09         0.00000E+00
    0.30582E-09         0.13661E-09         0.00000E+00
    0.30096E-09         0.12240E-09         0.00000E+00
    0.29668E-09         0.10525E-09         0.00000E+00
    0.29310E-09         0.84782E-10         0.00000E+00
    0.29035E-09         0.60609E-10         0.00000E+00
    0.28858E-09         0.32391E-10         0.00000E+00
    0.28793E-09         0.17232E-10         0.00000E+00
    0.55717E-09         0.11466E-10         0.00000E+00
    0.55679E-09         0.22067E-10         0.00000E+00
    0.55572E-09         0.42117E-10         0.00000E+00
    0.55403E-09         0.59949E-10         0.00000E+00
    0.55179E-09         0.75747E-10         0.00000E+00
    0.54907E-09         0.89718E-10         0.00000E+00
    0.54592E-09         0.10207E-09         0.00000E+00
    0.54239E-09         0.11301E-09         0.00000E+00
    0.53853E-09         0.12273E-09         0.00000E+00
    0.53437E-09         0.13140E-09         0.00000E+00
    0.52995E-09         0.13917E-09         0.00000E+00
    0.52529E-09         0.14616E-09         0.00000E+00
    0.52042E-09         0.15251E-09         0.00000E+00
    0.51535E-09         0.15831E-09         0.00000E+00
    0.51011E-09         0.16364E-09         0.00000E+00
    0.50470E-09         0.16857E-09         0.00000E+00
    0.49914E-09         0.17316E-09         0.00000E+00
    0.49344E-09         0.17745E-09         0.00000E+00
    0.48761E-09         0.18150E-09         0.00000E+00
    0.48165E-09         0.18532E-09         0.00000E+00
    0.47557E-09         0.18895E-09         0.00000E+00
    0.46938E-09         0.19239E-09         0.00000E+00
    0.46307E-09         0.19567E-09         0.00000E+00
    0.45667E-09         0.19879E-09         0.00000E+00
    0.45017E-09         0.20175E-09         0.00000E+00
    0.44357E-09         0.20455E-09         0.00000E+00
    0.43689E-09         0.20718E-09         0.00000E+00
    0.43013E-09         0.20962E-09         0.00000E+00
    0.42328E-09         0.21187E-09         0.00000E+00
    0.41637E-09         0.21389E-09         0.00000E+00
    0.40940E-09         0.21566E-09         0.00000E+00
    0.40237E-09         0.21713E-09         0.00000E+00
    0.39530E-09         0.21824E-09         0.00000E+00
    0.38820E-09         0.21895E-09         0.00000E+00
    0.38109E-09         0.21916E-09         0.00000E+00
    0.37397E-09         0.21880E-09         0.00000E+00
    0.36688E-09         0.21775E-09         0.00000E+00
    0.35983E-09         0.21587E-09         0.00000E+00
    0.35286E-09         0.21302E-09         0.00000E+00
    0.34599E-09         0.20900E-09         0.00000E+00
    0.33928E-09         0.20360E-09         0.00000E+00
    0.33276E-09         0.19657E-09         0.00000E+00
    0.32650E-09         0.18760E-09         0.00000E+00
    0.32057E-09         0.17638E-09         0.00000E+00
    0.31504E-09         0.16252E-09         0.00000E+00
    0.31000E-09         0.14562E-09         0.00000E+00
    0.30557E-09         0.12522E-09         0.00000E+00
    0.30186E-09         0.10087E-09         0.00000E+00
    0.29901E-09         0.72111E-10         0.00000E+00
    0.29717E-09         0.38539E-10         0.00000E+00
    0.29650E-09         0.20503E-10         0.00000E+00
    0.57712E-09         0.13384E-10         0.00000E+00
    0.57673E-09         0.25756E-10         0.00000E+00
    0.57562E-09         0.49151E-10         0.00000E+00
    0.57386E-09         0.69952E-10         0.00000E+00
    0.57154E-09         0.88375E-10         0.00000E+00
    0.56871E-09         0.10466E-09         0.00000E+00
    0.56545E-09         0.11906E-09         0.00000E+00
    0.56179E-09         0.13181E-09         0.00000E+00
    0.55779E-09         0.14312E-09         0.00000E+00
    0.55348E-09         0.15321E-09         0.00000E+00
    0.54890E-09         0.16225E-09         0.00000E+00
    0.54408E-09         0.17039E-09         0.00000E+00
    0.53903E-09         0.17778E-09         0.00000E+00
    0.53379E-09         0.18452E-09         0.00000E+00
    0.52836E-09         0.19071E-09         0.00000E+00
    0.52276E-09         0.19644E-09         0.00000E+00
    0.51700E-09         0.20178E-09         0.00000E+00
    0.51110E-09         0.20678E-09         0.00000E+00
    0.50505E-09         0.21148E-09         0.00000E+00
    0.49888E-09         0.21593E-09         0.00000E+00
    0.49258E-09         0.22015E-09         0.00000E+00
    0.48617E-09         0.22415E-09         0.00000E+00
    0.47964E-09         0.22797E-09         0.00000E+00
    0.47301E-09         0.23160E-09         0.00000E+00
    0.46627E-09         0.23505E-09         0.00000E+00
    0.45943E-09         0.23831E-09         0.00000E+00
    0.45250E-09         0.24137E-09         0.00000E+00
    0.44549E-09         0.24423E-09         0.00000E+00
    0.43839E-09         0.24685E-09         0.00000E+00
    0.43122E-09         0.24921E-09         0.00000E+00
    0.42398E-09         0.25128E-09         0.00000E+00
    0.41669E-09         0.25299E-09         0.00000E+00
    0.40935E-09         0.25430E-09         0.00000E+00
    0.40198E-09         0.25512E-09         0.00000E+00
    0.39458E-09         0.25538E-09         0.00000E+00
    0.38719E-09         0.25497E-09         0.00000E+00
    0.37982E-09         0.25375E-09         0.00000E+00
    0.37249E-09         0.25157E-09         0.00000E+00
    0.36524E-09         0.24825E-09         0.00000E+00
    0.35810E-09         0.24358E-09         0.00000E+00
    0.35111E-09         0.23729E-09         0.00000E+00
    0.34433E-09         0.22910E-09         0.00000E+00
    0.33782E-09         0.21866E-09         0.00000E+00
    0.33164E-09         0.20558E-09         0.00000E+00
    0.32588E-09         0.18944E-09         0.00000E+00
    0.32064E-09         0.16974E-09         0.00000E+00
    0.31602E-09         0.14597E-09         0.00000E+00
    0.31216E-09         0.11758E-09         0.00000E+00
    0.30919E-09         0.84063E-10         0.00000E+00
    0.30727E-09         0.44928E-10         0.00000E+00
    0.30657E-09         0.23904E-10         0.00000E+00
    0.59995E-09         0.15378E-10         0.00000E+00
    0.59954E-09         0.29588E-10         0.00000E+00
    0.59839E-09         0.56458E-10         0.00000E+00
    0.59656E-09         0.80341E-10         0.00000E+00
    0.59415E-09         0.10149E-09         0.00000E+00
    0.59122E-09         0.12017E-09         0.00000E+00
    0.58783E-09         0.13669E-09         0.00000E+00
    0.58403E-09         0.15130E-09         0.00000E+00
    0.57988E-09         0.16427E-09         0.00000E+00
    0.57541E-09         0.17583E-09         0.00000E+00
    0.57066E-09         0.18619E-09         0.00000E+00
    0.56565E-09         0.19552E-09         0.00000E+00
    0.56042E-09         0.20397E-09         0.00000E+00
    0.55497E-09         0.21169E-09         0.00000E+00
    0.54934E-09         0.21878E-09         0.00000E+00
    0.54353E-09         0.22535E-09         0.00000E+00
    0.53756E-09         0.23146E-09         0.00000E+00
    0.53143E-09         0.23718E-09         0.00000E+00
    0.52516E-09         0.24257E-09         0.00000E+00
    0.51876E-09         0.24767E-09         0.00000E+00
    0.51222E-09         0.25251E-09         0.00000E+00
    0.50556E-09         0.25711E-09         0.00000E+00
    0.49878E-09         0.26149E-09         0.00000E+00
    0.49189E-09         0.26566E-09         0.00000E+00
    0.48489E-09         0.26962E-09         0.00000E+00
    0.47778E-09         0.27337E-09         0.00000E+00
    0.47058E-09         0.27689E-09         0.00000E+00
    0.46328E-09         0.28018E-09         0.00000E+00
    0.45590E-09         0.28320E-09         0.00000E+00
    0.44843E-09         0.28593E-09         0.00000E+00
    0.44090E-09         0.28831E-09         0.00000E+00
    0.43330E-09         0.29029E-09         0.00000E+00
    0.42565E-09         0.29181E-09         0.00000E+00
    0.41797E-09         0.29278E-09         0.00000E+00
    0.41026E-09         0.29309E-09         0.00000E+00
    0.40255E-09         0.29263E-09         0.00000E+00
    0.39485E-09         0.29125E-09         0.00000E+00
    0.38720E-09         0.28877E-09         0.00000E+00
    0.37963E-09         0.28498E-09         0.00000E+00
    0.37217E-09         0.27963E-09         0.00000E+00
    0.36487E-09         0.27243E-09         0.00000E+00
    0.35778E-09         0.26304E-09         0.00000E+00
    0.35097E-09         0.25106E-09         0.00000E+00
    0.34451E-09         0.23606E-09         0.00000E+00
    0.33848E-09         0.21753E-09         0.00000E+00
    0.33300E-09         0.19492E-09         0.00000E+00
    0.32816E-09         0.16763E-09         0.00000E+00
    0.32412E-09         0.13504E-09         0.00000E+00
    0.32101E-09         0.96548E-10         0.00000E+00
    0.31900E-09         0.51604E-10         0.00000E+00
    0.31827E-09         0.27456E-10         0.00000E+00
    0.62569E-09         0.17450E-10         0.00000E+00
    0.62527E-09         0.33573E-10         0.00000E+00
    0.62407E-09         0.64054E-10         0.00000E+00
    0.62218E-09         0.91137E-10         0.00000E+00
    0.61967E-09         0.11511E-09         0.00000E+00
    0.61662E-09         0.13629E-09         0.00000E+00
    0.61310E-09         0.15499E-09         0.00000E+00
    0.60916E-09         0.17155E-09         0.00000E+00
    0.60485E-09         0.18623E-09         0.00000E+00
    0.60022E-09         0.19932E-09         0.00000E+00
    0.59528E-09         0.21104E-09         0.00000E+00
    0.59009E-09         0.22159E-09         0.00000E+00
    0.58466E-09         0.23116E-09         0.00000E+00
    0.57901E-09         0.23989E-09         0.00000E+00
    0.57317E-09         0.24792E-09         0.00000E+00
    0.56714E-09         0.25535E-09         0.00000E+00
    0.56094E-09         0.26227E-09         0.00000E+00
    0.55458E-09         0.26876E-09         0.00000E+00
    0.54806E-09         0.27486E-09         0.00000E+00
    0.54141E-09         0.28064E-09         0.00000E+00
    0.53461E-09         0.28613E-09         0.00000E+00
    0.52769E-09         0.29136E-09         0.00000E+00
    0.52064E-09         0.29633E-09         0.00000E+00
    0.51347E-09         0.30107E-09         0.00000E+00
    0.50618E-09         0.30558E-09         0.00000E+00
    0.49878E-09         0.30986E-09         0.00000E+00
    0.49128E-09         0.31388E-09         0.00000E+00
    0.48367E-09         0.31763E-09         0.00000E+00
    0.47597E-09         0.32109E-09         0.00000E+00
    0.46818E-09         0.32420E-09         0.00000E+00
    0.46032E-09         0.32693E-09         0.00000E+00
    0.45238E-09         0.32922E-09         0.00000E+00
    0.44439E-09         0.33097E-09         0.00000E+00
    0.43635E-09         0.33210E-09         0.00000E+00
    0.42829E-09         0.33249E-09         0.00000E+00
    0.42022E-09         0.33200E-09         0.00000E+00
    0.41216E-09         0.33047E-09         0.00000E+00
    0.40415E-09         0.32769E-09         0.00000E+00
    0.39621E-09         0.32341E-09         0.00000E+00
    0.38839E-09         0.31737E-09         0.00000E+00
    0.38073E-09         0.30923E-09         0.00000E+00
    0.37329E-09         0.29859E-09         0.00000E+00
    0.36614E-09         0.28503E-09         0.00000E+00
    0.35935E-09         0.26802E-09         0.00000E+00
    0.35302E-09         0.24700E-09         0.00000E+00
    0.34725E-09         0.22134E-09         0.00000E+00
    0.34216E-09         0.19036E-09         0.00000E+00
    0.33791E-09         0.15337E-09         0.00000E+00
    0.33463E-09         0.10966E-09         0.00000E+00
    0.33252E-09         0.58614E-10         0.00000E+00
    0.33175E-09         0.31188E-10         0.00000E+00
    0.65438E-09         0.19603E-10         0.00000E+00
    0.65395E-09         0.37711E-10         0.00000E+00
    0.65270E-09         0.71940E-10         0.00000E+00
    0.65074E-09         0.10234E-09         0.00000E+00
    0.64814E-09         0.12925E-09         0.00000E+00
    0.64498E-09         0.15301E-09         0.00000E+00
    0.64134E-09         0.17399E-09         0.00000E+00
    0.63725E-09         0.19255E-09         0.00000E+00
    0.63279E-09         0.20901E-09         0.00000E+00
    0.62799E-09         0.22368E-09         0.00000E+00
    0.62288E-09         0.23681E-09         0.00000E+00
    0.61750E-09         0.24864E-09         0.00000E+00
    0.61187E-09         0.25937E-09         0.00000E+00
    0.60601E-09         0.26916E-09         0.00000E+00
    0.59995E-09         0.27816E-09         0.00000E+00
    0.59370E-09         0.28649E-09         0.00000E+00
    0.58727E-09         0.29426E-09         0.00000E+00
    0.58067E-09         0.30155E-09         0.00000E+00
    0.57391E-09         0.30841E-09         0.00000E+00
    0.56700E-09         0.31492E-09         0.00000E+00
    0.55994E-09         0.32110E-09         0.00000E+00
    0.55274E-09         0.32698E-09         0.00000E+00
    0.54540E-09         0.33260E-09         0.00000E+00
    0.53794E-09         0.33795E-09         0.00000E+00
    0.53035E-09         0.34305E-09         0.00000E+00
    0.52264E-09         0.34789E-09         0.00000E+00
    0.51481E-09         0.35245E-09         0.00000E+00
    0.50687E-09         0.35671E-09         0.00000E+00
    0.49883E-09         0.36064E-09         0.00000E+00
    0.49069E-09         0.36419E-09         0.00000E+00
    0.48247E-09         0.36731E-09         0.00000E+00
    0.47417E-09         0.36993E-09         0.00000E+00
    0.46580E-09         0.37195E-09         0.00000E+00
    0.45738E-09         0.37328E-09         0.00000E+00
    0.44892E-09         0.37377E-09         0.00000E+00
    0.44045E-09         0.37328E-09         0.00000E+00
    0.43199E-09         0.37161E-09         0.00000E+00
    0.42357E-09         0.36853E-09         0.00000E+00
    0.41522E-09         0.36378E-09         0.00000E+00
    0.40699E-09         0.35703E-09         0.00000E+00
    0.39893E-09         0.34792E-09         0.00000E+00
    0.39109E-09         0.33600E-09         0.00000E+00
    0.38356E-09         0.32077E-09         0.00000E+00
    0.37640E-09         0.30166E-09         0.00000E+00
    0.36972E-09         0.27804E-09         0.00000E+00
    0.36363E-09         0.24918E-09         0.00000E+00
    0.35826E-09         0.21433E-09         0.00000E+00
    0.35377E-09         0.17269E-09         0.00000E+00
    0.35031E-09         0.12348E-09         0.00000E+00
    0.34807E-09         0.66010E-10         0.00000E+00
    0.34726E-09         0.35126E-10         0.00000E+00
    0.68606E-09         0.21831E-10         0.00000E+00
    0.68560E-09         0.41993E-10         0.00000E+00
    0.68432E-09         0.80102E-10         0.00000E+00
    0.68229E-09         0.11394E-09         0.00000E+00
    0.67961E-09         0.14387E-09         0.00000E+00
    0.67636E-09         0.17030E-09         0.00000E+00
    0.67259E-09         0.19364E-09         0.00000E+00
    0.66838E-09         0.21428E-09         0.00000E+00
    0.66377E-09         0.23258E-09         0.00000E+00
    0.65882E-09         0.24888E-09         0.00000E+00
    0.65354E-09         0.26348E-09         0.00000E+00
    0.64799E-09         0.27664E-09         0.00000E+00
    0.64217E-09         0.28857E-09         0.00000E+00
    0.63612E-09         0.29946E-09         0.00000E+00
    0.62986E-09         0.30949E-09         0.00000E+00
    0.62339E-09         0.31877E-09         0.00000E+00
    0.61673E-09         0.32743E-09         0.00000E+00
    0.60990E-09         0.33556E-09         0.00000E+00
    0.60289E-09         0.34323E-09         0.00000E+00
    0.59572E-09         0.35051E-09         0.00000E+00
    0.58840E-09         0.35743E-09         0.00000E+00
    0.58092E-09         0.36403E-09         0.00000E+00
    0.57330E-09         0.37033E-09         0.00000E+00
    0.56553E-09         0.37635E-09         0.00000E+00
    0.55763E-09         0.38209E-09         0.00000E+00
    0.54960E-09         0.38755E-09         0.00000E+00
    0.54144E-09         0.39270E-09         0.00000E+00
    0.53315E-09         0.39752E-09         0.00000E+00
    0.52475E-09         0.40197E-09         0.00000E+00
    0.51625E-09         0.40601E-09         0.00000E+00
    0.50764E-09         0.40957E-09         0.00000E+00
    0.49894E-09         0.41258E-09         0.00000E+00
    0.49017E-09         0.41492E-09         0.00000E+00
    0.48133E-09         0.41648E-09         0.00000E+00
    0.47245E-09         0.41712E-09         0.00000E+00
    0.46355E-09         0.41666E-09         0.00000E+00
    0.45465E-09         0.41488E-09         0.00000E+00
    0.44578E-09         0.41152E-09         0.00000E+00
    0.43698E-09         0.40629E-09         0.00000E+00
    0.42831E-09         0.39883E-09         0.00000E+00
    0.41980E-09         0.38872E-09         0.00000E+00
    0.41152E-09         0.37546E-09         0.00000E+00
    0.40355E-09         0.35851E-09         0.00000E+00
    0.39598E-09         0.33721E-09         0.00000E+00
    0.38891E-09         0.31085E-09         0.00000E+00
    0.38246E-09         0.27862E-09         0.00000E+00
    0.37677E-09         0.23969E-09         0.00000E+00
    0.37201E-09         0.19315E-09         0.00000E+00
    0.36834E-09         0.13813E-09         0.00000E+00
    0.36596E-09         0.73846E-10         0.00000E+00
    0.36510E-09         0.39300E-10         0.00000E+00
    0.72076E-09         0.24124E-10         0.00000E+00
    0.72030E-09         0.46400E-10         0.00000E+00
    0.71898E-09         0.88499E-10         0.00000E+00
    0.71690E-09         0.12587E-09         0.00000E+00
    0.71416E-09         0.15893E-09         0.00000E+00
    0.71082E-09         0.18810E-09         0.00000E+00
    0.70696E-09         0.21386E-09         0.00000E+00
    0.70265E-09         0.23664E-09         0.00000E+00
    0.69792E-09         0.25684E-09         0.00000E+00
    0.69283E-09         0.27484E-09         0.00000E+00
    0.68742E-09         0.29096E-09         0.00000E+00
    0.68171E-09         0.30549E-09         0.00000E+00
    0.67574E-09         0.31868E-09         0.00000E+00
    0.66952E-09         0.33073E-09         0.00000E+00
    0.66307E-09         0.34182E-09         0.00000E+00
    0.65641E-09         0.35211E-09         0.00000E+00
    0.64955E-09         0.36172E-09         0.00000E+00
    0.64250E-09         0.37075E-09         0.00000E+00
    0.63526E-09         0.37928E-09         0.00000E+00
    0.62785E-09         0.38739E-09         0.00000E+00
    0.62027E-09         0.39511E-09         0.00000E+00
    0.61253E-09         0.40248E-09         0.00000E+00
    0.60462E-09         0.40954E-09         0.00000E+00
    0.59656E-09         0.41628E-09         0.00000E+00
    0.58835E-09         0.42273E-09         0.00000E+00
    0.57999E-09         0.42887E-09         0.00000E+00
    0.57149E-09         0.43467E-09         0.00000E+00
    0.56285E-09         0.44012E-09         0.00000E+00
    0.55409E-09         0.44517E-09         0.00000E+00
    0.54519E-09         0.44977E-09         0.00000E+00
    0.53619E-09         0.45383E-09         0.00000E+00
    0.52708E-09         0.45728E-09         0.00000E+00
    0.51788E-09         0.46000E-09         0.00000E+00
    0.50860E-09         0.46186E-09         0.00000E+00
    0.49927E-09         0.46270E-09         0.00000E+00
    0.48990E-09         0.46231E-09         0.00000E+00
    0.48053E-09         0.46045E-09         0.00000E+00
    0.47118E-09         0.45684E-09         0.00000E+00
    0.46190E-09         0.45115E-09         0.00000E+00
    0.45273E-09         0.44298E-09         0.00000E+00
    0.44373E-09         0.43185E-09         0.00000E+00
    0.43497E-09         0.41722E-09         0.00000E+00
    0.42653E-09         0.39847E-09         0.00000E+00
    0.41850E-09         0.37487E-09         0.00000E+00
    0.41100E-09         0.34563E-09         0.00000E+00
    0.40415E-09         0.30986E-09         0.00000E+00
    0.39811E-09         0.26661E-09         0.00000E+00
    0.39304E-09         0.21487E-09         0.00000E+00
    0.38914E-09         0.15369E-09         0.00000E+00
    0.38661E-09         0.82178E-10         0.00000E+00
    0.38569E-09         0.43740E-10         0.00000E+00
    0.75857E-09         0.26463E-10         0.00000E+00
    0.75810E-09         0.50895E-10         0.00000E+00
    0.75676E-09         0.97065E-10         0.00000E+00
    0.75466E-09         0.13805E-09         0.00000E+00
    0.75187E-09         0.17428E-09         0.00000E+00
    0.74849E-09         0.20627E-09         0.00000E+00
    0.74457E-09         0.23451E-09         0.00000E+00
    0.74018E-09         0.25949E-09         0.00000E+00
    0.73538E-09         0.28164E-09         0.00000E+00
    0.73021E-09         0.30139E-09         0.00000E+00
    0.72469E-09         0.31909E-09         0.00000E+00
    0.71888E-09         0.33505E-09         0.00000E+00
    0.71278E-09         0.34954E-09         0.00000E+00
    0.70643E-09         0.36280E-09         0.00000E+00
    0.69984E-09         0.37503E-09         0.00000E+00
    0.69302E-09         0.38638E-09         0.00000E+00
    0.68599E-09         0.39700E-09         0.00000E+00
    0.67875E-09         0.40700E-09         0.00000E+00
    0.67132E-09         0.41646E-09         0.00000E+00
    0.66369E-09         0.42546E-09         0.00000E+00
    0.65588E-09         0.43405E-09         0.00000E+00
    0.64789E-09         0.44227E-09         0.00000E+00
    0.63973E-09         0.45015E-09         0.00000E+00
    0.63139E-09         0.45771E-09         0.00000E+00
    0.62288E-09         0.46494E-09         0.00000E+00
    0.61421E-09         0.47184E-09         0.00000E+00
    0.60538E-09         0.47839E-09         0.00000E+00
    0.59639E-09         0.48454E-09         0.00000E+00
    0.58725E-09         0.49027E-09         0.00000E+00
    0.57798E-09         0.49550E-09         0.00000E+00
    0.56856E-09         0.50015E-09         0.00000E+00
    0.55903E-09         0.50413E-09         0.00000E+00
    0.54939E-09         0.50731E-09         0.00000E+00
    0.53966E-09         0.50953E-09         0.00000E+00
    0.52985E-09         0.51063E-09         0.00000E+00
    0.52000E-09         0.51037E-09         0.00000E+00
    0.51012E-09         0.50849E-09         0.00000E+00
    0.50027E-09         0.50467E-09         0.00000E+00
    0.49047E-09         0.49855E-09         0.00000E+00
    0.48077E-09         0.48966E-09         0.00000E+00
    0.47125E-09         0.47750E-09         0.00000E+00
    0.46197E-09         0.46146E-09         0.00000E+00
    0.45302E-09         0.44085E-09         0.00000E+00
    0.44450E-09         0.41485E-09         0.00000E+00
    0.43652E-09         0.38259E-09         0.00000E+00
    0.42924E-09         0.34308E-09         0.00000E+00
    0.42281E-09         0.29525E-09         0.00000E+00
    0.41741E-09         0.23801E-09         0.00000E+00
    0.41324E-09         0.17027E-09         0.00000E+00
    0.41055E-09         0.91062E-10         0.00000E+00
    0.40957E-09         0.48475E-10         0.00000E+00
    0.79960E-09         0.28819E-10         0.00000E+00
    0.79913E-09         0.55424E-10         0.00000E+00
    0.79780E-09         0.10570E-09         0.00000E+00
    0.79569E-09         0.15032E-09         0.00000E+00
    0.79291E-09         0.18978E-09         0.00000E+00
    0.78952E-09         0.22461E-09         0.00000E+00
    0.78559E-09         0.25537E-09         0.00000E+00
    0.78119E-09         0.28259E-09         0.00000E+00
    0.77636E-09         0.30674E-09         0.00000E+00
    0.77116E-09         0.32828E-09         0.00000E+00
    0.76561E-09         0.34760E-09         0.00000E+00
    0.75974E-09         0.36505E-09         0.00000E+00
    0.75358E-09         0.38091E-09         0.00000E+00
    0.74716E-09         0.39545E-09         0.00000E+00
    0.74047E-09         0.40887E-09         0.00000E+00
    0.73355E-09         0.42136E-09         0.00000E+00
    0.72640E-09         0.43307E-09         0.00000E+00
    0.71903E-09         0.44410E-09         0.00000E+00
    0.71144E-09         0.45457E-09         0.00000E+00
    0.70365E-09         0.46455E-09         0.00000E+00
    0.69565E-09         0.47410E-09         0.00000E+00
    0.68745E-09         0.48326E-09         0.00000E+00
    0.67906E-09         0.49206E-09         0.00000E+00
    0.67047E-09         0.50052E-09         0.00000E+00
    0.66170E-09         0.50863E-09         0.00000E+00
    0.65273E-09         0.51639E-09         0.00000E+00
    0.64359E-09         0.52377E-09         0.00000E+00
    0.63427E-09         0.53074E-09         0.00000E+00
    0.62478E-09         0.53724E-09         0.00000E+00
    0.61512E-09         0.54321E-09         0.00000E+00
    0.60531E-09         0.54855E-09         0.00000E+00
    0.59536E-09         0.55315E-09         0.00000E+00
    0.58527E-09         0.55687E-09         0.00000E+00
    0.57508E-09         0.55956E-09         0.00000E+00
    0.56479E-09         0.56100E-09         0.00000E+00
    0.55444E-09         0.56095E-09         0.00000E+00
    0.54405E-09         0.55911E-09         0.00000E+00
    0.53366E-09         0.55514E-09         0.00000E+00
    0.52331E-09         0.54862E-09         0.00000E+00
    0.51307E-09         0.53905E-09         0.00000E+00
    0.50299E-09         0.52586E-09         0.00000E+00
    0.49316E-09         0.50838E-09         0.00000E+00
    0.48367E-09         0.48583E-09         0.00000E+00
    0.47462E-09         0.45734E-09         0.00000E+00
    0.46614E-09         0.42191E-09         0.00000E+00
    0.45839E-09         0.37845E-09         0.00000E+00
    0.45154E-09         0.32578E-09         0.00000E+00
    0.44578E-09         0.26269E-09         0.00000E+00
    0.44134E-09         0.18797E-09         0.00000E+00
    0.43846E-09         0.10055E-09         0.00000E+00
    0.43741E-09         0.53536E-10         0.00000E+00
    0.84405E-09         0.31151E-10         0.00000E+00
    0.84360E-09         0.59910E-10         0.00000E+00
    0.84229E-09         0.11426E-09         0.00000E+00
    0.84022E-09         0.16250E-09         0.00000E+00
    0.83749E-09         0.20517E-09         0.00000E+00
    0.83415E-09         0.24285E-09         0.00000E+00
    0.83028E-09         0.27614E-09         0.00000E+00
    0.82594E-09         0.30562E-09         0.00000E+00
    0.82116E-09         0.33180E-09         0.00000E+00
    0.81600E-09         0.35518E-09         0.00000E+00
    0.81049E-09         0.37618E-09         0.00000E+00
    0.80465E-09         0.39517E-09         0.00000E+00
    0.79851E-09         0.41246E-09         0.00000E+00
    0.79208E-09         0.42834E-09         0.00000E+00
    0.78538E-09         0.44304E-09         0.00000E+00
    0.77843E-09         0.45674E-09         0.00000E+00
    0.77123E-09         0.46962E-09         0.00000E+00
    0.76379E-09         0.48179E-09         0.00000E+00
    0.75611E-09         0.49336E-09         0.00000E+00
    0.74821E-09         0.50442E-09         0.00000E+00
    0.74008E-09         0.51503E-09         0.00000E+00
    0.73172E-09         0.52523E-09         0.00000E+00
    0.72315E-09         0.53506E-09         0.00000E+00
    0.71436E-09         0.54453E-09         0.00000E+00
    0.70536E-09         0.55364E-09         0.00000E+00
    0.69614E-09         0.56238E-09         0.00000E+00
    0.68672E-09         0.57071E-09         0.00000E+00
    0.67709E-09         0.57861E-09         0.00000E+00
    0.66727E-09         0.58601E-09         0.00000E+00
    0.65726E-09         0.59283E-09         0.00000E+00
    0.64707E-09         0.59897E-09         0.00000E+00
    0.63671E-09         0.60431E-09         0.00000E+00
    0.62620E-09         0.60870E-09         0.00000E+00
    0.61555E-09         0.61195E-09         0.00000E+00
    0.60478E-09         0.61384E-09         0.00000E+00
    0.59393E-09         0.61409E-09         0.00000E+00
    0.58301E-09         0.61239E-09         0.00000E+00
    0.57209E-09         0.60833E-09         0.00000E+00
    0.56119E-09         0.60147E-09         0.00000E+00
    0.55038E-09         0.59125E-09         0.00000E+00
    0.53974E-09         0.57705E-09         0.00000E+00
    0.52933E-09         0.55810E-09         0.00000E+00
    0.51927E-09         0.53357E-09         0.00000E+00
    0.50967E-09         0.50248E-09         0.00000E+00
    0.50067E-09         0.46372E-09         0.00000E+00
    0.49242E-09         0.41610E-09         0.00000E+00
    0.48513E-09         0.35832E-09         0.00000E+00
    0.47899E-09         0.28902E-09         0.00000E+00
    0.47425E-09         0.20687E-09         0.00000E+00
    0.47118E-09         0.11069E-09         0.00000E+00
    0.47006E-09         0.58948E-10         0.00000E+00
    0.89223E-09         0.33408E-10         0.00000E+00
    0.89180E-09         0.64256E-10         0.00000E+00
    0.89055E-09         0.12256E-09         0.00000E+00
    0.88857E-09         0.17433E-09         0.00000E+00
    0.88595E-09         0.22015E-09         0.00000E+00
    0.88274E-09         0.26064E-09         0.00000E+00
    0.87901E-09         0.29644E-09         0.00000E+00
    0.87481E-09         0.32818E-09         0.00000E+00
    0.87018E-09         0.35641E-09         0.00000E+00
    0.86516E-09         0.38165E-09         0.00000E+00
    0.85978E-09         0.40437E-09         0.00000E+00
    0.85407E-09         0.42496E-09         0.00000E+00
    0.84803E-09         0.44376E-09         0.00000E+00
    0.84170E-09         0.46106E-09         0.00000E+00
    0.83508E-09         0.47712E-09         0.00000E+00
    0.82819E-09         0.49213E-09         0.00000E+00
    0.82102E-09         0.50627E-09         0.00000E+00
    0.81359E-09         0.51969E-09         0.00000E+00
    0.80591E-09         0.53248E-09         0.00000E+00
    0.79797E-09         0.54473E-09         0.00000E+00
    0.78977E-09         0.55652E-09         0.00000E+00
    0.78133E-09         0.56790E-09         0.00000E+00
    0.77264E-09         0.57888E-09         0.00000E+00
    0.76371E-09         0.58949E-09         0.00000E+00
    0.75453E-09         0.59973E-09         0.00000E+00
    0.74511E-09         0.60958E-09         0.00000E+00
    0.73546E-09         0.61901E-09         0.00000E+00
    0.72558E-09         0.62797E-09         0.00000E+00
    0.71547E-09         0.63640E-09         0.00000E+00
    0.70514E-09         0.64421E-09         0.00000E+00
    0.69460E-09         0.65130E-09         0.00000E+00
    0.68387E-09         0.65751E-09         0.00000E+00
    0.67295E-09         0.66270E-09         0.00000E+00
    0.66186E-09         0.66664E-09         0.00000E+00
    0.65064E-09         0.66910E-09         0.00000E+00
    0.63930E-09         0.66978E-09         0.00000E+00
    0.62788E-09         0.66831E-09         0.00000E+00
    0.61642E-09         0.66426E-09         0.00000E+00
    0.60498E-09         0.65713E-09         0.00000E+00
    0.59361E-09         0.64632E-09         0.00000E+00
    0.58239E-09         0.63111E-09         0.00000E+00
    0.57141E-09         0.61071E-09         0.00000E+00
    0.56078E-09         0.58415E-09         0.00000E+00
    0.55062E-09         0.55036E-09         0.00000E+00
    0.54108E-09         0.50814E-09         0.00000E+00
    0.53233E-09         0.45615E-09         0.00000E+00
    0.52458E-09         0.39296E-09         0.00000E+00
    0.51805E-09         0.31708E-09         0.00000E+00
    0.51300E-09         0.22703E-09         0.00000E+00
    0.50973E-09         0.12151E-09         0.00000E+00
    0.50853E-09         0.64729E-10         0.00000E+00
    0.94462E-09         0.35524E-10         0.00000E+00
    0.94422E-09         0.68339E-10         0.00000E+00
    0.94307E-09         0.13038E-09         0.00000E+00
    0.94124E-09         0.18551E-09         0.00000E+00
    0.93880E-09         0.23434E-09         0.00000E+00
    0.93581E-09         0.27754E-09         0.00000E+00
    0.93232E-09         0.31580E-09         0.00000E+00
    0.92836E-09         0.34976E-09         0.00000E+00
    0.92399E-09         0.38004E-09         0.00000E+00
    0.91922E-09         0.40718E-09         0.00000E+00
    0.91409E-09         0.43166E-09         0.00000E+00
    0.90861E-09         0.45391E-09         0.00000E+00
    0.90279E-09         0.47428E-09         0.00000E+00
    0.89666E-09         0.49310E-09         0.00000E+00
    0.89022E-09         0.51062E-09         0.00000E+00
    0.88349E-09         0.52705E-09         0.00000E+00
    0.87645E-09         0.54259E-09         0.00000E+00
    0.86913E-09         0.55736E-09         0.00000E+00
    0.86152E-09         0.57150E-09         0.00000E+00
    0.85363E-09         0.58509E-09         0.00000E+00
    0.84546E-09         0.59820E-09         0.00000E+00
    0.83701E-09         0.61089E-09         0.00000E+00
    0.82828E-09         0.62318E-09         0.00000E+00
    0.81927E-09         0.63508E-09         0.00000E+00
    0.80999E-09         0.64660E-09         0.00000E+00
    0.80043E-09         0.65772E-09         0.00000E+00
    0.79061E-09         0.66839E-09         0.00000E+00
    0.78053E-09         0.67858E-09         0.00000E+00
    0.77018E-09         0.68820E-09         0.00000E+00
    0.75959E-09         0.69716E-09         0.00000E+00
    0.74875E-09         0.70534E-09         0.00000E+00
    0.73769E-09         0.71258E-09         0.00000E+00
    0.72641E-09         0.71871E-09         0.00000E+00
    0.71493E-09         0.72350E-09         0.00000E+00
    0.70328E-09         0.72667E-09         0.00000E+00
    0.69149E-09         0.72789E-09         0.00000E+00
    0.67960E-09         0.72677E-09         0.00000E+00
    0.66764E-09         0.72284E-09         0.00000E+00
    0.65568E-09         0.71553E-09         0.00000E+00
    0.64377E-09         0.70419E-09         0.00000E+00
    0.63200E-09         0.68804E-09         0.00000E+00
    0.62046E-09         0.66617E-09         0.00000E+00
    0.60927E-09         0.63755E-09         0.00000E+00
    0.59856E-09         0.60099E-09         0.00000E+00
    0.58849E-09         0.55517E-09         0.00000E+00
    0.57924E-09         0.49861E-09         0.00000E+00
    0.57104E-09         0.42973E-09         0.00000E+00
    0.56412E-09         0.34689E-09         0.00000E+00
    0.55877E-09         0.24848E-09         0.00000E+00
    0.55529E-09         0.13303E-09         0.00000E+00
    0.55403E-09         0.70889E-10         0.00000E+00
    0.10019E-08         0.37425E-10         0.00000E+00
    0.10016E-08         0.72017E-10         0.00000E+00
    0.10006E-08         0.13745E-09         0.00000E+00
    0.99896E-09         0.19566E-09         0.00000E+00
    0.99679E-09         0.24730E-09         0.00000E+00
    0.99411E-09         0.29306E-09         0.00000E+00
    0.99096E-09         0.33367E-09         0.00000E+00
    0.98737E-09         0.36981E-09         0.00000E+00
    0.98337E-09         0.40212E-09         0.00000E+00
    0.97897E-09         0.43116E-09         0.00000E+00
    0.97420E-09         0.45745E-09         0.00000E+00
    0.96907E-09         0.48143E-09         0.00000E+00
    0.96360E-09         0.50347E-09         0.00000E+00
    0.95778E-09         0.52391E-09         0.00000E+00
    0.95163E-09         0.54300E-09         0.00000E+00
    0.94516E-09         0.56099E-09         0.00000E+00
    0.93836E-09         0.57805E-09         0.00000E+00
    0.93124E-09         0.59434E-09         0.00000E+00
    0.92380E-09         0.60997E-09         0.00000E+00
    0.91605E-09         0.62505E-09         0.00000E+00
    0.90798E-09         0.63965E-09         0.00000E+00
    0.89960E-09         0.65381E-09         0.00000E+00
    0.89091E-09         0.66757E-09         0.00000E+00
    0.88191E-09         0.68093E-09         0.00000E+00
    0.87259E-09         0.69390E-09         0.00000E+00
    0.86297E-09         0.70645E-09         0.00000E+00
    0.85305E-09         0.71854E-09         0.00000E+00
    0.84283E-09         0.73012E-09         0.00000E+00
    0.83232E-09         0.74110E-09         0.00000E+00
    0.82152E-09         0.75137E-09         0.00000E+00
    0.81045E-09         0.76081E-09         0.00000E+00
    0.79911E-09         0.76925E-09         0.00000E+00
    0.78753E-09         0.77648E-09         0.00000E+00
    0.77572E-09         0.78226E-09         0.00000E+00
    0.76371E-09         0.78629E-09         0.00000E+00
    0.75153E-09         0.78820E-09         0.00000E+00
    0.73921E-09         0.78757E-09         0.00000E+00
    0.72681E-09         0.78387E-09         0.00000E+00
    0.71437E-09         0.77649E-09         0.00000E+00
    0.70198E-09         0.76470E-09         0.00000E+00
    0.68970E-09         0.74765E-09         0.00000E+00
    0.67765E-09         0.72435E-09         0.00000E+00
    0.66595E-09         0.69366E-09         0.00000E+00
    0.65473E-09         0.65427E-09         0.00000E+00
    0.64416E-09         0.60472E-09         0.00000E+00
    0.63445E-09         0.54340E-09         0.00000E+00
    0.62582E-09         0.46856E-09         0.00000E+00
    0.61854E-09         0.37842E-09         0.00000E+00
    0.61290E-09         0.27118E-09         0.00000E+00
    0.60923E-09         0.14524E-09         0.00000E+00
    0.60789E-09         0.77422E-10         0.00000E+00
    0.10652E-08         0.39027E-10         0.00000E+00
    0.10649E-08         0.75135E-10         0.00000E+00
    0.10641E-08         0.14348E-09         0.00000E+00
    0.10628E-08         0.20441E-09         0.00000E+00
    0.10610E-08         0.25856E-09         0.00000E+00
    0.10587E-08         0.30668E-09         0.00000E+00
    0.10560E-08         0.34950E-09         0.00000E+00
    0.10529E-08         0.38773E-09         0.00000E+00
    0.10494E-08         0.42204E-09         0.00000E+00
    0.10455E-08         0.45300E-09         0.00000E+00
    0.10412E-08         0.48115E-09         0.00000E+00
    0.10365E-08         0.50694E-09         0.00000E+00
    0.10315E-08         0.53075E-09         0.00000E+00
    0.10261E-08         0.55292E-09         0.00000E+00
    0.10203E-08         0.57374E-09         0.00000E+00
    0.10142E-08         0.59342E-09         0.00000E+00
    0.10077E-08         0.61217E-09         0.00000E+00
    0.10009E-08         0.63014E-09         0.00000E+00
    0.99373E-09         0.64744E-09         0.00000E+00
    0.98619E-09         0.66419E-09         0.00000E+00
    0.97831E-09         0.68045E-09         0.00000E+00
    0.97007E-09         0.69626E-09         0.00000E+00
    0.96149E-09         0.71166E-09         0.00000E+00
    0.95256E-09         0.72667E-09         0.00000E+00
    0.94328E-09         0.74126E-09         0.00000E+00
    0.93366E-09         0.75542E-09         0.00000E+00
    0.92371E-09         0.76911E-09         0.00000E+00
    0.91342E-09         0.78225E-09         0.00000E+00
    0.90281E-09         0.79475E-09         0.00000E+00
    0.89187E-09         0.80651E-09         0.00000E+00
    0.88064E-09         0.81738E-09         0.00000E+00
    0.86910E-09         0.82717E-09         0.00000E+00
    0.85729E-09         0.83567E-09         0.00000E+00
    0.84523E-09         0.84260E-09         0.00000E+00
    0.83293E-09         0.84764E-09         0.00000E+00
    0.82043E-09         0.85039E-09         0.00000E+00
    0.80778E-09         0.85037E-09         0.00000E+00
    0.79501E-09         0.84703E-09         0.00000E+00
    0.78219E-09         0.83968E-09         0.00000E+00
    0.76939E-09         0.82753E-09         0.00000E+00
    0.75669E-09         0.80965E-09         0.00000E+00
    0.74421E-09         0.78495E-09         0.00000E+00
    0.73207E-09         0.75218E-09         0.00000E+00
    0.72041E-09         0.70992E-09         0.00000E+00
    0.70942E-09         0.65655E-09         0.00000E+00
    0.69931E-09         0.59031E-09         0.00000E+00
    0.69031E-09         0.50929E-09         0.00000E+00
    0.68271E-09         0.41151E-09         0.00000E+00
    0.67682E-09         0.29503E-09         0.00000E+00
    0.67298E-09         0.15809E-09         0.00000E+00
    0.67157E-09         0.84298E-10         0.00000E+00
    0.11360E-08         0.40246E-10         0.00000E+00
    0.11358E-08         0.77536E-10         0.00000E+00
    0.11352E-08         0.14820E-09         0.00000E+00
    0.11342E-08         0.21136E-09         0.00000E+00
    0.11328E-08         0.26767E-09         0.00000E+00
    0.11311E-08         0.31788E-09         0.00000E+00
    0.11289E-08         0.36274E-09         0.00000E+00
    0.11264E-08         0.40297E-09         0.00000E+00
    0.11234E-08         0.43924E-09         0.00000E+00
    0.11201E-08         0.47215E-09         0.00000E+00
    0.11164E-08         0.50222E-09         0.00000E+00
    0.11123E-08         0.52991E-09         0.00000E+00
    0.11078E-08         0.55562E-09         0.00000E+00
    0.11029E-08         0.57968E-09         0.00000E+00
    0.10976E-08         0.60237E-09         0.00000E+00
    0.10919E-08         0.62393E-09         0.00000E+00
    0.10858E-08         0.64455E-09         0.00000E+00
    0.10793E-08         0.66438E-09         0.00000E+00
    0.10724E-08         0.68355E-09         0.00000E+00
    0.10651E-08         0.70216E-09         0.00000E+00
    0.10575E-08         0.72026E-09         0.00000E+00
    0.10494E-08         0.73792E-09         0.00000E+00
    0.10410E-08         0.75515E-09         0.00000E+00
    0.10322E-08         0.77197E-09         0.00000E+00
    0.10230E-08         0.78837E-09         0.00000E+00
    0.10134E-08         0.80432E-09         0.00000E+00
    0.10035E-08         0.81976E-09         0.00000E+00
    0.99320E-09         0.83462E-09         0.00000E+00
    0.98255E-09         0.84882E-09         0.00000E+00
    0.97155E-09         0.86222E-09         0.00000E+00
    0.96022E-09         0.87466E-09         0.00000E+00
    0.94856E-09         0.88596E-09         0.00000E+00
    0.93661E-09         0.89586E-09         0.00000E+00
    0.92437E-09         0.90408E-09         0.00000E+00
    0.91188E-09         0.91026E-09         0.00000E+00
    0.89917E-09         0.91397E-09         0.00000E+00
    0.88628E-09         0.91470E-09         0.00000E+00
    0.87326E-09         0.91182E-09         0.00000E+00
    0.86017E-09         0.90460E-09         0.00000E+00
    0.84708E-09         0.89218E-09         0.00000E+00
    0.83409E-09         0.87353E-09         0.00000E+00
    0.82130E-09         0.84748E-09         0.00000E+00
    0.80884E-09         0.81264E-09         0.00000E+00
    0.79687E-09         0.76748E-09         0.00000E+00
    0.78557E-09         0.71023E-09         0.00000E+00
    0.77516E-09         0.63895E-09         0.00000E+00
    0.76589E-09         0.55156E-09         0.00000E+00
    0.75805E-09         0.44590E-09         0.00000E+00
    0.75197E-09         0.31984E-09         0.00000E+00
    0.74800E-09         0.17145E-09         0.00000E+00
    0.74655E-09         0.91461E-10         0.00000E+00
    0.12163E-08         0.41008E-10         0.00000E+00
    0.12162E-08         0.79086E-10         0.00000E+00
    0.12158E-08         0.15137E-09         0.00000E+00
    0.12152E-08         0.21620E-09         0.00000E+00
    0.12144E-08         0.27425E-09         0.00000E+00
    0.12132E-08         0.32626E-09         0.00000E+00
    0.12116E-08         0.37299E-09         0.00000E+00
    0.12097E-08         0.41513E-09         0.00000E+00
    0.12074E-08         0.45334E-09         0.00000E+00
    0.12047E-08         0.48823E-09         0.00000E+00
    0.12016E-08         0.52031E-09         0.00000E+00
    0.11980E-08         0.55004E-09         0.00000E+00
    0.11941E-08         0.57780E-09         0.00000E+00
    0.11897E-08         0.60393E-09         0.00000E+00
    0.11848E-08         0.62869E-09         0.00000E+00
    0.11796E-08         0.65233E-09         0.00000E+00
    0.11738E-08         0.67503E-09         0.00000E+00
    0.11677E-08         0.69693E-09         0.00000E+00
    0.11611E-08         0.71817E-09         0.00000E+00
    0.11541E-08         0.73882E-09         0.00000E+00
    0.11466E-08         0.75897E-09         0.00000E+00
    0.11388E-08         0.77865E-09         0.00000E+00
    0.11305E-08         0.79790E-09         0.00000E+00
    0.11218E-08         0.81670E-09         0.00000E+00
    0.11127E-08         0.83506E-09         0.00000E+00
    0.11032E-08         0.85294E-09         0.00000E+00
    0.10933E-08         0.87028E-09         0.00000E+00
    0.10830E-08         0.88701E-09         0.00000E+00
    0.10723E-08         0.90302E-09         0.00000E+00
    0.10613E-08         0.91817E-09         0.00000E+00
    0.10499E-08         0.93231E-09         0.00000E+00
    0.10382E-08         0.94521E-09         0.00000E+00
    0.10262E-08         0.95662E-09         0.00000E+00
    0.10139E-08         0.96623E-09         0.00000E+00
    0.10013E-08         0.97364E-09         0.00000E+00
    0.98849E-09         0.97839E-09         0.00000E+00
    0.97549E-09         0.97994E-09         0.00000E+00
    0.96236E-09         0.97759E-09         0.00000E+00
    0.94914E-09         0.97057E-09         0.00000E+00
    0.93593E-09         0.95794E-09         0.00000E+00
    0.92280E-09         0.93857E-09         0.00000E+00
    0.90987E-09         0.91120E-09         0.00000E+00
    0.89727E-09         0.87432E-09         0.00000E+00
    0.88516E-09         0.82625E-09         0.00000E+00
    0.87372E-09         0.76508E-09         0.00000E+00
    0.86317E-09         0.68870E-09         0.00000E+00
    0.85377E-09         0.59484E-09         0.00000E+00
    0.84582E-09         0.48114E-09         0.00000E+00
    0.83964E-09         0.34528E-09         0.00000E+00
    0.83561E-09         0.18517E-09         0.00000E+00
    0.83414E-09         0.98815E-10         0.00000E+00
    0.13089E-08         0.41267E-10         0.00000E+00
    0.13089E-08         0.79704E-10         0.00000E+00
    0.13089E-08         0.15283E-09         0.00000E+00
    0.13087E-08         0.21876E-09         0.00000E+00
    0.13083E-08         0.27814E-09         0.00000E+00
    0.13076E-08         0.33168E-09         0.00000E+00
    0.13066E-08         0.38010E-09         0.00000E+00
    0.13053E-08         0.42409E-09         0.00000E+00
    0.13036E-08         0.46428E-09         0.00000E+00
    0.13015E-08         0.50125E-09         0.00000E+00
    0.12989E-08         0.53548E-09         0.00000E+00
    0.12959E-08         0.56742E-09         0.00000E+00
    0.12923E-08         0.59743E-09         0.00000E+00
    0.12884E-08         0.62584E-09         0.00000E+00
    0.12839E-08         0.65291E-09         0.00000E+00
    0.12789E-08         0.67886E-09         0.00000E+00
    0.12735E-08         0.70385E-09         0.00000E+00
    0.12675E-08         0.72805E-09         0.00000E+00
    0.12611E-08         0.75156E-09         0.00000E+00
    0.12542E-08         0.77447E-09         0.00000E+00
    0.12469E-08         0.79684E-09         0.00000E+00
    0.12391E-08         0.81871E-09         0.00000E+00
    0.12308E-08         0.84011E-09         0.00000E+00
    0.12221E-08         0.86104E-09         0.00000E+00
    0.12130E-08         0.88148E-09         0.00000E+00
    0.12035E-08         0.90139E-09         0.00000E+00
    0.11936E-08         0.92071E-09         0.00000E+00
    0.11832E-08         0.93937E-09         0.00000E+00
    0.11725E-08         0.95724E-09         0.00000E+00
    0.11615E-08         0.97420E-09         0.00000E+00
    0.11501E-08         0.99006E-09         0.00000E+00
    0.11384E-08         0.10046E-08         0.00000E+00
    0.11263E-08         0.10175E-08         0.00000E+00
    0.11140E-08         0.10285E-08         0.00000E+00
    0.11015E-08         0.10372E-08         0.00000E+00
    0.10887E-08         0.10430E-08         0.00000E+00
    0.10757E-08         0.10454E-08         0.00000E+00
    0.10627E-08         0.10436E-08         0.00000E+00
    0.10495E-08         0.10367E-08         0.00000E+00
    0.10364E-08         0.10239E-08         0.00000E+00
    0.10233E-08         0.10038E-08         0.00000E+00
    0.10105E-08         0.97512E-09         0.00000E+00
    0.99796E-09         0.93621E-09         0.00000E+00
    0.98593E-09         0.88525E-09         0.00000E+00
    0.97458E-09         0.82016E-09         0.00000E+00
    0.96411E-09         0.73867E-09         0.00000E+00
    0.95478E-09         0.63833E-09         0.00000E+00
    0.94689E-09         0.51656E-09         0.00000E+00
    0.94076E-09         0.37087E-09         0.00000E+00
    0.93676E-09         0.19897E-09         0.00000E+00
    0.93529E-09         0.10622E-09         0.00000E+00
    0.14176E-08         0.41032E-10         0.00000E+00
    0.14177E-08         0.79412E-10         0.00000E+00
    0.14179E-08         0.15266E-09         0.00000E+00
    0.14180E-08         0.21917E-09         0.00000E+00
    0.14180E-08         0.27952E-09         0.00000E+00
    0.14178E-08         0.33439E-09         0.00000E+00
    0.14173E-08         0.38444E-09         0.00000E+00
    0.14164E-08         0.43031E-09         0.00000E+00
    0.14151E-08         0.47259E-09         0.00000E+00
    0.14133E-08         0.51180E-09         0.00000E+00
    0.14111E-08         0.54840E-09         0.00000E+00
    0.14083E-08         0.58279E-09         0.00000E+00
    0.14050E-08         0.61533E-09         0.00000E+00
    0.14011E-08         0.64629E-09         0.00000E+00
    0.13967E-08         0.67593E-09         0.00000E+00
    0.13917E-08         0.70444E-09         0.00000E+00
    0.13863E-08         0.73198E-09         0.00000E+00
    0.13802E-08         0.75869E-09         0.00000E+00
    0.13737E-08         0.78468E-09         0.00000E+00
    0.13667E-08         0.81001E-09         0.00000E+00
    0.13591E-08         0.83475E-09         0.00000E+00
    0.13511E-08         0.85894E-09         0.00000E+00
    0.13426E-08         0.88259E-09         0.00000E+00
    0.13337E-08         0.90570E-09         0.00000E+00
    0.13244E-08         0.92825E-09         0.00000E+00
    0.13147E-08         0.95020E-09         0.00000E+00
    0.13045E-08         0.97149E-09         0.00000E+00
    0.12941E-08         0.99204E-09         0.00000E+00
    0.12832E-08         0.10117E-08         0.00000E+00
    0.12721E-08         0.10304E-08         0.00000E+00
    0.12606E-08         0.10479E-08         0.00000E+00
    0.12488E-08         0.10640E-08         0.00000E+00
    0.12368E-08         0.10783E-08         0.00000E+00
    0.12245E-08         0.10906E-08         0.00000E+00
    0.12121E-08         0.11003E-08         0.00000E+00
    0.11994E-08         0.11071E-08         0.00000E+00
    0.11866E-08         0.11101E-08         0.00000E+00
    0.11738E-08         0.11088E-08         0.00000E+00
    0.11609E-08         0.11020E-08         0.00000E+00
    0.11481E-08         0.10889E-08         0.00000E+00
    0.11353E-08         0.10680E-08         0.00000E+00
    0.11229E-08         0.10380E-08         0.00000E+00
    0.11107E-08         0.99701E-09         0.00000E+00
    0.10991E-08         0.94316E-09         0.00000E+00
    0.10881E-08         0.87419E-09         0.00000E+00
    0.10780E-08         0.78767E-09         0.00000E+00
    0.10690E-08         0.68094E-09         0.00000E+00
    0.10614E-08         0.55127E-09         0.00000E+00
    0.10555E-08         0.39593E-09         0.00000E+00
    0.10517E-08         0.21249E-09         0.00000E+00
    0.10503E-08         0.11346E-09         0.00000E+00
    0.15471E-08         0.40395E-10         0.00000E+00
    0.15472E-08         0.78400E-10         0.00000E+00
    0.15476E-08         0.15124E-09         0.00000E+00
    0.15479E-08         0.21799E-09         0.00000E+00
    0.15481E-08         0.27916E-09         0.00000E+00
    0.15481E-08         0.33534E-09         0.00000E+00
    0.15477E-08         0.38712E-09         0.00000E+00
    0.15469E-08         0.43507E-09         0.00000E+00
    0.15456E-08         0.47969E-09         0.00000E+00
    0.15437E-08         0.52144E-09         0.00000E+00
    0.15413E-08         0.56075E-09         0.00000E+00
    0.15383E-08         0.59795E-09         0.00000E+00
    0.15346E-08         0.63335E-09         0.00000E+00
    0.15303E-08         0.66720E-09         0.00000E+00
    0.15255E-08         0.69971E-09         0.00000E+00
    0.15200E-08         0.73107E-09         0.00000E+00
    0.15139E-08         0.76141E-09         0.00000E+00
    0.15073E-08         0.79085E-09         0.00000E+00
    0.15000E-08         0.81947E-09         0.00000E+00
    0.14923E-08         0.84736E-09         0.00000E+00
    0.14841E-08         0.87456E-09         0.00000E+00
    0.14754E-08         0.90109E-09         0.00000E+00
    0.14662E-08         0.92698E-09         0.00000E+00
    0.14566E-08         0.95223E-09         0.00000E+00
    0.14467E-08         0.97680E-09         0.00000E+00
    0.14363E-08         0.10007E-08         0.00000E+00
    0.14257E-08         0.10238E-08         0.00000E+00
    0.14147E-08         0.10460E-08         0.00000E+00
    0.14035E-08         0.10673E-08         0.00000E+00
    0.13920E-08         0.10874E-08         0.00000E+00
    0.13802E-08         0.11063E-08         0.00000E+00
    0.13683E-08         0.11235E-08         0.00000E+00
    0.13562E-08         0.11390E-08         0.00000E+00
    0.13439E-08         0.11522E-08         0.00000E+00
    0.13316E-08         0.11627E-08         0.00000E+00
    0.13191E-08         0.11701E-08         0.00000E+00
    0.13067E-08         0.11735E-08         0.00000E+00
    0.12942E-08         0.11723E-08         0.00000E+00
    0.12818E-08         0.11654E-08         0.00000E+00
    0.12695E-08         0.11517E-08         0.00000E+00
    0.12574E-08         0.11298E-08         0.00000E+00
    0.12456E-08         0.10982E-08         0.00000E+00
    0.12342E-08         0.10551E-08         0.00000E+00
    0.12233E-08         0.99834E-09         0.00000E+00
    0.12131E-08         0.92555E-09         0.00000E+00
    0.12037E-08         0.83414E-09         0.00000E+00
    0.11953E-08         0.72129E-09         0.00000E+00
    0.11883E-08         0.58407E-09         0.00000E+00
    0.11829E-08         0.41958E-09         0.00000E+00
    0.11794E-08         0.22523E-09         0.00000E+00
    0.11781E-08         0.12029E-09         0.00000E+00
    0.17033E-08         0.39587E-10         0.00000E+00
    0.17034E-08         0.77118E-10         0.00000E+00
    0.17037E-08         0.14944E-09         0.00000E+00
    0.17039E-08         0.21649E-09         0.00000E+00
    0.17039E-08         0.27868E-09         0.00000E+00
    0.17035E-08         0.33649E-09         0.00000E+00
    0.17027E-08         0.39041E-09         0.00000E+00
    0.17013E-08         0.44088E-09         0.00000E+00
    0.16993E-08         0.48834E-09         0.00000E+00
    0.16966E-08         0.53315E-09         0.00000E+00
    0.16932E-08         0.57566E-09         0.00000E+00
    0.16891E-08         0.61615E-09         0.00000E+00
    0.16843E-08         0.65486E-09         0.00000E+00
    0.16787E-08         0.69200E-09         0.00000E+00
    0.16725E-08         0.72776E-09         0.00000E+00
    0.16655E-08         0.76226E-09         0.00000E+00
    0.16579E-08         0.79564E-09         0.00000E+00
    0.16497E-08         0.82798E-09         0.00000E+00
    0.16410E-08         0.85936E-09         0.00000E+00
    0.16317E-08         0.88985E-09         0.00000E+00
    0.16219E-08         0.91947E-09         0.00000E+00
    0.16117E-08         0.94827E-09         0.00000E+00
    0.16010E-08         0.97625E-09         0.00000E+00
    0.15900E-08         0.10034E-08         0.00000E+00
    0.15787E-08         0.10297E-08         0.00000E+00
    0.15672E-08         0.10552E-08         0.00000E+00
    0.15554E-08         0.10797E-08         0.00000E+00
    0.15434E-08         0.11032E-08         0.00000E+00
    0.15312E-08         0.11255E-08         0.00000E+00
    0.15189E-08         0.11466E-08         0.00000E+00
    0.15066E-08         0.11662E-08         0.00000E+00
    0.14942E-08         0.11841E-08         0.00000E+00
    0.14818E-08         0.12001E-08         0.00000E+00
    0.14694E-08         0.12136E-08         0.00000E+00
    0.14571E-08         0.12243E-08         0.00000E+00
    0.14448E-08         0.12316E-08         0.00000E+00
    0.14327E-08         0.12348E-08         0.00000E+00
    0.14207E-08         0.12331E-08         0.00000E+00
    0.14090E-08         0.12255E-08         0.00000E+00
    0.13975E-08         0.12108E-08         0.00000E+00
    0.13863E-08         0.11875E-08         0.00000E+00
    0.13755E-08         0.11541E-08         0.00000E+00
    0.13652E-08         0.11086E-08         0.00000E+00
    0.13555E-08         0.10488E-08         0.00000E+00
    0.13464E-08         0.97227E-09         0.00000E+00
    0.13382E-08         0.87619E-09         0.00000E+00
    0.13309E-08         0.75762E-09         0.00000E+00
    0.13248E-08         0.61348E-09         0.00000E+00
    0.13202E-08         0.44071E-09         0.00000E+00
    0.13172E-08         0.23657E-09         0.00000E+00
    0.13161E-08         0.12635E-09         0.00000E+00
    0.18934E-08         0.39030E-10         0.00000E+00
    0.18934E-08         0.76384E-10         0.00000E+00
    0.18933E-08         0.14884E-09         0.00000E+00
    0.18929E-08         0.21693E-09         0.00000E+00
    0.18920E-08         0.28096E-09         0.00000E+00
    0.18905E-08         0.34126E-09         0.00000E+00
    0.18883E-08         0.39818E-09         0.00000E+00
    0.18853E-08         0.45205E-09         0.00000E+00
    0.18814E-08         0.50318E-09         0.00000E+00
    0.18767E-08         0.55185E-09         0.00000E+00
    0.18710E-08         0.59830E-09         0.00000E+00
    0.18645E-08         0.64274E-09         0.00000E+00
    0.18571E-08         0.68535E-09         0.00000E+00
    0.18488E-08         0.72629E-09         0.00000E+00
    0.18398E-08         0.76569E-09         0.00000E+00
    0.18300E-08         0.80365E-09         0.00000E+00
    0.18195E-08         0.84027E-09         0.00000E+00
    0.18084E-08         0.87563E-09         0.00000E+00
    0.17967E-08         0.90977E-09         0.00000E+00
    0.17845E-08         0.94276E-09         0.00000E+00
    0.17719E-08         0.97463E-09         0.00000E+00
    0.17589E-08         0.10054E-08         0.00000E+00
    0.17455E-08         0.10351E-08         0.00000E+00
    0.17320E-08         0.10637E-08         0.00000E+00
    0.17183E-08         0.10912E-08         0.00000E+00
    0.17044E-08         0.11176E-08         0.00000E+00
    0.16905E-08         0.11428E-08         0.00000E+00
    0.16766E-08         0.11668E-08         0.00000E+00
    0.16627E-08         0.11894E-08         0.00000E+00
    0.16490E-08         0.12105E-08         0.00000E+00
    0.16354E-08         0.12300E-08         0.00000E+00
    0.16220E-08         0.12476E-08         0.00000E+00
    0.16088E-08         0.12630E-08         0.00000E+00
    0.15960E-08         0.12758E-08         0.00000E+00
    0.15834E-08         0.12856E-08         0.00000E+00
    0.15712E-08         0.12919E-08         0.00000E+00
    0.15593E-08         0.12939E-08         0.00000E+00
    0.15479E-08         0.12908E-08         0.00000E+00
    0.15369E-08         0.12816E-08         0.00000E+00
    0.15264E-08         0.12650E-08         0.00000E+00
    0.15164E-08         0.12396E-08         0.00000E+00
    0.15070E-08         0.12038E-08         0.00000E+00
    0.14982E-08         0.11555E-08         0.00000E+00
    0.14900E-08         0.10924E-08         0.00000E+00
    0.14826E-08         0.10121E-08         0.00000E+00
    0.14760E-08         0.91160E-09         0.00000E+00
    0.14702E-08         0.78789E-09         0.00000E+00
    0.14655E-08         0.63773E-09         0.00000E+00
    0.14620E-08         0.45798E-09         0.00000E+00
    0.14597E-08         0.24577E-09         0.00000E+00
    0.14589E-08         0.13122E-09         0.00000E+00
    0.21259E-08         0.39419E-10         0.00000E+00
    0.21256E-08         0.77536E-10         0.00000E+00
    0.21246E-08         0.15199E-09         0.00000E+00
    0.21228E-08         0.22295E-09         0.00000E+00
    0.21200E-08         0.29056E-09         0.00000E+00
    0.21161E-08         0.35502E-09         0.00000E+00
    0.21111E-08         0.41652E-09         0.00000E+00
    0.21049E-08         0.47525E-09         0.00000E+00
    0.20975E-08         0.53139E-09         0.00000E+00
    0.20888E-08         0.58510E-09         0.00000E+00
    0.20791E-08         0.63655E-09         0.00000E+00
    0.20681E-08         0.68584E-09         0.00000E+00
    0.20562E-08         0.73311E-09         0.00000E+00
    0.20432E-08         0.77845E-09         0.00000E+00
    0.20293E-08         0.82194E-09         0.00000E+00
    0.20146E-08         0.86366E-09         0.00000E+00
    0.19992E-08         0.90368E-09         0.00000E+00
    0.19831E-08         0.94205E-09         0.00000E+00
    0.19665E-08         0.97881E-09         0.00000E+00
    0.19494E-08         0.10140E-08         0.00000E+00
    0.19320E-08         0.10477E-08         0.00000E+00
    0.19144E-08         0.10799E-08         0.00000E+00
    0.18967E-08         0.11106E-08         0.00000E+00
    0.18788E-08         0.11399E-08         0.00000E+00
    0.18611E-08         0.11676E-08         0.00000E+00
    0.18434E-08         0.11939E-08         0.00000E+00
    0.18260E-08         0.12187E-08         0.00000E+00
    0.18088E-08         0.12419E-08         0.00000E+00
    0.17921E-08         0.12635E-08         0.00000E+00
    0.17757E-08         0.12833E-08         0.00000E+00
    0.17599E-08         0.13012E-08         0.00000E+00
    0.17446E-08         0.13169E-08         0.00000E+00
    0.17299E-08         0.13303E-08         0.00000E+00
    0.17159E-08         0.13408E-08         0.00000E+00
    0.17026E-08         0.13482E-08         0.00000E+00
    0.16900E-08         0.13519E-08         0.00000E+00
    0.16782E-08         0.13512E-08         0.00000E+00
    0.16671E-08         0.13452E-08         0.00000E+00
    0.16569E-08         0.13329E-08         0.00000E+00
    0.16474E-08         0.13132E-08         0.00000E+00
    0.16388E-08         0.12846E-08         0.00000E+00
    0.16310E-08         0.12454E-08         0.00000E+00
    0.16241E-08         0.11936E-08         0.00000E+00
    0.16179E-08         0.11268E-08         0.00000E+00
    0.16126E-08         0.10426E-08         0.00000E+00
    0.16081E-08         0.93794E-09         0.00000E+00
    0.16044E-08         0.80978E-09         0.00000E+00
    0.16015E-08         0.65482E-09         0.00000E+00
    0.15994E-08         0.46984E-09         0.00000E+00
    0.15981E-08         0.25194E-09         0.00000E+00
    0.15977E-08         0.13443E-09         0.00000E+00
    0.24104E-08         0.41808E-10         0.00000E+00
    0.24095E-08         0.82594E-10         0.00000E+00
    0.24070E-08         0.16273E-09         0.00000E+00
    0.24026E-08         0.23996E-09         0.00000E+00
    0.23964E-08         0.31430E-09         0.00000E+00
    0.23884E-08         0.38577E-09         0.00000E+00
    0.23785E-08         0.45441E-09         0.00000E+00
    0.23668E-08         0.52028E-09         0.00000E+00
    0.23533E-08         0.58344E-09         0.00000E+00
    0.23382E-08         0.64394E-09         0.00000E+00
    0.23216E-08         0.70185E-09         0.00000E+00
    0.23035E-08         0.75722E-09         0.00000E+00
    0.22841E-08         0.81011E-09         0.00000E+00
    0.22636E-08         0.86056E-09         0.00000E+00
    0.22420E-08         0.90863E-09         0.00000E+00
    0.22195E-08         0.95437E-09         0.00000E+00
    0.21962E-08         0.99782E-09         0.00000E+00
    0.21724E-08         0.10390E-08         0.00000E+00
    0.21481E-08         0.10781E-08         0.00000E+00
    0.21235E-08         0.11149E-08         0.00000E+00
    0.20987E-08         0.11497E-08         0.00000E+00
    0.20739E-08         0.11824E-08         0.00000E+00
    0.20492E-08         0.12130E-08         0.00000E+00
    0.20247E-08         0.12417E-08         0.00000E+00
    0.20006E-08         0.12683E-08         0.00000E+00
    0.19770E-08         0.12930E-08         0.00000E+00
    0.19540E-08         0.13157E-08         0.00000E+00
    0.19318E-08         0.13363E-08         0.00000E+00
    0.19103E-08         0.13549E-08         0.00000E+00
    0.18897E-08         0.13714E-08         0.00000E+00
    0.18701E-08         0.13856E-08         0.00000E+00
    0.18516E-08         0.13973E-08         0.00000E+00
    0.18342E-08         0.14064E-08         0.00000E+00
    0.18180E-08         0.14125E-08         0.00000E+00
    0.18030E-08         0.14152E-08         0.00000E+00
    0.17893E-08         0.14140E-08         0.00000E+00
    0.17769E-08         0.14083E-08         0.00000E+00
    0.17658E-08         0.13973E-08         0.00000E+00
    0.17560E-08         0.13800E-08         0.00000E+00
    0.17475E-08         0.13552E-08         0.00000E+00
    0.17403E-08         0.13217E-08         0.00000E+00
    0.17342E-08         0.12776E-08         0.00000E+00
    0.17294E-08         0.12211E-08         0.00000E+00
    0.17256E-08         0.11498E-08         0.00000E+00
    0.17228E-08         0.10613E-08         0.00000E+00
    0.17208E-08         0.95273E-09         0.00000E+00
    0.17196E-08         0.82090E-09         0.00000E+00
    0.17190E-08         0.66260E-09         0.00000E+00
    0.17187E-08         0.47464E-09         0.00000E+00
    0.17188E-08         0.25415E-09         0.00000E+00
    0.17189E-08         0.13544E-09         0.00000E+00
    0.27572E-08         0.47715E-10         0.00000E+00
    0.27554E-08         0.94466E-10         0.00000E+00
    0.27502E-08         0.18656E-09         0.00000E+00
    0.27418E-08         0.27574E-09         0.00000E+00
    0.27301E-08         0.36186E-09         0.00000E+00
    0.27153E-08         0.44482E-09         0.00000E+00
    0.26977E-08         0.52453E-09         0.00000E+00
    0.26774E-08         0.60094E-09         0.00000E+00
    0.26546E-08         0.67401E-09         0.00000E+00
    0.26295E-08         0.74374E-09         0.00000E+00
    0.26024E-08         0.81011E-09         0.00000E+00
    0.25734E-08         0.87314E-09         0.00000E+00
    0.25427E-08         0.93285E-09         0.00000E+00
    0.25107E-08         0.98926E-09         0.00000E+00
    0.24775E-08         0.10424E-08         0.00000E+00
    0.24433E-08         0.10923E-08         0.00000E+00
    0.24084E-08         0.11391E-08         0.00000E+00
    0.23730E-08         0.11828E-08         0.00000E+00
    0.23373E-08         0.12234E-08         0.00000E+00
    0.23015E-08         0.12610E-08         0.00000E+00
    0.22657E-08         0.12956E-08         0.00000E+00
    0.22303E-08         0.13274E-08         0.00000E+00
    0.21953E-08         0.13564E-08         0.00000E+00
    0.21610E-08         0.13826E-08         0.00000E+00
    0.21275E-08         0.14061E-08         0.00000E+00
    0.20949E-08         0.14270E-08         0.00000E+00
    0.20635E-08         0.14452E-08         0.00000E+00
    0.20334E-08         0.14608E-08         0.00000E+00
    0.20047E-08         0.14738E-08         0.00000E+00
    0.19776E-08         0.14842E-08         0.00000E+00
    0.19521E-08         0.14918E-08         0.00000E+00
    0.19283E-08         0.14965E-08         0.00000E+00
    0.19064E-08         0.14983E-08         0.00000E+00
    0.18864E-08         0.14967E-08         0.00000E+00
    0.18684E-08         0.14916E-08         0.00000E+00
    0.18523E-08         0.14824E-08         0.00000E+00
    0.18383E-08         0.14687E-08         0.00000E+00
    0.18263E-08         0.14496E-08         0.00000E+00
    0.18163E-08         0.14244E-08         0.00000E+00
    0.18083E-08         0.13919E-08         0.00000E+00
    0.18021E-08         0.13509E-08         0.00000E+00
    0.17977E-08         0.12999E-08         0.00000E+00
    0.17950E-08         0.12369E-08         0.00000E+00
    0.17937E-08         0.11599E-08         0.00000E+00
    0.17936E-08         0.10664E-08         0.00000E+00
    0.17946E-08         0.95378E-09         0.00000E+00
    0.17962E-08         0.81901E-09         0.00000E+00
    0.17983E-08         0.65902E-09         0.00000E+00
    0.18003E-08         0.47074E-09         0.00000E+00
    0.18018E-08         0.25142E-09         0.00000E+00
    0.18025E-08         0.13369E-09         0.00000E+00
    0.31766E-08         0.59240E-10         0.00000E+00
    0.31735E-08         0.11716E-09         0.00000E+00
    0.31643E-08         0.23104E-09         0.00000E+00
    0.31495E-08         0.34089E-09         0.00000E+00
    0.31296E-08         0.44645E-09         0.00000E+00
    0.31048E-08         0.54755E-09         0.00000E+00
    0.30757E-08         0.64404E-09         0.00000E+00
    0.30426E-08         0.73584E-09         0.00000E+00
    0.30060E-08         0.82289E-09         0.00000E+00
    0.29663E-08         0.90516E-09         0.00000E+00
    0.29237E-08         0.98265E-09         0.00000E+00
    0.28789E-08         0.10554E-08         0.00000E+00
    0.28320E-08         0.11234E-08         0.00000E+00
    0.27834E-08         0.11867E-08         0.00000E+00
    0.27335E-08         0.12455E-08         0.00000E+00
    0.26826E-08         0.12996E-08         0.00000E+00
    0.26310E-08         0.13494E-08         0.00000E+00
    0.25791E-08         0.13947E-08         0.00000E+00
    0.25271E-08         0.14358E-08         0.00000E+00
    0.24752E-08         0.14728E-08         0.00000E+00
    0.24239E-08         0.15056E-08         0.00000E+00
    0.23733E-08         0.15345E-08         0.00000E+00
    0.23236E-08         0.15596E-08         0.00000E+00
    0.22751E-08         0.15808E-08         0.00000E+00
    0.22281E-08         0.15985E-08         0.00000E+00
    0.21827E-08         0.16125E-08         0.00000E+00
    0.21392E-08         0.16231E-08         0.00000E+00
    0.20977E-08         0.16303E-08         0.00000E+00
    0.20584E-08         0.16342E-08         0.00000E+00
    0.20215E-08         0.16347E-08         0.00000E+00
    0.19871E-08         0.16319E-08         0.00000E+00
    0.19554E-08         0.16257E-08         0.00000E+00
    0.19264E-08         0.16160E-08         0.00000E+00
    0.19002E-08         0.16027E-08         0.00000E+00
    0.18769E-08         0.15856E-08         0.00000E+00
    0.18567E-08         0.15643E-08         0.00000E+00
    0.18394E-08         0.15383E-08         0.00000E+00
    0.18250E-08         0.15072E-08         0.00000E+00
    0.18136E-08         0.14701E-08         0.00000E+00
    0.18050E-08         0.14263E-08         0.00000E+00
    0.17992E-08         0.13745E-08         0.00000E+00
    0.17958E-08         0.13133E-08         0.00000E+00
    0.17948E-08         0.12413E-08         0.00000E+00
    0.17958E-08         0.11565E-08         0.00000E+00
    0.17985E-08         0.10568E-08         0.00000E+00
    0.18025E-08         0.93966E-09         0.00000E+00
    0.18072E-08         0.80248E-09         0.00000E+00
    0.18121E-08         0.64243E-09         0.00000E+00
    0.18166E-08         0.45674E-09         0.00000E+00
    0.18199E-08         0.24292E-09         0.00000E+00
    0.18212E-08         0.12869E-09         0.00000E+00
    0.36779E-08         0.79178E-10         0.00000E+00
    0.36727E-08         0.15599E-09         0.00000E+00
    0.36578E-08         0.30621E-09         0.00000E+00
    0.36340E-08         0.44946E-09         0.00000E+00
    0.36021E-08         0.58550E-09         0.00000E+00
    0.35630E-08         0.71419E-09         0.00000E+00
    0.35175E-08         0.83547E-09         0.00000E+00
    0.34663E-08         0.94934E-09         0.00000E+00
    0.34102E-08         0.10558E-08         0.00000E+00
    0.33498E-08         0.11551E-08         0.00000E+00
    0.32858E-08         0.12471E-08         0.00000E+00
    0.32187E-08         0.13321E-08         0.00000E+00
    0.31492E-08         0.14102E-08         0.00000E+00
    0.30776E-08         0.14816E-08         0.00000E+00
    0.30046E-08         0.15463E-08         0.00000E+00
    0.29306E-08         0.16046E-08         0.00000E+00
    0.28560E-08         0.16567E-08         0.00000E+00
    0.27813E-08         0.17026E-08         0.00000E+00
    0.27068E-08         0.17426E-08         0.00000E+00
    0.26330E-08         0.17769E-08         0.00000E+00
    0.25601E-08         0.18056E-08         0.00000E+00
    0.24885E-08         0.18289E-08         0.00000E+00
    0.24186E-08         0.18470E-08         0.00000E+00
    0.23506E-08         0.18600E-08         0.00000E+00
    0.22848E-08         0.18681E-08         0.00000E+00
    0.22215E-08         0.18715E-08         0.00000E+00
    0.21610E-08         0.18703E-08         0.00000E+00
    0.21034E-08         0.18647E-08         0.00000E+00
    0.20491E-08         0.18548E-08         0.00000E+00
    0.19982E-08         0.18407E-08         0.00000E+00
    0.19509E-08         0.18226E-08         0.00000E+00
    0.19073E-08         0.18003E-08         0.00000E+00
    0.18677E-08         0.17741E-08         0.00000E+00
    0.18321E-08         0.17437E-08         0.00000E+00
    0.18006E-08         0.17092E-08         0.00000E+00
    0.17732E-08         0.16704E-08         0.00000E+00
    0.17501E-08         0.16269E-08         0.00000E+00
    0.17311E-08         0.15784E-08         0.00000E+00
    0.17163E-08         0.15244E-08         0.00000E+00
    0.17054E-08         0.14642E-08         0.00000E+00
    0.16984E-08         0.13969E-08         0.00000E+00
    0.16949E-08         0.13216E-08         0.00000E+00
    0.16946E-08         0.12369E-08         0.00000E+00
    0.16971E-08         0.11414E-08         0.00000E+00
    0.17020E-08         0.10332E-08         0.00000E+00
    0.17086E-08         0.91045E-09         0.00000E+00
    0.17162E-08         0.77084E-09         0.00000E+00
    0.17240E-08         0.61209E-09         0.00000E+00
    0.17309E-08         0.43187E-09         0.00000E+00
    0.17360E-08         0.22811E-09         0.00000E+00
    0.17381E-08         0.12010E-09         0.00000E+00
    0.42675E-08         0.11113E-09         0.00000E+00
    0.42594E-08         0.21782E-09         0.00000E+00
    0.42365E-08         0.42493E-09         0.00000E+00
    0.42001E-08         0.61942E-09         0.00000E+00
    0.41518E-08         0.80123E-09         0.00000E+00
    0.40930E-08         0.97047E-09         0.00000E+00
    0.40250E-08         0.11274E-08         0.00000E+00
    0.39491E-08         0.12722E-08         0.00000E+00
    0.38664E-08         0.14054E-08         0.00000E+00
    0.37780E-08         0.15273E-08         0.00000E+00
    0.36849E-08         0.16382E-08         0.00000E+00
    0.35878E-08         0.17387E-08         0.00000E+00
    0.34878E-08         0.18289E-08         0.00000E+00
    0.33854E-08         0.19095E-08         0.00000E+00
    0.32814E-08         0.19806E-08         0.00000E+00
    0.31764E-08         0.20426E-08         0.00000E+00
    0.30710E-08         0.20959E-08         0.00000E+00
    0.29659E-08         0.21408E-08         0.00000E+00
    0.28614E-08         0.21775E-08         0.00000E+00
    0.27581E-08         0.22065E-08         0.00000E+00
    0.26565E-08         0.22279E-08         0.00000E+00
    0.25569E-08         0.22421E-08         0.00000E+00
    0.24598E-08         0.22493E-08         0.00000E+00
    0.23655E-08         0.22498E-08         0.00000E+00
    0.22745E-08         0.22438E-08         0.00000E+00
    0.21869E-08         0.22316E-08         0.00000E+00
    0.21033E-08         0.22135E-08         0.00000E+00
    0.20238E-08         0.21897E-08         0.00000E+00
    0.19487E-08         0.21604E-08         0.00000E+00
    0.18784E-08         0.21258E-08         0.00000E+00
    0.18129E-08         0.20862E-08         0.00000E+00
    0.17526E-08         0.20416E-08         0.00000E+00
    0.16976E-08         0.19923E-08         0.00000E+00
    0.16480E-08         0.19383E-08         0.00000E+00
    0.16041E-08         0.18797E-08         0.00000E+00
    0.15657E-08         0.18166E-08         0.00000E+00
    0.15331E-08         0.17488E-08         0.00000E+00
    0.15061E-08         0.16763E-08         0.00000E+00
    0.14847E-08         0.15988E-08         0.00000E+00
    0.14688E-08         0.15159E-08         0.00000E+00
    0.14580E-08         0.14273E-08         0.00000E+00
    0.14521E-08         0.13322E-08         0.00000E+00
    0.14507E-08         0.12299E-08         0.00000E+00
    0.14532E-08         0.11193E-08         0.00000E+00
    0.14590E-08         0.99939E-09         0.00000E+00
    0.14672E-08         0.86871E-09         0.00000E+00
    0.14769E-08         0.72576E-09         0.00000E+00
    0.14869E-08         0.56890E-09         0.00000E+00
    0.14960E-08         0.39649E-09         0.00000E+00
    0.15027E-08         0.20703E-09         0.00000E+00
    0.15055E-08         0.10788E-09         0.00000E+00
    0.49464E-08         0.15957E-09         0.00000E+00
    0.49345E-08         0.31113E-09         0.00000E+00
    0.49008E-08         0.60313E-09         0.00000E+00
    0.48476E-08         0.87296E-09         0.00000E+00
    0.47773E-08         0.11210E-08         0.00000E+00
    0.46923E-08         0.13480E-08         0.00000E+00
    0.45946E-08         0.15547E-08         0.00000E+00
    0.44860E-08         0.17421E-08         0.00000E+00
    0.43684E-08         0.19112E-08         0.00000E+00
    0.42431E-08         0.20629E-08         0.00000E+00
    0.41118E-08         0.21981E-08         0.00000E+00
    0.39756E-08         0.23177E-08         0.00000E+00
    0.38357E-08         0.24226E-08         0.00000E+00
    0.36931E-08         0.25136E-08         0.00000E+00
    0.35488E-08         0.25912E-08         0.00000E+00
    0.34036E-08         0.26562E-08         0.00000E+00
    0.32583E-08         0.27092E-08         0.00000E+00
    0.31137E-08         0.27507E-08         0.00000E+00
    0.29703E-08         0.27814E-08         0.00000E+00
    0.28289E-08         0.28015E-08         0.00000E+00
    0.26899E-08         0.28117E-08         0.00000E+00
    0.25539E-08         0.28124E-08         0.00000E+00
    0.24214E-08         0.28039E-08         0.00000E+00
    0.22928E-08         0.27866E-08         0.00000E+00
    0.21686E-08         0.27610E-08         0.00000E+00
    0.20492E-08         0.27274E-08         0.00000E+00
    0.19350E-08         0.26861E-08         0.00000E+00
    0.18263E-08         0.26375E-08         0.00000E+00
    0.17235E-08         0.25820E-08         0.00000E+00
    0.16268E-08         0.25199E-08         0.00000E+00
    0.15366E-08         0.24514E-08         0.00000E+00
    0.14531E-08         0.23770E-08         0.00000E+00
    0.13766E-08         0.22969E-08         0.00000E+00
    0.13072E-08         0.22113E-08         0.00000E+00
    0.12451E-08         0.21207E-08         0.00000E+00
    0.11904E-08         0.20251E-08         0.00000E+00
    0.11431E-08         0.19249E-08         0.00000E+00
    0.11033E-08         0.18202E-08         0.00000E+00
    0.10709E-08         0.17112E-08         0.00000E+00
    0.10456E-08         0.15978E-08         0.00000E+00
    0.10272E-08         0.14801E-08         0.00000E+00
    0.10154E-08         0.13581E-08         0.00000E+00
    0.10096E-08         0.12315E-08         0.00000E+00
    0.10093E-08         0.11000E-08         0.00000E+00
    0.10134E-08         0.96339E-09         0.00000E+00
    0.10212E-08         0.82099E-09         0.00000E+00
    0.10312E-08         0.67224E-09         0.00000E+00
    0.10423E-08         0.51643E-09         0.00000E+00
    0.10526E-08         0.35282E-09         0.00000E+00
    0.10604E-08         0.18075E-09         0.00000E+00
    0.10636E-08         0.92519E-10         0.00000E+00
    0.57075E-08         0.22987E-09         0.00000E+00
    0.56907E-08         0.44610E-09         0.00000E+00
    0.56429E-08         0.85983E-09         0.00000E+00
    0.55679E-08         0.12365E-08         0.00000E+00
    0.54694E-08         0.15774E-08         0.00000E+00
    0.53506E-08         0.18842E-08         0.00000E+00
    0.52146E-08         0.21589E-08         0.00000E+00
    0.50642E-08         0.24034E-08         0.00000E+00
    0.49018E-08         0.26198E-08         0.00000E+00
    0.47297E-08         0.28101E-08         0.00000E+00
    0.45498E-08         0.29760E-08         0.00000E+00
    0.43639E-08         0.31193E-08         0.00000E+00
    0.41736E-08         0.32415E-08         0.00000E+00
    0.39802E-08         0.33440E-08         0.00000E+00
    0.37850E-08         0.34281E-08         0.00000E+00
    0.35891E-08         0.34949E-08         0.00000E+00
    0.33935E-08         0.35454E-08         0.00000E+00
    0.31991E-08         0.35807E-08         0.00000E+00
    0.30068E-08         0.36015E-08         0.00000E+00
    0.28172E-08         0.36087E-08         0.00000E+00
    0.26311E-08         0.36028E-08         0.00000E+00
    0.24491E-08         0.35846E-08         0.00000E+00
    0.22718E-08         0.35546E-08         0.00000E+00
    0.20996E-08         0.35135E-08         0.00000E+00
    0.19332E-08         0.34617E-08         0.00000E+00
    0.17730E-08         0.33998E-08         0.00000E+00
    0.16195E-08         0.33282E-08         0.00000E+00
    0.14730E-08         0.32474E-08         0.00000E+00
    0.13339E-08         0.31578E-08         0.00000E+00
    0.12027E-08         0.30601E-08         0.00000E+00
    0.10797E-08         0.29545E-08         0.00000E+00
    0.96513E-09         0.28416E-08         0.00000E+00
    0.85933E-09         0.27219E-08         0.00000E+00
    0.76252E-09         0.25958E-08         0.00000E+00
    0.67492E-09         0.24638E-08         0.00000E+00
    0.59667E-09         0.23264E-08         0.00000E+00
    0.52786E-09         0.21842E-08         0.00000E+00
    0.46851E-09         0.20378E-08         0.00000E+00
    0.41857E-09         0.18875E-08         0.00000E+00
    0.37789E-09         0.17341E-08         0.00000E+00
    0.34617E-09         0.15781E-08         0.00000E+00
    0.32304E-09         0.14201E-08         0.00000E+00
    0.30791E-09         0.12606E-08         0.00000E+00
    0.30007E-09         0.11004E-08         0.00000E+00
    0.29856E-09         0.93985E-09         0.00000E+00
    0.30223E-09         0.77966E-09         0.00000E+00
    0.30968E-09         0.62030E-09         0.00000E+00
    0.31924E-09         0.46228E-09         0.00000E+00
    0.32898E-09         0.30600E-09         0.00000E+00
    0.33672E-09         0.15184E-09         0.00000E+00
    0.34009E-09         0.75322E-10         0.00000E+00
    0.65315E-08         0.32822E-09         0.00000E+00
    0.65084E-08         0.63445E-09         0.00000E+00
    0.64429E-08         0.12169E-08         0.00000E+00
    0.63407E-08         0.17404E-08         0.00000E+00
    0.62067E-08         0.22075E-08         0.00000E+00
    0.60458E-08         0.26218E-08         0.00000E+00
    0.58622E-08         0.29867E-08         0.00000E+00
    0.56598E-08         0.33061E-08         0.00000E+00
    0.54421E-08         0.35838E-08         0.00000E+00
    0.52119E-08         0.38230E-08         0.00000E+00
    0.49722E-08         0.40271E-08         0.00000E+00
    0.47251E-08         0.41990E-08         0.00000E+00
    0.44728E-08         0.43414E-08         0.00000E+00
    0.42171E-08         0.44565E-08         0.00000E+00
    0.39596E-08         0.45466E-08         0.00000E+00
    0.37017E-08         0.46135E-08         0.00000E+00
    0.34446E-08         0.46589E-08         0.00000E+00
    0.31894E-08         0.46843E-08         0.00000E+00
    0.29372E-08         0.46909E-08         0.00000E+00
    0.26888E-08         0.46798E-08         0.00000E+00
    0.24450E-08         0.46523E-08         0.00000E+00
    0.22065E-08         0.46091E-08         0.00000E+00
    0.19740E-08         0.45512E-08         0.00000E+00
    0.17482E-08         0.44792E-08         0.00000E+00
    0.15295E-08         0.43940E-08         0.00000E+00
    0.13185E-08         0.42962E-08         0.00000E+00
    0.11157E-08         0.41864E-08         0.00000E+00
    0.92166E-09         0.40652E-08         0.00000E+00
    0.73670E-09         0.39332E-08         0.00000E+00
    0.56129E-09         0.37911E-08         0.00000E+00
    0.39582E-09         0.36394E-08         0.00000E+00
    0.24065E-09         0.34788E-08         0.00000E+00
    0.96113E-10         0.33099E-08         0.00000E+00
   -0.37480E-10         0.31334E-08         0.00000E+00
   -0.15987E-09         0.29500E-08         0.00000E+00
   -0.27085E-09         0.27605E-08         0.00000E+00
   -0.37026E-09         0.25657E-08         0.00000E+00
   -0.45801E-09         0.23666E-08         0.00000E+00
   -0.53412E-09         0.21643E-08         0.00000E+00
   -0.59867E-09         0.19598E-08         0.00000E+00
   -0.65190E-09         0.17544E-08         0.00000E+00
   -0.69419E-09         0.15494E-08         0.00000E+00
   -0.72607E-09         0.13463E-08         0.00000E+00
   -0.74828E-09         0.11468E-08         0.00000E+00
   -0.76180E-09         0.95254E-09         0.00000E+00
   -0.76785E-09         0.76539E-09         0.00000E+00
   -0.76794E-09         0.58722E-09         0.00000E+00
   -0.76387E-09         0.41996E-09         0.00000E+00
   -0.75775E-09         0.26541E-09         0.00000E+00
   -0.75197E-09         0.12518E-09         0.00000E+00
   -0.74917E-09         0.58824E-10         0.00000E+00
    0.73822E-08         0.46143E-09         0.00000E+00
    0.73514E-08         0.88900E-09         0.00000E+00
    0.72645E-08         0.16982E-08         0.00000E+00
    0.71291E-08         0.24175E-08         0.00000E+00
    0.69522E-08         0.30517E-08         0.00000E+00
    0.67403E-08         0.36067E-08         0.00000E+00
    0.64993E-08         0.40888E-08         0.00000E+00
    0.62344E-08         0.45043E-08         0.00000E+00
    0.59502E-08         0.48592E-08         0.00000E+00
    0.56506E-08         0.51594E-08         0.00000E+00
    0.53394E-08         0.54101E-08         0.00000E+00
    0.50194E-08         0.56160E-08         0.00000E+00
    0.46934E-08         0.57814E-08         0.00000E+00
    0.43638E-08         0.59101E-08         0.00000E+00
    0.40323E-08         0.60053E-08         0.00000E+00
    0.37009E-08         0.60699E-08         0.00000E+00
    0.33710E-08         0.61066E-08         0.00000E+00
    0.30440E-08         0.61176E-08         0.00000E+00
    0.27209E-08         0.61048E-08         0.00000E+00
    0.24028E-08         0.60698E-08         0.00000E+00
    0.20905E-08         0.60142E-08         0.00000E+00
    0.17850E-08         0.59394E-08         0.00000E+00
    0.14868E-08         0.58464E-08         0.00000E+00
    0.11967E-08         0.57363E-08         0.00000E+00
    0.91530E-09         0.56100E-08         0.00000E+00
    0.64311E-09         0.54685E-08         0.00000E+00
    0.38066E-09         0.53124E-08         0.00000E+00
    0.12846E-09         0.51425E-08         0.00000E+00
   -0.11303E-09         0.49597E-08         0.00000E+00
   -0.34335E-09         0.47645E-08         0.00000E+00
   -0.56208E-09         0.45577E-08         0.00000E+00
   -0.76879E-09         0.43401E-08         0.00000E+00
   -0.96312E-09         0.41125E-08         0.00000E+00
   -0.11447E-08         0.38757E-08         0.00000E+00
   -0.13132E-08         0.36306E-08         0.00000E+00
   -0.14683E-08         0.33784E-08         0.00000E+00
   -0.16097E-08         0.31201E-08         0.00000E+00
   -0.17373E-08         0.28570E-08         0.00000E+00
   -0.18510E-08         0.25908E-08         0.00000E+00
   -0.19508E-08         0.23230E-08         0.00000E+00
   -0.20367E-08         0.20557E-08         0.00000E+00
   -0.21090E-08         0.17909E-08         0.00000E+00
   -0.21681E-08         0.15311E-08         0.00000E+00
   -0.22147E-08         0.12790E-08         0.00000E+00
   -0.22495E-08         0.10377E-08         0.00000E+00
   -0.22738E-08         0.81035E-09         0.00000E+00
   -0.22889E-08         0.60039E-09         0.00000E+00
   -0.22965E-08         0.41130E-09         0.00000E+00
   -0.22988E-08         0.24650E-09         0.00000E+00
   -0.22980E-08         0.10895E-09         0.00000E+00
   -0.22969E-08         0.47334E-10         0.00000E+00
    0.82021E-08         0.63657E-09         0.00000E+00
    0.81622E-08         0.12231E-08         0.00000E+00
    0.80501E-08         0.23284E-08         0.00000E+00
    0.78757E-08         0.33018E-08         0.00000E+00
    0.76484E-08         0.41513E-08         0.00000E+00
    0.73770E-08         0.48861E-08         0.00000E+00
    0.70690E-08         0.55164E-08         0.00000E+00
    0.67313E-08         0.60520E-08         0.00000E+00
    0.63699E-08         0.65026E-08         0.00000E+00
    0.59901E-08         0.68769E-08         0.00000E+00
    0.55963E-08         0.71832E-08         0.00000E+00
    0.51924E-08         0.74286E-08         0.00000E+00
    0.47817E-08         0.76197E-08         0.00000E+00
    0.43672E-08         0.77621E-08         0.00000E+00
    0.39512E-08         0.78607E-08         0.00000E+00
    0.35359E-08         0.79201E-08         0.00000E+00
    0.31229E-08         0.79438E-08         0.00000E+00
    0.27138E-08         0.79351E-08         0.00000E+00
    0.23099E-08         0.78969E-08         0.00000E+00
    0.19123E-08         0.78316E-08         0.00000E+00
    0.15219E-08         0.77412E-08         0.00000E+00
    0.11396E-08         0.76276E-08         0.00000E+00
    0.76619E-09         0.74924E-08         0.00000E+00
    0.40220E-09         0.73368E-08         0.00000E+00
    0.48261E-10         0.71621E-08         0.00000E+00
   -0.29509E-09         0.69694E-08         0.00000E+00
   -0.62734E-09         0.67596E-08         0.00000E+00
   -0.94804E-09         0.65336E-08         0.00000E+00
   -0.12567E-08         0.62923E-08         0.00000E+00
   -0.15530E-08         0.60363E-08         0.00000E+00
   -0.18363E-08         0.57667E-08         0.00000E+00
   -0.21064E-08         0.54840E-08         0.00000E+00
   -0.23628E-08         0.51894E-08         0.00000E+00
   -0.26049E-08         0.48836E-08         0.00000E+00
   -0.28326E-08         0.45678E-08         0.00000E+00
   -0.30453E-08         0.42432E-08         0.00000E+00
   -0.32427E-08         0.39111E-08         0.00000E+00
   -0.34244E-08         0.35733E-08         0.00000E+00
   -0.35902E-08         0.32316E-08         0.00000E+00
   -0.37398E-08         0.28881E-08         0.00000E+00
   -0.38730E-08         0.25454E-08         0.00000E+00
   -0.39900E-08         0.22065E-08         0.00000E+00
   -0.40907E-08         0.18747E-08         0.00000E+00
   -0.41754E-08         0.15538E-08         0.00000E+00
   -0.42447E-08         0.12480E-08         0.00000E+00
   -0.42993E-08         0.96206E-09         0.00000E+00
   -0.43402E-08         0.70083E-09         0.00000E+00
   -0.43687E-08         0.46949E-09         0.00000E+00
   -0.43865E-08         0.27303E-09         0.00000E+00
   -0.43954E-08         0.11589E-09         0.00000E+00
   -0.43976E-08         0.47638E-10         0.00000E+00
    0.89079E-08         0.86041E-09         0.00000E+00
    0.88576E-08         0.16494E-08         0.00000E+00
    0.87167E-08         0.31311E-08         0.00000E+00
    0.84980E-08         0.44256E-08         0.00000E+00
    0.82137E-08         0.55451E-08         0.00000E+00
    0.78749E-08         0.65040E-08         0.00000E+00
    0.74915E-08         0.73171E-08         0.00000E+00
    0.70721E-08         0.79995E-08         0.00000E+00
    0.66243E-08         0.85654E-08         0.00000E+00
    0.61548E-08         0.90278E-08         0.00000E+00
    0.56692E-08         0.93986E-08         0.00000E+00
    0.51722E-08         0.96886E-08         0.00000E+00
    0.46680E-08         0.99072E-08         0.00000E+00
    0.41600E-08         0.10063E-07         0.00000E+00
    0.36511E-08         0.10162E-07         0.00000E+00
    0.31438E-08         0.10212E-07         0.00000E+00
    0.26400E-08         0.10217E-07         0.00000E+00
    0.21414E-08         0.10183E-07         0.00000E+00
    0.16495E-08         0.10112E-07         0.00000E+00
    0.11653E-08         0.10010E-07         0.00000E+00
    0.68989E-09         0.98774E-08         0.00000E+00
    0.22397E-09         0.97181E-08         0.00000E+00
   -0.23177E-09         0.95336E-08         0.00000E+00
   -0.67677E-09         0.93259E-08         0.00000E+00
   -0.11105E-08         0.90964E-08         0.00000E+00
   -0.15327E-08         0.88465E-08         0.00000E+00
   -0.19428E-08         0.85772E-08         0.00000E+00
   -0.23406E-08         0.82895E-08         0.00000E+00
   -0.27257E-08         0.79844E-08         0.00000E+00
   -0.30977E-08         0.76626E-08         0.00000E+00
   -0.34563E-08         0.73249E-08         0.00000E+00
   -0.38011E-08         0.69722E-08         0.00000E+00
   -0.41317E-08         0.66052E-08         0.00000E+00
   -0.44477E-08         0.62249E-08         0.00000E+00
   -0.47486E-08         0.58324E-08         0.00000E+00
   -0.50339E-08         0.54288E-08         0.00000E+00
   -0.53031E-08         0.50156E-08         0.00000E+00
   -0.55557E-08         0.45945E-08         0.00000E+00
   -0.57910E-08         0.41676E-08         0.00000E+00
   -0.60085E-08         0.37374E-08         0.00000E+00
   -0.62077E-08         0.33067E-08         0.00000E+00
   -0.63880E-08         0.28790E-08         0.00000E+00
   -0.65491E-08         0.24583E-08         0.00000E+00
   -0.66905E-08         0.20493E-08         0.00000E+00
   -0.68121E-08         0.16571E-08         0.00000E+00
   -0.69137E-08         0.12878E-08         0.00000E+00
   -0.69955E-08         0.94743E-09         0.00000E+00
   -0.70578E-08         0.64268E-09         0.00000E+00
   -0.71012E-08         0.37992E-09         0.00000E+00
   -0.71265E-08         0.16485E-09         0.00000E+00
   -0.71346E-08         0.69878E-10         0.00000E+00
    0.93868E-08         0.11389E-08         0.00000E+00
    0.93252E-08         0.21790E-08         0.00000E+00
    0.91525E-08         0.41266E-08         0.00000E+00
    0.88852E-08         0.58165E-08         0.00000E+00
    0.85385E-08         0.72665E-08         0.00000E+00
    0.81262E-08         0.84973E-08         0.00000E+00
    0.76607E-08         0.95306E-08         0.00000E+00
    0.71527E-08         0.10388E-07         0.00000E+00
    0.66118E-08         0.11089E-07         0.00000E+00
    0.60459E-08         0.11653E-07         0.00000E+00
    0.54621E-08         0.12096E-07         0.00000E+00
    0.48662E-08         0.12434E-07         0.00000E+00
    0.42630E-08         0.12681E-07         0.00000E+00
    0.36567E-08         0.12846E-07         0.00000E+00
    0.30507E-08         0.12942E-07         0.00000E+00
    0.24477E-08         0.12976E-07         0.00000E+00
    0.18500E-08         0.12956E-07         0.00000E+00
    0.12593E-08         0.12888E-07         0.00000E+00
    0.67716E-09         0.12777E-07         0.00000E+00
    0.10458E-09         0.12630E-07         0.00000E+00
   -0.45757E-09         0.12448E-07         0.00000E+00
   -0.10086E-08         0.12236E-07         0.00000E+00
   -0.15482E-08         0.11996E-07         0.00000E+00
   -0.20759E-08         0.11731E-07         0.00000E+00
   -0.25916E-08         0.11442E-07         0.00000E+00
   -0.30950E-08         0.11131E-07         0.00000E+00
   -0.35861E-08         0.10799E-07         0.00000E+00
   -0.40649E-08         0.10448E-07         0.00000E+00
   -0.45312E-08         0.10078E-07         0.00000E+00
   -0.49849E-08         0.96894E-08         0.00000E+00
   -0.54259E-08         0.92837E-08         0.00000E+00
   -0.58540E-08         0.88612E-08         0.00000E+00
   -0.62690E-08         0.84225E-08         0.00000E+00
   -0.66703E-08         0.79681E-08         0.00000E+00
   -0.70577E-08         0.74989E-08         0.00000E+00
   -0.74305E-08         0.70158E-08         0.00000E+00
   -0.77881E-08         0.65198E-08         0.00000E+00
   -0.81296E-08         0.60126E-08         0.00000E+00
   -0.84541E-08         0.54957E-08         0.00000E+00
   -0.87606E-08         0.49716E-08         0.00000E+00
   -0.90478E-08         0.44431E-08         0.00000E+00
   -0.93146E-08         0.39136E-08         0.00000E+00
   -0.95596E-08         0.33871E-08         0.00000E+00
   -0.97813E-08         0.28687E-08         0.00000E+00
   -0.99783E-08         0.23640E-08         0.00000E+00
   -0.10149E-07         0.18792E-08         0.00000E+00
   -0.10292E-07         0.14215E-08         0.00000E+00
   -0.10406E-07         0.99816E-09         0.00000E+00
   -0.10489E-07         0.61644E-09         0.00000E+00
   -0.10540E-07         0.28274E-09         0.00000E+00
   -0.10557E-07         0.12862E-09         0.00000E+00
    0.94953E-08         0.14767E-08         0.00000E+00
    0.94215E-08         0.28207E-08         0.00000E+00
    0.92149E-08         0.53307E-08         0.00000E+00
    0.88957E-08         0.74956E-08         0.00000E+00
    0.84825E-08         0.93402E-08         0.00000E+00
    0.79922E-08         0.10893E-07         0.00000E+00
    0.74400E-08         0.12185E-07         0.00000E+00
    0.68391E-08         0.13244E-07         0.00000E+00
    0.62009E-08         0.14099E-07         0.00000E+00
    0.55354E-08         0.14776E-07         0.00000E+00
    0.48510E-08         0.15297E-07         0.00000E+00
    0.41545E-08         0.15684E-07         0.00000E+00
    0.34519E-08         0.15954E-07         0.00000E+00
    0.27480E-08         0.16124E-07         0.00000E+00
    0.20466E-08         0.16207E-07         0.00000E+00
    0.13509E-08         0.16215E-07         0.00000E+00
    0.66336E-09         0.16159E-07         0.00000E+00
   -0.14283E-10         0.16047E-07         0.00000E+00
   -0.68064E-09         0.15886E-07         0.00000E+00
   -0.13348E-08         0.15683E-07         0.00000E+00
   -0.19762E-08         0.15444E-07         0.00000E+00
   -0.26045E-08         0.15171E-07         0.00000E+00
   -0.32197E-08         0.14870E-07         0.00000E+00
   -0.38220E-08         0.14543E-07         0.00000E+00
   -0.44116E-08         0.14192E-07         0.00000E+00
   -0.49890E-08         0.13819E-07         0.00000E+00
   -0.55545E-08         0.13427E-07         0.00000E+00
   -0.61087E-08         0.13015E-07         0.00000E+00
   -0.66520E-08         0.12584E-07         0.00000E+00
   -0.71848E-08         0.12136E-07         0.00000E+00
   -0.77074E-08         0.11671E-07         0.00000E+00
   -0.82200E-08         0.11187E-07         0.00000E+00
   -0.87228E-08         0.10687E-07         0.00000E+00
   -0.92156E-08         0.10169E-07         0.00000E+00
   -0.96980E-08         0.96334E-08         0.00000E+00
   -0.10170E-07         0.90806E-08         0.00000E+00
   -0.10630E-07         0.85108E-08         0.00000E+00
   -0.11077E-07         0.79245E-08         0.00000E+00
   -0.11510E-07         0.73225E-08         0.00000E+00
   -0.11927E-07         0.67060E-08         0.00000E+00
   -0.12327E-07         0.60770E-08         0.00000E+00
   -0.12707E-07         0.54379E-08         0.00000E+00
   -0.13063E-07         0.47919E-08         0.00000E+00
   -0.13394E-07         0.41429E-08         0.00000E+00
   -0.13695E-07         0.34958E-08         0.00000E+00
   -0.13962E-07         0.28564E-08         0.00000E+00
   -0.14193E-07         0.22310E-08         0.00000E+00
   -0.14381E-07         0.16264E-08         0.00000E+00
   -0.14522E-07         0.10496E-08         0.00000E+00
   -0.14611E-07         0.50646E-09         0.00000E+00
   -0.14642E-07         0.24401E-09         0.00000E+00
    0.90578E-08         0.18775E-08         0.00000E+00
    0.89709E-08         0.35811E-08         0.00000E+00
    0.87282E-08         0.67554E-08         0.00000E+00
    0.83538E-08         0.94786E-08         0.00000E+00
    0.78702E-08         0.11784E-07         0.00000E+00
    0.72979E-08         0.13710E-07         0.00000E+00
    0.66553E-08         0.15296E-07         0.00000E+00
    0.59583E-08         0.16583E-07         0.00000E+00
    0.52210E-08         0.17607E-07         0.00000E+00
    0.44553E-08         0.18403E-07         0.00000E+00
    0.36713E-08         0.19001E-07         0.00000E+00
    0.28775E-08         0.19430E-07         0.00000E+00
    0.20808E-08         0.19713E-07         0.00000E+00
    0.12868E-08         0.19873E-07         0.00000E+00
    0.50018E-09         0.19927E-07         0.00000E+00
   -0.27578E-09         0.19892E-07         0.00000E+00
   -0.10385E-08         0.19782E-07         0.00000E+00
   -0.17862E-08         0.19608E-07         0.00000E+00
   -0.25177E-08         0.19380E-07         0.00000E+00
   -0.32327E-08         0.19107E-07         0.00000E+00
   -0.39310E-08         0.18796E-07         0.00000E+00
   -0.46130E-08         0.18454E-07         0.00000E+00
   -0.52794E-08         0.18084E-07         0.00000E+00
   -0.59313E-08         0.17690E-07         0.00000E+00
   -0.65698E-08         0.17277E-07         0.00000E+00
   -0.71963E-08         0.16845E-07         0.00000E+00
   -0.78123E-08         0.16398E-07         0.00000E+00
   -0.84190E-08         0.15935E-07         0.00000E+00
   -0.90181E-08         0.15458E-07         0.00000E+00
   -0.96107E-08         0.14966E-07         0.00000E+00
   -0.10198E-07         0.14460E-07         0.00000E+00
   -0.10782E-07         0.13938E-07         0.00000E+00
   -0.11362E-07         0.13400E-07         0.00000E+00
   -0.11939E-07         0.12844E-07         0.00000E+00
   -0.12513E-07         0.12269E-07         0.00000E+00
   -0.13085E-07         0.11674E-07         0.00000E+00
   -0.13652E-07         0.11056E-07         0.00000E+00
   -0.14215E-07         0.10415E-07         0.00000E+00
   -0.14771E-07         0.97489E-08         0.00000E+00
   -0.15318E-07         0.90571E-08         0.00000E+00
   -0.15853E-07         0.83388E-08         0.00000E+00
   -0.16371E-07         0.75939E-08         0.00000E+00
   -0.16868E-07         0.68228E-08         0.00000E+00
   -0.17339E-07         0.60268E-08         0.00000E+00
   -0.17777E-07         0.52077E-08         0.00000E+00
   -0.18174E-07         0.43684E-08         0.00000E+00
   -0.18523E-07         0.35124E-08         0.00000E+00
   -0.18813E-07         0.26437E-08         0.00000E+00
   -0.19036E-07         0.17666E-08         0.00000E+00
   -0.19179E-07         0.88470E-09         0.00000E+00
   -0.19230E-07         0.44293E-09         0.00000E+00
    0.78612E-08         0.23458E-08         0.00000E+00
    0.77596E-08         0.44688E-08         0.00000E+00
    0.74763E-08         0.84163E-08         0.00000E+00
    0.70403E-08         0.11786E-07         0.00000E+00
    0.64788E-08         0.14619E-07         0.00000E+00
    0.58167E-08         0.16968E-07         0.00000E+00
    0.50765E-08         0.18883E-07         0.00000E+00
    0.42779E-08         0.20415E-07         0.00000E+00
    0.34381E-08         0.21614E-07         0.00000E+00
    0.25718E-08         0.22525E-07         0.00000E+00
    0.16916E-08         0.23186E-07         0.00000E+00
    0.80777E-09         0.23637E-07         0.00000E+00
   -0.71208E-10         0.23907E-07         0.00000E+00
   -0.93861E-09         0.24027E-07         0.00000E+00
   -0.17893E-08         0.24020E-07         0.00000E+00
   -0.26194E-08         0.23909E-07         0.00000E+00
   -0.34265E-08         0.23711E-07         0.00000E+00
   -0.42091E-08         0.23443E-07         0.00000E+00
   -0.49665E-08         0.23119E-07         0.00000E+00
   -0.56992E-08         0.22749E-07         0.00000E+00
   -0.64080E-08         0.22345E-07         0.00000E+00
   -0.70947E-08         0.21913E-07         0.00000E+00
   -0.77611E-08         0.21462E-07         0.00000E+00
   -0.84098E-08         0.20995E-07         0.00000E+00
   -0.90434E-08         0.20517E-07         0.00000E+00
   -0.96650E-08         0.20031E-07         0.00000E+00
   -0.10278E-07         0.19540E-07         0.00000E+00
   -0.10884E-07         0.19044E-07         0.00000E+00
   -0.11488E-07         0.18543E-07         0.00000E+00
   -0.12092E-07         0.18037E-07         0.00000E+00
   -0.12699E-07         0.17525E-07         0.00000E+00
   -0.13312E-07         0.17004E-07         0.00000E+00
   -0.13932E-07         0.16473E-07         0.00000E+00
   -0.14561E-07         0.15927E-07         0.00000E+00
   -0.15200E-07         0.15363E-07         0.00000E+00
   -0.15850E-07         0.14777E-07         0.00000E+00
   -0.16511E-07         0.14164E-07         0.00000E+00
   -0.17181E-07         0.13519E-07         0.00000E+00
   -0.17859E-07         0.12837E-07         0.00000E+00
   -0.18541E-07         0.12113E-07         0.00000E+00
   -0.19222E-07         0.11341E-07         0.00000E+00
   -0.19897E-07         0.10516E-07         0.00000E+00
   -0.20559E-07         0.96321E-08         0.00000E+00
   -0.21198E-07         0.86856E-08         0.00000E+00
   -0.21805E-07         0.76717E-08         0.00000E+00
   -0.22366E-07         0.65866E-08         0.00000E+00
   -0.22867E-07         0.54272E-08         0.00000E+00
   -0.23292E-07         0.41908E-08         0.00000E+00
   -0.23622E-07         0.28753E-08         0.00000E+00
   -0.23838E-07         0.14784E-08         0.00000E+00
   -0.23917E-07         0.75941E-09         0.00000E+00
    0.56313E-08         0.28935E-08         0.00000E+00
    0.55106E-08         0.55055E-08         0.00000E+00
    0.51751E-08         0.10352E-07         0.00000E+00
    0.46607E-08         0.14466E-07         0.00000E+00
    0.40016E-08         0.17902E-07         0.00000E+00
    0.32293E-08         0.20721E-07         0.00000E+00
    0.23725E-08         0.22991E-07         0.00000E+00
    0.14566E-08         0.24775E-07         0.00000E+00
    0.50368E-09         0.26137E-07         0.00000E+00
   -0.46721E-09         0.27135E-07         0.00000E+00
   -0.14401E-08         0.27821E-07         0.00000E+00
   -0.24019E-08         0.28244E-07         0.00000E+00
   -0.33422E-08         0.28445E-07         0.00000E+00
   -0.42528E-08         0.28463E-07         0.00000E+00
   -0.51278E-08         0.28331E-07         0.00000E+00
   -0.59634E-08         0.28078E-07         0.00000E+00
   -0.67573E-08         0.27730E-07         0.00000E+00
   -0.75090E-08         0.27308E-07         0.00000E+00
   -0.82192E-08         0.26831E-07         0.00000E+00
   -0.88897E-08         0.26315E-07         0.00000E+00
   -0.95234E-08         0.25774E-07         0.00000E+00
   -0.10124E-07         0.25219E-07         0.00000E+00
   -0.10695E-07         0.24659E-07         0.00000E+00
   -0.11243E-07         0.24102E-07         0.00000E+00
   -0.11772E-07         0.23553E-07         0.00000E+00
   -0.12287E-07         0.23016E-07         0.00000E+00
   -0.12795E-07         0.22494E-07         0.00000E+00
   -0.13301E-07         0.21988E-07         0.00000E+00
   -0.13810E-07         0.21498E-07         0.00000E+00
   -0.14328E-07         0.21022E-07         0.00000E+00
   -0.14861E-07         0.20557E-07         0.00000E+00
   -0.15413E-07         0.20100E-07         0.00000E+00
   -0.15989E-07         0.19645E-07         0.00000E+00
   -0.16592E-07         0.19187E-07         0.00000E+00
   -0.17225E-07         0.18718E-07         0.00000E+00
   -0.17891E-07         0.18229E-07         0.00000E+00
   -0.18590E-07         0.17711E-07         0.00000E+00
   -0.19321E-07         0.17153E-07         0.00000E+00
   -0.20084E-07         0.16544E-07         0.00000E+00
   -0.20874E-07         0.15871E-07         0.00000E+00
   -0.21685E-07         0.15121E-07         0.00000E+00
   -0.22511E-07         0.14278E-07         0.00000E+00
   -0.23340E-07         0.13329E-07         0.00000E+00
   -0.24160E-07         0.12256E-07         0.00000E+00
   -0.24955E-07         0.11045E-07         0.00000E+00
   -0.25705E-07         0.96795E-08         0.00000E+00
   -0.26387E-07         0.81429E-08         0.00000E+00
   -0.26975E-07         0.64200E-08         0.00000E+00
   -0.27440E-07         0.44962E-08         0.00000E+00
   -0.27748E-07         0.23581E-08         0.00000E+00
   -0.27863E-07         0.12338E-08         0.00000E+00
    0.19630E-08         0.35520E-08         0.00000E+00
    0.18121E-08         0.67497E-08         0.00000E+00
    0.13960E-08         0.12666E-07         0.00000E+00
    0.76303E-09         0.17653E-07         0.00000E+00
   -0.39664E-10         0.21776E-07         0.00000E+00
   -0.96831E-09         0.25113E-07         0.00000E+00
   -0.19833E-08         0.27746E-07         0.00000E+00
   -0.30494E-08         0.29760E-07         0.00000E+00
   -0.41363E-08         0.31233E-07         0.00000E+00
   -0.52182E-08         0.32244E-07         0.00000E+00
   -0.62739E-08         0.32860E-07         0.00000E+00
   -0.72865E-08         0.33147E-07         0.00000E+00
   -0.82431E-08         0.33161E-07         0.00000E+00
   -0.91345E-08         0.32955E-07         0.00000E+00
   -0.99548E-08         0.32573E-07         0.00000E+00
   -0.10701E-07         0.32056E-07         0.00000E+00
   -0.11373E-07         0.31439E-07         0.00000E+00
   -0.11971E-07         0.30752E-07         0.00000E+00
   -0.12501E-07         0.30022E-07         0.00000E+00
   -0.12966E-07         0.29270E-07         0.00000E+00
   -0.13373E-07         0.28516E-07         0.00000E+00
   -0.13728E-07         0.27774E-07         0.00000E+00
   -0.14041E-07         0.27058E-07         0.00000E+00
   -0.14319E-07         0.26376E-07         0.00000E+00
   -0.14572E-07         0.25738E-07         0.00000E+00
   -0.14808E-07         0.25147E-07         0.00000E+00
   -0.15037E-07         0.24607E-07         0.00000E+00
   -0.15268E-07         0.24119E-07         0.00000E+00
   -0.15510E-07         0.23682E-07         0.00000E+00
   -0.15772E-07         0.23294E-07         0.00000E+00
   -0.16063E-07         0.22950E-07         0.00000E+00
   -0.16391E-07         0.22644E-07         0.00000E+00
   -0.16763E-07         0.22366E-07         0.00000E+00
   -0.17187E-07         0.22108E-07         0.00000E+00
   -0.17668E-07         0.21857E-07         0.00000E+00
   -0.18211E-07         0.21598E-07         0.00000E+00
   -0.18820E-07         0.21315E-07         0.00000E+00
   -0.19495E-07         0.20989E-07         0.00000E+00
   -0.20237E-07         0.20599E-07         0.00000E+00
   -0.21043E-07         0.20120E-07         0.00000E+00
   -0.21906E-07         0.19527E-07         0.00000E+00
   -0.22818E-07         0.18790E-07         0.00000E+00
   -0.23765E-07         0.17879E-07         0.00000E+00
   -0.24731E-07         0.16758E-07         0.00000E+00
   -0.25693E-07         0.15393E-07         0.00000E+00
   -0.26624E-07         0.13747E-07         0.00000E+00
   -0.27490E-07         0.11781E-07         0.00000E+00
   -0.28252E-07         0.94570E-08         0.00000E+00
   -0.28866E-07         0.67385E-08         0.00000E+00
   -0.29279E-07         0.35909E-08         0.00000E+00
   -0.29436E-07         0.19058E-08         0.00000E+00
   -0.38101E-08         0.44024E-08         0.00000E+00
   -0.40138E-08         0.83408E-08         0.00000E+00
   -0.45700E-08         0.15597E-07         0.00000E+00
   -0.53995E-08         0.21644E-07         0.00000E+00
   -0.64282E-08         0.26559E-07         0.00000E+00
   -0.75885E-08         0.30439E-07         0.00000E+00
   -0.88201E-08         0.33396E-07         0.00000E+00
   -0.10071E-07         0.35540E-07         0.00000E+00
   -0.11297E-07         0.36981E-07         0.00000E+00
   -0.12462E-07         0.37823E-07         0.00000E+00
   -0.13539E-07         0.38163E-07         0.00000E+00
   -0.14509E-07         0.38090E-07         0.00000E+00
   -0.15356E-07         0.37685E-07         0.00000E+00
   -0.16075E-07         0.37022E-07         0.00000E+00
   -0.16663E-07         0.36164E-07         0.00000E+00
   -0.17120E-07         0.35167E-07         0.00000E+00
   -0.17451E-07         0.34082E-07         0.00000E+00
   -0.17664E-07         0.32948E-07         0.00000E+00
   -0.17768E-07         0.31802E-07         0.00000E+00
   -0.17775E-07         0.30674E-07         0.00000E+00
   -0.17695E-07         0.29587E-07         0.00000E+00
   -0.17542E-07         0.28562E-07         0.00000E+00
   -0.17329E-07         0.27614E-07         0.00000E+00
   -0.17069E-07         0.26756E-07         0.00000E+00
   -0.16776E-07         0.25997E-07         0.00000E+00
   -0.16463E-07         0.25341E-07         0.00000E+00
   -0.16142E-07         0.24793E-07         0.00000E+00
   -0.15829E-07         0.24353E-07         0.00000E+00
   -0.15534E-07         0.24019E-07         0.00000E+00
   -0.15271E-07         0.23787E-07         0.00000E+00
   -0.15052E-07         0.23651E-07         0.00000E+00
   -0.14889E-07         0.23601E-07         0.00000E+00
   -0.14793E-07         0.23626E-07         0.00000E+00
   -0.14775E-07         0.23712E-07         0.00000E+00
   -0.14845E-07         0.23839E-07         0.00000E+00
   -0.15011E-07         0.23987E-07         0.00000E+00
   -0.15281E-07         0.24131E-07         0.00000E+00
   -0.15659E-07         0.24240E-07         0.00000E+00
   -0.16150E-07         0.24282E-07         0.00000E+00
   -0.16754E-07         0.24215E-07         0.00000E+00
   -0.17466E-07         0.23996E-07         0.00000E+00
   -0.18278E-07         0.23575E-07         0.00000E+00
   -0.19178E-07         0.22895E-07         0.00000E+00
   -0.20146E-07         0.21895E-07         0.00000E+00
   -0.21156E-07         0.20508E-07         0.00000E+00
   -0.22171E-07         0.18663E-07         0.00000E+00
   -0.23149E-07         0.16285E-07         0.00000E+00
   -0.24036E-07         0.13298E-07         0.00000E+00
   -0.24770E-07         0.96282E-08         0.00000E+00
   -0.25276E-07         0.52076E-08         0.00000E+00
   -0.25471E-07         0.28020E-08         0.00000E+00
   -0.12593E-07         0.55887E-08         0.00000E+00
   -0.12893E-07         0.10549E-07         0.00000E+00
   -0.13671E-07         0.19595E-07         0.00000E+00
   -0.14788E-07         0.26944E-07         0.00000E+00
   -0.16116E-07         0.32721E-07         0.00000E+00
   -0.17539E-07         0.37073E-07         0.00000E+00
   -0.18960E-07         0.40158E-07         0.00000E+00
   -0.20303E-07         0.42142E-07         0.00000E+00
   -0.21509E-07         0.43189E-07         0.00000E+00
   -0.22534E-07         0.43457E-07         0.00000E+00
   -0.23353E-07         0.43094E-07         0.00000E+00
   -0.23951E-07         0.42233E-07         0.00000E+00
   -0.24323E-07         0.40996E-07         0.00000E+00
   -0.24473E-07         0.39485E-07         0.00000E+00
   -0.24410E-07         0.37794E-07         0.00000E+00
   -0.24148E-07         0.35998E-07         0.00000E+00
   -0.23704E-07         0.34162E-07         0.00000E+00
   -0.23096E-07         0.32340E-07         0.00000E+00
   -0.22344E-07         0.30576E-07         0.00000E+00
   -0.21468E-07         0.28905E-07         0.00000E+00
   -0.20487E-07         0.27354E-07         0.00000E+00
   -0.19421E-07         0.25944E-07         0.00000E+00
   -0.18289E-07         0.24693E-07         0.00000E+00
   -0.17107E-07         0.23610E-07         0.00000E+00
   -0.15892E-07         0.22704E-07         0.00000E+00
   -0.14661E-07         0.21979E-07         0.00000E+00
   -0.13429E-07         0.21437E-07         0.00000E+00
   -0.12211E-07         0.21076E-07         0.00000E+00
   -0.11020E-07         0.20894E-07         0.00000E+00
   -0.98708E-08         0.20885E-07         0.00000E+00
   -0.87770E-08         0.21040E-07         0.00000E+00
   -0.77520E-08         0.21349E-07         0.00000E+00
   -0.68093E-08         0.21797E-07         0.00000E+00
   -0.59622E-08         0.22367E-07         0.00000E+00
   -0.52238E-08         0.23036E-07         0.00000E+00
   -0.46068E-08         0.23778E-07         0.00000E+00
   -0.41232E-08         0.24559E-07         0.00000E+00
   -0.37841E-08         0.25339E-07         0.00000E+00
   -0.35985E-08         0.26070E-07         0.00000E+00
   -0.35734E-08         0.26697E-07         0.00000E+00
   -0.37123E-08         0.27150E-07         0.00000E+00
   -0.40140E-08         0.27354E-07         0.00000E+00
   -0.44716E-08         0.27219E-07         0.00000E+00
   -0.50709E-08         0.26644E-07         0.00000E+00
   -0.57880E-08         0.25516E-07         0.00000E+00
   -0.65883E-08         0.23714E-07         0.00000E+00
   -0.74240E-08         0.21107E-07         0.00000E+00
   -0.82333E-08         0.17560E-07         0.00000E+00
   -0.89390E-08         0.12935E-07         0.00000E+00
   -0.94498E-08         0.71005E-08         0.00000E+00
   -0.96602E-08         0.38651E-08         0.00000E+00
   -0.23808E-07         0.73967E-08         0.00000E+00
   -0.24199E-07         0.13729E-07         0.00000E+00
   -0.25185E-07         0.25075E-07         0.00000E+00
   -0.26482E-07         0.33869E-07         0.00000E+00
   -0.27856E-07         0.40311E-07         0.00000E+00
   -0.29127E-07         0.44663E-07         0.00000E+00
   -0.30171E-07         0.47219E-07         0.00000E+00
   -0.30907E-07         0.48281E-07         0.00000E+00
   -0.31290E-07         0.48136E-07         0.00000E+00
   -0.31302E-07         0.47047E-07         0.00000E+00
   -0.30945E-07         0.45248E-07         0.00000E+00
   -0.30235E-07         0.42940E-07         0.00000E+00
   -0.29200E-07         0.40296E-07         0.00000E+00
   -0.27872E-07         0.37456E-07         0.00000E+00
   -0.26287E-07         0.34539E-07         0.00000E+00
   -0.24481E-07         0.31636E-07         0.00000E+00
   -0.22489E-07         0.28820E-07         0.00000E+00
   -0.20344E-07         0.26148E-07         0.00000E+00
   -0.18077E-07         0.23661E-07         0.00000E+00
   -0.15715E-07         0.21390E-07         0.00000E+00
   -0.13284E-07         0.19355E-07         0.00000E+00
   -0.10803E-07         0.17569E-07         0.00000E+00
   -0.82921E-08         0.16041E-07         0.00000E+00
   -0.57664E-08         0.14774E-07         0.00000E+00
   -0.32396E-08         0.13770E-07         0.00000E+00
   -0.72341E-09         0.13026E-07         0.00000E+00
    0.17720E-08         0.12540E-07         0.00000E+00
    0.42374E-08         0.12306E-07         0.00000E+00
    0.66643E-08         0.12319E-07         0.00000E+00
    0.90448E-08         0.12572E-07         0.00000E+00
    0.11371E-07         0.13057E-07         0.00000E+00
    0.13633E-07         0.13763E-07         0.00000E+00
    0.15823E-07         0.14677E-07         0.00000E+00
    0.17930E-07         0.15784E-07         0.00000E+00
    0.19944E-07         0.17062E-07         0.00000E+00
    0.21851E-07         0.18484E-07         0.00000E+00
    0.23638E-07         0.20017E-07         0.00000E+00
    0.25290E-07         0.21617E-07         0.00000E+00
    0.26791E-07         0.23228E-07         0.00000E+00
    0.28126E-07         0.24784E-07         0.00000E+00
    0.29278E-07         0.26199E-07         0.00000E+00
    0.30235E-07         0.27372E-07         0.00000E+00
    0.30985E-07         0.28179E-07         0.00000E+00
    0.31523E-07         0.28477E-07         0.00000E+00
    0.31848E-07         0.28095E-07         0.00000E+00
    0.31973E-07         0.26844E-07         0.00000E+00
    0.31922E-07         0.24511E-07         0.00000E+00
    0.31736E-07         0.20873E-07         0.00000E+00
    0.31479E-07         0.15711E-07         0.00000E+00
    0.31241E-07         0.88139E-08         0.00000E+00
    0.31131E-07         0.49064E-08         0.00000E+00
   -0.24378E-07         0.94985E-08         0.00000E+00
   -0.24706E-07         0.17436E-07         0.00000E+00
   -0.25146E-07         0.31014E-07         0.00000E+00
   -0.25292E-07         0.40298E-07         0.00000E+00
   -0.24925E-07         0.45943E-07         0.00000E+00
   -0.23948E-07         0.48649E-07         0.00000E+00
   -0.22343E-07         0.49060E-07         0.00000E+00
   -0.20138E-07         0.47739E-07         0.00000E+00
   -0.17391E-07         0.45163E-07         0.00000E+00
   -0.14179E-07         0.41729E-07         0.00000E+00
   -0.10582E-07         0.37760E-07         0.00000E+00
   -0.66811E-08         0.33511E-07         0.00000E+00
   -0.25513E-08         0.29182E-07         0.00000E+00
    0.17391E-08         0.24920E-07         0.00000E+00
    0.61305E-08         0.20836E-07         0.00000E+00
    0.10573E-07         0.17004E-07         0.00000E+00
    0.15026E-07         0.13476E-07         0.00000E+00
    0.19456E-07         0.10281E-07         0.00000E+00
    0.23839E-07         0.74340E-08         0.00000E+00
    0.28157E-07         0.49390E-08         0.00000E+00
    0.32398E-07         0.27926E-08         0.00000E+00
    0.36555E-07         0.98640E-09         0.00000E+00
    0.40627E-07        -0.49109E-09         0.00000E+00
    0.44613E-07        -0.16526E-08         0.00000E+00
    0.48517E-07        -0.25110E-08         0.00000E+00
    0.52345E-07        -0.30788E-08         0.00000E+00
    0.56104E-07        -0.33670E-08         0.00000E+00
    0.59803E-07        -0.33857E-08         0.00000E+00
    0.63449E-07        -0.31430E-08         0.00000E+00
    0.67053E-07        -0.26462E-08         0.00000E+00
    0.70622E-07        -0.19012E-08         0.00000E+00
    0.74164E-07        -0.91390E-09         0.00000E+00
    0.77685E-07         0.30974E-09         0.00000E+00
    0.81189E-07         0.17622E-08         0.00000E+00
    0.84679E-07         0.34331E-08         0.00000E+00
    0.88154E-07         0.53076E-08         0.00000E+00
    0.91610E-07         0.73644E-08         0.00000E+00
    0.95039E-07         0.95730E-08         0.00000E+00
    0.98428E-07         0.11891E-07         0.00000E+00
    0.10176E-06         0.14260E-07         0.00000E+00
    0.10501E-06         0.16603E-07         0.00000E+00
    0.10816E-06         0.18820E-07         0.00000E+00
    0.11116E-06         0.20782E-07         0.00000E+00
    0.11398E-06         0.22328E-07         0.00000E+00
    0.11658E-06         0.23262E-07         0.00000E+00
    0.11890E-06         0.23346E-07         0.00000E+00
    0.12089E-06         0.22295E-07         0.00000E+00
    0.12250E-06         0.19775E-07         0.00000E+00
    0.12366E-06         0.15410E-07         0.00000E+00
    0.12434E-06         0.88406E-08         0.00000E+00
    0.12453E-06         0.49633E-08         0.00000E+00
    0.58062E-07         0.10677E-07         0.00000E+00
    0.59500E-07         0.17569E-07         0.00000E+00
    0.63237E-07         0.28002E-07         0.00000E+00
    0.68795E-07         0.32761E-07         0.00000E+00
    0.75711E-07         0.33596E-07         0.00000E+00
    0.83581E-07         0.31754E-07         0.00000E+00
    0.92064E-07         0.28165E-07         0.00000E+00
    0.10088E-06         0.23523E-07         0.00000E+00
    0.10982E-06         0.18344E-07         0.00000E+00
    0.11871E-06         0.13002E-07         0.00000E+00
    0.12743E-06         0.77572E-08         0.00000E+00
    0.13587E-06         0.27849E-08         0.00000E+00
    0.14399E-06        -0.18054E-08         0.00000E+00
    0.15174E-06        -0.59528E-08         0.00000E+00
    0.15910E-06        -0.96313E-08         0.00000E+00
    0.16606E-06        -0.12840E-07         0.00000E+00
    0.17264E-06        -0.15593E-07         0.00000E+00
    0.17884E-06        -0.17917E-07         0.00000E+00
    0.18468E-06        -0.19843E-07         0.00000E+00
    0.19019E-06        -0.21406E-07         0.00000E+00
    0.19539E-06        -0.22639E-07         0.00000E+00
    0.20032E-06        -0.23575E-07         0.00000E+00
    0.20500E-06        -0.24245E-07         0.00000E+00
    0.20947E-06        -0.24676E-07         0.00000E+00
    0.21375E-06        -0.24891E-07         0.00000E+00
    0.21788E-06        -0.24910E-07         0.00000E+00
    0.22189E-06        -0.24749E-07         0.00000E+00
    0.22581E-06        -0.24421E-07         0.00000E+00
    0.22967E-06        -0.23933E-07         0.00000E+00
    0.23351E-06        -0.23291E-07         0.00000E+00
    0.23734E-06        -0.22497E-07         0.00000E+00
    0.24120E-06        -0.21551E-07         0.00000E+00
    0.24512E-06        -0.20449E-07         0.00000E+00
    0.24913E-06        -0.19188E-07         0.00000E+00
    0.25324E-06        -0.17763E-07         0.00000E+00
    0.25748E-06        -0.16170E-07         0.00000E+00
    0.26187E-06        -0.14406E-07         0.00000E+00
    0.26642E-06        -0.12472E-07         0.00000E+00
    0.27115E-06        -0.10377E-07         0.00000E+00
    0.27606E-06        -0.81379E-08         0.00000E+00
    0.28114E-06        -0.57839E-08         0.00000E+00
    0.28637E-06        -0.33615E-08         0.00000E+00
    0.29172E-06        -0.93825E-09         0.00000E+00
    0.29714E-06         0.13940E-08         0.00000E+00
    0.30256E-06         0.35159E-08         0.00000E+00
    0.30787E-06         0.52800E-08         0.00000E+00
    0.31293E-06         0.65113E-08         0.00000E+00
    0.31756E-06         0.70018E-08         0.00000E+00
    0.32148E-06         0.64774E-08         0.00000E+00
    0.32434E-06         0.44661E-08         0.00000E+00
    0.32557E-06         0.30109E-08         0.00000E+00
    0.48154E-06        -0.48840E-08         0.00000E+00
    0.48527E-06        -0.84404E-08         0.00000E+00
    0.49406E-06        -0.15460E-07         0.00000E+00
    0.50537E-06        -0.22074E-07         0.00000E+00
    0.51772E-06        -0.27989E-07         0.00000E+00
    0.53020E-06        -0.33115E-07         0.00000E+00
    0.54230E-06        -0.37457E-07         0.00000E+00
    0.55373E-06        -0.41058E-07         0.00000E+00
    0.56433E-06        -0.43979E-07         0.00000E+00
    0.57403E-06        -0.46284E-07         0.00000E+00
    0.58283E-06        -0.48038E-07         0.00000E+00
    0.59075E-06        -0.49306E-07         0.00000E+00
    0.59785E-06        -0.50149E-07         0.00000E+00
    0.60418E-06        -0.50626E-07         0.00000E+00
    0.60980E-06        -0.50793E-07         0.00000E+00
    0.61479E-06        -0.50701E-07         0.00000E+00
    0.61920E-06        -0.50397E-07         0.00000E+00
    0.62310E-06        -0.49925E-07         0.00000E+00
    0.62655E-06        -0.49323E-07         0.00000E+00
    0.62961E-06        -0.48624E-07         0.00000E+00
    0.63233E-06        -0.47858E-07         0.00000E+00
    0.63476E-06        -0.47051E-07         0.00000E+00
    0.63693E-06        -0.46224E-07         0.00000E+00
    0.63891E-06        -0.45394E-07         0.00000E+00
    0.64072E-06        -0.44577E-07         0.00000E+00
    0.64239E-06        -0.43784E-07         0.00000E+00
    0.64398E-06        -0.43023E-07         0.00000E+00
    0.64550E-06        -0.42300E-07         0.00000E+00
    0.64700E-06        -0.41618E-07         0.00000E+00
    0.64849E-06        -0.40979E-07         0.00000E+00
    0.65002E-06        -0.40383E-07         0.00000E+00
    0.65161E-06        -0.39825E-07         0.00000E+00
    0.65329E-06        -0.39301E-07         0.00000E+00
    0.65509E-06        -0.38803E-07         0.00000E+00
    0.65704E-06        -0.38323E-07         0.00000E+00
    0.65918E-06        -0.37847E-07         0.00000E+00
    0.66152E-06        -0.37363E-07         0.00000E+00
    0.66410E-06        -0.36852E-07         0.00000E+00
    0.66694E-06        -0.36296E-07         0.00000E+00
    0.67007E-06        -0.35671E-07         0.00000E+00
    0.67350E-06        -0.34950E-07         0.00000E+00
    0.67724E-06        -0.34101E-07         0.00000E+00
    0.68127E-06        -0.33087E-07         0.00000E+00
    0.68557E-06        -0.31862E-07         0.00000E+00
    0.69008E-06        -0.30364E-07         0.00000E+00
    0.69470E-06        -0.28505E-07         0.00000E+00
    0.69929E-06        -0.26137E-07         0.00000E+00
    0.70362E-06        -0.22990E-07         0.00000E+00
    0.70740E-06        -0.18522E-07         0.00000E+00
    0.71018E-06        -0.11591E-07         0.00000E+00
    0.71138E-06        -0.73147E-08         0.00000E+00
    0.14057E-05        -0.26632E-07         0.00000E+00
    0.14052E-05        -0.45021E-07         0.00000E+00
    0.14040E-05        -0.72506E-07         0.00000E+00
    0.14021E-05        -0.85532E-07         0.00000E+00
    0.13996E-05        -0.90547E-07         0.00000E+00
    0.13965E-05        -0.91181E-07         0.00000E+00
    0.13929E-05        -0.89480E-07         0.00000E+00
    0.13890E-05        -0.86591E-07         0.00000E+00
    0.13847E-05        -0.83153E-07         0.00000E+00
    0.13802E-05        -0.79517E-07         0.00000E+00
    0.13755E-05        -0.75876E-07         0.00000E+00
    0.13706E-05        -0.72331E-07         0.00000E+00
    0.13656E-05        -0.68934E-07         0.00000E+00
    0.13606E-05        -0.65711E-07         0.00000E+00
    0.13555E-05        -0.62673E-07         0.00000E+00
    0.13504E-05        -0.59823E-07         0.00000E+00
    0.13454E-05        -0.57162E-07         0.00000E+00
    0.13403E-05        -0.54687E-07         0.00000E+00
    0.13354E-05        -0.52396E-07         0.00000E+00
    0.13305E-05        -0.50286E-07         0.00000E+00
    0.13256E-05        -0.48352E-07         0.00000E+00
    0.13209E-05        -0.46593E-07         0.00000E+00
    0.13162E-05        -0.45004E-07         0.00000E+00
    0.13117E-05        -0.43582E-07         0.00000E+00
    0.13072E-05        -0.42324E-07         0.00000E+00
    0.13027E-05        -0.41228E-07         0.00000E+00
    0.12984E-05        -0.40291E-07         0.00000E+00
    0.12941E-05        -0.39509E-07         0.00000E+00
    0.12899E-05        -0.38881E-07         0.00000E+00
    0.12858E-05        -0.38405E-07         0.00000E+00
    0.12817E-05        -0.38077E-07         0.00000E+00
    0.12777E-05        -0.37896E-07         0.00000E+00
    0.12738E-05        -0.37857E-07         0.00000E+00
    0.12699E-05        -0.37958E-07         0.00000E+00
    0.12660E-05        -0.38192E-07         0.00000E+00
    0.12622E-05        -0.38552E-07         0.00000E+00
    0.12584E-05        -0.39026E-07         0.00000E+00
    0.12547E-05        -0.39599E-07         0.00000E+00
    0.12511E-05        -0.40246E-07         0.00000E+00
    0.12475E-05        -0.40932E-07         0.00000E+00
    0.12439E-05        -0.41608E-07         0.00000E+00
    0.12405E-05        -0.42199E-07         0.00000E+00
    0.12371E-05        -0.42599E-07         0.00000E+00
    0.12339E-05        -0.42655E-07         0.00000E+00
    0.12307E-05        -0.42150E-07         0.00000E+00
    0.12278E-05        -0.40773E-07         0.00000E+00
    0.12250E-05        -0.38095E-07         0.00000E+00
    0.12226E-05        -0.33527E-07         0.00000E+00
    0.12204E-05        -0.26295E-07         0.00000E+00
    0.12189E-05        -0.15437E-07         0.00000E+00
    0.12181E-05        -0.89693E-08         0.00000E+00
    0.19834E-05         0.00000E+00         0.00000E+00
    0.19781E-05         0.00000E+00         0.00000E+00
    0.19654E-05         0.00000E+00         0.00000E+00
    0.19491E-05         0.00000E+00         0.00000E+00
    0.19312E-05         0.00000E+00         0.00000E+00
    0.19128E-05         0.00000E+00         0.00000E+00
    0.18947E-05         0.00000E+00         0.00000E+00
    0.18771E-05         0.00000E+00         0.00000E+00
    0.18601E-05         0.00000E+00         0.00000E+00
    0.18438E-05        -0.52154E-19         0.00000E+00
    0.18283E-05         0.00000E+00         0.00000E+00
    0.18134E-05         0.51223E-19         0.00000E+00
    0.17993E-05         0.00000E+00         0.00000E+00
    0.17859E-05         0.00000E+00         0.00000E+00
    0.17730E-05         0.00000E+00         0.00000E+00
    0.17608E-05         0.00000E+00         0.00000E+00
    0.17491E-05         0.00000E+00         0.00000E+00
    0.17379E-05         0.49360E-19         0.00000E+00
    0.17272E-05         0.00000E+00         0.00000E+00
    0.17170E-05        -0.48429E-19         0.00000E+00
    0.17071E-05         0.00000E+00         0.00000E+00
    0.16976E-05         0.00000E+00         0.00000E+00
    0.16885E-05         0.00000E+00         0.00000E+00
    0.16796E-05         0.00000E+00         0.00000E+00
    0.16710E-05         0.00000E+00         0.00000E+00
    0.16627E-05         0.00000E+00         0.00000E+00
    0.16546E-05         0.00000E+00         0.00000E+00
    0.16466E-05         0.00000E+00         0.00000E+00
    0.16388E-05         0.00000E+00         0.00000E+00
    0.16310E-05         0.00000E+00         0.00000E+00
    0.16234E-05         0.00000E+00         0.00000E+00
    0.16158E-05         0.00000E+00         0.00000E+00
    0.16082E-05         0.00000E+00         0.00000E+00
    0.16007E-05         0.00000E+00         0.00000E+00
    0.15930E-05         0.00000E+00         0.00000E+00
    0.15854E-05         0.00000E+00         0.00000E+00
    0.15776E-05         0.00000E+00         0.00000E+00
    0.15698E-05         0.00000E+00         0.00000E+00
    0.15618E-05         0.00000E+00         0.00000E+00
    0.15537E-05        -0.44703E-19         0.00000E+00
    0.15454E-05        -0.43772E-19         0.00000E+00
    0.15370E-05         0.43772E-19         0.00000E+00
    0.15285E-05         0.43772E-19         0.00000E+00
    0.15200E-05         0.00000E+00         0.00000E+00
    0.15115E-05         0.00000E+00         0.00000E+00
    0.15031E-05         0.00000E+00         0.00000E+00
    0.14952E-05         0.00000E+00         0.00000E+00
    0.14879E-05         0.41910E-19         0.00000E+00
    0.14818E-05         0.93132E-21         0.00000E+00
    0.14774E-05         0.00000E+00         0.00000E+00
    0.14756E-05         0.83819E-19         0.00000E+00
CELL_DATA       5000
TENSORS stressef double 
    0.19602E+08        -0.13393E+07         0.00000E+00
   -0.13393E+07         0.13713E+08         0.00000E+00
    0.00000E+00         0.00000E+00         0.83479E+07
 
    0.18451E+08        -0.16976E+07         0.00000E+00
   -0.16976E+07         0.13294E+08         0.00000E+00
    0.00000E+00         0.00000E+00         0.70445E+07
 
    0.17251E+08        -0.18585E+07         0.00000E+00
   -0.18585E+07         0.12812E+08         0.00000E+00
    0.00000E+00         0.00000E+00         0.61605E+07
 
    0.16150E+08        -0.18212E+07         0.00000E+00
   -0.18212E+07         0.12324E+08         0.00000E+00
    0.00000E+00         0.00000E+00         0.56948E+07
 
    0.15267E+08        -0.16873E+07         0.00000E+00
   -0.16873E+07         0.11853E+08         0.00000E+00
    0.00000E+00         0.00000E+00         0.54242E+07
 
    0.14625E+08        -0.15384E+07         0.00000E+00
   -0.15384E+07         0.11404E+08         0.00000E+00
    0.00000E+00         0.00000E+00         0.52058E+07
 
    0.14149E+08        -0.13926E+07         0.00000E+00
   -0.13926E+07         0.10983E+08         0.00000E+00
    0.00000E+00         0.00000E+00         0.50263E+07
 
    0.13791E+08        -0.12575E+07         0.00000E+00
   -0.12575E+07         0.10591E+08         0.00000E+00
    0.00000E+00         0.00000E+00         0.48764E+07
 
    0.13519E+08        -0.11355E+07         0.00000E+00
   -0.11355E+07         0.10229E+08         0.00000E+00
    0.00000E+00         0.00000E+00         0.47496E+07
 
    0.13311E+08        -0.10268E+07         0.00000E+00
   -0.10268E+07         0.98953E+07         0.00000E+00
    0.00000E+00         0.00000E+00         0.46412E+07
 
    0.13149E+08        -0.93052E+06         0.00000E+00
   -0.93052E+06         0.95891E+07         0.00000E+00
    0.00000E+00         0.00000E+00         0.45477E+07
 
    0.13023E+08        -0.84535E+06         0.00000E+00
   -0.84535E+06         0.93078E+07         0.00000E+00
    0.00000E+00         0.00000E+00         0.44663E+07
 
    0.12925E+08        -0.77002E+06         0.00000E+00
   -0.77002E+06         0.90495E+07         0.00000E+00
    0.00000E+00         0.00000E+00         0.43948E+07
 
    0.12846E+08        -0.70328E+06         0.00000E+00
   -0.70328E+06         0.88123E+07         0.00000E+00
    0.00000E+00         0.00000E+00         0.43317E+07
 
    0.12783E+08        -0.64403E+06         0.00000E+00
   -0.64403E+06         0.85941E+07         0.00000E+00
    0.00000E+00         0.00000E+00         0.42755E+07
 
    0.12733E+08        -0.59127E+06         0.00000E+00
   -0.59127E+06         0.83932E+07         0.00000E+00
    0.00000E+00         0.00000E+00         0.42252E+07
 
    0.12691E+08        -0.54415E+06         0.00000E+00
   -0.54415E+06         0.82080E+07         0.00000E+00
    0.00000E+00         0.00000E+00         0.41797E+07
 
    0.12655E+08        -0.50195E+06         0.00000E+00
   -0.50195E+06         0.80372E+07         0.00000E+00
    0.00000E+00         0.00000E+00         0.41385E+07
 
    0.12625E+08        -0.46401E+06         0.00000E+00
   -0.46401E+06         0.78793E+07         0.00000E+00
    0.00000E+00         0.00000E+00         0.41008E+07
 
    0.12597E+08        -0.42978E+06         0.00000E+00
   -0.42978E+06         0.77332E+07         0.00000E+00
    0.00000E+00         0.00000E+00         0.40661E+07
 
    0.12572E+08        -0.39881E+06         0.00000E+00
   -0.39881E+06         0.75980E+07         0.00000E+00
    0.00000E+00         0.00000E+00         0.40340E+07
 
    0.12547E+08        -0.37065E+06         0.00000E+00
   -0.37065E+06         0.74727E+07         0.00000E+00
    0.00000E+00         0.00000E+00         0.40040E+07
 
    0.12522E+08        -0.34495E+06         0.00000E+00
   -0.34495E+06         0.73565E+07         0.00000E+00
    0.00000E+00         0.00000E+00         0.39758E+07
 
    0.12496E+08        -0.32138E+06         0.00000E+00
   -0.32138E+06         0.72488E+07         0.00000E+00
    0.00000E+00         0.00000E+00         0.39491E+07
 
    0.12469E+08        -0.29964E+06         0.00000E+00
   -0.29964E+06         0.71489E+07         0.00000E+00
    0.00000E+00         0.00000E+00         0.39235E+07
 
    0.12438E+08        -0.27947E+06         0.00000E+00
   -0.27947E+06         0.70564E+07         0.00000E+00
    0.00000E+00         0.00000E+00         0.38990E+07
 
    0.12405E+08        -0.26061E+06         0.00000E+00
   -0.26061E+06         0.69708E+07         0.00000E+00
    0.00000E+00         0.00000E+00         0.38751E+07
 
    0.12367E+08        -0.24280E+06         0.00000E+00
   -0.24280E+06         0.68918E+07         0.00000E+00
    0.00000E+00         0.00000E+00         0.38517E+07
 
    0.12324E+08        -0.22583E+06         0.00000E+00
   -0.22583E+06         0.68192E+07         0.00000E+00
    0.00000E+00         0.00000E+00         0.38286E+07
 
    0.12274E+08        -0.20943E+06         0.00000E+00
   -0.20943E+06         0.67528E+07         0.00000E+00
    0.00000E+00         0.00000E+00         0.38054E+07
 
    0.12218E+08        -0.19334E+06         0.00000E+00
   -0.19334E+06         0.66926E+07         0.00000E+00
    0.00000E+00         0.00000E+00         0.37821E+07
 
    0.12153E+08        -0.17730E+06         0.00000E+00
   -0.17730E+06         0.66385E+07         0.00000E+00
    0.00000E+00         0.00000E+00         0.37582E+07
 
    0.12077E+08        -0.16097E+06         0.00000E+00
   -0.16097E+06         0.65908E+07         0.00000E+00
    0.00000E+00         0.00000E+00         0.37337E+07
 
    0.11991E+08        -0.14399E+06         0.00000E+00
   -0.14399E+06         0.65497E+07         0.00000E+00
    0.00000E+00         0.00000E+00         0.37081E+07
 
    0.11890E+08        -0.12592E+06         0.00000E+00
   -0.12592E+06         0.65157E+07         0.00000E+00
    0.00000E+00         0.00000E+00         0.36811E+07
 
    0.11773E+08        -0.10622E+06         0.00000E+00
   -0.10622E+06         0.64893E+07         0.00000E+00
    0.00000E+00         0.00000E+00         0.36524E+07
 
    0.11636E+08        -0.84210E+05         0.00000E+00
   -0.84210E+05         0.64714E+07         0.00000E+00
    0.00000E+00         0.00000E+00         0.36215E+07
 
    0.11477E+08        -0.59031E+05         0.00000E+00
   -0.59031E+05         0.64631E+07         0.00000E+00
    0.00000E+00         0.00000E+00         0.35880E+07
 
    0.11290E+08        -0.29558E+05         0.00000E+00
   -0.29558E+05         0.64659E+07         0.00000E+00
    0.00000E+00         0.00000E+00         0.35512E+07
 
    0.11070E+08         0.56984E+04         0.00000E+00
    0.56984E+04         0.64818E+07         0.00000E+00
    0.00000E+00         0.00000E+00         0.35103E+07
 
    0.10809E+08         0.48752E+05         0.00000E+00
    0.48752E+05         0.65132E+07         0.00000E+00
    0.00000E+00         0.00000E+00         0.34644E+07
 
    0.10498E+08         0.10237E+06         0.00000E+00
    0.10237E+06         0.65634E+07         0.00000E+00
    0.00000E+00         0.00000E+00         0.34123E+07
 
    0.10126E+08         0.17046E+06         0.00000E+00
    0.17046E+06         0.66368E+07         0.00000E+00
    0.00000E+00         0.00000E+00         0.33526E+07
 
    0.96765E+07         0.25861E+06         0.00000E+00
    0.25861E+06         0.67392E+07         0.00000E+00
    0.00000E+00         0.00000E+00         0.32831E+07
 
    0.91287E+07         0.37507E+06         0.00000E+00
    0.37507E+06         0.68783E+07         0.00000E+00
    0.00000E+00         0.00000E+00         0.32014E+07
 
    0.84538E+07         0.53234E+06         0.00000E+00
    0.53234E+06         0.70647E+07         0.00000E+00
    0.00000E+00         0.00000E+00         0.31037E+07
 
    0.76113E+07         0.75002E+06         0.00000E+00
    0.75002E+06         0.73129E+07         0.00000E+00
    0.00000E+00         0.00000E+00         0.29848E+07
 
    0.65422E+07         0.10600E+07         0.00000E+00
    0.10600E+07         0.76430E+07         0.00000E+00
    0.00000E+00         0.00000E+00         0.28370E+07
 
    0.51569E+07         0.15163E+07         0.00000E+00
    0.15163E+07         0.80841E+07         0.00000E+00
    0.00000E+00         0.00000E+00         0.26482E+07
 
    0.33132E+07         0.22156E+07         0.00000E+00
    0.22156E+07         0.86776E+07         0.00000E+00
    0.00000E+00         0.00000E+00         0.23981E+07
 
    0.56478E+07        -0.44028E+06         0.00000E+00
   -0.44028E+06         0.37118E+07         0.00000E+00
    0.00000E+00         0.00000E+00         0.18719E+07
 
    0.61573E+07        -0.12947E+07         0.00000E+00
   -0.12947E+07         0.41438E+07         0.00000E+00
    0.00000E+00         0.00000E+00         0.20602E+07
 
    0.62369E+07        -0.18811E+07         0.00000E+00
   -0.18811E+07         0.45437E+07         0.00000E+00
    0.00000E+00         0.00000E+00         0.21561E+07
 
    0.60853E+07        -0.22499E+07         0.00000E+00
   -0.22499E+07         0.48592E+07         0.00000E+00
    0.00000E+00         0.00000E+00         0.21889E+07
 
    0.58279E+07        -0.24427E+07         0.00000E+00
   -0.24427E+07         0.50870E+07         0.00000E+00
    0.00000E+00         0.00000E+00         0.21830E+07
 
    0.55455E+07        -0.25128E+07         0.00000E+00
   -0.25128E+07         0.52468E+07         0.00000E+00
    0.00000E+00         0.00000E+00         0.21585E+07
 
    0.52768E+07        -0.25032E+07         0.00000E+00
   -0.25032E+07         0.53508E+07         0.00000E+00
    0.00000E+00         0.00000E+00         0.21255E+07
 
    0.50371E+07        -0.24435E+07         0.00000E+00
   -0.24435E+07         0.54101E+07         0.00000E+00
    0.00000E+00         0.00000E+00         0.20895E+07
 
    0.48310E+07        -0.23535E+07         0.00000E+00
   -0.23535E+07         0.54347E+07         0.00000E+00
    0.00000E+00         0.00000E+00         0.20531E+07
 
    0.46576E+07        -0.22466E+07         0.00000E+00
   -0.22466E+07         0.54327E+07         0.00000E+00
    0.00000E+00         0.00000E+00         0.20181E+07
 
    0.45141E+07        -0.21316E+07         0.00000E+00
   -0.21316E+07         0.54109E+07         0.00000E+00
    0.00000E+00         0.00000E+00         0.19850E+07
 
    0.43969E+07        -0.20142E+07         0.00000E+00
   -0.20142E+07         0.53744E+07         0.00000E+00
    0.00000E+00         0.00000E+00         0.19543E+07
 
    0.43020E+07        -0.18982E+07         0.00000E+00
   -0.18982E+07         0.53275E+07         0.00000E+00
    0.00000E+00         0.00000E+00         0.19259E+07
 
    0.42260E+07        -0.17857E+07         0.00000E+00
   -0.17857E+07         0.52736E+07         0.00000E+00
    0.00000E+00         0.00000E+00         0.18999E+07
 
    0.41656E+07        -0.16782E+07         0.00000E+00
   -0.16782E+07         0.52150E+07         0.00000E+00
    0.00000E+00         0.00000E+00         0.18761E+07
 
    0.41180E+07        -0.15764E+07         0.00000E+00
   -0.15764E+07         0.51537E+07         0.00000E+00
    0.00000E+00         0.00000E+00         0.18543E+07
 
    0.40808E+07        -0.14805E+07         0.00000E+00
   -0.14805E+07         0.50913E+07         0.00000E+00
    0.00000E+00         0.00000E+00         0.18344E+07
 
    0.40519E+07        -0.13907E+07         0.00000E+00
   -0.13907E+07         0.50288E+07         0.00000E+00
    0.00000E+00         0.00000E+00         0.18161E+07
 
    0.40294E+07        -0.13067E+07         0.00000E+00
   -0.13067E+07         0.49672E+07         0.00000E+00
    0.00000E+00         0.00000E+00         0.17993E+07
 
    0.40118E+07        -0.12282E+07         0.00000E+00
   -0.12282E+07         0.49071E+07         0.00000E+00
    0.00000E+00         0.00000E+00         0.17838E+07
 
    0.39977E+07        -0.11550E+07         0.00000E+00
   -0.11550E+07         0.48490E+07         0.00000E+00
    0.00000E+00         0.00000E+00         0.17693E+07
 
    0.39860E+07        -0.10866E+07         0.00000E+00
   -0.10866E+07         0.47934E+07         0.00000E+00
    0.00000E+00         0.00000E+00         0.17559E+07
 
    0.39756E+07        -0.10225E+07         0.00000E+00
   -0.10225E+07         0.47404E+07         0.00000E+00
    0.00000E+00         0.00000E+00         0.17432E+07
 
    0.39657E+07        -0.96249E+06         0.00000E+00
   -0.96249E+06         0.46905E+07         0.00000E+00
    0.00000E+00         0.00000E+00         0.17312E+07
 
    0.39552E+07        -0.90595E+06         0.00000E+00
   -0.90595E+06         0.46438E+07         0.00000E+00
    0.00000E+00         0.00000E+00         0.17198E+07
 
    0.39435E+07        -0.85246E+06         0.00000E+00
   -0.85246E+06         0.46005E+07         0.00000E+00
    0.00000E+00         0.00000E+00         0.17088E+07
 
    0.39298E+07        -0.80153E+06         0.00000E+00
   -0.80153E+06         0.45608E+07         0.00000E+00
    0.00000E+00         0.00000E+00         0.16981E+07
 
    0.39132E+07        -0.75266E+06         0.00000E+00
   -0.75266E+06         0.45250E+07         0.00000E+00
    0.00000E+00         0.00000E+00         0.16876E+07
 
    0.38932E+07        -0.70531E+06         0.00000E+00
   -0.70531E+06         0.44932E+07         0.00000E+00
    0.00000E+00         0.00000E+00         0.16773E+07
 
    0.38688E+07        -0.65887E+06         0.00000E+00
   -0.65887E+06         0.44657E+07         0.00000E+00
    0.00000E+00         0.00000E+00         0.16669E+07
 
    0.38392E+07        -0.61271E+06         0.00000E+00
   -0.61271E+06         0.44428E+07         0.00000E+00
    0.00000E+00         0.00000E+00         0.16564E+07
 
    0.38036E+07        -0.56607E+06         0.00000E+00
   -0.56607E+06         0.44248E+07         0.00000E+00
    0.00000E+00         0.00000E+00         0.16457E+07
 
    0.37609E+07        -0.51808E+06         0.00000E+00
   -0.51808E+06         0.44122E+07         0.00000E+00
    0.00000E+00         0.00000E+00         0.16346E+07
 
    0.37101E+07        -0.46773E+06         0.00000E+00
   -0.46773E+06         0.44055E+07         0.00000E+00
    0.00000E+00         0.00000E+00         0.16231E+07
 
    0.36500E+07        -0.41380E+06         0.00000E+00
   -0.41380E+06         0.44053E+07         0.00000E+00
    0.00000E+00         0.00000E+00         0.16111E+07
 
    0.35791E+07        -0.35480E+06         0.00000E+00
   -0.35480E+06         0.44122E+07         0.00000E+00
    0.00000E+00         0.00000E+00         0.15983E+07
 
    0.34960E+07        -0.28890E+06         0.00000E+00
   -0.28890E+06         0.44271E+07         0.00000E+00
    0.00000E+00         0.00000E+00         0.15846E+07
 
    0.33990E+07        -0.21380E+06         0.00000E+00
   -0.21380E+06         0.44509E+07         0.00000E+00
    0.00000E+00         0.00000E+00         0.15700E+07
 
    0.32862E+07        -0.12664E+06         0.00000E+00
   -0.12664E+06         0.44849E+07         0.00000E+00
    0.00000E+00         0.00000E+00         0.15542E+07
 
    0.31556E+07        -0.23729E+05         0.00000E+00
   -0.23729E+05         0.45303E+07         0.00000E+00
    0.00000E+00         0.00000E+00         0.15372E+07
 
    0.30050E+07         0.99656E+05         0.00000E+00
    0.99656E+05         0.45886E+07         0.00000E+00
    0.00000E+00         0.00000E+00         0.15187E+07
 
    0.28326E+07         0.24966E+06         0.00000E+00
    0.24966E+06         0.46616E+07         0.00000E+00
    0.00000E+00         0.00000E+00         0.14988E+07
 
    0.26367E+07         0.43434E+06         0.00000E+00
    0.43434E+06         0.47509E+07         0.00000E+00
    0.00000E+00         0.00000E+00         0.14775E+07
 
    0.24165E+07         0.66435E+06         0.00000E+00
    0.66435E+06         0.48583E+07         0.00000E+00
    0.00000E+00         0.00000E+00         0.14550E+07
 
    0.21736E+07         0.95393E+06         0.00000E+00
    0.95393E+06         0.49853E+07         0.00000E+00
    0.00000E+00         0.00000E+00         0.14318E+07
 
    0.19136E+07         0.13222E+07         0.00000E+00
    0.13222E+07         0.51328E+07         0.00000E+00
    0.00000E+00         0.00000E+00         0.14093E+07
 
    0.16505E+07         0.17951E+07         0.00000E+00
    0.17951E+07         0.53000E+07         0.00000E+00
    0.00000E+00         0.00000E+00         0.13901E+07
 
    0.14152E+07         0.24077E+07         0.00000E+00
    0.24077E+07         0.54834E+07         0.00000E+00
    0.00000E+00         0.00000E+00         0.13797E+07
 
    0.12729E+07         0.32070E+07         0.00000E+00
    0.32070E+07         0.56744E+07         0.00000E+00
    0.00000E+00         0.00000E+00         0.13895E+07
 
    0.13607E+07         0.42538E+07         0.00000E+00
    0.42538E+07         0.58556E+07         0.00000E+00
    0.00000E+00         0.00000E+00         0.14433E+07
 
   -0.18180E+06        -0.95266E+05         0.00000E+00
   -0.95266E+05         0.84189E+06         0.00000E+00
    0.00000E+00         0.00000E+00         0.13202E+06
 
    0.42637E+06        -0.41774E+06         0.00000E+00
   -0.41774E+06         0.86312E+06         0.00000E+00
    0.00000E+00         0.00000E+00         0.25790E+06
 
    0.87376E+06        -0.78213E+06         0.00000E+00
   -0.78213E+06         0.98023E+06         0.00000E+00
    0.00000E+00         0.00000E+00         0.37080E+06
 
    0.11557E+07        -0.11278E+07         0.00000E+00
   -0.11278E+07         0.11591E+07         0.00000E+00
    0.00000E+00         0.00000E+00         0.46296E+06
 
    0.12997E+07        -0.14259E+07         0.00000E+00
   -0.14259E+07         0.13684E+07         0.00000E+00
    0.00000E+00         0.00000E+00         0.53363E+06
 
    0.13395E+07        -0.16635E+07         0.00000E+00
   -0.16635E+07         0.15824E+07         0.00000E+00
    0.00000E+00         0.00000E+00         0.58439E+06
 
    0.13082E+07        -0.18403E+07         0.00000E+00
   -0.18403E+07         0.17872E+07         0.00000E+00
    0.00000E+00         0.00000E+00         0.61908E+06
 
    0.12324E+07        -0.19624E+07         0.00000E+00
   -0.19624E+07         0.19756E+07         0.00000E+00
    0.00000E+00         0.00000E+00         0.64160E+06
 
    0.11317E+07        -0.20381E+07         0.00000E+00
   -0.20381E+07         0.21443E+07         0.00000E+00
    0.00000E+00         0.00000E+00         0.65521E+06
 
    0.10196E+07        -0.20761E+07         0.00000E+00
   -0.20761E+07         0.22926E+07         0.00000E+00
    0.00000E+00         0.00000E+00         0.66243E+06
 
    0.90478E+06        -0.20842E+07         0.00000E+00
   -0.20842E+07         0.24210E+07         0.00000E+00
    0.00000E+00         0.00000E+00         0.66516E+06
 
    0.79299E+06        -0.20691E+07         0.00000E+00
   -0.20691E+07         0.25310E+07         0.00000E+00
    0.00000E+00         0.00000E+00         0.66480E+06
 
    0.68747E+06        -0.20364E+07         0.00000E+00
   -0.20364E+07         0.26244E+07         0.00000E+00
    0.00000E+00         0.00000E+00         0.66237E+06
 
    0.58998E+06        -0.19907E+07         0.00000E+00
   -0.19907E+07         0.27030E+07         0.00000E+00
    0.00000E+00         0.00000E+00         0.65860E+06
 
    0.50123E+06        -0.19356E+07         0.00000E+00
   -0.19356E+07         0.27688E+07         0.00000E+00
    0.00000E+00         0.00000E+00         0.65400E+06
 
    0.42125E+06        -0.18740E+07         0.00000E+00
   -0.18740E+07         0.28234E+07         0.00000E+00
    0.00000E+00         0.00000E+00         0.64894E+06
 
    0.34965E+06        -0.18081E+07         0.00000E+00
   -0.18081E+07         0.28686E+07         0.00000E+00
    0.00000E+00         0.00000E+00         0.64366E+06
 
    0.28578E+06        -0.17396E+07         0.00000E+00
   -0.17396E+07         0.29059E+07         0.00000E+00
    0.00000E+00         0.00000E+00         0.63834E+06
 
    0.22888E+06        -0.16698E+07         0.00000E+00
   -0.16698E+07         0.29365E+07         0.00000E+00
    0.00000E+00         0.00000E+00         0.63308E+06
 
    0.17806E+06        -0.15996E+07         0.00000E+00
   -0.15996E+07         0.29617E+07         0.00000E+00
    0.00000E+00         0.00000E+00         0.62795E+06
 
    0.13248E+06        -0.15297E+07         0.00000E+00
   -0.15297E+07         0.29825E+07         0.00000E+00
    0.00000E+00         0.00000E+00         0.62299E+06
 
    0.91256E+05        -0.14605E+07         0.00000E+00
   -0.14605E+07         0.29998E+07         0.00000E+00
    0.00000E+00         0.00000E+00         0.61822E+06
 
    0.53567E+05        -0.13922E+07         0.00000E+00
   -0.13922E+07         0.30146E+07         0.00000E+00
    0.00000E+00         0.00000E+00         0.61363E+06
 
    0.18617E+05        -0.13249E+07         0.00000E+00
   -0.13249E+07         0.30275E+07         0.00000E+00
    0.00000E+00         0.00000E+00         0.60923E+06
 
   -0.14343E+05        -0.12586E+07         0.00000E+00
   -0.12586E+07         0.30392E+07         0.00000E+00
    0.00000E+00         0.00000E+00         0.60498E+06
 
   -0.46021E+05        -0.11931E+07         0.00000E+00
   -0.11931E+07         0.30504E+07         0.00000E+00
    0.00000E+00         0.00000E+00         0.60088E+06
 
   -0.77079E+05        -0.11281E+07         0.00000E+00
   -0.11281E+07         0.30616E+07         0.00000E+00
    0.00000E+00         0.00000E+00         0.59690E+06
 
   -0.10814E+06        -0.10632E+07         0.00000E+00
   -0.10632E+07         0.30732E+07         0.00000E+00
    0.00000E+00         0.00000E+00         0.59302E+06
 
   -0.13977E+06        -0.99808E+06         0.00000E+00
   -0.99808E+06         0.30859E+07         0.00000E+00
    0.00000E+00         0.00000E+00         0.58923E+06
 
   -0.17252E+06        -0.93198E+06         0.00000E+00
   -0.93198E+06         0.31001E+07         0.00000E+00
    0.00000E+00         0.00000E+00         0.58551E+06
 
   -0.20687E+06        -0.86422E+06         0.00000E+00
   -0.86422E+06         0.31161E+07         0.00000E+00
    0.00000E+00         0.00000E+00         0.58184E+06
 
   -0.24324E+06        -0.79393E+06         0.00000E+00
   -0.79393E+06         0.31344E+07         0.00000E+00
    0.00000E+00         0.00000E+00         0.57824E+06
 
   -0.28201E+06        -0.72008E+06         0.00000E+00
   -0.72008E+06         0.31555E+07         0.00000E+00
    0.00000E+00         0.00000E+00         0.57469E+06
 
   -0.32345E+06        -0.64142E+06         0.00000E+00
   -0.64142E+06         0.31796E+07         0.00000E+00
    0.00000E+00         0.00000E+00         0.57123E+06
 
   -0.36770E+06        -0.55651E+06         0.00000E+00
   -0.55651E+06         0.32071E+07         0.00000E+00
    0.00000E+00         0.00000E+00         0.56789E+06
 
   -0.41474E+06        -0.46360E+06         0.00000E+00
   -0.46360E+06         0.32384E+07         0.00000E+00
    0.00000E+00         0.00000E+00         0.56473E+06
 
   -0.46433E+06        -0.36064E+06         0.00000E+00
   -0.36064E+06         0.32737E+07         0.00000E+00
    0.00000E+00         0.00000E+00         0.56187E+06
 
   -0.51587E+06        -0.24518E+06         0.00000E+00
   -0.24518E+06         0.33130E+07         0.00000E+00
    0.00000E+00         0.00000E+00         0.55943E+06
 
   -0.56831E+06        -0.11434E+06         0.00000E+00
   -0.11434E+06         0.33565E+07         0.00000E+00
    0.00000E+00         0.00000E+00         0.55764E+06
 
   -0.61995E+06         0.35301E+05         0.00000E+00
    0.35301E+05         0.34039E+07         0.00000E+00
    0.00000E+00         0.00000E+00         0.55680E+06
 
   -0.66815E+06         0.20774E+06         0.00000E+00
    0.20774E+06         0.34547E+07         0.00000E+00
    0.00000E+00         0.00000E+00         0.55732E+06
 
   -0.70899E+06         0.40760E+06         0.00000E+00
    0.40760E+06         0.35079E+07         0.00000E+00
    0.00000E+00         0.00000E+00         0.55979E+06
 
   -0.73677E+06         0.64015E+06         0.00000E+00
    0.64015E+06         0.35618E+07         0.00000E+00
    0.00000E+00         0.00000E+00         0.56500E+06
 
   -0.74334E+06         0.91118E+06         0.00000E+00
    0.91118E+06         0.36135E+07         0.00000E+00
    0.00000E+00         0.00000E+00         0.57403E+06
 
   -0.71728E+06         0.12267E+07         0.00000E+00
    0.12267E+07         0.36587E+07         0.00000E+00
    0.00000E+00         0.00000E+00         0.58829E+06
 
   -0.64299E+06         0.15921E+07         0.00000E+00
    0.15921E+07         0.36910E+07         0.00000E+00
    0.00000E+00         0.00000E+00         0.60960E+06
 
   -0.50007E+06         0.20110E+07         0.00000E+00
    0.20110E+07         0.37001E+07         0.00000E+00
    0.00000E+00         0.00000E+00         0.64001E+06
 
   -0.26420E+06         0.24820E+07         0.00000E+00
    0.24820E+07         0.36710E+07         0.00000E+00
    0.00000E+00         0.00000E+00         0.68136E+06
 
    0.87264E+05         0.29929E+07         0.00000E+00
    0.29929E+07         0.35804E+07         0.00000E+00
    0.00000E+00         0.00000E+00         0.73354E+06
 
    0.55569E+06         0.35111E+07         0.00000E+00
    0.35111E+07         0.33923E+07         0.00000E+00
    0.00000E+00         0.00000E+00         0.78959E+06
 
   -0.15184E+07         0.47715E+04         0.00000E+00
    0.47715E+04         0.41918E+06         0.00000E+00
    0.00000E+00         0.00000E+00        -0.21984E+06
 
   -0.11229E+07        -0.12217E+06         0.00000E+00
   -0.12217E+06         0.42343E+06         0.00000E+00
    0.00000E+00         0.00000E+00        -0.13990E+06
 
   -0.79619E+06        -0.27552E+06         0.00000E+00
   -0.27552E+06         0.42903E+06         0.00000E+00
    0.00000E+00         0.00000E+00        -0.73432E+05
 
   -0.53348E+06        -0.45014E+06         0.00000E+00
   -0.45014E+06         0.45116E+06         0.00000E+00
    0.00000E+00         0.00000E+00        -0.16463E+05
 
   -0.33476E+06        -0.63393E+06         0.00000E+00
   -0.63393E+06         0.49483E+06         0.00000E+00
    0.00000E+00         0.00000E+00         0.32015E+05
 
   -0.19686E+06        -0.81523E+06         0.00000E+00
   -0.81523E+06         0.55998E+06         0.00000E+00
    0.00000E+00         0.00000E+00         0.72624E+05
 
   -0.11361E+06        -0.98451E+06         0.00000E+00
   -0.98451E+06         0.64254E+06         0.00000E+00
    0.00000E+00         0.00000E+00         0.10578E+06
 
   -0.76610E+05        -0.11354E+07         0.00000E+00
   -0.11354E+07         0.73746E+06         0.00000E+00
    0.00000E+00         0.00000E+00         0.13217E+06
 
   -0.76712E+05        -0.12644E+07         0.00000E+00
   -0.12644E+07         0.84003E+06         0.00000E+00
    0.00000E+00         0.00000E+00         0.15266E+06
 
   -0.10521E+06        -0.13705E+07         0.00000E+00
   -0.13705E+07         0.94629E+06         0.00000E+00
    0.00000E+00         0.00000E+00         0.16822E+06
 
   -0.15445E+06        -0.14542E+07         0.00000E+00
   -0.14542E+07         0.10531E+07         0.00000E+00
    0.00000E+00         0.00000E+00         0.17974E+06
 
   -0.21807E+06        -0.15168E+07         0.00000E+00
   -0.15168E+07         0.11583E+07         0.00000E+00
    0.00000E+00         0.00000E+00         0.18804E+06
 
   -0.29098E+06        -0.15603E+07         0.00000E+00
   -0.15603E+07         0.12601E+07         0.00000E+00
    0.00000E+00         0.00000E+00         0.19383E+06
 
   -0.36922E+06        -0.15869E+07         0.00000E+00
   -0.15869E+07         0.13575E+07         0.00000E+00
    0.00000E+00         0.00000E+00         0.19766E+06
 
   -0.44986E+06        -0.15987E+07         0.00000E+00
   -0.15987E+07         0.14499E+07         0.00000E+00
    0.00000E+00         0.00000E+00         0.20001E+06
 
   -0.53072E+06        -0.15979E+07         0.00000E+00
   -0.15979E+07         0.15369E+07         0.00000E+00
    0.00000E+00         0.00000E+00         0.20125E+06
 
   -0.61029E+06        -0.15862E+07         0.00000E+00
   -0.15862E+07         0.16186E+07         0.00000E+00
    0.00000E+00         0.00000E+00         0.20166E+06
 
   -0.68756E+06        -0.15653E+07         0.00000E+00
   -0.15653E+07         0.16949E+07         0.00000E+00
    0.00000E+00         0.00000E+00         0.20146E+06
 
   -0.76192E+06        -0.15368E+07         0.00000E+00
   -0.15368E+07         0.17661E+07         0.00000E+00
    0.00000E+00         0.00000E+00         0.20084E+06
 
   -0.83302E+06        -0.15018E+07         0.00000E+00
   -0.15018E+07         0.18326E+07         0.00000E+00
    0.00000E+00         0.00000E+00         0.19992E+06
 
   -0.90074E+06        -0.14614E+07         0.00000E+00
   -0.14614E+07         0.18947E+07         0.00000E+00
    0.00000E+00         0.00000E+00         0.19880E+06
 
   -0.96513E+06        -0.14164E+07         0.00000E+00
   -0.14164E+07         0.19529E+07         0.00000E+00
    0.00000E+00         0.00000E+00         0.19755E+06
 
   -0.10263E+07        -0.13674E+07         0.00000E+00
   -0.13674E+07         0.20075E+07         0.00000E+00
    0.00000E+00         0.00000E+00         0.19623E+06
 
   -0.10845E+07        -0.13149E+07         0.00000E+00
   -0.13149E+07         0.20590E+07         0.00000E+00
    0.00000E+00         0.00000E+00         0.19488E+06
 
   -0.11400E+07        -0.12592E+07         0.00000E+00
   -0.12592E+07         0.21077E+07         0.00000E+00
    0.00000E+00         0.00000E+00         0.19354E+06
 
   -0.11930E+07        -0.12005E+07         0.00000E+00
   -0.12005E+07         0.21541E+07         0.00000E+00
    0.00000E+00         0.00000E+00         0.19222E+06
 
   -0.12437E+07        -0.11388E+07         0.00000E+00
   -0.11388E+07         0.21985E+07         0.00000E+00
    0.00000E+00         0.00000E+00         0.19096E+06
 
   -0.12925E+07        -0.10740E+07         0.00000E+00
   -0.10740E+07         0.22413E+07         0.00000E+00
    0.00000E+00         0.00000E+00         0.18976E+06
 
   -0.13394E+07        -0.10059E+07         0.00000E+00
   -0.10059E+07         0.22826E+07         0.00000E+00
    0.00000E+00         0.00000E+00         0.18865E+06
 
   -0.13845E+07        -0.93419E+06         0.00000E+00
   -0.93419E+06         0.23228E+07         0.00000E+00
    0.00000E+00         0.00000E+00         0.18767E+06
 
   -0.14279E+07        -0.85830E+06         0.00000E+00
   -0.85830E+06         0.23621E+07         0.00000E+00
    0.00000E+00         0.00000E+00         0.18683E+06
 
   -0.14695E+07        -0.77765E+06         0.00000E+00
   -0.77765E+06         0.24005E+07         0.00000E+00
    0.00000E+00         0.00000E+00         0.18619E+06
 
   -0.15090E+07        -0.69152E+06         0.00000E+00
   -0.69152E+06         0.24380E+07         0.00000E+00
    0.00000E+00         0.00000E+00         0.18579E+06
 
   -0.15461E+07        -0.59905E+06         0.00000E+00
   -0.59905E+06         0.24747E+07         0.00000E+00
    0.00000E+00         0.00000E+00         0.18572E+06
 
   -0.15799E+07        -0.49922E+06         0.00000E+00
   -0.49922E+06         0.25102E+07         0.00000E+00
    0.00000E+00         0.00000E+00         0.18606E+06
 
   -0.16097E+07        -0.39093E+06         0.00000E+00
   -0.39093E+06         0.25444E+07         0.00000E+00
    0.00000E+00         0.00000E+00         0.18694E+06
 
   -0.16341E+07        -0.27293E+06         0.00000E+00
   -0.27293E+06         0.25767E+07         0.00000E+00
    0.00000E+00         0.00000E+00         0.18851E+06
 
   -0.16514E+07        -0.14387E+06         0.00000E+00
   -0.14387E+06         0.26063E+07         0.00000E+00
    0.00000E+00         0.00000E+00         0.19097E+06
 
   -0.16594E+07        -0.23646E+04         0.00000E+00
   -0.23646E+04         0.26324E+07         0.00000E+00
    0.00000E+00         0.00000E+00         0.19459E+06
 
   -0.16551E+07         0.15300E+06         0.00000E+00
    0.15300E+06         0.26535E+07         0.00000E+00
    0.00000E+00         0.00000E+00         0.19968E+06
 
   -0.16350E+07         0.32354E+06         0.00000E+00
    0.32354E+06         0.26681E+07         0.00000E+00
    0.00000E+00         0.00000E+00         0.20663E+06
 
   -0.15945E+07         0.51034E+06         0.00000E+00
    0.51034E+06         0.26740E+07         0.00000E+00
    0.00000E+00         0.00000E+00         0.21590E+06
 
   -0.15282E+07         0.71401E+06         0.00000E+00
    0.71401E+06         0.26684E+07         0.00000E+00
    0.00000E+00         0.00000E+00         0.22804E+06
 
   -0.14297E+07         0.93444E+06         0.00000E+00
    0.93444E+06         0.26481E+07         0.00000E+00
    0.00000E+00         0.00000E+00         0.24367E+06
 
   -0.12919E+07         0.11704E+07         0.00000E+00
    0.11704E+07         0.26090E+07         0.00000E+00
    0.00000E+00         0.00000E+00         0.26341E+06
 
   -0.11073E+07         0.14189E+07         0.00000E+00
    0.14189E+07         0.25466E+07         0.00000E+00
    0.00000E+00         0.00000E+00         0.28785E+06
 
   -0.86865E+06         0.16753E+07         0.00000E+00
    0.16753E+07         0.24560E+07         0.00000E+00
    0.00000E+00         0.00000E+00         0.31747E+06
 
   -0.56997E+06         0.19325E+07         0.00000E+00
    0.19325E+07         0.23328E+07         0.00000E+00
    0.00000E+00         0.00000E+00         0.35258E+06
 
   -0.20628E+06         0.21829E+07         0.00000E+00
    0.21829E+07         0.21754E+07         0.00000E+00
    0.00000E+00         0.00000E+00         0.39383E+06
 
    0.23256E+06         0.24234E+07         0.00000E+00
    0.24234E+07         0.19895E+07         0.00000E+00
    0.00000E+00         0.00000E+00         0.44441E+06
 
   -0.16379E+07         0.90738E+04         0.00000E+00
    0.90738E+04         0.59714E+06         0.00000E+00
    0.00000E+00         0.00000E+00        -0.20815E+06
 
   -0.14058E+07        -0.27539E+05         0.00000E+00
   -0.27539E+05         0.57584E+06         0.00000E+00
    0.00000E+00         0.00000E+00        -0.16599E+06
 
   -0.11939E+07        -0.88680E+05         0.00000E+00
   -0.88680E+05         0.55257E+06         0.00000E+00
    0.00000E+00         0.00000E+00        -0.12827E+06
 
   -0.10087E+07        -0.16739E+06         0.00000E+00
   -0.16739E+06         0.53065E+06         0.00000E+00
    0.00000E+00         0.00000E+00        -0.95603E+05
 
   -0.85181E+06        -0.25906E+06         0.00000E+00
   -0.25906E+06         0.51450E+06         0.00000E+00
    0.00000E+00         0.00000E+00        -0.67463E+05
 
   -0.72407E+06        -0.35919E+06         0.00000E+00
   -0.35919E+06         0.50732E+06         0.00000E+00
    0.00000E+00         0.00000E+00        -0.43350E+05
 
   -0.62516E+06        -0.46342E+06         0.00000E+00
   -0.46342E+06         0.51119E+06         0.00000E+00
    0.00000E+00         0.00000E+00        -0.22793E+05
 
   -0.55392E+06        -0.56758E+06         0.00000E+00
   -0.56758E+06         0.52680E+06         0.00000E+00
    0.00000E+00         0.00000E+00        -0.54258E+04
 
   -0.50837E+06        -0.66802E+06         0.00000E+00
   -0.66802E+06         0.55372E+06         0.00000E+00
    0.00000E+00         0.00000E+00         0.90695E+04
 
   -0.48587E+06        -0.76185E+06         0.00000E+00
   -0.76185E+06         0.59087E+06         0.00000E+00
    0.00000E+00         0.00000E+00         0.21000E+05
 
   -0.48340E+06        -0.84693E+06         0.00000E+00
   -0.84693E+06         0.63678E+06         0.00000E+00
    0.00000E+00         0.00000E+00         0.30677E+05
 
   -0.49782E+06        -0.92188E+06         0.00000E+00
   -0.92188E+06         0.68985E+06         0.00000E+00
    0.00000E+00         0.00000E+00         0.38406E+05
 
   -0.52612E+06        -0.98594E+06         0.00000E+00
   -0.98594E+06         0.74852E+06         0.00000E+00
    0.00000E+00         0.00000E+00         0.44481E+05
 
   -0.56547E+06        -0.10388E+07         0.00000E+00
   -0.10388E+07         0.81134E+06         0.00000E+00
    0.00000E+00         0.00000E+00         0.49175E+05
 
   -0.61337E+06        -0.10807E+07         0.00000E+00
   -0.10807E+07         0.87702E+06         0.00000E+00
    0.00000E+00         0.00000E+00         0.52731E+05
 
   -0.66764E+06        -0.11118E+07         0.00000E+00
   -0.11118E+07         0.94445E+06         0.00000E+00
    0.00000E+00         0.00000E+00         0.55362E+05
 
   -0.72646E+06        -0.11328E+07         0.00000E+00
   -0.11328E+07         0.10127E+07         0.00000E+00
    0.00000E+00         0.00000E+00         0.57250E+05
 
   -0.78828E+06        -0.11442E+07         0.00000E+00
   -0.11442E+07         0.10810E+07         0.00000E+00
    0.00000E+00         0.00000E+00         0.58550E+05
 
   -0.85186E+06        -0.11468E+07         0.00000E+00
   -0.11468E+07         0.11488E+07         0.00000E+00
    0.00000E+00         0.00000E+00         0.59389E+05
 
   -0.91620E+06        -0.11411E+07         0.00000E+00
   -0.11411E+07         0.12156E+07         0.00000E+00
    0.00000E+00         0.00000E+00         0.59874E+05
 
   -0.98049E+06        -0.11278E+07         0.00000E+00
   -0.11278E+07         0.12810E+07         0.00000E+00
    0.00000E+00         0.00000E+00         0.60092E+05
 
   -0.10441E+07        -0.11075E+07         0.00000E+00
   -0.11075E+07         0.13447E+07         0.00000E+00
    0.00000E+00         0.00000E+00         0.60112E+05
 
   -0.11066E+07        -0.10807E+07         0.00000E+00
   -0.10807E+07         0.14066E+07         0.00000E+00
    0.00000E+00         0.00000E+00         0.59994E+05
 
   -0.11675E+07        -0.10478E+07         0.00000E+00
   -0.10478E+07         0.14664E+07         0.00000E+00
    0.00000E+00         0.00000E+00         0.59784E+05
 
   -0.12265E+07        -0.10091E+07         0.00000E+00
   -0.10091E+07         0.15242E+07         0.00000E+00
    0.00000E+00         0.00000E+00         0.59525E+05
 
   -0.12834E+07        -0.96487E+06         0.00000E+00
   -0.96487E+06         0.15797E+07         0.00000E+00
    0.00000E+00         0.00000E+00         0.59251E+05
 
   -0.13380E+07        -0.91533E+06         0.00000E+00
   -0.91533E+06         0.16329E+07         0.00000E+00
    0.00000E+00         0.00000E+00         0.58995E+05
 
   -0.13898E+07        -0.86056E+06         0.00000E+00
   -0.86056E+06         0.16838E+07         0.00000E+00
    0.00000E+00         0.00000E+00         0.58789E+05
 
   -0.14388E+07        -0.80056E+06         0.00000E+00
   -0.80056E+06         0.17321E+07         0.00000E+00
    0.00000E+00         0.00000E+00         0.58664E+05
 
   -0.14845E+07        -0.73529E+06         0.00000E+00
   -0.73529E+06         0.17777E+07         0.00000E+00
    0.00000E+00         0.00000E+00         0.58656E+05
 
   -0.15265E+07        -0.66462E+06         0.00000E+00
   -0.66462E+06         0.18205E+07         0.00000E+00
    0.00000E+00         0.00000E+00         0.58804E+05
 
   -0.15644E+07        -0.58836E+06         0.00000E+00
   -0.58836E+06         0.18601E+07         0.00000E+00
    0.00000E+00         0.00000E+00         0.59156E+05
 
   -0.15974E+07        -0.50630E+06         0.00000E+00
   -0.50630E+06         0.18963E+07         0.00000E+00
    0.00000E+00         0.00000E+00         0.59768E+05
 
   -0.16250E+07        -0.41819E+06         0.00000E+00
   -0.41819E+06         0.19285E+07         0.00000E+00
    0.00000E+00         0.00000E+00         0.60706E+05
 
   -0.16460E+07        -0.32375E+06         0.00000E+00
   -0.32375E+06         0.19563E+07         0.00000E+00
    0.00000E+00         0.00000E+00         0.62054E+05
 
   -0.16595E+07        -0.22275E+06         0.00000E+00
   -0.22275E+06         0.19790E+07         0.00000E+00
    0.00000E+00         0.00000E+00         0.63909E+05
 
   -0.16639E+07        -0.11498E+06         0.00000E+00
   -0.11498E+06         0.19958E+07         0.00000E+00
    0.00000E+00         0.00000E+00         0.66391E+05
 
   -0.16576E+07        -0.34273E+03         0.00000E+00
   -0.34273E+03         0.20058E+07         0.00000E+00
    0.00000E+00         0.00000E+00         0.69642E+05
 
   -0.16388E+07         0.12113E+06         0.00000E+00
    0.12113E+06         0.20080E+07         0.00000E+00
    0.00000E+00         0.00000E+00         0.73826E+05
 
   -0.16053E+07         0.24917E+06         0.00000E+00
    0.24917E+06         0.20010E+07         0.00000E+00
    0.00000E+00         0.00000E+00         0.79139E+05
 
   -0.15547E+07         0.38324E+06         0.00000E+00
    0.38324E+06         0.19837E+07         0.00000E+00
    0.00000E+00         0.00000E+00         0.85797E+05
 
   -0.14842E+07         0.52242E+06         0.00000E+00
    0.52242E+06         0.19545E+07         0.00000E+00
    0.00000E+00         0.00000E+00         0.94046E+05
 
   -0.13912E+07         0.66531E+06         0.00000E+00
    0.66531E+06         0.19120E+07         0.00000E+00
    0.00000E+00         0.00000E+00         0.10415E+06
 
   -0.12728E+07         0.80998E+06         0.00000E+00
    0.80998E+06         0.18548E+07         0.00000E+00
    0.00000E+00         0.00000E+00         0.11641E+06
 
   -0.11262E+07         0.95390E+06         0.00000E+00
    0.95390E+06         0.17818E+07         0.00000E+00
    0.00000E+00         0.00000E+00         0.13112E+06
 
   -0.94889E+06         0.10939E+07         0.00000E+00
    0.10939E+07         0.16921E+07         0.00000E+00
    0.00000E+00         0.00000E+00         0.14864E+06
 
   -0.73871E+06         0.12265E+07         0.00000E+00
    0.12265E+07         0.15858E+07         0.00000E+00
    0.00000E+00         0.00000E+00         0.16941E+06
 
   -0.49355E+06         0.13477E+07         0.00000E+00
    0.13477E+07         0.14635E+07         0.00000E+00
    0.00000E+00         0.00000E+00         0.19399E+06
 
   -0.21164E+06         0.14530E+07         0.00000E+00
    0.14530E+07         0.13266E+07         0.00000E+00
    0.00000E+00         0.00000E+00         0.22299E+06
 
    0.10624E+06         0.15352E+07         0.00000E+00
    0.15352E+07         0.11749E+07         0.00000E+00
    0.00000E+00         0.00000E+00         0.25622E+06
 
   -0.15458E+07         0.10182E+05         0.00000E+00
    0.10182E+05         0.75044E+06         0.00000E+00
    0.00000E+00         0.00000E+00        -0.15907E+06
 
   -0.13934E+07         0.25982E+04         0.00000E+00
    0.25982E+04         0.73638E+06         0.00000E+00
    0.00000E+00         0.00000E+00        -0.13140E+06
 
   -0.12515E+07        -0.16051E+05         0.00000E+00
   -0.16051E+05         0.71255E+06         0.00000E+00
    0.00000E+00         0.00000E+00        -0.10779E+06
 
   -0.11214E+07        -0.45882E+05         0.00000E+00
   -0.45882E+05         0.68429E+06         0.00000E+00
    0.00000E+00         0.00000E+00        -0.87417E+05
 
   -0.10047E+07        -0.85490E+05         0.00000E+00
   -0.85490E+05         0.65524E+06         0.00000E+00
    0.00000E+00         0.00000E+00        -0.69900E+05
 
   -0.90282E+06        -0.13309E+06         0.00000E+00
   -0.13309E+06         0.62834E+06         0.00000E+00
    0.00000E+00         0.00000E+00        -0.54895E+05
 
   -0.81624E+06        -0.18673E+06         0.00000E+00
   -0.18673E+06         0.60580E+06         0.00000E+00
    0.00000E+00         0.00000E+00        -0.42088E+05
 
   -0.74521E+06        -0.24442E+06         0.00000E+00
   -0.24442E+06         0.58927E+06         0.00000E+00
    0.00000E+00         0.00000E+00        -0.31188E+05
 
   -0.68952E+06        -0.30422E+06         0.00000E+00
   -0.30422E+06         0.57980E+06         0.00000E+00
    0.00000E+00         0.00000E+00        -0.21943E+05
 
   -0.64862E+06        -0.36426E+06         0.00000E+00
   -0.36426E+06         0.57794E+06         0.00000E+00
    0.00000E+00         0.00000E+00        -0.14138E+05
 
   -0.62170E+06        -0.42286E+06         0.00000E+00
   -0.42286E+06         0.58376E+06         0.00000E+00
    0.00000E+00         0.00000E+00        -0.75892E+04
 
   -0.60769E+06        -0.47854E+06         0.00000E+00
   -0.47854E+06         0.59701E+06         0.00000E+00
    0.00000E+00         0.00000E+00        -0.21367E+04
 
   -0.60535E+06        -0.53008E+06         0.00000E+00
   -0.53008E+06         0.61717E+06         0.00000E+00
    0.00000E+00         0.00000E+00         0.23636E+04
 
   -0.61337E+06        -0.57653E+06         0.00000E+00
   -0.57653E+06         0.64357E+06         0.00000E+00
    0.00000E+00         0.00000E+00         0.60420E+04
 
   -0.63037E+06        -0.61716E+06         0.00000E+00
   -0.61716E+06         0.67546E+06         0.00000E+00
    0.00000E+00         0.00000E+00         0.90164E+04
 
   -0.65504E+06        -0.65146E+06         0.00000E+00
   -0.65146E+06         0.71201E+06         0.00000E+00
    0.00000E+00         0.00000E+00         0.11393E+05
 
   -0.68608E+06        -0.67913E+06         0.00000E+00
   -0.67913E+06         0.75242E+06         0.00000E+00
    0.00000E+00         0.00000E+00         0.13269E+05
 
   -0.72229E+06        -0.69999E+06         0.00000E+00
   -0.69999E+06         0.79592E+06         0.00000E+00
    0.00000E+00         0.00000E+00         0.14727E+05
 
   -0.76257E+06        -0.71401E+06         0.00000E+00
   -0.71401E+06         0.84178E+06         0.00000E+00
    0.00000E+00         0.00000E+00         0.15842E+05
 
   -0.80592E+06        -0.72123E+06         0.00000E+00
   -0.72123E+06         0.88931E+06         0.00000E+00
    0.00000E+00         0.00000E+00         0.16679E+05
 
   -0.85142E+06        -0.72176E+06         0.00000E+00
   -0.72176E+06         0.93789E+06         0.00000E+00
    0.00000E+00         0.00000E+00         0.17296E+05
 
   -0.89826E+06        -0.71574E+06         0.00000E+00
   -0.71574E+06         0.98696E+06         0.00000E+00
    0.00000E+00         0.00000E+00         0.17740E+05
 
   -0.94570E+06        -0.70337E+06         0.00000E+00
   -0.70337E+06         0.10360E+07         0.00000E+00
    0.00000E+00         0.00000E+00         0.18054E+05
 
   -0.99309E+06        -0.68483E+06         0.00000E+00
   -0.68483E+06         0.10845E+07         0.00000E+00
    0.00000E+00         0.00000E+00         0.18277E+05
 
   -0.10398E+07        -0.66031E+06         0.00000E+00
   -0.66031E+06         0.11320E+07         0.00000E+00
    0.00000E+00         0.00000E+00         0.18440E+05
 
   -0.10853E+07        -0.62998E+06         0.00000E+00
   -0.62998E+06         0.11781E+07         0.00000E+00
    0.00000E+00         0.00000E+00         0.18575E+05
 
   -0.11290E+07        -0.59403E+06         0.00000E+00
   -0.59403E+06         0.12225E+07         0.00000E+00
    0.00000E+00         0.00000E+00         0.18709E+05
 
   -0.11703E+07        -0.55260E+06         0.00000E+00
   -0.55260E+06         0.12647E+07         0.00000E+00
    0.00000E+00         0.00000E+00         0.18871E+05
 
   -0.12088E+07        -0.50584E+06         0.00000E+00
   -0.50584E+06         0.13042E+07         0.00000E+00
    0.00000E+00         0.00000E+00         0.19088E+05
 
   -0.12439E+07        -0.45390E+06         0.00000E+00
   -0.45390E+06         0.13408E+07         0.00000E+00
    0.00000E+00         0.00000E+00         0.19389E+05
 
   -0.12749E+07        -0.39692E+06         0.00000E+00
   -0.39692E+06         0.13739E+07         0.00000E+00
    0.00000E+00         0.00000E+00         0.19807E+05
 
   -0.13013E+07        -0.33505E+06         0.00000E+00
   -0.33505E+06         0.14032E+07         0.00000E+00
    0.00000E+00         0.00000E+00         0.20376E+05
 
   -0.13223E+07        -0.26844E+06         0.00000E+00
   -0.26844E+06         0.14280E+07         0.00000E+00
    0.00000E+00         0.00000E+00         0.21137E+05
 
   -0.13372E+07        -0.19733E+06         0.00000E+00
   -0.19733E+06         0.14479E+07         0.00000E+00
    0.00000E+00         0.00000E+00         0.22134E+05
 
   -0.13451E+07        -0.12195E+06         0.00000E+00
   -0.12195E+06         0.14622E+07         0.00000E+00
    0.00000E+00         0.00000E+00         0.23421E+05
 
   -0.13452E+07        -0.42641E+05         0.00000E+00
   -0.42641E+05         0.14705E+07         0.00000E+00
    0.00000E+00         0.00000E+00         0.25057E+05
 
   -0.13364E+07         0.40163E+05         0.00000E+00
    0.40163E+05         0.14720E+07         0.00000E+00
    0.00000E+00         0.00000E+00         0.27113E+05
 
   -0.13177E+07         0.12591E+06         0.00000E+00
    0.12591E+06         0.14660E+07         0.00000E+00
    0.00000E+00         0.00000E+00         0.29667E+05
 
   -0.12879E+07         0.21390E+06         0.00000E+00
    0.21390E+06         0.14519E+07         0.00000E+00
    0.00000E+00         0.00000E+00         0.32812E+05
 
   -0.12458E+07         0.30324E+06         0.00000E+00
    0.30324E+06         0.14291E+07         0.00000E+00
    0.00000E+00         0.00000E+00         0.36649E+05
 
   -0.11904E+07         0.39287E+06         0.00000E+00
    0.39287E+06         0.13969E+07         0.00000E+00
    0.00000E+00         0.00000E+00         0.41296E+05
 
   -0.11205E+07         0.48148E+06         0.00000E+00
    0.48148E+06         0.13550E+07         0.00000E+00
    0.00000E+00         0.00000E+00         0.46887E+05
 
   -0.10350E+07         0.56755E+06         0.00000E+00
    0.56755E+06         0.13029E+07         0.00000E+00
    0.00000E+00         0.00000E+00         0.53575E+05
 
   -0.93296E+06         0.64932E+06         0.00000E+00
    0.64932E+06         0.12407E+07         0.00000E+00
    0.00000E+00         0.00000E+00         0.61538E+05
 
   -0.81356E+06         0.72484E+06         0.00000E+00
    0.72484E+06         0.11685E+07         0.00000E+00
    0.00000E+00         0.00000E+00         0.70985E+05
 
   -0.67622E+06         0.79193E+06         0.00000E+00
    0.79193E+06         0.10870E+07         0.00000E+00
    0.00000E+00         0.00000E+00         0.82156E+05
 
   -0.52061E+06         0.84825E+06         0.00000E+00
    0.84825E+06         0.99720E+06         0.00000E+00
    0.00000E+00         0.00000E+00         0.95318E+05
 
   -0.34680E+06         0.89121E+06         0.00000E+00
    0.89121E+06         0.90050E+06         0.00000E+00
    0.00000E+00         0.00000E+00         0.11074E+06
 
   -0.15544E+06         0.91812E+06         0.00000E+00
    0.91812E+06         0.79893E+06         0.00000E+00
    0.00000E+00         0.00000E+00         0.12870E+06
 
    0.52825E+05         0.92690E+06         0.00000E+00
    0.92690E+06         0.69590E+06         0.00000E+00
    0.00000E+00         0.00000E+00         0.14975E+06
 
   -0.14361E+07         0.11768E+05         0.00000E+00
    0.11768E+05         0.83241E+06         0.00000E+00
    0.00000E+00         0.00000E+00        -0.12074E+06
 
   -0.13252E+07         0.20723E+05         0.00000E+00
    0.20723E+05         0.82097E+06         0.00000E+00
    0.00000E+00         0.00000E+00        -0.10084E+06
 
   -0.12207E+07         0.22767E+05         0.00000E+00
    0.22767E+05         0.80178E+06         0.00000E+00
    0.00000E+00         0.00000E+00        -0.83788E+05
 
   -0.11236E+07         0.18231E+05         0.00000E+00
    0.18231E+05         0.77707E+06         0.00000E+00
    0.00000E+00         0.00000E+00        -0.69305E+05
 
   -0.10344E+07         0.74008E+04         0.00000E+00
    0.74008E+04         0.74927E+06         0.00000E+00
    0.00000E+00         0.00000E+00        -0.57020E+05
 
   -0.95355E+06        -0.91813E+04         0.00000E+00
   -0.91813E+04         0.72050E+06         0.00000E+00
    0.00000E+00         0.00000E+00        -0.46611E+05
 
   -0.88160E+06        -0.30763E+05         0.00000E+00
   -0.30763E+05         0.69259E+06         0.00000E+00
    0.00000E+00         0.00000E+00        -0.37802E+05
 
   -0.81879E+06        -0.56444E+05         0.00000E+00
   -0.56444E+05         0.66701E+06         0.00000E+00
    0.00000E+00         0.00000E+00        -0.30357E+05
 
   -0.76526E+06        -0.85243E+05         0.00000E+00
   -0.85243E+05         0.64491E+06         0.00000E+00
    0.00000E+00         0.00000E+00        -0.24070E+05
 
   -0.72095E+06        -0.11615E+06         0.00000E+00
   -0.11615E+06         0.62711E+06         0.00000E+00
    0.00000E+00         0.00000E+00        -0.18769E+05
 
   -0.68568E+06        -0.14815E+06         0.00000E+00
   -0.14815E+06         0.61417E+06         0.00000E+00
    0.00000E+00         0.00000E+00        -0.14304E+05
 
   -0.65913E+06        -0.18028E+06         0.00000E+00
   -0.18028E+06         0.60638E+06         0.00000E+00
    0.00000E+00         0.00000E+00        -0.10550E+05
 
   -0.64084E+06        -0.21162E+06         0.00000E+00
   -0.21162E+06         0.60383E+06         0.00000E+00
    0.00000E+00         0.00000E+00        -0.74021E+04
 
   -0.63028E+06        -0.24136E+06         0.00000E+00
   -0.24136E+06         0.60642E+06         0.00000E+00
    0.00000E+00         0.00000E+00        -0.47713E+04
 
   -0.62680E+06        -0.26876E+06         0.00000E+00
   -0.26876E+06         0.61390E+06         0.00000E+00
    0.00000E+00         0.00000E+00        -0.25813E+04
 
   -0.62974E+06        -0.29320E+06         0.00000E+00
   -0.29320E+06         0.62590E+06         0.00000E+00
    0.00000E+00         0.00000E+00        -0.76696E+03
 
   -0.63836E+06        -0.31416E+06         0.00000E+00
   -0.31416E+06         0.64200E+06         0.00000E+00
    0.00000E+00         0.00000E+00         0.72852E+03
 
   -0.65192E+06        -0.33122E+06         0.00000E+00
   -0.33122E+06         0.66170E+06         0.00000E+00
    0.00000E+00         0.00000E+00         0.19546E+04
 
   -0.66969E+06        -0.34404E+06         0.00000E+00
   -0.34404E+06         0.68447E+06         0.00000E+00
    0.00000E+00         0.00000E+00         0.29547E+04
 
   -0.69093E+06        -0.35240E+06         0.00000E+00
   -0.35240E+06         0.70976E+06         0.00000E+00
    0.00000E+00         0.00000E+00         0.37670E+04
 
   -0.71492E+06        -0.35612E+06         0.00000E+00
   -0.35612E+06         0.73705E+06         0.00000E+00
    0.00000E+00         0.00000E+00         0.44255E+04
 
   -0.74096E+06        -0.35511E+06         0.00000E+00
   -0.35511E+06         0.76576E+06         0.00000E+00
    0.00000E+00         0.00000E+00         0.49602E+04
 
   -0.76839E+06        -0.34933E+06         0.00000E+00
   -0.34933E+06         0.79538E+06         0.00000E+00
    0.00000E+00         0.00000E+00         0.53980E+04
 
   -0.79657E+06        -0.33877E+06         0.00000E+00
   -0.33877E+06         0.82538E+06         0.00000E+00
    0.00000E+00         0.00000E+00         0.57632E+04
 
   -0.82485E+06        -0.32348E+06         0.00000E+00
   -0.32348E+06         0.85524E+06         0.00000E+00
    0.00000E+00         0.00000E+00         0.60780E+04
 
   -0.85265E+06        -0.30356E+06         0.00000E+00
   -0.30356E+06         0.88447E+06         0.00000E+00
    0.00000E+00         0.00000E+00         0.63632E+04
 
   -0.87938E+06        -0.27911E+06         0.00000E+00
   -0.27911E+06         0.91257E+06         0.00000E+00
    0.00000E+00         0.00000E+00         0.66383E+04
 
   -0.90446E+06        -0.25029E+06         0.00000E+00
   -0.25029E+06         0.93907E+06         0.00000E+00
    0.00000E+00         0.00000E+00         0.69223E+04
 
   -0.92731E+06        -0.21726E+06         0.00000E+00
   -0.21726E+06         0.96348E+06         0.00000E+00
    0.00000E+00         0.00000E+00         0.72343E+04
 
   -0.94737E+06        -0.18026E+06         0.00000E+00
   -0.18026E+06         0.98534E+06         0.00000E+00
    0.00000E+00         0.00000E+00         0.75937E+04
 
   -0.96408E+06        -0.13952E+06         0.00000E+00
   -0.13952E+06         0.10042E+07         0.00000E+00
    0.00000E+00         0.00000E+00         0.80208E+04
 
   -0.97685E+06        -0.95333E+05         0.00000E+00
   -0.95333E+05         0.10195E+07         0.00000E+00
    0.00000E+00         0.00000E+00         0.85373E+04
 
   -0.98510E+06        -0.48041E+05         0.00000E+00
   -0.48041E+05         0.10309E+07         0.00000E+00
    0.00000E+00         0.00000E+00         0.91670E+04
 
   -0.98826E+06         0.19664E+04         0.00000E+00
    0.19664E+04         0.10379E+07         0.00000E+00
    0.00000E+00         0.00000E+00         0.99361E+04
 
   -0.98572E+06         0.54233E+05         0.00000E+00
    0.54233E+05         0.10401E+07         0.00000E+00
    0.00000E+00         0.00000E+00         0.10874E+05
 
   -0.97691E+06         0.10823E+06         0.00000E+00
    0.10823E+06         0.10370E+07         0.00000E+00
    0.00000E+00         0.00000E+00         0.12013E+05
 
   -0.96123E+06         0.16335E+06         0.00000E+00
    0.16335E+06         0.10282E+07         0.00000E+00
    0.00000E+00         0.00000E+00         0.13392E+05
 
   -0.93813E+06         0.21891E+06         0.00000E+00
    0.21891E+06         0.10134E+07         0.00000E+00
    0.00000E+00         0.00000E+00         0.15052E+05
 
   -0.90707E+06         0.27410E+06         0.00000E+00
    0.27410E+06         0.99228E+06         0.00000E+00
    0.00000E+00         0.00000E+00         0.17043E+05
 
   -0.86756E+06         0.32805E+06         0.00000E+00
    0.32805E+06         0.96467E+06         0.00000E+00
    0.00000E+00         0.00000E+00         0.19423E+05
 
   -0.81919E+06         0.37977E+06         0.00000E+00
    0.37977E+06         0.93047E+06         0.00000E+00
    0.00000E+00         0.00000E+00         0.22256E+05
 
   -0.76160E+06         0.42817E+06         0.00000E+00
    0.42817E+06         0.88971E+06         0.00000E+00
    0.00000E+00         0.00000E+00         0.25622E+05
 
   -0.69456E+06         0.47209E+06         0.00000E+00
    0.47209E+06         0.84261E+06         0.00000E+00
    0.00000E+00         0.00000E+00         0.29609E+05
 
   -0.61796E+06         0.51027E+06         0.00000E+00
    0.51027E+06         0.78957E+06         0.00000E+00
    0.00000E+00         0.00000E+00         0.34324E+05
 
   -0.53181E+06         0.54140E+06         0.00000E+00
    0.54140E+06         0.73124E+06         0.00000E+00
    0.00000E+00         0.00000E+00         0.39885E+05
 
   -0.43633E+06         0.56412E+06         0.00000E+00
    0.56412E+06         0.66849E+06         0.00000E+00
    0.00000E+00         0.00000E+00         0.46431E+05
 
   -0.33194E+06         0.57705E+06         0.00000E+00
    0.57705E+06         0.60252E+06         0.00000E+00
    0.00000E+00         0.00000E+00         0.54117E+05
 
   -0.21922E+06         0.57889E+06         0.00000E+00
    0.57889E+06         0.53485E+06         0.00000E+00
    0.00000E+00         0.00000E+00         0.63127E+05
 
   -0.98958E+05         0.56843E+06         0.00000E+00
    0.56843E+06         0.46737E+06         0.00000E+00
    0.00000E+00         0.00000E+00         0.73682E+05
 
    0.27737E+05         0.54438E+06         0.00000E+00
    0.54438E+06         0.40200E+06         0.00000E+00
    0.00000E+00         0.00000E+00         0.85947E+05
 
   -0.13277E+07         0.14682E+05         0.00000E+00
    0.14682E+05         0.85558E+06         0.00000E+00
    0.00000E+00         0.00000E+00        -0.94431E+05
 
   -0.12412E+07         0.34162E+05         0.00000E+00
    0.34162E+05         0.84687E+06         0.00000E+00
    0.00000E+00         0.00000E+00        -0.78863E+05
 
   -0.11596E+07         0.49227E+05         0.00000E+00
    0.49227E+05         0.83119E+06         0.00000E+00
    0.00000E+00         0.00000E+00        -0.65677E+05
 
   -0.10831E+07         0.59777E+05         0.00000E+00
    0.59777E+05         0.81040E+06         0.00000E+00
    0.00000E+00         0.00000E+00        -0.54531E+05
 
   -0.10118E+07         0.65943E+05         0.00000E+00
    0.65943E+05         0.78610E+06         0.00000E+00
    0.00000E+00         0.00000E+00        -0.45146E+05
 
   -0.94607E+06         0.67958E+05         0.00000E+00
    0.67958E+05         0.75975E+06         0.00000E+00
    0.00000E+00         0.00000E+00        -0.37264E+05
 
   -0.88595E+06         0.66158E+05         0.00000E+00
    0.66158E+05         0.73267E+06         0.00000E+00
    0.00000E+00         0.00000E+00        -0.30655E+05
 
   -0.83158E+06         0.60962E+05         0.00000E+00
    0.60962E+05         0.70599E+06         0.00000E+00
    0.00000E+00         0.00000E+00        -0.25118E+05
 
   -0.78306E+06         0.52867E+05         0.00000E+00
    0.52867E+05         0.68065E+06         0.00000E+00
    0.00000E+00         0.00000E+00        -0.20482E+05
 
   -0.74039E+06         0.42417E+05         0.00000E+00
    0.42417E+05         0.65739E+06         0.00000E+00
    0.00000E+00         0.00000E+00        -0.16601E+05
 
   -0.70354E+06         0.30189E+05         0.00000E+00
    0.30189E+05         0.63679E+06         0.00000E+00
    0.00000E+00         0.00000E+00        -0.13350E+05
 
   -0.67240E+06         0.16772E+05         0.00000E+00
    0.16772E+05         0.61926E+06         0.00000E+00
    0.00000E+00         0.00000E+00        -0.10627E+05
 
   -0.64678E+06         0.27470E+04         0.00000E+00
    0.27470E+04         0.60506E+06         0.00000E+00
    0.00000E+00         0.00000E+00        -0.83447E+04
 
   -0.62647E+06        -0.11321E+05         0.00000E+00
   -0.11321E+05         0.59431E+06         0.00000E+00
    0.00000E+00         0.00000E+00        -0.64303E+04
 
   -0.61115E+06        -0.24899E+05         0.00000E+00
   -0.24899E+05         0.58703E+06         0.00000E+00
    0.00000E+00         0.00000E+00        -0.48236E+04
 
   -0.60048E+06        -0.37496E+05         0.00000E+00
   -0.37496E+05         0.58311E+06         0.00000E+00
    0.00000E+00         0.00000E+00        -0.34745E+04
 
   -0.59409E+06        -0.48667E+05         0.00000E+00
   -0.48667E+05         0.58238E+06         0.00000E+00
    0.00000E+00         0.00000E+00        -0.23411E+04
 
   -0.59153E+06        -0.58018E+05         0.00000E+00
   -0.58018E+05         0.58459E+06         0.00000E+00
    0.00000E+00         0.00000E+00        -0.13881E+04
 
   -0.59237E+06        -0.65212E+05         0.00000E+00
   -0.65212E+05         0.58944E+06         0.00000E+00
    0.00000E+00         0.00000E+00        -0.58576E+03
 
   -0.59613E+06        -0.69966E+05         0.00000E+00
   -0.69966E+05         0.59659E+06         0.00000E+00
    0.00000E+00         0.00000E+00         0.91495E+02
 
   -0.60233E+06        -0.72055E+05         0.00000E+00
   -0.72055E+05         0.60566E+06         0.00000E+00
    0.00000E+00         0.00000E+00         0.66555E+03
 
   -0.61047E+06        -0.71305E+05         0.00000E+00
   -0.71305E+05         0.61625E+06         0.00000E+00
    0.00000E+00         0.00000E+00         0.11555E+04
 
   -0.62006E+06        -0.67596E+05         0.00000E+00
   -0.67596E+05         0.62795E+06         0.00000E+00
    0.00000E+00         0.00000E+00         0.15782E+04
 
   -0.63061E+06        -0.60858E+05         0.00000E+00
   -0.60858E+05         0.64035E+06         0.00000E+00
    0.00000E+00         0.00000E+00         0.19488E+04
 
   -0.64161E+06        -0.51071E+05         0.00000E+00
   -0.51071E+05         0.65301E+06         0.00000E+00
    0.00000E+00         0.00000E+00         0.22809E+04
 
   -0.65258E+06        -0.38258E+05         0.00000E+00
   -0.38258E+05         0.66552E+06         0.00000E+00
    0.00000E+00         0.00000E+00         0.25870E+04
 
   -0.66305E+06        -0.22489E+05         0.00000E+00
   -0.22489E+05         0.67744E+06         0.00000E+00
    0.00000E+00         0.00000E+00         0.28789E+04
 
   -0.67254E+06        -0.38774E+04         0.00000E+00
   -0.38774E+04         0.68838E+06         0.00000E+00
    0.00000E+00         0.00000E+00         0.31681E+04
 
   -0.68060E+06         0.17419E+05         0.00000E+00
    0.17419E+05         0.69792E+06         0.00000E+00
    0.00000E+00         0.00000E+00         0.34654E+04
 
   -0.68676E+06         0.41198E+05         0.00000E+00
    0.41198E+05         0.70567E+06         0.00000E+00
    0.00000E+00         0.00000E+00         0.37820E+04
 
   -0.69061E+06         0.67214E+05         0.00000E+00
    0.67214E+05         0.71126E+06         0.00000E+00
    0.00000E+00         0.00000E+00         0.41291E+04
 
   -0.69171E+06         0.95175E+05         0.00000E+00
    0.95175E+05         0.71430E+06         0.00000E+00
    0.00000E+00         0.00000E+00         0.45186E+04
 
   -0.68966E+06         0.12474E+06         0.00000E+00
    0.12474E+06         0.71448E+06         0.00000E+00
    0.00000E+00         0.00000E+00         0.49629E+04
 
   -0.68409E+06         0.15553E+06         0.00000E+00
    0.15553E+06         0.71147E+06         0.00000E+00
    0.00000E+00         0.00000E+00         0.54757E+04
 
   -0.67463E+06         0.18709E+06         0.00000E+00
    0.18709E+06         0.70499E+06         0.00000E+00
    0.00000E+00         0.00000E+00         0.60721E+04
 
   -0.66095E+06         0.21894E+06         0.00000E+00
    0.21894E+06         0.69480E+06         0.00000E+00
    0.00000E+00         0.00000E+00         0.67692E+04
 
   -0.64278E+06         0.25054E+06         0.00000E+00
    0.25054E+06         0.68071E+06         0.00000E+00
    0.00000E+00         0.00000E+00         0.75861E+04
 
   -0.61987E+06         0.28129E+06         0.00000E+00
    0.28129E+06         0.66259E+06         0.00000E+00
    0.00000E+00         0.00000E+00         0.85453E+04
 
   -0.59202E+06         0.31055E+06         0.00000E+00
    0.31055E+06         0.64038E+06         0.00000E+00
    0.00000E+00         0.00000E+00         0.96724E+04
 
   -0.55912E+06         0.33764E+06         0.00000E+00
    0.33764E+06         0.61411E+06         0.00000E+00
    0.00000E+00         0.00000E+00         0.10998E+05
 
   -0.52109E+06         0.36182E+06         0.00000E+00
    0.36182E+06         0.58388E+06         0.00000E+00
    0.00000E+00         0.00000E+00         0.12557E+05
 
   -0.47797E+06         0.38233E+06         0.00000E+00
    0.38233E+06         0.54993E+06         0.00000E+00
    0.00000E+00         0.00000E+00         0.14391E+05
 
   -0.42987E+06         0.39838E+06         0.00000E+00
    0.39838E+06         0.51261E+06         0.00000E+00
    0.00000E+00         0.00000E+00         0.16548E+05
 
   -0.37699E+06         0.40918E+06         0.00000E+00
    0.40918E+06         0.47242E+06         0.00000E+00
    0.00000E+00         0.00000E+00         0.19085E+05
 
   -0.31966E+06         0.41394E+06         0.00000E+00
    0.41394E+06         0.42999E+06         0.00000E+00
    0.00000E+00         0.00000E+00         0.22066E+05
 
   -0.25831E+06         0.41189E+06         0.00000E+00
    0.41189E+06         0.38614E+06         0.00000E+00
    0.00000E+00         0.00000E+00         0.25567E+05
 
   -0.19347E+06         0.40230E+06         0.00000E+00
    0.40230E+06         0.34185E+06         0.00000E+00
    0.00000E+00         0.00000E+00         0.29676E+05
 
   -0.12582E+06         0.38450E+06         0.00000E+00
    0.38450E+06         0.29826E+06         0.00000E+00
    0.00000E+00         0.00000E+00         0.34487E+05
 
   -0.56159E+05         0.35791E+06         0.00000E+00
    0.35791E+06         0.25666E+06         0.00000E+00
    0.00000E+00         0.00000E+00         0.40101E+05
 
    0.14618E+05         0.32208E+06         0.00000E+00
    0.32208E+06         0.21861E+06         0.00000E+00
    0.00000E+00         0.00000E+00         0.46645E+05
 
   -0.12159E+07         0.17327E+05         0.00000E+00
    0.17327E+05         0.84103E+06         0.00000E+00
    0.00000E+00         0.00000E+00        -0.74967E+05
 
   -0.11466E+07         0.44314E+05         0.00000E+00
    0.44314E+05         0.83382E+06         0.00000E+00
    0.00000E+00         0.00000E+00        -0.62554E+05
 
   -0.10810E+07         0.67891E+05         0.00000E+00
    0.67891E+05         0.82072E+06         0.00000E+00
    0.00000E+00         0.00000E+00        -0.52049E+05
 
   -0.10190E+07         0.88062E+05         0.00000E+00
    0.88062E+05         0.80298E+06         0.00000E+00
    0.00000E+00         0.00000E+00        -0.43205E+05
 
   -0.96070E+06         0.10488E+06         0.00000E+00
    0.10488E+06         0.78177E+06         0.00000E+00
    0.00000E+00         0.00000E+00        -0.35785E+05
 
   -0.90609E+06         0.11845E+06         0.00000E+00
    0.11845E+06         0.75820E+06         0.00000E+00
    0.00000E+00         0.00000E+00        -0.29579E+05
 
   -0.85522E+06         0.12897E+06         0.00000E+00
    0.12897E+06         0.73321E+06         0.00000E+00
    0.00000E+00         0.00000E+00        -0.24400E+05
 
   -0.80809E+06         0.13666E+06         0.00000E+00
    0.13666E+06         0.70767E+06         0.00000E+00
    0.00000E+00         0.00000E+00        -0.20086E+05
 
   -0.76475E+06         0.14182E+06         0.00000E+00
    0.14182E+06         0.68228E+06         0.00000E+00
    0.00000E+00         0.00000E+00        -0.16494E+05
 
   -0.72518E+06         0.14474E+06         0.00000E+00
    0.14474E+06         0.65765E+06         0.00000E+00
    0.00000E+00         0.00000E+00        -0.13506E+05
 
   -0.68936E+06         0.14577E+06         0.00000E+00
    0.14577E+06         0.63427E+06         0.00000E+00
    0.00000E+00         0.00000E+00        -0.11018E+05
 
   -0.65724E+06         0.14526E+06         0.00000E+00
    0.14526E+06         0.61252E+06         0.00000E+00
    0.00000E+00         0.00000E+00        -0.89449E+04
 
   -0.62874E+06         0.14358E+06         0.00000E+00
    0.14358E+06         0.59266E+06         0.00000E+00
    0.00000E+00         0.00000E+00        -0.72153E+04
 
   -0.60373E+06         0.14109E+06         0.00000E+00
    0.14109E+06         0.57489E+06         0.00000E+00
    0.00000E+00         0.00000E+00        -0.57689E+04
 
   -0.58208E+06         0.13815E+06         0.00000E+00
    0.13815E+06         0.55930E+06         0.00000E+00
    0.00000E+00         0.00000E+00        -0.45561E+04
 
   -0.56359E+06         0.13510E+06         0.00000E+00
    0.13510E+06         0.54591E+06         0.00000E+00
    0.00000E+00         0.00000E+00        -0.35361E+04
 
   -0.54806E+06         0.13225E+06         0.00000E+00
    0.13225E+06         0.53469E+06         0.00000E+00
    0.00000E+00         0.00000E+00        -0.26747E+04
 
   -0.53525E+06         0.12990E+06         0.00000E+00
    0.12990E+06         0.52553E+06         0.00000E+00
    0.00000E+00         0.00000E+00        -0.19442E+04
 
   -0.52489E+06         0.12831E+06         0.00000E+00
    0.12831E+06         0.51828E+06         0.00000E+00
    0.00000E+00         0.00000E+00        -0.13214E+04
 
   -0.51669E+06         0.12771E+06         0.00000E+00
    0.12771E+06         0.51276E+06         0.00000E+00
    0.00000E+00         0.00000E+00        -0.78713E+03
 
   -0.51037E+06         0.12829E+06         0.00000E+00
    0.12829E+06         0.50874E+06         0.00000E+00
    0.00000E+00         0.00000E+00        -0.32540E+03
 
   -0.50559E+06         0.13021E+06         0.00000E+00
    0.13021E+06         0.50597E+06         0.00000E+00
    0.00000E+00         0.00000E+00         0.77189E+02
 
   -0.50203E+06         0.13358E+06         0.00000E+00
    0.13358E+06         0.50419E+06         0.00000E+00
    0.00000E+00         0.00000E+00         0.43202E+03
 
   -0.49937E+06         0.13849E+06         0.00000E+00
    0.13849E+06         0.50311E+06         0.00000E+00
    0.00000E+00         0.00000E+00         0.74885E+03
 
   -0.49726E+06         0.14497E+06         0.00000E+00
    0.14497E+06         0.50244E+06         0.00000E+00
    0.00000E+00         0.00000E+00         0.10362E+04
 
   -0.49538E+06         0.15302E+06         0.00000E+00
    0.15302E+06         0.50188E+06         0.00000E+00
    0.00000E+00         0.00000E+00         0.13014E+04
 
   -0.49339E+06         0.16260E+06         0.00000E+00
    0.16260E+06         0.50114E+06         0.00000E+00
    0.00000E+00         0.00000E+00         0.15515E+04
 
   -0.49096E+06         0.17364E+06         0.00000E+00
    0.17364E+06         0.49993E+06         0.00000E+00
    0.00000E+00         0.00000E+00         0.17924E+04
 
   -0.48780E+06         0.18602E+06         0.00000E+00
    0.18602E+06         0.49795E+06         0.00000E+00
    0.00000E+00         0.00000E+00         0.20301E+04
 
   -0.48358E+06         0.19957E+06         0.00000E+00
    0.19957E+06         0.49493E+06         0.00000E+00
    0.00000E+00         0.00000E+00         0.22701E+04
 
   -0.47804E+06         0.21412E+06         0.00000E+00
    0.21412E+06         0.49063E+06         0.00000E+00
    0.00000E+00         0.00000E+00         0.25180E+04
 
   -0.47090E+06         0.22942E+06         0.00000E+00
    0.22942E+06         0.48480E+06         0.00000E+00
    0.00000E+00         0.00000E+00         0.27794E+04
 
   -0.46193E+06         0.24520E+06         0.00000E+00
    0.24520E+06         0.47723E+06         0.00000E+00
    0.00000E+00         0.00000E+00         0.30601E+04
 
   -0.45091E+06         0.26118E+06         0.00000E+00
    0.26118E+06         0.46774E+06         0.00000E+00
    0.00000E+00         0.00000E+00         0.33664E+04
 
   -0.43766E+06         0.27700E+06         0.00000E+00
    0.27700E+06         0.45618E+06         0.00000E+00
    0.00000E+00         0.00000E+00         0.37053E+04
 
   -0.42202E+06         0.29231E+06         0.00000E+00
    0.29231E+06         0.44244E+06         0.00000E+00
    0.00000E+00         0.00000E+00         0.40844E+04
 
   -0.40390E+06         0.30669E+06         0.00000E+00
    0.30669E+06         0.42646E+06         0.00000E+00
    0.00000E+00         0.00000E+00         0.45124E+04
 
   -0.38323E+06         0.31973E+06         0.00000E+00
    0.31973E+06         0.40823E+06         0.00000E+00
    0.00000E+00         0.00000E+00         0.49996E+04
 
   -0.36000E+06         0.33097E+06         0.00000E+00
    0.33097E+06         0.38779E+06         0.00000E+00
    0.00000E+00         0.00000E+00         0.55575E+04
 
   -0.33424E+06         0.33996E+06         0.00000E+00
    0.33996E+06         0.36524E+06         0.00000E+00
    0.00000E+00         0.00000E+00         0.62000E+04
 
   -0.30606E+06         0.34621E+06         0.00000E+00
    0.34621E+06         0.34078E+06         0.00000E+00
    0.00000E+00         0.00000E+00         0.69430E+04
 
   -0.27562E+06         0.34924E+06         0.00000E+00
    0.34924E+06         0.31465E+06         0.00000E+00
    0.00000E+00         0.00000E+00         0.78053E+04
 
   -0.24314E+06         0.34858E+06         0.00000E+00
    0.34858E+06         0.28719E+06         0.00000E+00
    0.00000E+00         0.00000E+00         0.88086E+04
 
   -0.20893E+06         0.34376E+06         0.00000E+00
    0.34376E+06         0.25882E+06         0.00000E+00
    0.00000E+00         0.00000E+00         0.99782E+04
 
   -0.17335E+06         0.33435E+06         0.00000E+00
    0.33435E+06         0.23006E+06         0.00000E+00
    0.00000E+00         0.00000E+00         0.11343E+05
 
   -0.13684E+06         0.31994E+06         0.00000E+00
    0.31994E+06         0.20152E+06         0.00000E+00
    0.00000E+00         0.00000E+00         0.12937E+05
 
   -0.99905E+05         0.30017E+06         0.00000E+00
    0.30017E+06         0.17388E+06         0.00000E+00
    0.00000E+00         0.00000E+00         0.14796E+05
 
   -0.63142E+05         0.27476E+06         0.00000E+00
    0.27476E+06         0.14795E+06         0.00000E+00
    0.00000E+00         0.00000E+00         0.16961E+05
 
   -0.27192E+05         0.24349E+06         0.00000E+00
    0.24349E+06         0.12459E+06         0.00000E+00
    0.00000E+00         0.00000E+00         0.19480E+05
 
    0.72283E+04         0.20624E+06         0.00000E+00
    0.20624E+06         0.10476E+06         0.00000E+00
    0.00000E+00         0.00000E+00         0.22398E+05
 
   -0.10994E+07         0.19082E+05         0.00000E+00
    0.19082E+05         0.80241E+06         0.00000E+00
    0.00000E+00         0.00000E+00        -0.59392E+05
 
   -0.10439E+07         0.50805E+05         0.00000E+00
    0.50805E+05         0.79630E+06         0.00000E+00
    0.00000E+00         0.00000E+00        -0.49517E+05
 
   -0.99090E+06         0.79722E+05         0.00000E+00
    0.79722E+05         0.78505E+06         0.00000E+00
    0.00000E+00         0.00000E+00        -0.41169E+05
 
   -0.94038E+06         0.10582E+06         0.00000E+00
    0.10582E+06         0.76965E+06         0.00000E+00
    0.00000E+00         0.00000E+00        -0.34146E+05
 
   -0.89229E+06         0.12915E+06         0.00000E+00
    0.12915E+06         0.75099E+06         0.00000E+00
    0.00000E+00         0.00000E+00        -0.28261E+05
 
   -0.84663E+06         0.14978E+06         0.00000E+00
    0.14978E+06         0.72990E+06         0.00000E+00
    0.00000E+00         0.00000E+00        -0.23346E+05
 
   -0.80338E+06         0.16782E+06         0.00000E+00
    0.16782E+06         0.70712E+06         0.00000E+00
    0.00000E+00         0.00000E+00        -0.19253E+05
 
   -0.76254E+06         0.18342E+06         0.00000E+00
    0.18342E+06         0.68329E+06         0.00000E+00
    0.00000E+00         0.00000E+00        -0.15851E+05
 
   -0.72411E+06         0.19675E+06         0.00000E+00
    0.19675E+06         0.65898E+06         0.00000E+00
    0.00000E+00         0.00000E+00        -0.13027E+05
 
   -0.68808E+06         0.20800E+06         0.00000E+00
    0.20800E+06         0.63465E+06         0.00000E+00
    0.00000E+00         0.00000E+00        -0.10685E+05
 
   -0.65442E+06         0.21738E+06         0.00000E+00
    0.21738E+06         0.61072E+06         0.00000E+00
    0.00000E+00         0.00000E+00        -0.87418E+04
 
   -0.62312E+06         0.22512E+06         0.00000E+00
    0.22512E+06         0.58748E+06         0.00000E+00
    0.00000E+00         0.00000E+00        -0.71294E+04
 
   -0.59413E+06         0.23144E+06         0.00000E+00
    0.23144E+06         0.56519E+06         0.00000E+00
    0.00000E+00         0.00000E+00        -0.57891E+04
 
   -0.56739E+06         0.23659E+06         0.00000E+00
    0.23659E+06         0.54403E+06         0.00000E+00
    0.00000E+00         0.00000E+00        -0.46726E+04
 
   -0.54283E+06         0.24079E+06         0.00000E+00
    0.24079E+06         0.52413E+06         0.00000E+00
    0.00000E+00         0.00000E+00        -0.37394E+04
 
   -0.52034E+06         0.24426E+06         0.00000E+00
    0.24426E+06         0.50555E+06         0.00000E+00
    0.00000E+00         0.00000E+00        -0.29564E+04
 
   -0.49981E+06         0.24723E+06         0.00000E+00
    0.24723E+06         0.48833E+06         0.00000E+00
    0.00000E+00         0.00000E+00        -0.22961E+04
 
   -0.48111E+06         0.24989E+06         0.00000E+00
    0.24989E+06         0.47243E+06         0.00000E+00
    0.00000E+00         0.00000E+00        -0.17360E+04
 
   -0.46409E+06         0.25242E+06         0.00000E+00
    0.25242E+06         0.45780E+06         0.00000E+00
    0.00000E+00         0.00000E+00        -0.12576E+04
 
   -0.44860E+06         0.25500E+06         0.00000E+00
    0.25500E+06         0.44437E+06         0.00000E+00
    0.00000E+00         0.00000E+00        -0.84600E+03
 
   -0.43444E+06         0.25776E+06         0.00000E+00
    0.25776E+06         0.43200E+06         0.00000E+00
    0.00000E+00         0.00000E+00        -0.48872E+03
 
   -0.42145E+06         0.26081E+06         0.00000E+00
    0.26081E+06         0.42057E+06         0.00000E+00
    0.00000E+00         0.00000E+00        -0.17572E+03
 
   -0.40942E+06         0.26425E+06         0.00000E+00
    0.26425E+06         0.40993E+06         0.00000E+00
    0.00000E+00         0.00000E+00         0.10125E+03
 
   -0.39816E+06         0.26815E+06         0.00000E+00
    0.26815E+06         0.39990E+06         0.00000E+00
    0.00000E+00         0.00000E+00         0.34897E+03
 
   -0.38745E+06         0.27254E+06         0.00000E+00
    0.27254E+06         0.39032E+06         0.00000E+00
    0.00000E+00         0.00000E+00         0.57306E+03
 
   -0.37711E+06         0.27742E+06         0.00000E+00
    0.27742E+06         0.38100E+06         0.00000E+00
    0.00000E+00         0.00000E+00         0.77817E+03
 
   -0.36693E+06         0.28279E+06         0.00000E+00
    0.28279E+06         0.37177E+06         0.00000E+00
    0.00000E+00         0.00000E+00         0.96823E+03
 
   -0.35672E+06         0.28858E+06         0.00000E+00
    0.28858E+06         0.36245E+06         0.00000E+00
    0.00000E+00         0.00000E+00         0.11466E+04
 
   -0.34629E+06         0.29473E+06         0.00000E+00
    0.29473E+06         0.35287E+06         0.00000E+00
    0.00000E+00         0.00000E+00         0.13161E+04
 
   -0.33546E+06         0.30112E+06         0.00000E+00
    0.30112E+06         0.34286E+06         0.00000E+00
    0.00000E+00         0.00000E+00         0.14793E+04
 
   -0.32409E+06         0.30764E+06         0.00000E+00
    0.30764E+06         0.33229E+06         0.00000E+00
    0.00000E+00         0.00000E+00         0.16385E+04
 
   -0.31203E+06         0.31411E+06         0.00000E+00
    0.31411E+06         0.32101E+06         0.00000E+00
    0.00000E+00         0.00000E+00         0.17959E+04
 
   -0.29916E+06         0.32037E+06         0.00000E+00
    0.32037E+06         0.30893E+06         0.00000E+00
    0.00000E+00         0.00000E+00         0.19537E+04
 
   -0.28539E+06         0.32620E+06         0.00000E+00
    0.32620E+06         0.29596E+06         0.00000E+00
    0.00000E+00         0.00000E+00         0.21138E+04
 
   -0.27064E+06         0.33138E+06         0.00000E+00
    0.33138E+06         0.28203E+06         0.00000E+00
    0.00000E+00         0.00000E+00         0.22785E+04
 
   -0.25487E+06         0.33567E+06         0.00000E+00
    0.33567E+06         0.26712E+06         0.00000E+00
    0.00000E+00         0.00000E+00         0.24502E+04
 
   -0.23808E+06         0.33881E+06         0.00000E+00
    0.33881E+06         0.25124E+06         0.00000E+00
    0.00000E+00         0.00000E+00         0.26315E+04
 
   -0.22030E+06         0.34053E+06         0.00000E+00
    0.34053E+06         0.23443E+06         0.00000E+00
    0.00000E+00         0.00000E+00         0.28252E+04
 
   -0.20160E+06         0.34056E+06         0.00000E+00
    0.34056E+06         0.21677E+06         0.00000E+00
    0.00000E+00         0.00000E+00         0.30348E+04
 
   -0.18207E+06         0.33861E+06         0.00000E+00
    0.33861E+06         0.19839E+06         0.00000E+00
    0.00000E+00         0.00000E+00         0.32640E+04
 
   -0.16188E+06         0.33440E+06         0.00000E+00
    0.33440E+06         0.17947E+06         0.00000E+00
    0.00000E+00         0.00000E+00         0.35170E+04
 
   -0.14122E+06         0.32766E+06         0.00000E+00
    0.32766E+06         0.16021E+06         0.00000E+00
    0.00000E+00         0.00000E+00         0.37988E+04
 
   -0.12032E+06         0.31812E+06         0.00000E+00
    0.31812E+06         0.14089E+06         0.00000E+00
    0.00000E+00         0.00000E+00         0.41149E+04
 
   -0.99469E+05         0.30556E+06         0.00000E+00
    0.30556E+06         0.12183E+06         0.00000E+00
    0.00000E+00         0.00000E+00         0.44713E+04
 
   -0.79003E+05         0.28976E+06         0.00000E+00
    0.28976E+06         0.10338E+06         0.00000E+00
    0.00000E+00         0.00000E+00         0.48748E+04
 
   -0.59297E+05         0.27053E+06         0.00000E+00
    0.27053E+06         0.85959E+05         0.00000E+00
    0.00000E+00         0.00000E+00         0.53324E+04
 
   -0.40769E+05         0.24775E+06         0.00000E+00
    0.24775E+06         0.70029E+05         0.00000E+00
    0.00000E+00         0.00000E+00         0.58521E+04
 
   -0.23880E+05         0.22132E+06         0.00000E+00
    0.22132E+06         0.56090E+05         0.00000E+00
    0.00000E+00         0.00000E+00         0.64419E+04
 
   -0.91283E+04         0.19121E+06         0.00000E+00
    0.19121E+06         0.44676E+05         0.00000E+00
    0.00000E+00         0.00000E+00         0.71096E+04
 
    0.29568E+04         0.15747E+06         0.00000E+00
    0.15747E+06         0.36365E+05         0.00000E+00
    0.00000E+00         0.00000E+00         0.78644E+04
 
   -0.98115E+06         0.19745E+05         0.00000E+00
    0.19745E+05         0.74923E+06         0.00000E+00
    0.00000E+00         0.00000E+00        -0.46384E+05
 
   -0.93727E+06         0.53751E+05         0.00000E+00
    0.53751E+05         0.74397E+06         0.00000E+00
    0.00000E+00         0.00000E+00        -0.38661E+05
 
   -0.89489E+06         0.85365E+05         0.00000E+00
    0.85365E+05         0.73424E+06         0.00000E+00
    0.00000E+00         0.00000E+00        -0.32130E+05
 
   -0.85397E+06         0.11458E+06         0.00000E+00
    0.11458E+06         0.72080E+06         0.00000E+00
    0.00000E+00         0.00000E+00        -0.26634E+05
 
   -0.81450E+06         0.14142E+06         0.00000E+00
    0.14142E+06         0.70435E+06         0.00000E+00
    0.00000E+00         0.00000E+00        -0.22029E+05
 
   -0.77646E+06         0.16593E+06         0.00000E+00
    0.16593E+06         0.68554E+06         0.00000E+00
    0.00000E+00         0.00000E+00        -0.18184E+05
 
   -0.73987E+06         0.18817E+06         0.00000E+00
    0.18817E+06         0.66495E+06         0.00000E+00
    0.00000E+00         0.00000E+00        -0.14983E+05
 
   -0.70470E+06         0.20825E+06         0.00000E+00
    0.20825E+06         0.64308E+06         0.00000E+00
    0.00000E+00         0.00000E+00        -0.12324E+05
 
   -0.67098E+06         0.22627E+06         0.00000E+00
    0.22627E+06         0.62038E+06         0.00000E+00
    0.00000E+00         0.00000E+00        -0.10119E+05
 
   -0.63869E+06         0.24234E+06         0.00000E+00
    0.24234E+06         0.59723E+06         0.00000E+00
    0.00000E+00         0.00000E+00        -0.82921E+04
 
   -0.60783E+06         0.25662E+06         0.00000E+00
    0.25662E+06         0.57393E+06         0.00000E+00
    0.00000E+00         0.00000E+00        -0.67795E+04
 
   -0.57840E+06         0.26924E+06         0.00000E+00
    0.26924E+06         0.55077E+06         0.00000E+00
    0.00000E+00         0.00000E+00        -0.55268E+04
 
   -0.55039E+06         0.28035E+06         0.00000E+00
    0.28035E+06         0.52795E+06         0.00000E+00
    0.00000E+00         0.00000E+00        -0.44880E+04
 
   -0.52377E+06         0.29010E+06         0.00000E+00
    0.29010E+06         0.50564E+06         0.00000E+00
    0.00000E+00         0.00000E+00        -0.36251E+04
 
   -0.49850E+06         0.29865E+06         0.00000E+00
    0.29865E+06         0.48397E+06         0.00000E+00
    0.00000E+00         0.00000E+00        -0.29061E+04
 
   -0.47455E+06         0.30615E+06         0.00000E+00
    0.30615E+06         0.46303E+06         0.00000E+00
    0.00000E+00         0.00000E+00        -0.23047E+04
 
   -0.45186E+06         0.31273E+06         0.00000E+00
    0.31273E+06         0.44287E+06         0.00000E+00
    0.00000E+00         0.00000E+00        -0.17993E+04
 
   -0.43037E+06         0.31853E+06         0.00000E+00
    0.31853E+06         0.42351E+06         0.00000E+00
    0.00000E+00         0.00000E+00        -0.13721E+04
 
   -0.41001E+06         0.32368E+06         0.00000E+00
    0.32368E+06         0.40497E+06         0.00000E+00
    0.00000E+00         0.00000E+00        -0.10085E+04
 
   -0.39069E+06         0.32828E+06         0.00000E+00
    0.32828E+06         0.38720E+06         0.00000E+00
    0.00000E+00         0.00000E+00        -0.69675E+03
 
   -0.37231E+06         0.33244E+06         0.00000E+00
    0.33244E+06         0.37018E+06         0.00000E+00
    0.00000E+00         0.00000E+00        -0.42720E+03
 
   -0.35480E+06         0.33624E+06         0.00000E+00
    0.33624E+06         0.35384E+06         0.00000E+00
    0.00000E+00         0.00000E+00        -0.19217E+03
 
   -0.33804E+06         0.33975E+06         0.00000E+00
    0.33975E+06         0.33811E+06         0.00000E+00
    0.00000E+00         0.00000E+00         0.14544E+02
 
   -0.32192E+06         0.34302E+06         0.00000E+00
    0.34302E+06         0.32291E+06         0.00000E+00
    0.00000E+00         0.00000E+00         0.19787E+03
 
   -0.30635E+06         0.34607E+06         0.00000E+00
    0.34607E+06         0.30816E+06         0.00000E+00
    0.00000E+00         0.00000E+00         0.36173E+03
 
   -0.29122E+06         0.34893E+06         0.00000E+00
    0.34893E+06         0.29376E+06         0.00000E+00
    0.00000E+00         0.00000E+00         0.50920E+03
 
   -0.27642E+06         0.35158E+06         0.00000E+00
    0.35158E+06         0.27963E+06         0.00000E+00
    0.00000E+00         0.00000E+00         0.64265E+03
 
   -0.26185E+06         0.35401E+06         0.00000E+00
    0.35401E+06         0.26567E+06         0.00000E+00
    0.00000E+00         0.00000E+00         0.76392E+03
 
   -0.24743E+06         0.35617E+06         0.00000E+00
    0.35617E+06         0.25181E+06         0.00000E+00
    0.00000E+00         0.00000E+00         0.87436E+03
 
   -0.23308E+06         0.35800E+06         0.00000E+00
    0.35800E+06         0.23795E+06         0.00000E+00
    0.00000E+00         0.00000E+00         0.97497E+03
 
   -0.21872E+06         0.35943E+06         0.00000E+00
    0.35943E+06         0.22405E+06         0.00000E+00
    0.00000E+00         0.00000E+00         0.10664E+04
 
   -0.20429E+06         0.36036E+06         0.00000E+00
    0.36036E+06         0.21003E+06         0.00000E+00
    0.00000E+00         0.00000E+00         0.11490E+04
 
   -0.18976E+06         0.36069E+06         0.00000E+00
    0.36069E+06         0.19588E+06         0.00000E+00
    0.00000E+00         0.00000E+00         0.12229E+04
 
   -0.17511E+06         0.36030E+06         0.00000E+00
    0.36030E+06         0.18155E+06         0.00000E+00
    0.00000E+00         0.00000E+00         0.12880E+04
 
   -0.16032E+06         0.35905E+06         0.00000E+00
    0.35905E+06         0.16704E+06         0.00000E+00
    0.00000E+00         0.00000E+00         0.13441E+04
 
   -0.14543E+06         0.35681E+06         0.00000E+00
    0.35681E+06         0.15238E+06         0.00000E+00
    0.00000E+00         0.00000E+00         0.13905E+04
 
   -0.13047E+06         0.35343E+06         0.00000E+00
    0.35343E+06         0.13760E+06         0.00000E+00
    0.00000E+00         0.00000E+00         0.14265E+04
 
   -0.11552E+06         0.34876E+06         0.00000E+00
    0.34876E+06         0.12277E+06         0.00000E+00
    0.00000E+00         0.00000E+00         0.14511E+04
 
   -0.10066E+06         0.34266E+06         0.00000E+00
    0.34266E+06         0.10797E+06         0.00000E+00
    0.00000E+00         0.00000E+00         0.14627E+04
 
   -0.86025E+05         0.33497E+06         0.00000E+00
    0.33497E+06         0.93324E+05         0.00000E+00
    0.00000E+00         0.00000E+00         0.14598E+04
 
   -0.71764E+05         0.32556E+06         0.00000E+00
    0.32556E+06         0.78963E+05         0.00000E+00
    0.00000E+00         0.00000E+00         0.14399E+04
 
   -0.58057E+05         0.31429E+06         0.00000E+00
    0.31429E+06         0.65057E+05         0.00000E+00
    0.00000E+00         0.00000E+00         0.14001E+04
 
   -0.45115E+05         0.30104E+06         0.00000E+00
    0.30104E+06         0.51799E+05         0.00000E+00
    0.00000E+00         0.00000E+00         0.13368E+04
 
   -0.33178E+05         0.28573E+06         0.00000E+00
    0.28573E+06         0.39405E+05         0.00000E+00
    0.00000E+00         0.00000E+00         0.12454E+04
 
   -0.22515E+05         0.26826E+06         0.00000E+00
    0.26826E+06         0.28116E+05         0.00000E+00
    0.00000E+00         0.00000E+00         0.11202E+04
 
   -0.13419E+05         0.24860E+06         0.00000E+00
    0.24860E+06         0.18190E+05         0.00000E+00
    0.00000E+00         0.00000E+00         0.95414E+03
 
   -0.62132E+04         0.22673E+06         0.00000E+00
    0.22673E+06         0.99071E+04         0.00000E+00
    0.00000E+00         0.00000E+00         0.73878E+03
 
   -0.12397E+04         0.20267E+06         0.00000E+00
    0.20267E+06         0.35595E+04         0.00000E+00
    0.00000E+00         0.00000E+00         0.46396E+03
 
    0.11380E+04         0.17648E+06         0.00000E+00
    0.17648E+06        -0.54712E+03         0.00000E+00
    0.00000E+00         0.00000E+00         0.11817E+03
 
    0.54078E+03         0.14827E+06         0.00000E+00
    0.14827E+06        -0.21005E+04         0.00000E+00
    0.00000E+00         0.00000E+00        -0.31194E+03
 
   -0.86555E+06         0.19420E+05         0.00000E+00
    0.19420E+05         0.68827E+06         0.00000E+00
    0.00000E+00         0.00000E+00        -0.35456E+05
 
   -0.83153E+06         0.53647E+05         0.00000E+00
    0.53647E+05         0.68376E+06         0.00000E+00
    0.00000E+00         0.00000E+00        -0.29553E+05
 
   -0.79817E+06         0.85845E+05         0.00000E+00
    0.85845E+05         0.67537E+06         0.00000E+00
    0.00000E+00         0.00000E+00        -0.24559E+05
 
   -0.76547E+06         0.11599E+06         0.00000E+00
    0.11599E+06         0.66371E+06         0.00000E+00
    0.00000E+00         0.00000E+00        -0.20353E+05
 
   -0.73345E+06         0.14409E+06         0.00000E+00
    0.14409E+06         0.64932E+06         0.00000E+00
    0.00000E+00         0.00000E+00        -0.16828E+05
 
   -0.70212E+06         0.17016E+06         0.00000E+00
    0.17016E+06         0.63271E+06         0.00000E+00
    0.00000E+00         0.00000E+00        -0.13882E+05
 
   -0.67149E+06         0.19424E+06         0.00000E+00
    0.19424E+06         0.61434E+06         0.00000E+00
    0.00000E+00         0.00000E+00        -0.11429E+05
 
   -0.64157E+06         0.21639E+06         0.00000E+00
    0.21639E+06         0.59461E+06         0.00000E+00
    0.00000E+00         0.00000E+00        -0.93911E+04
 
   -0.61238E+06         0.23667E+06         0.00000E+00
    0.23667E+06         0.57388E+06         0.00000E+00
    0.00000E+00         0.00000E+00        -0.77010E+04
 
   -0.58395E+06         0.25515E+06         0.00000E+00
    0.25515E+06         0.55244E+06         0.00000E+00
    0.00000E+00         0.00000E+00        -0.63014E+04
 
   -0.55628E+06         0.27194E+06         0.00000E+00
    0.27194E+06         0.53057E+06         0.00000E+00
    0.00000E+00         0.00000E+00        -0.51432E+04
 
   -0.52940E+06         0.28711E+06         0.00000E+00
    0.28711E+06         0.50848E+06         0.00000E+00
    0.00000E+00         0.00000E+00        -0.41848E+04
 
   -0.50332E+06         0.30077E+06         0.00000E+00
    0.30077E+06         0.48636E+06         0.00000E+00
    0.00000E+00         0.00000E+00        -0.33913E+04
 
   -0.47803E+06         0.31301E+06         0.00000E+00
    0.31301E+06         0.46436E+06         0.00000E+00
    0.00000E+00         0.00000E+00        -0.27333E+04
 
   -0.45354E+06         0.32394E+06         0.00000E+00
    0.32394E+06         0.44260E+06         0.00000E+00
    0.00000E+00         0.00000E+00        -0.21864E+04
 
   -0.42984E+06         0.33366E+06         0.00000E+00
    0.33366E+06         0.42118E+06         0.00000E+00
    0.00000E+00         0.00000E+00        -0.17305E+04
 
   -0.40692E+06         0.34225E+06         0.00000E+00
    0.34225E+06         0.40017E+06         0.00000E+00
    0.00000E+00         0.00000E+00        -0.13488E+04
 
   -0.38476E+06         0.34982E+06         0.00000E+00
    0.34982E+06         0.37962E+06         0.00000E+00
    0.00000E+00         0.00000E+00        -0.10276E+04
 
   -0.36334E+06         0.35645E+06         0.00000E+00
    0.35645E+06         0.35956E+06         0.00000E+00
    0.00000E+00         0.00000E+00        -0.75577E+03
 
   -0.34263E+06         0.36220E+06         0.00000E+00
    0.36220E+06         0.34001E+06         0.00000E+00
    0.00000E+00         0.00000E+00        -0.52423E+03
 
   -0.32259E+06         0.36717E+06         0.00000E+00
    0.36717E+06         0.32097E+06         0.00000E+00
    0.00000E+00         0.00000E+00        -0.32562E+03
 
   -0.30319E+06         0.37139E+06         0.00000E+00
    0.37139E+06         0.30242E+06         0.00000E+00
    0.00000E+00         0.00000E+00        -0.15410E+03
 
   -0.28439E+06         0.37494E+06         0.00000E+00
    0.37494E+06         0.28437E+06         0.00000E+00
    0.00000E+00         0.00000E+00        -0.50130E+01
 
   -0.26614E+06         0.37783E+06         0.00000E+00
    0.37783E+06         0.26677E+06         0.00000E+00
    0.00000E+00         0.00000E+00         0.12529E+03
 
   -0.24841E+06         0.38012E+06         0.00000E+00
    0.38012E+06         0.24961E+06         0.00000E+00
    0.00000E+00         0.00000E+00         0.23961E+03
 
   -0.23115E+06         0.38180E+06         0.00000E+00
    0.38180E+06         0.23285E+06         0.00000E+00
    0.00000E+00         0.00000E+00         0.34006E+03
 
   -0.21432E+06         0.38290E+06         0.00000E+00
    0.38290E+06         0.21646E+06         0.00000E+00
    0.00000E+00         0.00000E+00         0.42816E+03
 
   -0.19788E+06         0.38340E+06         0.00000E+00
    0.38340E+06         0.20041E+06         0.00000E+00
    0.00000E+00         0.00000E+00         0.50492E+03
 
   -0.18182E+06         0.38330E+06         0.00000E+00
    0.38330E+06         0.18467E+06         0.00000E+00
    0.00000E+00         0.00000E+00         0.57094E+03
 
   -0.16610E+06         0.38256E+06         0.00000E+00
    0.38256E+06         0.16923E+06         0.00000E+00
    0.00000E+00         0.00000E+00         0.62644E+03
 
   -0.15071E+06         0.38115E+06         0.00000E+00
    0.38115E+06         0.15406E+06         0.00000E+00
    0.00000E+00         0.00000E+00         0.67130E+03
 
   -0.13564E+06         0.37903E+06         0.00000E+00
    0.37903E+06         0.13917E+06         0.00000E+00
    0.00000E+00         0.00000E+00         0.70504E+03
 
   -0.12091E+06         0.37616E+06         0.00000E+00
    0.37616E+06         0.12454E+06         0.00000E+00
    0.00000E+00         0.00000E+00         0.72689E+03
 
   -0.10652E+06         0.37246E+06         0.00000E+00
    0.37246E+06         0.11020E+06         0.00000E+00
    0.00000E+00         0.00000E+00         0.73573E+03
 
   -0.92517E+05         0.36789E+06         0.00000E+00
    0.36789E+06         0.96167E+05         0.00000E+00
    0.00000E+00         0.00000E+00         0.73006E+03
 
   -0.78943E+05         0.36237E+06         0.00000E+00
    0.36237E+06         0.82483E+05         0.00000E+00
    0.00000E+00         0.00000E+00         0.70797E+03
 
   -0.65860E+05         0.35584E+06         0.00000E+00
    0.35584E+06         0.69196E+05         0.00000E+00
    0.00000E+00         0.00000E+00         0.66706E+03
 
   -0.53349E+05         0.34824E+06         0.00000E+00
    0.34824E+06         0.56371E+05         0.00000E+00
    0.00000E+00         0.00000E+00         0.60439E+03
 
   -0.41506E+05         0.33950E+06         0.00000E+00
    0.33950E+06         0.44087E+05         0.00000E+00
    0.00000E+00         0.00000E+00         0.51629E+03
 
   -0.30445E+05         0.32956E+06         0.00000E+00
    0.32956E+06         0.32437E+05         0.00000E+00
    0.00000E+00         0.00000E+00         0.39832E+03
 
   -0.20301E+05         0.31838E+06         0.00000E+00
    0.31838E+06         0.21526E+05         0.00000E+00
    0.00000E+00         0.00000E+00         0.24504E+03
 
   -0.11224E+05         0.30590E+06         0.00000E+00
    0.30590E+06         0.11473E+05         0.00000E+00
    0.00000E+00         0.00000E+00         0.49861E+02
 
   -0.33829E+04         0.29211E+06         0.00000E+00
    0.29211E+06         0.24069E+04         0.00000E+00
    0.00000E+00         0.00000E+00        -0.19518E+03
 
    0.30350E+04         0.27699E+06         0.00000E+00
    0.27699E+06        -0.55333E+04         0.00000E+00
    0.00000E+00         0.00000E+00        -0.49967E+03
 
    0.78263E+04         0.26054E+06         0.00000E+00
    0.26054E+06        -0.12201E+05         0.00000E+00
    0.00000E+00         0.00000E+00        -0.87500E+03
 
    0.10772E+05         0.24279E+06         0.00000E+00
    0.24279E+06        -0.17446E+05         0.00000E+00
    0.00000E+00         0.00000E+00        -0.13347E+04
 
    0.11639E+05         0.22379E+06         0.00000E+00
    0.22379E+06        -0.21112E+05         0.00000E+00
    0.00000E+00         0.00000E+00        -0.18945E+04
 
    0.10183E+05         0.20360E+06         0.00000E+00
    0.20360E+06        -0.23046E+05         0.00000E+00
    0.00000E+00         0.00000E+00        -0.25726E+04
 
    0.61498E+04         0.18233E+06         0.00000E+00
    0.18233E+06        -0.23097E+05         0.00000E+00
    0.00000E+00         0.00000E+00        -0.33895E+04
 
   -0.72176E+03         0.16011E+06         0.00000E+00
    0.16011E+06        -0.21116E+05         0.00000E+00
    0.00000E+00         0.00000E+00        -0.43676E+04
 
   -0.75657E+06         0.18336E+05         0.00000E+00
    0.18336E+05         0.62454E+06         0.00000E+00
    0.00000E+00         0.00000E+00        -0.26407E+05
 
   -0.73079E+06         0.51222E+05         0.00000E+00
    0.51222E+05         0.62071E+06         0.00000E+00
    0.00000E+00         0.00000E+00        -0.22016E+05
 
   -0.70505E+06         0.82417E+05         0.00000E+00
    0.82417E+05         0.61356E+06         0.00000E+00
    0.00000E+00         0.00000E+00        -0.18298E+05
 
   -0.67938E+06         0.11188E+06         0.00000E+00
    0.11188E+06         0.60356E+06         0.00000E+00
    0.00000E+00         0.00000E+00        -0.15164E+05
 
   -0.65381E+06         0.13961E+06         0.00000E+00
    0.13961E+06         0.59114E+06         0.00000E+00
    0.00000E+00         0.00000E+00        -0.12535E+05
 
   -0.62837E+06         0.16558E+06         0.00000E+00
    0.16558E+06         0.57669E+06         0.00000E+00
    0.00000E+00         0.00000E+00        -0.10336E+05
 
   -0.60309E+06         0.18983E+06         0.00000E+00
    0.18983E+06         0.56057E+06         0.00000E+00
    0.00000E+00         0.00000E+00        -0.85043E+04
 
   -0.57801E+06         0.21236E+06         0.00000E+00
    0.21236E+06         0.54310E+06         0.00000E+00
    0.00000E+00         0.00000E+00        -0.69813E+04
 
   -0.55316E+06         0.23323E+06         0.00000E+00
    0.23323E+06         0.52457E+06         0.00000E+00
    0.00000E+00         0.00000E+00        -0.57180E+04
 
   -0.52859E+06         0.25247E+06         0.00000E+00
    0.25247E+06         0.50523E+06         0.00000E+00
    0.00000E+00         0.00000E+00        -0.46716E+04
 
   -0.50431E+06         0.27014E+06         0.00000E+00
    0.27014E+06         0.48528E+06         0.00000E+00
    0.00000E+00         0.00000E+00        -0.38058E+04
 
   -0.48037E+06         0.28630E+06         0.00000E+00
    0.28630E+06         0.46492E+06         0.00000E+00
    0.00000E+00         0.00000E+00        -0.30897E+04
 
   -0.45679E+06         0.30101E+06         0.00000E+00
    0.30101E+06         0.44431E+06         0.00000E+00
    0.00000E+00         0.00000E+00        -0.24974E+04
 
   -0.43361E+06         0.31433E+06         0.00000E+00
    0.31433E+06         0.42357E+06         0.00000E+00
    0.00000E+00         0.00000E+00        -0.20069E+04
 
   -0.41084E+06         0.32633E+06         0.00000E+00
    0.32633E+06         0.40284E+06         0.00000E+00
    0.00000E+00         0.00000E+00        -0.16002E+04
 
   -0.38850E+06         0.33708E+06         0.00000E+00
    0.33708E+06         0.38219E+06         0.00000E+00
    0.00000E+00         0.00000E+00        -0.12621E+04
 
   -0.36662E+06         0.34663E+06         0.00000E+00
    0.34663E+06         0.36172E+06         0.00000E+00
    0.00000E+00         0.00000E+00        -0.98018E+03
 
   -0.34520E+06         0.35506E+06         0.00000E+00
    0.35506E+06         0.34148E+06         0.00000E+00
    0.00000E+00         0.00000E+00        -0.74415E+03
 
   -0.32424E+06         0.36242E+06         0.00000E+00
    0.36242E+06         0.32151E+06         0.00000E+00
    0.00000E+00         0.00000E+00        -0.54565E+03
 
   -0.30377E+06         0.36877E+06         0.00000E+00
    0.36877E+06         0.30188E+06         0.00000E+00
    0.00000E+00         0.00000E+00        -0.37791E+03
 
   -0.28377E+06         0.37416E+06         0.00000E+00
    0.37416E+06         0.28259E+06         0.00000E+00
    0.00000E+00         0.00000E+00        -0.23544E+03
 
   -0.26425E+06         0.37864E+06         0.00000E+00
    0.37864E+06         0.26368E+06         0.00000E+00
    0.00000E+00         0.00000E+00        -0.11388E+03
 
   -0.24520E+06         0.38224E+06         0.00000E+00
    0.38224E+06         0.24515E+06         0.00000E+00
    0.00000E+00         0.00000E+00        -0.97810E+01
 
   -0.22664E+06         0.38500E+06         0.00000E+00
    0.38500E+06         0.22703E+06         0.00000E+00
    0.00000E+00         0.00000E+00         0.79515E+02
 
   -0.20854E+06         0.38695E+06         0.00000E+00
    0.38695E+06         0.20932E+06         0.00000E+00
    0.00000E+00         0.00000E+00         0.15603E+03
 
   -0.19092E+06         0.38811E+06         0.00000E+00
    0.38811E+06         0.19202E+06         0.00000E+00
    0.00000E+00         0.00000E+00         0.22123E+03
 
   -0.17376E+06         0.38851E+06         0.00000E+00
    0.38851E+06         0.17514E+06         0.00000E+00
    0.00000E+00         0.00000E+00         0.27610E+03
 
   -0.15709E+06         0.38814E+06         0.00000E+00
    0.38814E+06         0.15869E+06         0.00000E+00
    0.00000E+00         0.00000E+00         0.32124E+03
 
   -0.14089E+06         0.38701E+06         0.00000E+00
    0.38701E+06         0.14267E+06         0.00000E+00
    0.00000E+00         0.00000E+00         0.35685E+03
 
   -0.12519E+06         0.38513E+06         0.00000E+00
    0.38513E+06         0.12710E+06         0.00000E+00
    0.00000E+00         0.00000E+00         0.38282E+03
 
   -0.10999E+06         0.38249E+06         0.00000E+00
    0.38249E+06         0.11198E+06         0.00000E+00
    0.00000E+00         0.00000E+00         0.39870E+03
 
   -0.95328E+05         0.37909E+06         0.00000E+00
    0.37909E+06         0.97347E+05         0.00000E+00
    0.00000E+00         0.00000E+00         0.40373E+03
 
   -0.81226E+05         0.37490E+06         0.00000E+00
    0.37490E+06         0.83210E+05         0.00000E+00
    0.00000E+00         0.00000E+00         0.39681E+03
 
   -0.67723E+05         0.36992E+06         0.00000E+00
    0.36992E+06         0.69605E+05         0.00000E+00
    0.00000E+00         0.00000E+00         0.37648E+03
 
   -0.54865E+05         0.36412E+06         0.00000E+00
    0.36412E+06         0.56569E+05         0.00000E+00
    0.00000E+00         0.00000E+00         0.34085E+03
 
   -0.42708E+05         0.35751E+06         0.00000E+00
    0.35751E+06         0.44146E+05         0.00000E+00
    0.00000E+00         0.00000E+00         0.28760E+03
 
   -0.31317E+05         0.35005E+06         0.00000E+00
    0.35005E+06         0.32386E+05         0.00000E+00
    0.00000E+00         0.00000E+00         0.21381E+03
 
   -0.20768E+05         0.34174E+06         0.00000E+00
    0.34174E+06         0.21348E+05         0.00000E+00
    0.00000E+00         0.00000E+00         0.11595E+03
 
   -0.11147E+05         0.33258E+06         0.00000E+00
    0.33258E+06         0.11095E+05         0.00000E+00
    0.00000E+00         0.00000E+00        -0.10329E+02
 
   -0.25499E+04         0.32255E+06         0.00000E+00
    0.32255E+06         0.16985E+04         0.00000E+00
    0.00000E+00         0.00000E+00        -0.17027E+03
 
    0.49156E+04         0.31166E+06         0.00000E+00
    0.31166E+06        -0.67668E+04         0.00000E+00
    0.00000E+00         0.00000E+00        -0.37023E+03
 
    0.11132E+05         0.29993E+06         0.00000E+00
    0.29993E+06        -0.14221E+05         0.00000E+00
    0.00000E+00         0.00000E+00        -0.61786E+03
 
    0.15971E+05         0.28738E+06         0.00000E+00
    0.28738E+06        -0.20582E+05         0.00000E+00
    0.00000E+00         0.00000E+00        -0.92230E+03
 
    0.19295E+05         0.27403E+06         0.00000E+00
    0.27403E+06        -0.25767E+05         0.00000E+00
    0.00000E+00         0.00000E+00        -0.12945E+04
 
    0.20957E+05         0.25994E+06         0.00000E+00
    0.25994E+06        -0.29694E+05         0.00000E+00
    0.00000E+00         0.00000E+00        -0.17473E+04
 
    0.20804E+05         0.24517E+06         0.00000E+00
    0.24517E+06        -0.32283E+05         0.00000E+00
    0.00000E+00         0.00000E+00        -0.22957E+04
 
    0.18673E+05         0.22979E+06         0.00000E+00
    0.22979E+06        -0.33460E+05         0.00000E+00
    0.00000E+00         0.00000E+00        -0.29574E+04
 
    0.14397E+05         0.21389E+06         0.00000E+00
    0.21389E+06        -0.33158E+05         0.00000E+00
    0.00000E+00         0.00000E+00        -0.37522E+04
 
    0.78082E+04         0.19759E+06         0.00000E+00
    0.19759E+06        -0.31320E+05         0.00000E+00
    0.00000E+00         0.00000E+00        -0.47024E+04
 
   -0.12659E+04         0.18101E+06         0.00000E+00
    0.18101E+06        -0.27896E+05         0.00000E+00
    0.00000E+00         0.00000E+00        -0.58324E+04
 
   -0.65710E+06         0.16755E+05         0.00000E+00
    0.16755E+05         0.56162E+06         0.00000E+00
    0.00000E+00         0.00000E+00        -0.19095E+05
 
   -0.63805E+06         0.47246E+05         0.00000E+00
    0.47246E+05         0.55842E+06         0.00000E+00
    0.00000E+00         0.00000E+00        -0.15926E+05
 
   -0.61862E+06         0.76361E+05         0.00000E+00
    0.76361E+05         0.55242E+06         0.00000E+00
    0.00000E+00         0.00000E+00        -0.13239E+05
 
   -0.59884E+06         0.10405E+06         0.00000E+00
    0.10405E+06         0.54398E+06         0.00000E+00
    0.00000E+00         0.00000E+00        -0.10973E+05
 
   -0.57877E+06         0.13029E+06         0.00000E+00
    0.13029E+06         0.53342E+06         0.00000E+00
    0.00000E+00         0.00000E+00        -0.90689E+04
 
   -0.55844E+06         0.15505E+06         0.00000E+00
    0.15505E+06         0.52106E+06         0.00000E+00
    0.00000E+00         0.00000E+00        -0.74759E+04
 
   -0.53791E+06         0.17833E+06         0.00000E+00
    0.17833E+06         0.50717E+06         0.00000E+00
    0.00000E+00         0.00000E+00        -0.61472E+04
 
   -0.51722E+06         0.20013E+06         0.00000E+00
    0.20013E+06         0.49201E+06         0.00000E+00
    0.00000E+00         0.00000E+00        -0.50420E+04
 
   -0.49643E+06         0.22048E+06         0.00000E+00
    0.22048E+06         0.47580E+06         0.00000E+00
    0.00000E+00         0.00000E+00        -0.41248E+04
 
   -0.47557E+06         0.23938E+06         0.00000E+00
    0.23938E+06         0.45874E+06         0.00000E+00
    0.00000E+00         0.00000E+00        -0.33649E+04
 
   -0.45469E+06         0.25688E+06         0.00000E+00
    0.25688E+06         0.44101E+06         0.00000E+00
    0.00000E+00         0.00000E+00        -0.27362E+04
 
   -0.43385E+06         0.27300E+06         0.00000E+00
    0.27300E+06         0.42277E+06         0.00000E+00
    0.00000E+00         0.00000E+00        -0.22165E+04
 
   -0.41308E+06         0.28778E+06         0.00000E+00
    0.28778E+06         0.40415E+06         0.00000E+00
    0.00000E+00         0.00000E+00        -0.17869E+04
 
   -0.39243E+06         0.30127E+06         0.00000E+00
    0.30127E+06         0.38527E+06         0.00000E+00
    0.00000E+00         0.00000E+00        -0.14318E+04
 
   -0.37193E+06         0.31350E+06         0.00000E+00
    0.31350E+06         0.36624E+06         0.00000E+00
    0.00000E+00         0.00000E+00        -0.11379E+04
 
   -0.35162E+06         0.32452E+06         0.00000E+00
    0.32452E+06         0.34715E+06         0.00000E+00
    0.00000E+00         0.00000E+00        -0.89432E+03
 
   -0.33153E+06         0.33437E+06         0.00000E+00
    0.33437E+06         0.32807E+06         0.00000E+00
    0.00000E+00         0.00000E+00        -0.69204E+03
 
   -0.31170E+06         0.34311E+06         0.00000E+00
    0.34311E+06         0.30908E+06         0.00000E+00
    0.00000E+00         0.00000E+00        -0.52362E+03
 
   -0.29215E+06         0.35076E+06         0.00000E+00
    0.35076E+06         0.29024E+06         0.00000E+00
    0.00000E+00         0.00000E+00        -0.38297E+03
 
   -0.27292E+06         0.35737E+06         0.00000E+00
    0.35737E+06         0.27159E+06         0.00000E+00
    0.00000E+00         0.00000E+00        -0.26516E+03
 
   -0.25401E+06         0.36298E+06         0.00000E+00
    0.36298E+06         0.25318E+06         0.00000E+00
    0.00000E+00         0.00000E+00        -0.16620E+03
 
   -0.23547E+06         0.36762E+06         0.00000E+00
    0.36762E+06         0.23505E+06         0.00000E+00
    0.00000E+00         0.00000E+00        -0.82919E+02
 
   -0.21730E+06         0.37134E+06         0.00000E+00
    0.37134E+06         0.21724E+06         0.00000E+00
    0.00000E+00         0.00000E+00        -0.12835E+02
 
   -0.19953E+06         0.37416E+06         0.00000E+00
    0.37416E+06         0.19976E+06         0.00000E+00
    0.00000E+00         0.00000E+00         0.45976E+02
 
   -0.18219E+06         0.37611E+06         0.00000E+00
    0.37611E+06         0.18266E+06         0.00000E+00
    0.00000E+00         0.00000E+00         0.94947E+02
 
   -0.16529E+06         0.37722E+06         0.00000E+00
    0.37722E+06         0.16596E+06         0.00000E+00
    0.00000E+00         0.00000E+00         0.13510E+03
 
   -0.14885E+06         0.37751E+06         0.00000E+00
    0.37751E+06         0.14969E+06         0.00000E+00
    0.00000E+00         0.00000E+00         0.16708E+03
 
   -0.13290E+06         0.37699E+06         0.00000E+00
    0.37699E+06         0.13386E+06         0.00000E+00
    0.00000E+00         0.00000E+00         0.19124E+03
 
   -0.11747E+06         0.37570E+06         0.00000E+00
    0.37570E+06         0.11851E+06         0.00000E+00
    0.00000E+00         0.00000E+00         0.20761E+03
 
   -0.10258E+06         0.37364E+06         0.00000E+00
    0.37364E+06         0.10366E+06         0.00000E+00
    0.00000E+00         0.00000E+00         0.21597E+03
 
   -0.88265E+05         0.37083E+06         0.00000E+00
    0.37083E+06         0.89344E+05         0.00000E+00
    0.00000E+00         0.00000E+00         0.21580E+03
 
   -0.74561E+05         0.36728E+06         0.00000E+00
    0.36728E+06         0.75592E+05         0.00000E+00
    0.00000E+00         0.00000E+00         0.20632E+03
 
   -0.61505E+05         0.36301E+06         0.00000E+00
    0.36301E+06         0.62437E+05         0.00000E+00
    0.00000E+00         0.00000E+00         0.18645E+03
 
   -0.49142E+05         0.35802E+06         0.00000E+00
    0.35802E+06         0.49916E+05         0.00000E+00
    0.00000E+00         0.00000E+00         0.15476E+03
 
   -0.37521E+05         0.35233E+06         0.00000E+00
    0.35233E+06         0.38068E+05         0.00000E+00
    0.00000E+00         0.00000E+00         0.10947E+03
 
   -0.26694E+05         0.34597E+06         0.00000E+00
    0.34597E+06         0.26936E+05         0.00000E+00
    0.00000E+00         0.00000E+00         0.48327E+02
 
   -0.16722E+05         0.33893E+06         0.00000E+00
    0.33893E+06         0.16565E+05         0.00000E+00
    0.00000E+00         0.00000E+00        -0.31403E+02
 
   -0.76691E+04         0.33124E+06         0.00000E+00
    0.33124E+06         0.70037E+04         0.00000E+00
    0.00000E+00         0.00000E+00        -0.13308E+03
 
    0.39486E+03         0.32294E+06         0.00000E+00
    0.32294E+06        -0.16988E+04         0.00000E+00
    0.00000E+00         0.00000E+00        -0.26079E+03
 
    0.73936E+04         0.31403E+06         0.00000E+00
    0.31403E+06        -0.94910E+04         0.00000E+00
    0.00000E+00         0.00000E+00        -0.41947E+03
 
    0.13246E+05         0.30457E+06         0.00000E+00
    0.30457E+06        -0.16321E+05         0.00000E+00
    0.00000E+00         0.00000E+00        -0.61506E+03
 
    0.17864E+05         0.29459E+06         0.00000E+00
    0.29459E+06        -0.22138E+05         0.00000E+00
    0.00000E+00         0.00000E+00        -0.85471E+03
 
    0.21158E+05         0.28413E+06         0.00000E+00
    0.28413E+06        -0.26892E+05         0.00000E+00
    0.00000E+00         0.00000E+00        -0.11469E+04
 
    0.23030E+05         0.27326E+06         0.00000E+00
    0.27326E+06        -0.30538E+05         0.00000E+00
    0.00000E+00         0.00000E+00        -0.15017E+04
 
    0.23380E+05         0.26203E+06         0.00000E+00
    0.26203E+06        -0.33035E+05         0.00000E+00
    0.00000E+00         0.00000E+00        -0.19310E+04
 
    0.22105E+05         0.25053E+06         0.00000E+00
    0.25053E+06        -0.34348E+05         0.00000E+00
    0.00000E+00         0.00000E+00        -0.24486E+04
 
    0.19098E+05         0.23884E+06         0.00000E+00
    0.23884E+06        -0.34450E+05         0.00000E+00
    0.00000E+00         0.00000E+00        -0.30705E+04
 
    0.14254E+05         0.22704E+06         0.00000E+00
    0.22704E+06        -0.33326E+05         0.00000E+00
    0.00000E+00         0.00000E+00        -0.38146E+04
 
    0.74637E+04         0.21525E+06         0.00000E+00
    0.21525E+06        -0.30969E+05         0.00000E+00
    0.00000E+00         0.00000E+00        -0.47011E+04
 
   -0.13760E+04         0.20357E+06         0.00000E+00
    0.20357E+06        -0.27384E+05         0.00000E+00
    0.00000E+00         0.00000E+00        -0.57519E+04
 
   -0.56874E+06         0.14914E+05         0.00000E+00
    0.14914E+05         0.50196E+06         0.00000E+00
    0.00000E+00         0.00000E+00        -0.13357E+05
 
   -0.55505E+06         0.42406E+05         0.00000E+00
    0.42406E+05         0.49932E+06         0.00000E+00
    0.00000E+00         0.00000E+00        -0.11145E+05
 
   -0.54070E+06         0.68810E+05         0.00000E+00
    0.68810E+05         0.49437E+06         0.00000E+00
    0.00000E+00         0.00000E+00        -0.92667E+04
 
   -0.52576E+06         0.94070E+05         0.00000E+00
    0.94070E+05         0.48736E+06         0.00000E+00
    0.00000E+00         0.00000E+00        -0.76807E+04
 
   -0.51028E+06         0.11814E+06         0.00000E+00
    0.11814E+06         0.47854E+06         0.00000E+00
    0.00000E+00         0.00000E+00        -0.63472E+04
 
   -0.49430E+06         0.14100E+06         0.00000E+00
    0.14100E+06         0.46815E+06         0.00000E+00
    0.00000E+00         0.00000E+00        -0.52303E+04
 
   -0.47789E+06         0.16262E+06         0.00000E+00
    0.16262E+06         0.45640E+06         0.00000E+00
    0.00000E+00         0.00000E+00        -0.42980E+04
 
   -0.46109E+06         0.18300E+06         0.00000E+00
    0.18300E+06         0.44348E+06         0.00000E+00
    0.00000E+00         0.00000E+00        -0.35220E+04
 
   -0.44397E+06         0.20213E+06         0.00000E+00
    0.20213E+06         0.42958E+06         0.00000E+00
    0.00000E+00         0.00000E+00        -0.28777E+04
 
   -0.42657E+06         0.22002E+06         0.00000E+00
    0.22002E+06         0.41485E+06         0.00000E+00
    0.00000E+00         0.00000E+00        -0.23439E+04
 
   -0.40896E+06         0.23668E+06         0.00000E+00
    0.23668E+06         0.39944E+06         0.00000E+00
    0.00000E+00         0.00000E+00        -0.19023E+04
 
   -0.39117E+06         0.25213E+06         0.00000E+00
    0.25213E+06         0.38348E+06         0.00000E+00
    0.00000E+00         0.00000E+00        -0.15375E+04
 
   -0.37327E+06         0.26638E+06         0.00000E+00
    0.26638E+06         0.36709E+06         0.00000E+00
    0.00000E+00         0.00000E+00        -0.12363E+04
 
   -0.35530E+06         0.27947E+06         0.00000E+00
    0.27947E+06         0.35037E+06         0.00000E+00
    0.00000E+00         0.00000E+00        -0.98770E+03
 
   -0.33732E+06         0.29142E+06         0.00000E+00
    0.29142E+06         0.33340E+06         0.00000E+00
    0.00000E+00         0.00000E+00        -0.78255E+03
 
   -0.31935E+06         0.30225E+06         0.00000E+00
    0.30225E+06         0.31629E+06         0.00000E+00
    0.00000E+00         0.00000E+00        -0.61313E+03
 
   -0.30146E+06         0.31200E+06         0.00000E+00
    0.31200E+06         0.29910E+06         0.00000E+00
    0.00000E+00         0.00000E+00        -0.47310E+03
 
   -0.28368E+06         0.32070E+06         0.00000E+00
    0.32070E+06         0.28189E+06         0.00000E+00
    0.00000E+00         0.00000E+00        -0.35723E+03
 
   -0.26605E+06         0.32837E+06         0.00000E+00
    0.32837E+06         0.26474E+06         0.00000E+00
    0.00000E+00         0.00000E+00        -0.26123E+03
 
   -0.24860E+06         0.33506E+06         0.00000E+00
    0.33506E+06         0.24770E+06         0.00000E+00
    0.00000E+00         0.00000E+00        -0.18161E+03
 
   -0.23138E+06         0.34078E+06         0.00000E+00
    0.34078E+06         0.23081E+06         0.00000E+00
    0.00000E+00         0.00000E+00        -0.11559E+03
 
   -0.21443E+06         0.34557E+06         0.00000E+00
    0.34557E+06         0.21412E+06         0.00000E+00
    0.00000E+00         0.00000E+00        -0.60904E+02
 
   -0.19776E+06         0.34946E+06         0.00000E+00
    0.34946E+06         0.19768E+06         0.00000E+00
    0.00000E+00         0.00000E+00        -0.15808E+02
 
   -0.18142E+06         0.35248E+06         0.00000E+00
    0.35248E+06         0.18153E+06         0.00000E+00
    0.00000E+00         0.00000E+00         0.21052E+02
 
   -0.16545E+06         0.35466E+06         0.00000E+00
    0.35466E+06         0.16570E+06         0.00000E+00
    0.00000E+00         0.00000E+00         0.50679E+02
 
   -0.14986E+06         0.35602E+06         0.00000E+00
    0.35602E+06         0.15023E+06         0.00000E+00
    0.00000E+00         0.00000E+00         0.73776E+02
 
   -0.13471E+06         0.35658E+06         0.00000E+00
    0.35658E+06         0.13516E+06         0.00000E+00
    0.00000E+00         0.00000E+00         0.90782E+02
 
   -0.12001E+06         0.35639E+06         0.00000E+00
    0.35639E+06         0.12052E+06         0.00000E+00
    0.00000E+00         0.00000E+00         0.10190E+03
 
   -0.10580E+06         0.35545E+06         0.00000E+00
    0.35545E+06         0.10634E+06         0.00000E+00
    0.00000E+00         0.00000E+00         0.10712E+03
 
   -0.92129E+05         0.35380E+06         0.00000E+00
    0.35380E+06         0.92660E+05         0.00000E+00
    0.00000E+00         0.00000E+00         0.10619E+03
 
   -0.79020E+05         0.35146E+06         0.00000E+00
    0.35146E+06         0.79514E+05         0.00000E+00
    0.00000E+00         0.00000E+00         0.98699E+02
 
   -0.66516E+05         0.34846E+06         0.00000E+00
    0.34846E+06         0.66935E+05         0.00000E+00
    0.00000E+00         0.00000E+00         0.83967E+02
 
   -0.54656E+05         0.34483E+06         0.00000E+00
    0.34483E+06         0.54961E+05         0.00000E+00
    0.00000E+00         0.00000E+00         0.61096E+02
 
   -0.43483E+05         0.34058E+06         0.00000E+00
    0.34058E+06         0.43628E+05         0.00000E+00
    0.00000E+00         0.00000E+00         0.28916E+02
 
   -0.33042E+05         0.33576E+06         0.00000E+00
    0.33576E+06         0.32971E+05         0.00000E+00
    0.00000E+00         0.00000E+00        -0.14050E+02
 
   -0.23379E+05         0.33038E+06         0.00000E+00
    0.33038E+06         0.23031E+05         0.00000E+00
    0.00000E+00         0.00000E+00        -0.69634E+02
 
   -0.14544E+05         0.32449E+06         0.00000E+00
    0.32449E+06         0.13843E+05         0.00000E+00
    0.00000E+00         0.00000E+00        -0.14009E+03
 
   -0.65883E+04         0.31813E+06         0.00000E+00
    0.31813E+06         0.54474E+04         0.00000E+00
    0.00000E+00         0.00000E+00        -0.22817E+03
 
    0.43341E+03         0.31132E+06         0.00000E+00
    0.31132E+06        -0.21194E+04         0.00000E+00
    0.00000E+00         0.00000E+00        -0.33720E+03
 
    0.64648E+04         0.30413E+06         0.00000E+00
    0.30413E+06        -0.88208E+04         0.00000E+00
    0.00000E+00         0.00000E+00        -0.47121E+03
 
    0.11447E+05         0.29658E+06         0.00000E+00
    0.29658E+06        -0.14622E+05         0.00000E+00
    0.00000E+00         0.00000E+00        -0.63503E+03
 
    0.15320E+05         0.28874E+06         0.00000E+00
    0.28874E+06        -0.19492E+05         0.00000E+00
    0.00000E+00         0.00000E+00        -0.83446E+03
 
    0.18021E+05         0.28067E+06         0.00000E+00
    0.28067E+06        -0.23403E+05         0.00000E+00
    0.00000E+00         0.00000E+00        -0.10764E+04
 
    0.19487E+05         0.27242E+06         0.00000E+00
    0.27242E+06        -0.26332E+05         0.00000E+00
    0.00000E+00         0.00000E+00        -0.13689E+04
 
    0.19654E+05         0.26407E+06         0.00000E+00
    0.26407E+06        -0.28261E+05         0.00000E+00
    0.00000E+00         0.00000E+00        -0.17215E+04
 
    0.18456E+05         0.25569E+06         0.00000E+00
    0.25569E+06        -0.29182E+05         0.00000E+00
    0.00000E+00         0.00000E+00        -0.21452E+04
 
    0.15829E+05         0.24736E+06         0.00000E+00
    0.24736E+06        -0.29093E+05         0.00000E+00
    0.00000E+00         0.00000E+00        -0.26529E+04
 
    0.11711E+05         0.23918E+06         0.00000E+00
    0.23918E+06        -0.28005E+05         0.00000E+00
    0.00000E+00         0.00000E+00        -0.32587E+04
 
    0.60402E+04         0.23122E+06         0.00000E+00
    0.23122E+06        -0.25934E+05         0.00000E+00
    0.00000E+00         0.00000E+00        -0.39787E+04
 
   -0.12408E+04         0.22359E+06         0.00000E+00
    0.22359E+06        -0.22909E+05         0.00000E+00
    0.00000E+00         0.00000E+00        -0.48300E+04
 
   -0.49200E+06         0.13001E+05         0.00000E+00
    0.13001E+05         0.44703E+06         0.00000E+00
    0.00000E+00         0.00000E+00        -0.89939E+04
 
   -0.48244E+06         0.37257E+05         0.00000E+00
    0.37257E+05         0.44490E+06         0.00000E+00
    0.00000E+00         0.00000E+00        -0.75071E+04
 
   -0.47209E+06         0.60674E+05         0.00000E+00
    0.60674E+05         0.44088E+06         0.00000E+00
    0.00000E+00         0.00000E+00        -0.62432E+04
 
   -0.46102E+06         0.83197E+05         0.00000E+00
    0.83197E+05         0.43515E+06         0.00000E+00
    0.00000E+00         0.00000E+00        -0.51744E+04
 
   -0.44927E+06         0.10478E+06         0.00000E+00
    0.10478E+06         0.42790E+06         0.00000E+00
    0.00000E+00         0.00000E+00        -0.42748E+04
 
   -0.43691E+06         0.12538E+06         0.00000E+00
    0.12538E+06         0.41930E+06         0.00000E+00
    0.00000E+00         0.00000E+00        -0.35205E+04
 
   -0.42398E+06         0.14498E+06         0.00000E+00
    0.14498E+06         0.40952E+06         0.00000E+00
    0.00000E+00         0.00000E+00        -0.28904E+04
 
   -0.41054E+06         0.16355E+06         0.00000E+00
    0.16355E+06         0.39871E+06         0.00000E+00
    0.00000E+00         0.00000E+00        -0.23657E+04
 
   -0.39665E+06         0.18108E+06         0.00000E+00
    0.18108E+06         0.38700E+06         0.00000E+00
    0.00000E+00         0.00000E+00        -0.19299E+04
 
   -0.38237E+06         0.19757E+06         0.00000E+00
    0.19757E+06         0.37452E+06         0.00000E+00
    0.00000E+00         0.00000E+00        -0.15689E+04
 
   -0.36774E+06         0.21302E+06         0.00000E+00
    0.21302E+06         0.36139E+06         0.00000E+00
    0.00000E+00         0.00000E+00        -0.12704E+04
 
   -0.35283E+06         0.22744E+06         0.00000E+00
    0.22744E+06         0.34771E+06         0.00000E+00
    0.00000E+00         0.00000E+00        -0.10241E+04
 
   -0.33769E+06         0.24082E+06         0.00000E+00
    0.24082E+06         0.33358E+06         0.00000E+00
    0.00000E+00         0.00000E+00        -0.82109E+03
 
   -0.32236E+06         0.25318E+06         0.00000E+00
    0.25318E+06         0.31909E+06         0.00000E+00
    0.00000E+00         0.00000E+00        -0.65398E+03
 
   -0.30691E+06         0.26455E+06         0.00000E+00
    0.26455E+06         0.30432E+06         0.00000E+00
    0.00000E+00         0.00000E+00        -0.51653E+03
 
   -0.29137E+06         0.27492E+06         0.00000E+00
    0.27492E+06         0.28935E+06         0.00000E+00
    0.00000E+00         0.00000E+00        -0.40357E+03
 
   -0.27579E+06         0.28434E+06         0.00000E+00
    0.28434E+06         0.27424E+06         0.00000E+00
    0.00000E+00         0.00000E+00        -0.31076E+03
 
   -0.26023E+06         0.29280E+06         0.00000E+00
    0.29280E+06         0.25905E+06         0.00000E+00
    0.00000E+00         0.00000E+00        -0.23457E+03
 
   -0.24472E+06         0.30035E+06         0.00000E+00
    0.30035E+06         0.24386E+06         0.00000E+00
    0.00000E+00         0.00000E+00        -0.17207E+03
 
   -0.22931E+06         0.30700E+06         0.00000E+00
    0.30700E+06         0.22870E+06         0.00000E+00
    0.00000E+00         0.00000E+00        -0.12088E+03
 
   -0.21403E+06         0.31277E+06         0.00000E+00
    0.31277E+06         0.21364E+06         0.00000E+00
    0.00000E+00         0.00000E+00        -0.79085E+02
 
   -0.19894E+06         0.31769E+06         0.00000E+00
    0.31769E+06         0.19871E+06         0.00000E+00
    0.00000E+00         0.00000E+00        -0.45151E+02
 
   -0.18406E+06         0.32179E+06         0.00000E+00
    0.32179E+06         0.18397E+06         0.00000E+00
    0.00000E+00         0.00000E+00        -0.17869E+02
 
   -0.16944E+06         0.32509E+06         0.00000E+00
    0.32509E+06         0.16946E+06         0.00000E+00
    0.00000E+00         0.00000E+00         0.36891E+01
 
   -0.15511E+06         0.32761E+06         0.00000E+00
    0.32761E+06         0.15522E+06         0.00000E+00
    0.00000E+00         0.00000E+00         0.20216E+02
 
   -0.14112E+06         0.32939E+06         0.00000E+00
    0.32939E+06         0.14128E+06         0.00000E+00
    0.00000E+00         0.00000E+00         0.32197E+02
 
   -0.12749E+06         0.33045E+06         0.00000E+00
    0.33045E+06         0.12769E+06         0.00000E+00
    0.00000E+00         0.00000E+00         0.39936E+02
 
   -0.11426E+06         0.33083E+06         0.00000E+00
    0.33083E+06         0.11448E+06         0.00000E+00
    0.00000E+00         0.00000E+00         0.43569E+02
 
   -0.10148E+06         0.33054E+06         0.00000E+00
    0.33054E+06         0.10169E+06         0.00000E+00
    0.00000E+00         0.00000E+00         0.43083E+02
 
   -0.89166E+05         0.32961E+06         0.00000E+00
    0.32961E+06         0.89357E+05         0.00000E+00
    0.00000E+00         0.00000E+00         0.38312E+02
 
   -0.77366E+05         0.32809E+06         0.00000E+00
    0.32809E+06         0.77511E+05         0.00000E+00
    0.00000E+00         0.00000E+00         0.28943E+02
 
   -0.66115E+05         0.32599E+06         0.00000E+00
    0.32599E+06         0.66188E+05         0.00000E+00
    0.00000E+00         0.00000E+00         0.14501E+02
 
   -0.55449E+05         0.32336E+06         0.00000E+00
    0.32336E+06         0.55421E+05         0.00000E+00
    0.00000E+00         0.00000E+00        -0.56551E+01
 
   -0.45406E+05         0.32022E+06         0.00000E+00
    0.32022E+06         0.45244E+05         0.00000E+00
    0.00000E+00         0.00000E+00        -0.32362E+02
 
   -0.36023E+05         0.31661E+06         0.00000E+00
    0.31661E+06         0.35689E+05         0.00000E+00
    0.00000E+00         0.00000E+00        -0.66673E+02
 
   -0.27339E+05         0.31257E+06         0.00000E+00
    0.31257E+06         0.26789E+05         0.00000E+00
    0.00000E+00         0.00000E+00        -0.10990E+03
 
   -0.19393E+05         0.30815E+06         0.00000E+00
    0.30815E+06         0.18575E+05         0.00000E+00
    0.00000E+00         0.00000E+00        -0.16365E+03
 
   -0.12224E+05         0.30338E+06         0.00000E+00
    0.30338E+06         0.11075E+05         0.00000E+00
    0.00000E+00         0.00000E+00        -0.22988E+03
 
   -0.58721E+04         0.29830E+06         0.00000E+00
    0.29830E+06         0.43172E+04         0.00000E+00
    0.00000E+00         0.00000E+00        -0.31097E+03
 
   -0.37670E+03         0.29298E+06         0.00000E+00
    0.29298E+06        -0.16722E+04         0.00000E+00
    0.00000E+00         0.00000E+00        -0.40978E+03
 
    0.42221E+04         0.28745E+06         0.00000E+00
    0.28745E+06        -0.68708E+04         0.00000E+00
    0.00000E+00         0.00000E+00        -0.52974E+03
 
    0.78847E+04         0.28179E+06         0.00000E+00
    0.28179E+06        -0.11259E+05         0.00000E+00
    0.00000E+00         0.00000E+00        -0.67494E+03
 
    0.10572E+05         0.27603E+06         0.00000E+00
    0.27603E+06        -0.14823E+05         0.00000E+00
    0.00000E+00         0.00000E+00        -0.85023E+03
 
    0.12245E+05         0.27025E+06         0.00000E+00
    0.27025E+06        -0.17552E+05         0.00000E+00
    0.00000E+00         0.00000E+00        -0.10613E+04
 
    0.12866E+05         0.26451E+06         0.00000E+00
    0.26451E+06        -0.19441E+05         0.00000E+00
    0.00000E+00         0.00000E+00        -0.13149E+04
 
    0.12400E+05         0.25889E+06         0.00000E+00
    0.25889E+06        -0.20493E+05         0.00000E+00
    0.00000E+00         0.00000E+00        -0.16186E+04
 
    0.10812E+05         0.25344E+06         0.00000E+00
    0.25344E+06        -0.20719E+05         0.00000E+00
    0.00000E+00         0.00000E+00        -0.19813E+04
 
    0.80705E+04         0.24825E+06         0.00000E+00
    0.24825E+06        -0.20135E+05         0.00000E+00
    0.00000E+00         0.00000E+00        -0.24129E+04
 
    0.41467E+04         0.24340E+06         0.00000E+00
    0.24340E+06        -0.18769E+05         0.00000E+00
    0.00000E+00         0.00000E+00        -0.29244E+04
 
   -0.98377E+03         0.23896E+06         0.00000E+00
    0.23896E+06        -0.16654E+05         0.00000E+00
    0.00000E+00         0.00000E+00        -0.35275E+04
 
   -0.42653E+06         0.11153E+05         0.00000E+00
    0.11153E+05         0.39759E+06         0.00000E+00
    0.00000E+00         0.00000E+00        -0.57884E+04
 
   -0.42006E+06         0.32198E+05         0.00000E+00
    0.32198E+05         0.39589E+06         0.00000E+00
    0.00000E+00         0.00000E+00        -0.48328E+04
 
   -0.41276E+06         0.52618E+05         0.00000E+00
    0.52618E+05         0.39267E+06         0.00000E+00
    0.00000E+00         0.00000E+00        -0.40192E+04
 
   -0.40470E+06         0.72356E+05         0.00000E+00
    0.72356E+05         0.38805E+06         0.00000E+00
    0.00000E+00         0.00000E+00        -0.33302E+04
 
   -0.39593E+06         0.91367E+05         0.00000E+00
    0.91367E+05         0.38218E+06         0.00000E+00
    0.00000E+00         0.00000E+00        -0.27494E+04
 
   -0.38648E+06         0.10961E+06         0.00000E+00
    0.10961E+06         0.37517E+06         0.00000E+00
    0.00000E+00         0.00000E+00        -0.22620E+04
 
   -0.37643E+06         0.12705E+06         0.00000E+00
    0.12705E+06         0.36716E+06         0.00000E+00
    0.00000E+00         0.00000E+00        -0.18545E+04
 
   -0.36582E+06         0.14368E+06         0.00000E+00
    0.14368E+06         0.35824E+06         0.00000E+00
    0.00000E+00         0.00000E+00        -0.15150E+04
 
   -0.35470E+06         0.15946E+06         0.00000E+00
    0.15946E+06         0.34853E+06         0.00000E+00
    0.00000E+00         0.00000E+00        -0.12331E+04
 
   -0.34313E+06         0.17438E+06         0.00000E+00
    0.17438E+06         0.33813E+06         0.00000E+00
    0.00000E+00         0.00000E+00        -0.99964E+03
 
   -0.33116E+06         0.18845E+06         0.00000E+00
    0.18845E+06         0.32712E+06         0.00000E+00
    0.00000E+00         0.00000E+00        -0.80688E+03
 
   -0.31884E+06         0.20165E+06         0.00000E+00
    0.20165E+06         0.31559E+06         0.00000E+00
    0.00000E+00         0.00000E+00        -0.64810E+03
 
   -0.30622E+06         0.21399E+06         0.00000E+00
    0.21399E+06         0.30363E+06         0.00000E+00
    0.00000E+00         0.00000E+00        -0.51762E+03
 
   -0.29335E+06         0.22546E+06         0.00000E+00
    0.22546E+06         0.29130E+06         0.00000E+00
    0.00000E+00         0.00000E+00        -0.41064E+03
 
   -0.28029E+06         0.23608E+06         0.00000E+00
    0.23608E+06         0.27868E+06         0.00000E+00
    0.00000E+00         0.00000E+00        -0.32311E+03
 
   -0.26708E+06         0.24586E+06         0.00000E+00
    0.24586E+06         0.26582E+06         0.00000E+00
    0.00000E+00         0.00000E+00        -0.25167E+03
 
   -0.25377E+06         0.25481E+06         0.00000E+00
    0.25481E+06         0.25280E+06         0.00000E+00
    0.00000E+00         0.00000E+00        -0.19349E+03
 
   -0.24039E+06         0.26293E+06         0.00000E+00
    0.26293E+06         0.23966E+06         0.00000E+00
    0.00000E+00         0.00000E+00        -0.14625E+03
 
   -0.22701E+06         0.27026E+06         0.00000E+00
    0.27026E+06         0.22647E+06         0.00000E+00
    0.00000E+00         0.00000E+00        -0.10804E+03
 
   -0.21365E+06         0.27680E+06         0.00000E+00
    0.27680E+06         0.21326E+06         0.00000E+00
    0.00000E+00         0.00000E+00        -0.77294E+02
 
   -0.20036E+06         0.28257E+06         0.00000E+00
    0.28257E+06         0.20010E+06         0.00000E+00
    0.00000E+00         0.00000E+00        -0.52733E+02
 
   -0.18719E+06         0.28760E+06         0.00000E+00
    0.28760E+06         0.18702E+06         0.00000E+00
    0.00000E+00         0.00000E+00        -0.33341E+02
 
   -0.17416E+06         0.29190E+06         0.00000E+00
    0.29190E+06         0.17407E+06         0.00000E+00
    0.00000E+00         0.00000E+00        -0.18310E+02
 
   -0.16132E+06         0.29550E+06         0.00000E+00
    0.29550E+06         0.16129E+06         0.00000E+00
    0.00000E+00         0.00000E+00        -0.70116E+01
 
   -0.14871E+06         0.29842E+06         0.00000E+00
    0.29842E+06         0.14872E+06         0.00000E+00
    0.00000E+00         0.00000E+00         0.10278E+01
 
   -0.13636E+06         0.30069E+06         0.00000E+00
    0.30069E+06         0.13639E+06         0.00000E+00
    0.00000E+00         0.00000E+00         0.61491E+01
 
   -0.12431E+06         0.30233E+06         0.00000E+00
    0.30233E+06         0.12436E+06         0.00000E+00
    0.00000E+00         0.00000E+00         0.85758E+01
 
   -0.11260E+06         0.30337E+06         0.00000E+00
    0.30337E+06         0.11264E+06         0.00000E+00
    0.00000E+00         0.00000E+00         0.84259E+01
 
   -0.10125E+06         0.30384E+06         0.00000E+00
    0.30384E+06         0.10128E+06         0.00000E+00
    0.00000E+00         0.00000E+00         0.57198E+01
 
   -0.90298E+05         0.30376E+06         0.00000E+00
    0.30376E+06         0.90299E+05         0.00000E+00
    0.00000E+00         0.00000E+00         0.38415E+00
 
   -0.79782E+05         0.30318E+06         0.00000E+00
    0.30318E+06         0.79743E+05         0.00000E+00
    0.00000E+00         0.00000E+00        -0.77477E+01
 
   -0.69732E+05         0.30211E+06         0.00000E+00
    0.30211E+06         0.69637E+05         0.00000E+00
    0.00000E+00         0.00000E+00        -0.18939E+02
 
   -0.60180E+05         0.30060E+06         0.00000E+00
    0.30060E+06         0.60012E+05         0.00000E+00
    0.00000E+00         0.00000E+00        -0.33558E+02
 
   -0.51157E+05         0.29868E+06         0.00000E+00
    0.29868E+06         0.50897E+05         0.00000E+00
    0.00000E+00         0.00000E+00        -0.52088E+02
 
   -0.42694E+05         0.29639E+06         0.00000E+00
    0.29639E+06         0.42318E+05         0.00000E+00
    0.00000E+00         0.00000E+00        -0.75142E+02
 
   -0.34820E+05         0.29377E+06         0.00000E+00
    0.29377E+06         0.34302E+05         0.00000E+00
    0.00000E+00         0.00000E+00        -0.10349E+03
 
   -0.27564E+05         0.29085E+06         0.00000E+00
    0.29085E+06         0.26874E+05         0.00000E+00
    0.00000E+00         0.00000E+00        -0.13806E+03
 
   -0.20956E+05         0.28769E+06         0.00000E+00
    0.28769E+06         0.20056E+05         0.00000E+00
    0.00000E+00         0.00000E+00        -0.18000E+03
 
   -0.15023E+05         0.28432E+06         0.00000E+00
    0.28432E+06         0.13869E+05         0.00000E+00
    0.00000E+00         0.00000E+00        -0.23070E+03
 
   -0.97901E+04         0.28080E+06         0.00000E+00
    0.28080E+06         0.83310E+04         0.00000E+00
    0.00000E+00         0.00000E+00        -0.29183E+03
 
   -0.52839E+04         0.27717E+06         0.00000E+00
    0.27717E+06         0.34572E+04         0.00000E+00
    0.00000E+00         0.00000E+00        -0.36535E+03
 
   -0.15278E+04         0.27348E+06         0.00000E+00
    0.27348E+06        -0.74041E+03         0.00000E+00
    0.00000E+00         0.00000E+00        -0.45365E+03
 
    0.14560E+04         0.26980E+06         0.00000E+00
    0.26980E+06        -0.42535E+04         0.00000E+00
    0.00000E+00         0.00000E+00        -0.55949E+03
 
    0.36473E+04         0.26618E+06         0.00000E+00
    0.26618E+06        -0.70780E+04         0.00000E+00
    0.00000E+00         0.00000E+00        -0.68615E+03
 
    0.50277E+04         0.26266E+06         0.00000E+00
    0.26266E+06        -0.92147E+04         0.00000E+00
    0.00000E+00         0.00000E+00        -0.83740E+03
 
    0.55814E+04         0.25933E+06         0.00000E+00
    0.25933E+06        -0.10669E+05         0.00000E+00
    0.00000E+00         0.00000E+00        -0.10176E+04
 
    0.52954E+04         0.25622E+06         0.00000E+00
    0.25622E+06        -0.11454E+05         0.00000E+00
    0.00000E+00         0.00000E+00        -0.12316E+04
 
    0.41595E+04         0.25342E+06         0.00000E+00
    0.25342E+06        -0.11585E+05         0.00000E+00
    0.00000E+00         0.00000E+00        -0.14851E+04
 
    0.21674E+04         0.25097E+06         0.00000E+00
    0.25097E+06        -0.11087E+05         0.00000E+00
    0.00000E+00         0.00000E+00        -0.17839E+04
 
   -0.68348E+03         0.24894E+06         0.00000E+00
    0.24894E+06        -0.99893E+04         0.00000E+00
    0.00000E+00         0.00000E+00        -0.21346E+04
 
   -0.37144E+06         0.94556E+04         0.00000E+00
    0.94556E+04         0.35383E+06         0.00000E+00
    0.00000E+00         0.00000E+00        -0.35226E+04
 
   -0.36720E+06         0.27493E+05         0.00000E+00
    0.27493E+05         0.35249E+06         0.00000E+00
    0.00000E+00         0.00000E+00        -0.29412E+04
 
   -0.36216E+06         0.45080E+05         0.00000E+00
    0.45080E+05         0.34994E+06         0.00000E+00
    0.00000E+00         0.00000E+00        -0.24451E+04
 
   -0.35639E+06         0.62163E+05         0.00000E+00
    0.62163E+05         0.34627E+06         0.00000E+00
    0.00000E+00         0.00000E+00        -0.20241E+04
 
   -0.34991E+06         0.78699E+05         0.00000E+00
    0.78699E+05         0.34157E+06         0.00000E+00
    0.00000E+00         0.00000E+00        -0.16688E+04
 
   -0.34278E+06         0.94649E+05         0.00000E+00
    0.94649E+05         0.33593E+06         0.00000E+00
    0.00000E+00         0.00000E+00        -0.13702E+04
 
   -0.33504E+06         0.10998E+06         0.00000E+00
    0.10998E+06         0.32944E+06         0.00000E+00
    0.00000E+00         0.00000E+00        -0.11205E+04
 
   -0.32674E+06         0.12467E+06         0.00000E+00
    0.12467E+06         0.32218E+06         0.00000E+00
    0.00000E+00         0.00000E+00        -0.91237E+03
 
   -0.31793E+06         0.13869E+06         0.00000E+00
    0.13869E+06         0.31423E+06         0.00000E+00
    0.00000E+00         0.00000E+00        -0.73966E+03
 
   -0.30865E+06         0.15203E+06         0.00000E+00
    0.15203E+06         0.30567E+06         0.00000E+00
    0.00000E+00         0.00000E+00        -0.59686E+03
 
   -0.29896E+06         0.16467E+06         0.00000E+00
    0.16467E+06         0.29656E+06         0.00000E+00
    0.00000E+00         0.00000E+00        -0.47921E+03
 
   -0.28890E+06         0.17661E+06         0.00000E+00
    0.17661E+06         0.28698E+06         0.00000E+00
    0.00000E+00         0.00000E+00        -0.38265E+03
 
   -0.27851E+06         0.18785E+06         0.00000E+00
    0.18785E+06         0.27699E+06         0.00000E+00
    0.00000E+00         0.00000E+00        -0.30370E+03
 
   -0.26785E+06         0.19837E+06         0.00000E+00
    0.19837E+06         0.26665E+06         0.00000E+00
    0.00000E+00         0.00000E+00        -0.23939E+03
 
   -0.25695E+06         0.20819E+06         0.00000E+00
    0.20819E+06         0.25601E+06         0.00000E+00
    0.00000E+00         0.00000E+00        -0.18723E+03
 
   -0.24587E+06         0.21730E+06         0.00000E+00
    0.21730E+06         0.24514E+06         0.00000E+00
    0.00000E+00         0.00000E+00        -0.14514E+03
 
   -0.23464E+06         0.22571E+06         0.00000E+00
    0.22571E+06         0.23408E+06         0.00000E+00
    0.00000E+00         0.00000E+00        -0.11135E+03
 
   -0.22331E+06         0.23344E+06         0.00000E+00
    0.23344E+06         0.22289E+06         0.00000E+00
    0.00000E+00         0.00000E+00        -0.84403E+02
 
   -0.21191E+06         0.24049E+06         0.00000E+00
    0.24049E+06         0.21160E+06         0.00000E+00
    0.00000E+00         0.00000E+00        -0.63101E+02
 
   -0.20050E+06         0.24687E+06         0.00000E+00
    0.24687E+06         0.20027E+06         0.00000E+00
    0.00000E+00         0.00000E+00        -0.46449E+02
 
   -0.18910E+06         0.25260E+06         0.00000E+00
    0.25260E+06         0.18893E+06         0.00000E+00
    0.00000E+00         0.00000E+00        -0.33634E+02
 
   -0.17776E+06         0.25770E+06         0.00000E+00
    0.25770E+06         0.17764E+06         0.00000E+00
    0.00000E+00         0.00000E+00        -0.23996E+02
 
   -0.16651E+06         0.26217E+06         0.00000E+00
    0.26217E+06         0.16642E+06         0.00000E+00
    0.00000E+00         0.00000E+00        -0.17005E+02
 
   -0.15538E+06         0.26605E+06         0.00000E+00
    0.26605E+06         0.15532E+06         0.00000E+00
    0.00000E+00         0.00000E+00        -0.12240E+02
 
   -0.14442E+06         0.26935E+06         0.00000E+00
    0.26935E+06         0.14437E+06         0.00000E+00
    0.00000E+00         0.00000E+00        -0.93719E+01
 
   -0.13365E+06         0.27210E+06         0.00000E+00
    0.27210E+06         0.13361E+06         0.00000E+00
    0.00000E+00         0.00000E+00        -0.81507E+01
 
   -0.12312E+06         0.27431E+06         0.00000E+00
    0.27431E+06         0.12307E+06         0.00000E+00
    0.00000E+00         0.00000E+00        -0.83932E+01
 
   -0.11283E+06         0.27601E+06         0.00000E+00
    0.27601E+06         0.11278E+06         0.00000E+00
    0.00000E+00         0.00000E+00        -0.99754E+01
 
   -0.10284E+06         0.27723E+06         0.00000E+00
    0.27723E+06         0.10278E+06         0.00000E+00
    0.00000E+00         0.00000E+00        -0.12825E+02
 
   -0.93172E+05         0.27800E+06         0.00000E+00
    0.27800E+06         0.93087E+05         0.00000E+00
    0.00000E+00         0.00000E+00        -0.16918E+02
 
   -0.83847E+05         0.27834E+06         0.00000E+00
    0.27834E+06         0.83735E+05         0.00000E+00
    0.00000E+00         0.00000E+00        -0.22273E+02
 
   -0.74896E+05         0.27829E+06         0.00000E+00
    0.27829E+06         0.74751E+05         0.00000E+00
    0.00000E+00         0.00000E+00        -0.28955E+02
 
   -0.66346E+05         0.27787E+06         0.00000E+00
    0.27787E+06         0.66160E+05         0.00000E+00
    0.00000E+00         0.00000E+00        -0.37070E+02
 
   -0.58221E+05         0.27713E+06         0.00000E+00
    0.27713E+06         0.57987E+05         0.00000E+00
    0.00000E+00         0.00000E+00        -0.46773E+02
 
   -0.50545E+05         0.27609E+06         0.00000E+00
    0.27609E+06         0.50253E+05         0.00000E+00
    0.00000E+00         0.00000E+00        -0.58265E+02
 
   -0.43340E+05         0.27479E+06         0.00000E+00
    0.27479E+06         0.42981E+05         0.00000E+00
    0.00000E+00         0.00000E+00        -0.71805E+02
 
   -0.36628E+05         0.27328E+06         0.00000E+00
    0.27328E+06         0.36189E+05         0.00000E+00
    0.00000E+00         0.00000E+00        -0.87713E+02
 
   -0.30428E+05         0.27158E+06         0.00000E+00
    0.27158E+06         0.29896E+05         0.00000E+00
    0.00000E+00         0.00000E+00        -0.10638E+03
 
   -0.24757E+05         0.26975E+06         0.00000E+00
    0.26975E+06         0.24116E+05         0.00000E+00
    0.00000E+00         0.00000E+00        -0.12826E+03
 
   -0.19633E+05         0.26782E+06         0.00000E+00
    0.26782E+06         0.18863E+05         0.00000E+00
    0.00000E+00         0.00000E+00        -0.15393E+03
 
   -0.15069E+05         0.26585E+06         0.00000E+00
    0.26585E+06         0.14149E+05         0.00000E+00
    0.00000E+00         0.00000E+00        -0.18404E+03
 
   -0.11077E+05         0.26386E+06         0.00000E+00
    0.26386E+06         0.99804E+04         0.00000E+00
    0.00000E+00         0.00000E+00        -0.21936E+03
 
   -0.76680E+04         0.26192E+06         0.00000E+00
    0.26192E+06         0.63642E+04         0.00000E+00
    0.00000E+00         0.00000E+00        -0.26077E+03
 
   -0.48489E+04         0.26007E+06         0.00000E+00
    0.26007E+06         0.33024E+04         0.00000E+00
    0.00000E+00         0.00000E+00        -0.30930E+03
 
   -0.26247E+04         0.25836E+06         0.00000E+00
    0.25836E+06         0.79413E+03         0.00000E+00
    0.00000E+00         0.00000E+00        -0.36611E+03
 
   -0.99748E+03         0.25684E+06         0.00000E+00
    0.25684E+06        -0.11649E+04         0.00000E+00
    0.00000E+00         0.00000E+00        -0.43249E+03
 
    0.33719E+02         0.25556E+06         0.00000E+00
    0.25556E+06        -0.25829E+04         0.00000E+00
    0.00000E+00         0.00000E+00        -0.50984E+03
 
    0.47322E+03         0.25456E+06         0.00000E+00
    0.25456E+06        -0.34716E+04         0.00000E+00
    0.00000E+00         0.00000E+00        -0.59968E+03
 
    0.32891E+03         0.25391E+06         0.00000E+00
    0.25391E+06        -0.38468E+04         0.00000E+00
    0.00000E+00         0.00000E+00        -0.70358E+03
 
   -0.38745E+03         0.25363E+06         0.00000E+00
    0.25363E+06        -0.37280E+04         0.00000E+00
    0.00000E+00         0.00000E+00        -0.82309E+03
 
   -0.32552E+06         0.79563E+04         0.00000E+00
    0.79563E+04         0.31556E+06         0.00000E+00
    0.00000E+00         0.00000E+00        -0.19929E+04
 
   -0.32283E+06         0.23293E+05         0.00000E+00
    0.23293E+05         0.31452E+06         0.00000E+00
    0.00000E+00         0.00000E+00        -0.16629E+04
 
   -0.31942E+06         0.38316E+05         0.00000E+00
    0.38316E+05         0.31252E+06         0.00000E+00
    0.00000E+00         0.00000E+00        -0.13806E+04
 
   -0.31532E+06         0.52979E+05         0.00000E+00
    0.52979E+05         0.30962E+06         0.00000E+00
    0.00000E+00         0.00000E+00        -0.11404E+04
 
   -0.31058E+06         0.67242E+05         0.00000E+00
    0.67242E+05         0.30589E+06         0.00000E+00
    0.00000E+00         0.00000E+00        -0.93731E+03
 
   -0.30522E+06         0.81069E+05         0.00000E+00
    0.81069E+05         0.30139E+06         0.00000E+00
    0.00000E+00         0.00000E+00        -0.76646E+03
 
   -0.29930E+06         0.94429E+05         0.00000E+00
    0.94429E+05         0.29618E+06         0.00000E+00
    0.00000E+00         0.00000E+00        -0.62348E+03
 
   -0.29285E+06         0.10730E+06         0.00000E+00
    0.10730E+06         0.29033E+06         0.00000E+00
    0.00000E+00         0.00000E+00        -0.50442E+03
 
   -0.28592E+06         0.11965E+06         0.00000E+00
    0.11965E+06         0.28389E+06         0.00000E+00
    0.00000E+00         0.00000E+00        -0.40578E+03
 
   -0.27853E+06         0.13147E+06         0.00000E+00
    0.13147E+06         0.27691E+06         0.00000E+00
    0.00000E+00         0.00000E+00        -0.32447E+03
 
   -0.27075E+06         0.14274E+06         0.00000E+00
    0.14274E+06         0.26946E+06         0.00000E+00
    0.00000E+00         0.00000E+00        -0.25781E+03
 
   -0.26259E+06         0.15346E+06         0.00000E+00
    0.15346E+06         0.26158E+06         0.00000E+00
    0.00000E+00         0.00000E+00        -0.20347E+03
 
   -0.25412E+06         0.16361E+06         0.00000E+00
    0.16361E+06         0.25332E+06         0.00000E+00
    0.00000E+00         0.00000E+00        -0.15944E+03
 
   -0.24536E+06         0.17319E+06         0.00000E+00
    0.17319E+06         0.24474E+06         0.00000E+00
    0.00000E+00         0.00000E+00        -0.12403E+03
 
   -0.23635E+06         0.18219E+06         0.00000E+00
    0.18219E+06         0.23587E+06         0.00000E+00
    0.00000E+00         0.00000E+00        -0.95775E+02
 
   -0.22714E+06         0.19063E+06         0.00000E+00
    0.19063E+06         0.22677E+06         0.00000E+00
    0.00000E+00         0.00000E+00        -0.73446E+02
 
   -0.21776E+06         0.19849E+06         0.00000E+00
    0.19849E+06         0.21748E+06         0.00000E+00
    0.00000E+00         0.00000E+00        -0.56008E+02
 
   -0.20826E+06         0.20578E+06         0.00000E+00
    0.20578E+06         0.20804E+06         0.00000E+00
    0.00000E+00         0.00000E+00        -0.42591E+02
 
   -0.19865E+06         0.21252E+06         0.00000E+00
    0.21252E+06         0.19849E+06         0.00000E+00
    0.00000E+00         0.00000E+00        -0.32470E+02
 
   -0.18899E+06         0.21871E+06         0.00000E+00
    0.21871E+06         0.18887E+06         0.00000E+00
    0.00000E+00         0.00000E+00        -0.25039E+02
 
   -0.17931E+06         0.22435E+06         0.00000E+00
    0.22435E+06         0.17921E+06         0.00000E+00
    0.00000E+00         0.00000E+00        -0.19794E+02
 
   -0.16963E+06         0.22947E+06         0.00000E+00
    0.22947E+06         0.16955E+06         0.00000E+00
    0.00000E+00         0.00000E+00        -0.16319E+02
 
   -0.16000E+06         0.23407E+06         0.00000E+00
    0.23407E+06         0.15993E+06         0.00000E+00
    0.00000E+00         0.00000E+00        -0.14268E+02
 
   -0.15044E+06         0.23818E+06         0.00000E+00
    0.23818E+06         0.15038E+06         0.00000E+00
    0.00000E+00         0.00000E+00        -0.13354E+02
 
   -0.14099E+06         0.24180E+06         0.00000E+00
    0.24180E+06         0.14092E+06         0.00000E+00
    0.00000E+00         0.00000E+00        -0.13341E+02
 
   -0.13167E+06         0.24496E+06         0.00000E+00
    0.24496E+06         0.13160E+06         0.00000E+00
    0.00000E+00         0.00000E+00        -0.14029E+02
 
   -0.12251E+06         0.24768E+06         0.00000E+00
    0.24768E+06         0.12243E+06         0.00000E+00
    0.00000E+00         0.00000E+00        -0.15250E+02
 
   -0.11353E+06         0.24998E+06         0.00000E+00
    0.24998E+06         0.11345E+06         0.00000E+00
    0.00000E+00         0.00000E+00        -0.16859E+02
 
   -0.10477E+06         0.25187E+06         0.00000E+00
    0.25187E+06         0.10468E+06         0.00000E+00
    0.00000E+00         0.00000E+00        -0.18729E+02
 
   -0.96255E+05         0.25340E+06         0.00000E+00
    0.25340E+06         0.96151E+05         0.00000E+00
    0.00000E+00         0.00000E+00        -0.20742E+02
 
   -0.87998E+05         0.25457E+06         0.00000E+00
    0.25457E+06         0.87884E+05         0.00000E+00
    0.00000E+00         0.00000E+00        -0.22785E+02
 
   -0.80024E+05         0.25542E+06         0.00000E+00
    0.25542E+06         0.79901E+05         0.00000E+00
    0.00000E+00         0.00000E+00        -0.24746E+02
 
   -0.72356E+05         0.25598E+06         0.00000E+00
    0.25598E+06         0.72224E+05         0.00000E+00
    0.00000E+00         0.00000E+00        -0.26504E+02
 
   -0.65012E+05         0.25627E+06         0.00000E+00
    0.25627E+06         0.64872E+05         0.00000E+00
    0.00000E+00         0.00000E+00        -0.27927E+02
 
   -0.58009E+05         0.25633E+06         0.00000E+00
    0.25633E+06         0.57865E+05         0.00000E+00
    0.00000E+00         0.00000E+00        -0.28864E+02
 
   -0.51364E+05         0.25619E+06         0.00000E+00
    0.25619E+06         0.51219E+05         0.00000E+00
    0.00000E+00         0.00000E+00        -0.29134E+02
 
   -0.45092E+05         0.25589E+06         0.00000E+00
    0.25589E+06         0.44949E+05         0.00000E+00
    0.00000E+00         0.00000E+00        -0.28526E+02
 
   -0.39205E+05         0.25545E+06         0.00000E+00
    0.25545E+06         0.39071E+05         0.00000E+00
    0.00000E+00         0.00000E+00        -0.26777E+02
 
   -0.33713E+05         0.25491E+06         0.00000E+00
    0.25491E+06         0.33595E+05         0.00000E+00
    0.00000E+00         0.00000E+00        -0.23571E+02
 
   -0.28625E+05         0.25432E+06         0.00000E+00
    0.25432E+06         0.28533E+05         0.00000E+00
    0.00000E+00         0.00000E+00        -0.18517E+02
 
   -0.23948E+05         0.25370E+06         0.00000E+00
    0.25370E+06         0.23892E+05         0.00000E+00
    0.00000E+00         0.00000E+00        -0.11135E+02
 
   -0.19686E+05         0.25310E+06         0.00000E+00
    0.25310E+06         0.19682E+05         0.00000E+00
    0.00000E+00         0.00000E+00        -0.83639E+00
 
   -0.15840E+05         0.25255E+06         0.00000E+00
    0.25255E+06         0.15906E+05         0.00000E+00
    0.00000E+00         0.00000E+00         0.13101E+02
 
   -0.12410E+05         0.25210E+06         0.00000E+00
    0.25210E+06         0.12568E+05         0.00000E+00
    0.00000E+00         0.00000E+00         0.31560E+02
 
   -0.93912E+04         0.25179E+06         0.00000E+00
    0.25179E+06         0.96692E+04         0.00000E+00
    0.00000E+00         0.00000E+00         0.55615E+02
 
   -0.67773E+04         0.25165E+06         0.00000E+00
    0.25165E+06         0.72101E+04         0.00000E+00
    0.00000E+00         0.00000E+00         0.86564E+02
 
   -0.45584E+04         0.25172E+06         0.00000E+00
    0.25172E+06         0.51882E+04         0.00000E+00
    0.00000E+00         0.00000E+00         0.12597E+03
 
   -0.27213E+04         0.25204E+06         0.00000E+00
    0.25204E+06         0.35997E+04         0.00000E+00
    0.00000E+00         0.00000E+00         0.17568E+03
 
   -0.12492E+04         0.25265E+06         0.00000E+00
    0.25265E+06         0.24387E+04         0.00000E+00
    0.00000E+00         0.00000E+00         0.23789E+03
 
   -0.12219E+03         0.25359E+06         0.00000E+00
    0.25359E+06         0.16978E+04         0.00000E+00
    0.00000E+00         0.00000E+00         0.31513E+03
 
   -0.28746E+06         0.66715E+04         0.00000E+00
    0.66715E+04         0.28236E+06         0.00000E+00
    0.00000E+00         0.00000E+00        -0.10195E+04
 
   -0.28579E+06         0.19660E+05         0.00000E+00
    0.19660E+05         0.28155E+06         0.00000E+00
    0.00000E+00         0.00000E+00        -0.84867E+03
 
   -0.28350E+06         0.32439E+05         0.00000E+00
    0.32439E+05         0.27999E+06         0.00000E+00
    0.00000E+00         0.00000E+00        -0.70184E+03
 
   -0.28060E+06         0.44970E+05         0.00000E+00
    0.44970E+05         0.27772E+06         0.00000E+00
    0.00000E+00         0.00000E+00        -0.57654E+03
 
   -0.27712E+06         0.57217E+05         0.00000E+00
    0.57217E+05         0.27477E+06         0.00000E+00
    0.00000E+00         0.00000E+00        -0.47034E+03
 
   -0.27311E+06         0.69150E+05         0.00000E+00
    0.69150E+05         0.27120E+06         0.00000E+00
    0.00000E+00         0.00000E+00        -0.38092E+03
 
   -0.26858E+06         0.80739E+05         0.00000E+00
    0.80739E+05         0.26705E+06         0.00000E+00
    0.00000E+00         0.00000E+00        -0.30612E+03
 
   -0.26358E+06         0.91961E+05         0.00000E+00
    0.91961E+05         0.26236E+06         0.00000E+00
    0.00000E+00         0.00000E+00        -0.24399E+03
 
   -0.25813E+06         0.10279E+06         0.00000E+00
    0.10279E+06         0.25717E+06         0.00000E+00
    0.00000E+00         0.00000E+00        -0.19274E+03
 
   -0.25227E+06         0.11322E+06         0.00000E+00
    0.11322E+06         0.25152E+06         0.00000E+00
    0.00000E+00         0.00000E+00        -0.15080E+03
 
   -0.24604E+06         0.12323E+06         0.00000E+00
    0.12323E+06         0.24545E+06         0.00000E+00
    0.00000E+00         0.00000E+00        -0.11677E+03
 
   -0.23946E+06         0.13280E+06         0.00000E+00
    0.13280E+06         0.23901E+06         0.00000E+00
    0.00000E+00         0.00000E+00        -0.89427E+02
 
   -0.23258E+06         0.14193E+06         0.00000E+00
    0.14193E+06         0.23224E+06         0.00000E+00
    0.00000E+00         0.00000E+00        -0.67718E+02
 
   -0.22542E+06         0.15061E+06         0.00000E+00
    0.15061E+06         0.22516E+06         0.00000E+00
    0.00000E+00         0.00000E+00        -0.50721E+02
 
   -0.21801E+06         0.15883E+06         0.00000E+00
    0.15883E+06         0.21783E+06         0.00000E+00
    0.00000E+00         0.00000E+00        -0.37645E+02
 
   -0.21040E+06         0.16660E+06         0.00000E+00
    0.16660E+06         0.21027E+06         0.00000E+00
    0.00000E+00         0.00000E+00        -0.27815E+02
 
   -0.20262E+06         0.17392E+06         0.00000E+00
    0.17392E+06         0.20251E+06         0.00000E+00
    0.00000E+00         0.00000E+00        -0.20652E+02
 
   -0.19469E+06         0.18077E+06         0.00000E+00
    0.18077E+06         0.19461E+06         0.00000E+00
    0.00000E+00         0.00000E+00        -0.15663E+02
 
   -0.18664E+06         0.18718E+06         0.00000E+00
    0.18718E+06         0.18658E+06         0.00000E+00
    0.00000E+00         0.00000E+00        -0.12429E+02
 
   -0.17851E+06         0.19313E+06         0.00000E+00
    0.19313E+06         0.17846E+06         0.00000E+00
    0.00000E+00         0.00000E+00        -0.10593E+02
 
   -0.17033E+06         0.19865E+06         0.00000E+00
    0.19865E+06         0.17028E+06         0.00000E+00
    0.00000E+00         0.00000E+00        -0.98472E+01
 
   -0.16212E+06         0.20374E+06         0.00000E+00
    0.20374E+06         0.16207E+06         0.00000E+00
    0.00000E+00         0.00000E+00        -0.99288E+01
 
   -0.15391E+06         0.20841E+06         0.00000E+00
    0.20841E+06         0.15386E+06         0.00000E+00
    0.00000E+00         0.00000E+00        -0.10608E+02
 
   -0.14574E+06         0.21268E+06         0.00000E+00
    0.21268E+06         0.14568E+06         0.00000E+00
    0.00000E+00         0.00000E+00        -0.11680E+02
 
   -0.13761E+06         0.21654E+06         0.00000E+00
    0.21654E+06         0.13755E+06         0.00000E+00
    0.00000E+00         0.00000E+00        -0.12961E+02
 
   -0.12957E+06         0.22003E+06         0.00000E+00
    0.22003E+06         0.12950E+06         0.00000E+00
    0.00000E+00         0.00000E+00        -0.14275E+02
 
   -0.12162E+06         0.22316E+06         0.00000E+00
    0.22316E+06         0.12155E+06         0.00000E+00
    0.00000E+00         0.00000E+00        -0.15455E+02
 
   -0.11381E+06         0.22594E+06         0.00000E+00
    0.22594E+06         0.11373E+06         0.00000E+00
    0.00000E+00         0.00000E+00        -0.16330E+02
 
   -0.10614E+06         0.22840E+06         0.00000E+00
    0.22840E+06         0.10605E+06         0.00000E+00
    0.00000E+00         0.00000E+00        -0.16717E+02
 
   -0.98631E+05         0.23055E+06         0.00000E+00
    0.23055E+06         0.98549E+05         0.00000E+00
    0.00000E+00         0.00000E+00        -0.16420E+02
 
   -0.91310E+05         0.23242E+06         0.00000E+00
    0.23242E+06         0.91234E+05         0.00000E+00
    0.00000E+00         0.00000E+00        -0.15214E+02
 
   -0.84192E+05         0.23402E+06         0.00000E+00
    0.23402E+06         0.84128E+05         0.00000E+00
    0.00000E+00         0.00000E+00        -0.12841E+02
 
   -0.77292E+05         0.23539E+06         0.00000E+00
    0.23539E+06         0.77247E+05         0.00000E+00
    0.00000E+00         0.00000E+00        -0.89942E+01
 
   -0.70624E+05         0.23655E+06         0.00000E+00
    0.23655E+06         0.70608E+05         0.00000E+00
    0.00000E+00         0.00000E+00        -0.33082E+01
 
   -0.64202E+05         0.23751E+06         0.00000E+00
    0.23751E+06         0.64225E+05         0.00000E+00
    0.00000E+00         0.00000E+00         0.46567E+01
 
   -0.58035E+05         0.23833E+06         0.00000E+00
    0.23833E+06         0.58112E+05         0.00000E+00
    0.00000E+00         0.00000E+00         0.15433E+02
 
   -0.52135E+05         0.23900E+06         0.00000E+00
    0.23900E+06         0.52283E+05         0.00000E+00
    0.00000E+00         0.00000E+00         0.29666E+02
 
   -0.46507E+05         0.23958E+06         0.00000E+00
    0.23958E+06         0.46748E+05         0.00000E+00
    0.00000E+00         0.00000E+00         0.48141E+02
 
   -0.41158E+05         0.24008E+06         0.00000E+00
    0.24008E+06         0.41517E+05         0.00000E+00
    0.00000E+00         0.00000E+00         0.71809E+02
 
   -0.36091E+05         0.24054E+06         0.00000E+00
    0.24054E+06         0.36600E+05         0.00000E+00
    0.00000E+00         0.00000E+00         0.10182E+03
 
   -0.31306E+05         0.24099E+06         0.00000E+00
    0.24099E+06         0.32004E+05         0.00000E+00
    0.00000E+00         0.00000E+00         0.13958E+03
 
   -0.26804E+05         0.24146E+06         0.00000E+00
    0.24146E+06         0.27738E+05         0.00000E+00
    0.00000E+00         0.00000E+00         0.18675E+03
 
   -0.22580E+05         0.24198E+06         0.00000E+00
    0.24198E+06         0.23807E+05         0.00000E+00
    0.00000E+00         0.00000E+00         0.24536E+03
 
   -0.18627E+05         0.24258E+06         0.00000E+00
    0.24258E+06         0.20216E+05         0.00000E+00
    0.00000E+00         0.00000E+00         0.31781E+03
 
   -0.14937E+05         0.24329E+06         0.00000E+00
    0.24329E+06         0.16972E+05         0.00000E+00
    0.00000E+00         0.00000E+00         0.40695E+03
 
   -0.11498E+05         0.24415E+06         0.00000E+00
    0.24415E+06         0.14079E+05         0.00000E+00
    0.00000E+00         0.00000E+00         0.51616E+03
 
   -0.82946E+04         0.24518E+06         0.00000E+00
    0.24518E+06         0.11541E+05         0.00000E+00
    0.00000E+00         0.00000E+00         0.64934E+03
 
   -0.53085E+04         0.24642E+06         0.00000E+00
    0.24642E+06         0.93637E+04         0.00000E+00
    0.00000E+00         0.00000E+00         0.81104E+03
 
   -0.25185E+04         0.24788E+06         0.00000E+00
    0.24788E+06         0.75506E+04         0.00000E+00
    0.00000E+00         0.00000E+00         0.10064E+04
 
    0.99759E+02         0.24960E+06         0.00000E+00
    0.24960E+06         0.61064E+04         0.00000E+00
    0.00000E+00         0.00000E+00         0.12412E+04
 
   -0.25593E+06         0.55977E+04         0.00000E+00
    0.55977E+04         0.25368E+06         0.00000E+00
    0.00000E+00         0.00000E+00        -0.45098E+03
 
   -0.25491E+06         0.16596E+05         0.00000E+00
    0.16596E+05         0.25305E+06         0.00000E+00
    0.00000E+00         0.00000E+00        -0.37227E+03
 
   -0.25335E+06         0.27462E+05         0.00000E+00
    0.27462E+05         0.25183E+06         0.00000E+00
    0.00000E+00         0.00000E+00        -0.30421E+03
 
   -0.25128E+06         0.38165E+05         0.00000E+00
    0.38165E+05         0.25005E+06         0.00000E+00
    0.00000E+00         0.00000E+00        -0.24589E+03
 
   -0.24871E+06         0.48674E+05         0.00000E+00
    0.48674E+05         0.24773E+06         0.00000E+00
    0.00000E+00         0.00000E+00        -0.19635E+03
 
   -0.24567E+06         0.58961E+05         0.00000E+00
    0.58961E+05         0.24490E+06         0.00000E+00
    0.00000E+00         0.00000E+00        -0.15466E+03
 
   -0.24219E+06         0.69003E+05         0.00000E+00
    0.69003E+05         0.24159E+06         0.00000E+00
    0.00000E+00         0.00000E+00        -0.11992E+03
 
   -0.23829E+06         0.78778E+05         0.00000E+00
    0.78778E+05         0.23783E+06         0.00000E+00
    0.00000E+00         0.00000E+00        -0.91262E+02
 
   -0.23400E+06         0.88267E+05         0.00000E+00
    0.88267E+05         0.23366E+06         0.00000E+00
    0.00000E+00         0.00000E+00        -0.67915E+02
 
   -0.22934E+06         0.97451E+05         0.00000E+00
    0.97451E+05         0.22909E+06         0.00000E+00
    0.00000E+00         0.00000E+00        -0.49154E+02
 
   -0.22434E+06         0.10632E+06         0.00000E+00
    0.10632E+06         0.22417E+06         0.00000E+00
    0.00000E+00         0.00000E+00        -0.34330E+02
 
   -0.21904E+06         0.11486E+06         0.00000E+00
    0.11486E+06         0.21892E+06         0.00000E+00
    0.00000E+00         0.00000E+00        -0.22861E+02
 
   -0.21345E+06         0.12305E+06         0.00000E+00
    0.12305E+06         0.21338E+06         0.00000E+00
    0.00000E+00         0.00000E+00        -0.14232E+02
 
   -0.20760E+06         0.13090E+06         0.00000E+00
    0.13090E+06         0.20756E+06         0.00000E+00
    0.00000E+00         0.00000E+00        -0.79857E+01
 
   -0.20153E+06         0.13840E+06         0.00000E+00
    0.13840E+06         0.20151E+06         0.00000E+00
    0.00000E+00         0.00000E+00        -0.37222E+01
 
   -0.19525E+06         0.14554E+06         0.00000E+00
    0.14554E+06         0.19525E+06         0.00000E+00
    0.00000E+00         0.00000E+00        -0.10898E+01
 
   -0.18880E+06         0.15232E+06         0.00000E+00
    0.15232E+06         0.18880E+06         0.00000E+00
    0.00000E+00         0.00000E+00         0.21890E+00
 
   -0.18220E+06         0.15874E+06         0.00000E+00
    0.15874E+06         0.18220E+06         0.00000E+00
    0.00000E+00         0.00000E+00         0.47392E+00
 
   -0.17547E+06         0.16480E+06         0.00000E+00
    0.16480E+06         0.17547E+06         0.00000E+00
    0.00000E+00         0.00000E+00        -0.86984E-01
 
   -0.16864E+06         0.17051E+06         0.00000E+00
    0.17051E+06         0.16864E+06         0.00000E+00
    0.00000E+00         0.00000E+00        -0.12526E+01
 
   -0.16174E+06         0.17587E+06         0.00000E+00
    0.17587E+06         0.16173E+06         0.00000E+00
    0.00000E+00         0.00000E+00        -0.28328E+01
 
   -0.15479E+06         0.18088E+06         0.00000E+00
    0.18088E+06         0.15476E+06         0.00000E+00
    0.00000E+00         0.00000E+00        -0.46532E+01
 
   -0.14780E+06         0.18555E+06         0.00000E+00
    0.18555E+06         0.14777E+06         0.00000E+00
    0.00000E+00         0.00000E+00        -0.65501E+01
 
   -0.14081E+06         0.18990E+06         0.00000E+00
    0.18990E+06         0.14077E+06         0.00000E+00
    0.00000E+00         0.00000E+00        -0.83647E+01
 
   -0.13384E+06         0.19393E+06         0.00000E+00
    0.19393E+06         0.13379E+06         0.00000E+00
    0.00000E+00         0.00000E+00        -0.99381E+01
 
   -0.12689E+06         0.19765E+06         0.00000E+00
    0.19765E+06         0.12684E+06         0.00000E+00
    0.00000E+00         0.00000E+00        -0.11105E+02
 
   -0.12000E+06         0.20108E+06         0.00000E+00
    0.20108E+06         0.11995E+06         0.00000E+00
    0.00000E+00         0.00000E+00        -0.11687E+02
 
   -0.11319E+06         0.20422E+06         0.00000E+00
    0.20422E+06         0.11313E+06         0.00000E+00
    0.00000E+00         0.00000E+00        -0.11486E+02
 
   -0.10645E+06         0.20711E+06         0.00000E+00
    0.20711E+06         0.10640E+06         0.00000E+00
    0.00000E+00         0.00000E+00        -0.10276E+02
 
   -0.99828E+05         0.20975E+06         0.00000E+00
    0.20975E+06         0.99789E+05         0.00000E+00
    0.00000E+00         0.00000E+00        -0.77947E+01
 
   -0.93319E+05         0.21215E+06         0.00000E+00
    0.21215E+06         0.93301E+05         0.00000E+00
    0.00000E+00         0.00000E+00        -0.37294E+01
 
   -0.86942E+05         0.21435E+06         0.00000E+00
    0.21435E+06         0.86954E+05         0.00000E+00
    0.00000E+00         0.00000E+00         0.22923E+01
 
   -0.80708E+05         0.21635E+06         0.00000E+00
    0.21635E+06         0.80762E+05         0.00000E+00
    0.00000E+00         0.00000E+00         0.10720E+02
 
   -0.74629E+05         0.21818E+06         0.00000E+00
    0.21818E+06         0.74739E+05         0.00000E+00
    0.00000E+00         0.00000E+00         0.22097E+02
 
   -0.68712E+05         0.21985E+06         0.00000E+00
    0.21985E+06         0.68897E+05         0.00000E+00
    0.00000E+00         0.00000E+00         0.37084E+02
 
   -0.62964E+05         0.22140E+06         0.00000E+00
    0.22140E+06         0.63247E+05         0.00000E+00
    0.00000E+00         0.00000E+00         0.56484E+02
 
   -0.57393E+05         0.22284E+06         0.00000E+00
    0.22284E+06         0.57799E+05         0.00000E+00
    0.00000E+00         0.00000E+00         0.81270E+02
 
   -0.52001E+05         0.22419E+06         0.00000E+00
    0.22419E+06         0.52564E+05         0.00000E+00
    0.00000E+00         0.00000E+00         0.11263E+03
 
   -0.46790E+05         0.22549E+06         0.00000E+00
    0.22549E+06         0.47550E+05         0.00000E+00
    0.00000E+00         0.00000E+00         0.15198E+03
 
   -0.41760E+05         0.22674E+06         0.00000E+00
    0.22674E+06         0.42765E+05         0.00000E+00
    0.00000E+00         0.00000E+00         0.20107E+03
 
   -0.36909E+05         0.22799E+06         0.00000E+00
    0.22799E+06         0.38219E+05         0.00000E+00
    0.00000E+00         0.00000E+00         0.26198E+03
 
   -0.32233E+05         0.22924E+06         0.00000E+00
    0.22924E+06         0.33919E+05         0.00000E+00
    0.00000E+00         0.00000E+00         0.33721E+03
 
   -0.27724E+05         0.23053E+06         0.00000E+00
    0.23053E+06         0.29872E+05         0.00000E+00
    0.00000E+00         0.00000E+00         0.42976E+03
 
   -0.23373E+05         0.23188E+06         0.00000E+00
    0.23188E+06         0.26088E+05         0.00000E+00
    0.00000E+00         0.00000E+00         0.54316E+03
 
   -0.19168E+05         0.23332E+06         0.00000E+00
    0.23332E+06         0.22576E+05         0.00000E+00
    0.00000E+00         0.00000E+00         0.68162E+03
 
   -0.15095E+05         0.23486E+06         0.00000E+00
    0.23486E+06         0.19345E+05         0.00000E+00
    0.00000E+00         0.00000E+00         0.85005E+03
 
   -0.11136E+05         0.23653E+06         0.00000E+00
    0.23653E+06         0.16406E+05         0.00000E+00
    0.00000E+00         0.00000E+00         0.10541E+04
 
   -0.72703E+04         0.23835E+06         0.00000E+00
    0.23835E+06         0.13772E+05         0.00000E+00
    0.00000E+00         0.00000E+00         0.13004E+04
 
   -0.34755E+04         0.24034E+06         0.00000E+00
    0.24034E+06         0.11457E+05         0.00000E+00
    0.00000E+00         0.00000E+00         0.15963E+04
 
    0.27473E+03         0.24252E+06         0.00000E+00
    0.24252E+06         0.94745E+04         0.00000E+00
    0.00000E+00         0.00000E+00         0.19498E+04
 
   -0.22973E+06         0.47185E+04         0.00000E+00
    0.47185E+04         0.22891E+06         0.00000E+00
    0.00000E+00         0.00000E+00        -0.16459E+03
 
   -0.22908E+06         0.14065E+05         0.00000E+00
    0.14065E+05         0.22842E+06         0.00000E+00
    0.00000E+00         0.00000E+00        -0.13158E+03
 
   -0.22798E+06         0.23336E+05         0.00000E+00
    0.23336E+05         0.22746E+06         0.00000E+00
    0.00000E+00         0.00000E+00        -0.10287E+03
 
   -0.22645E+06         0.32503E+05         0.00000E+00
    0.32503E+05         0.22606E+06         0.00000E+00
    0.00000E+00         0.00000E+00        -0.78200E+02
 
   -0.22450E+06         0.41544E+05         0.00000E+00
    0.41544E+05         0.22422E+06         0.00000E+00
    0.00000E+00         0.00000E+00        -0.57288E+02
 
   -0.22216E+06         0.50434E+05         0.00000E+00
    0.50434E+05         0.22197E+06         0.00000E+00
    0.00000E+00         0.00000E+00        -0.39819E+02
 
   -0.21945E+06         0.59153E+05         0.00000E+00
    0.59153E+05         0.21932E+06         0.00000E+00
    0.00000E+00         0.00000E+00        -0.25469E+02
 
   -0.21637E+06         0.67683E+05         0.00000E+00
    0.67683E+05         0.21630E+06         0.00000E+00
    0.00000E+00         0.00000E+00        -0.13912E+02
 
   -0.21296E+06         0.76006E+05         0.00000E+00
    0.76006E+05         0.21294E+06         0.00000E+00
    0.00000E+00         0.00000E+00        -0.48297E+01
 
   -0.20923E+06         0.84108E+05         0.00000E+00
    0.84108E+05         0.20924E+06         0.00000E+00
    0.00000E+00         0.00000E+00         0.20802E+01
 
   -0.20521E+06         0.91974E+05         0.00000E+00
    0.91974E+05         0.20524E+06         0.00000E+00
    0.00000E+00         0.00000E+00         0.71025E+01
 
   -0.20091E+06         0.99595E+05         0.00000E+00
    0.99595E+05         0.20096E+06         0.00000E+00
    0.00000E+00         0.00000E+00         0.10501E+02
 
   -0.19635E+06         0.10696E+06         0.00000E+00
    0.10696E+06         0.19642E+06         0.00000E+00
    0.00000E+00         0.00000E+00         0.12520E+02
 
   -0.19157E+06         0.11406E+06         0.00000E+00
    0.11406E+06         0.19163E+06         0.00000E+00
    0.00000E+00         0.00000E+00         0.13380E+02
 
   -0.18657E+06         0.12089E+06         0.00000E+00
    0.12089E+06         0.18663E+06         0.00000E+00
    0.00000E+00         0.00000E+00         0.13284E+02
 
   -0.18138E+06         0.12744E+06         0.00000E+00
    0.12744E+06         0.18144E+06         0.00000E+00
    0.00000E+00         0.00000E+00         0.12416E+02
 
   -0.17602E+06         0.13372E+06         0.00000E+00
    0.13372E+06         0.17608E+06         0.00000E+00
    0.00000E+00         0.00000E+00         0.10944E+02
 
   -0.17052E+06         0.13972E+06         0.00000E+00
    0.13972E+06         0.17056E+06         0.00000E+00
    0.00000E+00         0.00000E+00         0.90229E+01
 
   -0.16488E+06         0.14543E+06         0.00000E+00
    0.14543E+06         0.16491E+06         0.00000E+00
    0.00000E+00         0.00000E+00         0.67949E+01
 
   -0.15914E+06         0.15087E+06         0.00000E+00
    0.15087E+06         0.15916E+06         0.00000E+00
    0.00000E+00         0.00000E+00         0.43955E+01
 
   -0.15331E+06         0.15603E+06         0.00000E+00
    0.15603E+06         0.15332E+06         0.00000E+00
    0.00000E+00         0.00000E+00         0.19548E+01
 
   -0.14740E+06         0.16092E+06         0.00000E+00
    0.16092E+06         0.14740E+06         0.00000E+00
    0.00000E+00         0.00000E+00        -0.39831E+00
 
   -0.14145E+06         0.16554E+06         0.00000E+00
    0.16554E+06         0.14144E+06         0.00000E+00
    0.00000E+00         0.00000E+00        -0.25326E+01
 
   -0.13546E+06         0.16990E+06         0.00000E+00
    0.16990E+06         0.13544E+06         0.00000E+00
    0.00000E+00         0.00000E+00        -0.43102E+01
 
   -0.12945E+06         0.17400E+06         0.00000E+00
    0.17400E+06         0.12943E+06         0.00000E+00
    0.00000E+00         0.00000E+00        -0.55815E+01
 
   -0.12345E+06         0.17786E+06         0.00000E+00
    0.17786E+06         0.12341E+06         0.00000E+00
    0.00000E+00         0.00000E+00        -0.61800E+01
 
   -0.11745E+06         0.18149E+06         0.00000E+00
    0.18149E+06         0.11742E+06         0.00000E+00
    0.00000E+00         0.00000E+00        -0.59154E+01
 
   -0.11148E+06         0.18489E+06         0.00000E+00
    0.18489E+06         0.11146E+06         0.00000E+00
    0.00000E+00         0.00000E+00        -0.45664E+01
 
   -0.10556E+06         0.18807E+06         0.00000E+00
    0.18807E+06         0.10555E+06         0.00000E+00
    0.00000E+00         0.00000E+00        -0.18715E+01
 
   -0.99682E+05         0.19105E+06         0.00000E+00
    0.19105E+06         0.99694E+05         0.00000E+00
    0.00000E+00         0.00000E+00         0.24819E+01
 
   -0.93871E+05         0.19385E+06         0.00000E+00
    0.19385E+06         0.93915E+05         0.00000E+00
    0.00000E+00         0.00000E+00         0.88697E+01
 
   -0.88134E+05         0.19647E+06         0.00000E+00
    0.19647E+06         0.88223E+05         0.00000E+00
    0.00000E+00         0.00000E+00         0.17747E+02
 
   -0.82479E+05         0.19894E+06         0.00000E+00
    0.19894E+06         0.82627E+05         0.00000E+00
    0.00000E+00         0.00000E+00         0.29666E+02
 
   -0.76914E+05         0.20126E+06         0.00000E+00
    0.20126E+06         0.77140E+05         0.00000E+00
    0.00000E+00         0.00000E+00         0.45299E+02
 
   -0.71444E+05         0.20345E+06         0.00000E+00
    0.20345E+06         0.71771E+05         0.00000E+00
    0.00000E+00         0.00000E+00         0.65464E+02
 
   -0.66074E+05         0.20554E+06         0.00000E+00
    0.20554E+06         0.66530E+05         0.00000E+00
    0.00000E+00         0.00000E+00         0.91153E+02
 
   -0.60807E+05         0.20753E+06         0.00000E+00
    0.20753E+06         0.61425E+05         0.00000E+00
    0.00000E+00         0.00000E+00         0.12358E+03
 
   -0.55644E+05         0.20945E+06         0.00000E+00
    0.20945E+06         0.56465E+05         0.00000E+00
    0.00000E+00         0.00000E+00         0.16420E+03
 
   -0.50584E+05         0.21131E+06         0.00000E+00
    0.21131E+06         0.51658E+05         0.00000E+00
    0.00000E+00         0.00000E+00         0.21479E+03
 
   -0.45626E+05         0.21313E+06         0.00000E+00
    0.21313E+06         0.47014E+05         0.00000E+00
    0.00000E+00         0.00000E+00         0.27749E+03
 
   -0.40766E+05         0.21493E+06         0.00000E+00
    0.21493E+06         0.42540E+05         0.00000E+00
    0.00000E+00         0.00000E+00         0.35487E+03
 
   -0.35995E+05         0.21673E+06         0.00000E+00
    0.21673E+06         0.38246E+05         0.00000E+00
    0.00000E+00         0.00000E+00         0.45001E+03
 
   -0.31308E+05         0.21855E+06         0.00000E+00
    0.21855E+06         0.34141E+05         0.00000E+00
    0.00000E+00         0.00000E+00         0.56660E+03
 
   -0.26692E+05         0.22040E+06         0.00000E+00
    0.22040E+06         0.30237E+05         0.00000E+00
    0.00000E+00         0.00000E+00         0.70897E+03
 
   -0.22135E+05         0.22231E+06         0.00000E+00
    0.22231E+06         0.26546E+05         0.00000E+00
    0.00000E+00         0.00000E+00         0.88225E+03
 
   -0.17621E+05         0.22428E+06         0.00000E+00
    0.22428E+06         0.23083E+05         0.00000E+00
    0.00000E+00         0.00000E+00         0.10924E+04
 
   -0.13132E+05         0.22634E+06         0.00000E+00
    0.22634E+06         0.19864E+05         0.00000E+00
    0.00000E+00         0.00000E+00         0.13465E+04
 
   -0.86470E+04         0.22850E+06         0.00000E+00
    0.22850E+06         0.16908E+05         0.00000E+00
    0.00000E+00         0.00000E+00         0.16522E+04
 
   -0.41435E+04         0.23077E+06         0.00000E+00
    0.23077E+06         0.14237E+05         0.00000E+00
    0.00000E+00         0.00000E+00         0.20187E+04
 
    0.40444E+03         0.23317E+06         0.00000E+00
    0.23317E+06         0.11873E+05         0.00000E+00
    0.00000E+00         0.00000E+00         0.24555E+04
 
   -0.20779E+06         0.40105E+04         0.00000E+00
    0.40105E+04         0.20747E+06         0.00000E+00
    0.00000E+00         0.00000E+00        -0.64679E+02
 
   -0.20732E+06         0.12010E+05         0.00000E+00
    0.12010E+05         0.20708E+06         0.00000E+00
    0.00000E+00         0.00000E+00        -0.46875E+02
 
   -0.20648E+06         0.19970E+05         0.00000E+00
    0.19970E+05         0.20632E+06         0.00000E+00
    0.00000E+00         0.00000E+00        -0.31545E+02
 
   -0.20529E+06         0.27871E+05         0.00000E+00
    0.27871E+05         0.20520E+06         0.00000E+00
    0.00000E+00         0.00000E+00        -0.18555E+02
 
   -0.20377E+06         0.35692E+05         0.00000E+00
    0.35692E+05         0.20373E+06         0.00000E+00
    0.00000E+00         0.00000E+00        -0.77462E+01
 
   -0.20191E+06         0.43415E+05         0.00000E+00
    0.43415E+05         0.20192E+06         0.00000E+00
    0.00000E+00         0.00000E+00         0.10537E+01
 
   -0.19974E+06         0.51023E+05         0.00000E+00
    0.51023E+05         0.19978E+06         0.00000E+00
    0.00000E+00         0.00000E+00         0.80274E+01
 
   -0.19727E+06         0.58499E+05         0.00000E+00
    0.58499E+05         0.19734E+06         0.00000E+00
    0.00000E+00         0.00000E+00         0.13359E+02
 
   -0.19452E+06         0.65829E+05         0.00000E+00
    0.65829E+05         0.19461E+06         0.00000E+00
    0.00000E+00         0.00000E+00         0.17230E+02
 
   -0.19150E+06         0.73000E+05         0.00000E+00
    0.73000E+05         0.19160E+06         0.00000E+00
    0.00000E+00         0.00000E+00         0.19817E+02
 
   -0.18822E+06         0.80001E+05         0.00000E+00
    0.80001E+05         0.18832E+06         0.00000E+00
    0.00000E+00         0.00000E+00         0.21287E+02
 
   -0.18470E+06         0.86821E+05         0.00000E+00
    0.86821E+05         0.18481E+06         0.00000E+00
    0.00000E+00         0.00000E+00         0.21800E+02
 
   -0.18095E+06         0.93451E+05         0.00000E+00
    0.93451E+05         0.18106E+06         0.00000E+00
    0.00000E+00         0.00000E+00         0.21503E+02
 
   -0.17701E+06         0.99883E+05         0.00000E+00
    0.99883E+05         0.17711E+06         0.00000E+00
    0.00000E+00         0.00000E+00         0.20537E+02
 
   -0.17286E+06         0.10611E+06         0.00000E+00
    0.10611E+06         0.17296E+06         0.00000E+00
    0.00000E+00         0.00000E+00         0.19029E+02
 
   -0.16855E+06         0.11213E+06         0.00000E+00
    0.11213E+06         0.16863E+06         0.00000E+00
    0.00000E+00         0.00000E+00         0.17103E+02
 
   -0.16407E+06         0.11794E+06         0.00000E+00
    0.11794E+06         0.16415E+06         0.00000E+00
    0.00000E+00         0.00000E+00         0.14872E+02
 
   -0.15946E+06         0.12353E+06         0.00000E+00
    0.12353E+06         0.15952E+06         0.00000E+00
    0.00000E+00         0.00000E+00         0.12445E+02
 
   -0.15471E+06         0.12890E+06         0.00000E+00
    0.12890E+06         0.15476E+06         0.00000E+00
    0.00000E+00         0.00000E+00         0.99299E+01
 
   -0.14986E+06         0.13406E+06         0.00000E+00
    0.13406E+06         0.14990E+06         0.00000E+00
    0.00000E+00         0.00000E+00         0.74310E+01
 
   -0.14491E+06         0.13900E+06         0.00000E+00
    0.13900E+06         0.14493E+06         0.00000E+00
    0.00000E+00         0.00000E+00         0.50556E+01
 
   -0.13987E+06         0.14373E+06         0.00000E+00
    0.14373E+06         0.13989E+06         0.00000E+00
    0.00000E+00         0.00000E+00         0.29155E+01
 
   -0.13477E+06         0.14825E+06         0.00000E+00
    0.14825E+06         0.13478E+06         0.00000E+00
    0.00000E+00         0.00000E+00         0.11307E+01
 
   -0.12962E+06         0.15256E+06         0.00000E+00
    0.15256E+06         0.12962E+06         0.00000E+00
    0.00000E+00         0.00000E+00        -0.16623E+00
 
   -0.12442E+06         0.15666E+06         0.00000E+00
    0.15666E+06         0.12442E+06         0.00000E+00
    0.00000E+00         0.00000E+00        -0.82590E+00
 
   -0.11919E+06         0.16058E+06         0.00000E+00
    0.16058E+06         0.11919E+06         0.00000E+00
    0.00000E+00         0.00000E+00        -0.67600E+00
 
   -0.11395E+06         0.16430E+06         0.00000E+00
    0.16430E+06         0.11395E+06         0.00000E+00
    0.00000E+00         0.00000E+00         0.48532E+00
 
   -0.10870E+06         0.16784E+06         0.00000E+00
    0.16784E+06         0.10872E+06         0.00000E+00
    0.00000E+00         0.00000E+00         0.28976E+01
 
   -0.10346E+06         0.17121E+06         0.00000E+00
    0.17121E+06         0.10349E+06         0.00000E+00
    0.00000E+00         0.00000E+00         0.68476E+01
 
   -0.98225E+05         0.17441E+06         0.00000E+00
    0.17441E+06         0.98288E+05         0.00000E+00
    0.00000E+00         0.00000E+00         0.12681E+02
 
   -0.93013E+05         0.17746E+06         0.00000E+00
    0.17746E+06         0.93117E+05         0.00000E+00
    0.00000E+00         0.00000E+00         0.20818E+02
 
   -0.87829E+05         0.18036E+06         0.00000E+00
    0.18036E+06         0.87988E+05         0.00000E+00
    0.00000E+00         0.00000E+00         0.31767E+02
 
   -0.82679E+05         0.18314E+06         0.00000E+00
    0.18314E+06         0.82910E+05         0.00000E+00
    0.00000E+00         0.00000E+00         0.46148E+02
 
   -0.77568E+05         0.18579E+06         0.00000E+00
    0.18579E+06         0.77892E+05         0.00000E+00
    0.00000E+00         0.00000E+00         0.64715E+02
 
   -0.72500E+05         0.18834E+06         0.00000E+00
    0.18834E+06         0.72942E+05         0.00000E+00
    0.00000E+00         0.00000E+00         0.88389E+02
 
   -0.67477E+05         0.19078E+06         0.00000E+00
    0.19078E+06         0.68069E+05         0.00000E+00
    0.00000E+00         0.00000E+00         0.11829E+03
 
   -0.62501E+05         0.19315E+06         0.00000E+00
    0.19315E+06         0.63279E+05         0.00000E+00
    0.00000E+00         0.00000E+00         0.15576E+03
 
   -0.57570E+05         0.19545E+06         0.00000E+00
    0.19545E+06         0.58583E+05         0.00000E+00
    0.00000E+00         0.00000E+00         0.20247E+03
 
   -0.52684E+05         0.19768E+06         0.00000E+00
    0.19768E+06         0.53986E+05         0.00000E+00
    0.00000E+00         0.00000E+00         0.26039E+03
 
   -0.47838E+05         0.19988E+06         0.00000E+00
    0.19988E+06         0.49498E+05         0.00000E+00
    0.00000E+00         0.00000E+00         0.33193E+03
 
   -0.43028E+05         0.20205E+06         0.00000E+00
    0.20205E+06         0.45128E+05         0.00000E+00
    0.00000E+00         0.00000E+00         0.41997E+03
 
   -0.38247E+05         0.20420E+06         0.00000E+00
    0.20420E+06         0.40886E+05         0.00000E+00
    0.00000E+00         0.00000E+00         0.52795E+03
 
   -0.33485E+05         0.20634E+06         0.00000E+00
    0.20634E+06         0.36784E+05         0.00000E+00
    0.00000E+00         0.00000E+00         0.65999E+03
 
   -0.28731E+05         0.20850E+06         0.00000E+00
    0.20850E+06         0.32836E+05         0.00000E+00
    0.00000E+00         0.00000E+00         0.82093E+03
 
   -0.23973E+05         0.21068E+06         0.00000E+00
    0.21068E+06         0.29056E+05         0.00000E+00
    0.00000E+00         0.00000E+00         0.10165E+04
 
   -0.19196E+05         0.21289E+06         0.00000E+00
    0.21289E+06         0.25463E+05         0.00000E+00
    0.00000E+00         0.00000E+00         0.12533E+04
 
   -0.14382E+05         0.21514E+06         0.00000E+00
    0.21514E+06         0.22078E+05         0.00000E+00
    0.00000E+00         0.00000E+00         0.15392E+04
 
   -0.95103E+04         0.21746E+06         0.00000E+00
    0.21746E+06         0.18924E+05         0.00000E+00
    0.00000E+00         0.00000E+00         0.18827E+04
 
   -0.45599E+04         0.21983E+06         0.00000E+00
    0.21983E+06         0.16030E+05         0.00000E+00
    0.00000E+00         0.00000E+00         0.22939E+04
 
    0.49364E+03         0.22228E+06         0.00000E+00
    0.22228E+06         0.13424E+05         0.00000E+00
    0.00000E+00         0.00000E+00         0.27835E+04
 
   -0.18921E+06         0.34479E+04         0.00000E+00
    0.34479E+04         0.18881E+06         0.00000E+00
    0.00000E+00         0.00000E+00        -0.79312E+02
 
   -0.18879E+06         0.10362E+05         0.00000E+00
    0.10362E+05         0.18850E+06         0.00000E+00
    0.00000E+00         0.00000E+00        -0.58126E+02
 
   -0.18808E+06         0.17262E+05         0.00000E+00
    0.17262E+05         0.18788E+06         0.00000E+00
    0.00000E+00         0.00000E+00        -0.40328E+02
 
   -0.18710E+06         0.24130E+05         0.00000E+00
    0.24130E+05         0.18697E+06         0.00000E+00
    0.00000E+00         0.00000E+00        -0.25562E+02
 
   -0.18584E+06         0.30952E+05         0.00000E+00
    0.30952E+05         0.18577E+06         0.00000E+00
    0.00000E+00         0.00000E+00        -0.13490E+02
 
   -0.18431E+06         0.37712E+05         0.00000E+00
    0.37712E+05         0.18429E+06         0.00000E+00
    0.00000E+00         0.00000E+00        -0.37914E+01
 
   -0.18253E+06         0.44396E+05         0.00000E+00
    0.44396E+05         0.18255E+06         0.00000E+00
    0.00000E+00         0.00000E+00         0.38293E+01
 
   -0.18050E+06         0.50991E+05         0.00000E+00
    0.50991E+05         0.18054E+06         0.00000E+00
    0.00000E+00         0.00000E+00         0.96435E+01
 
   -0.17823E+06         0.57485E+05         0.00000E+00
    0.57485E+05         0.17830E+06         0.00000E+00
    0.00000E+00         0.00000E+00         0.13898E+02
 
   -0.17573E+06         0.63868E+05         0.00000E+00
    0.63868E+05         0.17581E+06         0.00000E+00
    0.00000E+00         0.00000E+00         0.16817E+02
 
   -0.17301E+06         0.70128E+05         0.00000E+00
    0.70128E+05         0.17311E+06         0.00000E+00
    0.00000E+00         0.00000E+00         0.18601E+02
 
   -0.17009E+06         0.76257E+05         0.00000E+00
    0.76257E+05         0.17019E+06         0.00000E+00
    0.00000E+00         0.00000E+00         0.19433E+02
 
   -0.16698E+06         0.82247E+05         0.00000E+00
    0.82247E+05         0.16708E+06         0.00000E+00
    0.00000E+00         0.00000E+00         0.19475E+02
 
   -0.16368E+06         0.88090E+05         0.00000E+00
    0.88090E+05         0.16378E+06         0.00000E+00
    0.00000E+00         0.00000E+00         0.18876E+02
 
   -0.16022E+06         0.93781E+05         0.00000E+00
    0.93781E+05         0.16031E+06         0.00000E+00
    0.00000E+00         0.00000E+00         0.17768E+02
 
   -0.15659E+06         0.99315E+05         0.00000E+00
    0.99315E+05         0.15667E+06         0.00000E+00
    0.00000E+00         0.00000E+00         0.16277E+02
 
   -0.15282E+06         0.10469E+06         0.00000E+00
    0.10469E+06         0.15289E+06         0.00000E+00
    0.00000E+00         0.00000E+00         0.14515E+02
 
   -0.14892E+06         0.10989E+06         0.00000E+00
    0.10989E+06         0.14898E+06         0.00000E+00
    0.00000E+00         0.00000E+00         0.12591E+02
 
   -0.14489E+06         0.11494E+06         0.00000E+00
    0.11494E+06         0.14494E+06         0.00000E+00
    0.00000E+00         0.00000E+00         0.10610E+02
 
   -0.14075E+06         0.11981E+06         0.00000E+00
    0.11981E+06         0.14080E+06         0.00000E+00
    0.00000E+00         0.00000E+00         0.86761E+01
 
   -0.13652E+06         0.12452E+06         0.00000E+00
    0.12452E+06         0.13655E+06         0.00000E+00
    0.00000E+00         0.00000E+00         0.68952E+01
 
   -0.13219E+06         0.12905E+06         0.00000E+00
    0.12905E+06         0.13222E+06         0.00000E+00
    0.00000E+00         0.00000E+00         0.53795E+01
 
   -0.12779E+06         0.13343E+06         0.00000E+00
    0.13343E+06         0.12781E+06         0.00000E+00
    0.00000E+00         0.00000E+00         0.42503E+01
 
   -0.12332E+06         0.13763E+06         0.00000E+00
    0.13763E+06         0.12334E+06         0.00000E+00
    0.00000E+00         0.00000E+00         0.36429E+01
 
   -0.11880E+06         0.14168E+06         0.00000E+00
    0.14168E+06         0.11881E+06         0.00000E+00
    0.00000E+00         0.00000E+00         0.37114E+01
 
   -0.11422E+06         0.14557E+06         0.00000E+00
    0.14557E+06         0.11424E+06         0.00000E+00
    0.00000E+00         0.00000E+00         0.46348E+01
 
   -0.10961E+06         0.14931E+06         0.00000E+00
    0.14931E+06         0.10964E+06         0.00000E+00
    0.00000E+00         0.00000E+00         0.66240E+01
 
   -0.10496E+06         0.15290E+06         0.00000E+00
    0.15290E+06         0.10501E+06         0.00000E+00
    0.00000E+00         0.00000E+00         0.99306E+01
 
   -0.10029E+06         0.15635E+06         0.00000E+00
    0.15635E+06         0.10037E+06         0.00000E+00
    0.00000E+00         0.00000E+00         0.14857E+02
 
   -0.95606E+05         0.15967E+06         0.00000E+00
    0.15967E+06         0.95714E+05         0.00000E+00
    0.00000E+00         0.00000E+00         0.21769E+02
 
   -0.90908E+05         0.16286E+06         0.00000E+00
    0.16286E+06         0.91063E+05         0.00000E+00
    0.00000E+00         0.00000E+00         0.31110E+02
 
   -0.86204E+05         0.16592E+06         0.00000E+00
    0.16592E+06         0.86421E+05         0.00000E+00
    0.00000E+00         0.00000E+00         0.43419E+02
 
   -0.81497E+05         0.16888E+06         0.00000E+00
    0.16888E+06         0.81794E+05         0.00000E+00
    0.00000E+00         0.00000E+00         0.59354E+02
 
   -0.76792E+05         0.17173E+06         0.00000E+00
    0.17173E+06         0.77191E+05         0.00000E+00
    0.00000E+00         0.00000E+00         0.79715E+02
 
   -0.72090E+05         0.17448E+06         0.00000E+00
    0.17448E+06         0.72618E+05         0.00000E+00
    0.00000E+00         0.00000E+00         0.10548E+03
 
   -0.67393E+05         0.17715E+06         0.00000E+00
    0.17715E+06         0.68082E+05         0.00000E+00
    0.00000E+00         0.00000E+00         0.13782E+03
 
   -0.62699E+05         0.17974E+06         0.00000E+00
    0.17974E+06         0.63590E+05         0.00000E+00
    0.00000E+00         0.00000E+00         0.17819E+03
 
   -0.58009E+05         0.18226E+06         0.00000E+00
    0.18226E+06         0.59151E+05         0.00000E+00
    0.00000E+00         0.00000E+00         0.22832E+03
 
   -0.53319E+05         0.18472E+06         0.00000E+00
    0.18472E+06         0.54771E+05         0.00000E+00
    0.00000E+00         0.00000E+00         0.29033E+03
 
   -0.48626E+05         0.18714E+06         0.00000E+00
    0.18714E+06         0.50460E+05         0.00000E+00
    0.00000E+00         0.00000E+00         0.36674E+03
 
   -0.43924E+05         0.18951E+06         0.00000E+00
    0.18951E+06         0.46227E+05         0.00000E+00
    0.00000E+00         0.00000E+00         0.46061E+03
 
   -0.39205E+05         0.19185E+06         0.00000E+00
    0.19185E+06         0.42083E+05         0.00000E+00
    0.00000E+00         0.00000E+00         0.57557E+03
 
   -0.34463E+05         0.19417E+06         0.00000E+00
    0.19417E+06         0.38042E+05         0.00000E+00
    0.00000E+00         0.00000E+00         0.71595E+03
 
   -0.29685E+05         0.19648E+06         0.00000E+00
    0.19648E+06         0.34119E+05         0.00000E+00
    0.00000E+00         0.00000E+00         0.88688E+03
 
   -0.24859E+05         0.19878E+06         0.00000E+00
    0.19878E+06         0.30331E+05         0.00000E+00
    0.00000E+00         0.00000E+00         0.10944E+04
 
   -0.19972E+05         0.20109E+06         0.00000E+00
    0.20109E+06         0.26699E+05         0.00000E+00
    0.00000E+00         0.00000E+00         0.13454E+04
 
   -0.15007E+05         0.20341E+06         0.00000E+00
    0.20341E+06         0.23247E+05         0.00000E+00
    0.00000E+00         0.00000E+00         0.16481E+04
 
   -0.99456E+04         0.20575E+06         0.00000E+00
    0.20575E+06         0.20003E+05         0.00000E+00
    0.00000E+00         0.00000E+00         0.20116E+04
 
   -0.47678E+04         0.20811E+06         0.00000E+00
    0.20811E+06         0.16999E+05         0.00000E+00
    0.00000E+00         0.00000E+00         0.24462E+04
 
    0.54845E+03         0.21050E+06         0.00000E+00
    0.21050E+06         0.14268E+05         0.00000E+00
    0.00000E+00         0.00000E+00         0.29634E+04
 
   -0.17323E+06         0.30051E+04         0.00000E+00
    0.30051E+04         0.17245E+06         0.00000E+00
    0.00000E+00         0.00000E+00        -0.15643E+03
 
   -0.17280E+06         0.90538E+04         0.00000E+00
    0.90538E+04         0.17219E+06         0.00000E+00
    0.00000E+00         0.00000E+00        -0.12188E+03
 
   -0.17214E+06         0.15102E+05         0.00000E+00
    0.15102E+05         0.17168E+06         0.00000E+00
    0.00000E+00         0.00000E+00        -0.93049E+02
 
   -0.17126E+06         0.21137E+05         0.00000E+00
    0.21137E+05         0.17092E+06         0.00000E+00
    0.00000E+00         0.00000E+00        -0.69207E+02
 
   -0.17017E+06         0.27146E+05         0.00000E+00
    0.27146E+05         0.16992E+06         0.00000E+00
    0.00000E+00         0.00000E+00        -0.49676E+02
 
   -0.16886E+06         0.33119E+05         0.00000E+00
    0.33119E+05         0.16869E+06         0.00000E+00
    0.00000E+00         0.00000E+00        -0.33845E+02
 
   -0.16734E+06         0.39042E+05         0.00000E+00
    0.39042E+05         0.16723E+06         0.00000E+00
    0.00000E+00         0.00000E+00        -0.21175E+02
 
   -0.16562E+06         0.44907E+05         0.00000E+00
    0.44907E+05         0.16556E+06         0.00000E+00
    0.00000E+00         0.00000E+00        -0.11187E+02
 
   -0.16370E+06         0.50703E+05         0.00000E+00
    0.50703E+05         0.16368E+06         0.00000E+00
    0.00000E+00         0.00000E+00        -0.34654E+01
 
   -0.16159E+06         0.56421E+05         0.00000E+00
    0.56421E+05         0.16160E+06         0.00000E+00
    0.00000E+00         0.00000E+00         0.23538E+01
 
   -0.15930E+06         0.62052E+05         0.00000E+00
    0.62052E+05         0.15933E+06         0.00000E+00
    0.00000E+00         0.00000E+00         0.65857E+01
 
   -0.15683E+06         0.67589E+05         0.00000E+00
    0.67589E+05         0.15688E+06         0.00000E+00
    0.00000E+00         0.00000E+00         0.95034E+01
 
   -0.15420E+06         0.73024E+05         0.00000E+00
    0.73024E+05         0.15426E+06         0.00000E+00
    0.00000E+00         0.00000E+00         0.11344E+02
 
   -0.15141E+06         0.78351E+05         0.00000E+00
    0.78351E+05         0.15147E+06         0.00000E+00
    0.00000E+00         0.00000E+00         0.12314E+02
 
   -0.14847E+06         0.83565E+05         0.00000E+00
    0.83565E+05         0.14853E+06         0.00000E+00
    0.00000E+00         0.00000E+00         0.12594E+02
 
   -0.14539E+06         0.88661E+05         0.00000E+00
    0.88661E+05         0.14545E+06         0.00000E+00
    0.00000E+00         0.00000E+00         0.12344E+02
 
   -0.14217E+06         0.93634E+05         0.00000E+00
    0.93634E+05         0.14223E+06         0.00000E+00
    0.00000E+00         0.00000E+00         0.11707E+02
 
   -0.13883E+06         0.98483E+05         0.00000E+00
    0.98483E+05         0.13889E+06         0.00000E+00
    0.00000E+00         0.00000E+00         0.10815E+02
 
   -0.13538E+06         0.10320E+06         0.00000E+00
    0.10320E+06         0.13543E+06         0.00000E+00
    0.00000E+00         0.00000E+00         0.97896E+01
 
   -0.13182E+06         0.10779E+06         0.00000E+00
    0.10779E+06         0.13186E+06         0.00000E+00
    0.00000E+00         0.00000E+00         0.87500E+01
 
   -0.12816E+06         0.11225E+06         0.00000E+00
    0.11225E+06         0.12820E+06         0.00000E+00
    0.00000E+00         0.00000E+00         0.78132E+01
 
   -0.12441E+06         0.11658E+06         0.00000E+00
    0.11658E+06         0.12445E+06         0.00000E+00
    0.00000E+00         0.00000E+00         0.71004E+01
 
   -0.12058E+06         0.12078E+06         0.00000E+00
    0.12078E+06         0.12061E+06         0.00000E+00
    0.00000E+00         0.00000E+00         0.67405E+01
 
   -0.11667E+06         0.12485E+06         0.00000E+00
    0.12485E+06         0.11671E+06         0.00000E+00
    0.00000E+00         0.00000E+00         0.68753E+01
 
   -0.11270E+06         0.12879E+06         0.00000E+00
    0.12879E+06         0.11273E+06         0.00000E+00
    0.00000E+00         0.00000E+00         0.76646E+01
 
   -0.10866E+06         0.13260E+06         0.00000E+00
    0.13260E+06         0.10871E+06         0.00000E+00
    0.00000E+00         0.00000E+00         0.92930E+01
 
   -0.10457E+06         0.13629E+06         0.00000E+00
    0.13629E+06         0.10463E+06         0.00000E+00
    0.00000E+00         0.00000E+00         0.11977E+02
 
   -0.10043E+06         0.13986E+06         0.00000E+00
    0.13986E+06         0.10051E+06         0.00000E+00
    0.00000E+00         0.00000E+00         0.15975E+02
 
   -0.96251E+05         0.14331E+06         0.00000E+00
    0.14331E+06         0.96359E+05         0.00000E+00
    0.00000E+00         0.00000E+00         0.21595E+02
 
   -0.92031E+05         0.14665E+06         0.00000E+00
    0.14665E+06         0.92177E+05         0.00000E+00
    0.00000E+00         0.00000E+00         0.29211E+02
 
   -0.87776E+05         0.14988E+06         0.00000E+00
    0.14988E+06         0.87973E+05         0.00000E+00
    0.00000E+00         0.00000E+00         0.39275E+02
 
   -0.83491E+05         0.15301E+06         0.00000E+00
    0.15301E+06         0.83753E+05         0.00000E+00
    0.00000E+00         0.00000E+00         0.52339E+02
 
   -0.79178E+05         0.15604E+06         0.00000E+00
    0.15604E+06         0.79523E+05         0.00000E+00
    0.00000E+00         0.00000E+00         0.69070E+02
 
   -0.74839E+05         0.15898E+06         0.00000E+00
    0.15898E+06         0.75290E+05         0.00000E+00
    0.00000E+00         0.00000E+00         0.90286E+02
 
   -0.70474E+05         0.16183E+06         0.00000E+00
    0.16183E+06         0.71059E+05         0.00000E+00
    0.00000E+00         0.00000E+00         0.11698E+03
 
   -0.66085E+05         0.16460E+06         0.00000E+00
    0.16460E+06         0.66837E+05         0.00000E+00
    0.00000E+00         0.00000E+00         0.15035E+03
 
   -0.61671E+05         0.16730E+06         0.00000E+00
    0.16730E+06         0.62630E+05         0.00000E+00
    0.00000E+00         0.00000E+00         0.19187E+03
 
   -0.57229E+05         0.16992E+06         0.00000E+00
    0.16992E+06         0.58445E+05         0.00000E+00
    0.00000E+00         0.00000E+00         0.24331E+03
 
   -0.52757E+05         0.17249E+06         0.00000E+00
    0.17249E+06         0.54291E+05         0.00000E+00
    0.00000E+00         0.00000E+00         0.30681E+03
 
   -0.48251E+05         0.17500E+06         0.00000E+00
    0.17500E+06         0.50176E+05         0.00000E+00
    0.00000E+00         0.00000E+00         0.38495E+03
 
   -0.43706E+05         0.17746E+06         0.00000E+00
    0.17746E+06         0.46110E+05         0.00000E+00
    0.00000E+00         0.00000E+00         0.48082E+03
 
   -0.39114E+05         0.17988E+06         0.00000E+00
    0.17988E+06         0.42105E+05         0.00000E+00
    0.00000E+00         0.00000E+00         0.59810E+03
 
   -0.34469E+05         0.18226E+06         0.00000E+00
    0.18226E+06         0.38175E+05         0.00000E+00
    0.00000E+00         0.00000E+00         0.74120E+03
 
   -0.29760E+05         0.18461E+06         0.00000E+00
    0.18461E+06         0.34337E+05         0.00000E+00
    0.00000E+00         0.00000E+00         0.91529E+03
 
   -0.24977E+05         0.18693E+06         0.00000E+00
    0.18693E+06         0.30609E+05         0.00000E+00
    0.00000E+00         0.00000E+00         0.11265E+04
 
   -0.20105E+05         0.18923E+06         0.00000E+00
    0.18923E+06         0.27014E+05         0.00000E+00
    0.00000E+00         0.00000E+00         0.13818E+04
 
   -0.15132E+05         0.19152E+06         0.00000E+00
    0.19152E+06         0.23579E+05         0.00000E+00
    0.00000E+00         0.00000E+00         0.16895E+04
 
   -0.10039E+05         0.19379E+06         0.00000E+00
    0.19379E+06         0.20333E+05         0.00000E+00
    0.00000E+00         0.00000E+00         0.20588E+04
 
   -0.48102E+04         0.19605E+06         0.00000E+00
    0.19605E+06         0.17311E+05         0.00000E+00
    0.00000E+00         0.00000E+00         0.25002E+04
 
    0.57533E+03         0.19831E+06         0.00000E+00
    0.19831E+06         0.14550E+05         0.00000E+00
    0.00000E+00         0.00000E+00         0.30250E+04
 
   -0.15926E+06         0.26583E+04         0.00000E+00
    0.26583E+04         0.15796E+06         0.00000E+00
    0.00000E+00         0.00000E+00        -0.26001E+03
 
   -0.15878E+06         0.80201E+04         0.00000E+00
    0.80201E+04         0.15774E+06         0.00000E+00
    0.00000E+00         0.00000E+00        -0.20802E+03
 
   -0.15813E+06         0.13388E+05         0.00000E+00
    0.13388E+05         0.15731E+06         0.00000E+00
    0.00000E+00         0.00000E+00        -0.16463E+03
 
   -0.15730E+06         0.18754E+05         0.00000E+00
    0.18754E+05         0.15666E+06         0.00000E+00
    0.00000E+00         0.00000E+00        -0.12866E+03
 
   -0.15630E+06         0.24106E+05         0.00000E+00
    0.24106E+05         0.15581E+06         0.00000E+00
    0.00000E+00         0.00000E+00        -0.99049E+02
 
   -0.15513E+06         0.29437E+05         0.00000E+00
    0.29437E+05         0.15476E+06         0.00000E+00
    0.00000E+00         0.00000E+00        -0.74855E+02
 
   -0.15379E+06         0.34738E+05         0.00000E+00
    0.34738E+05         0.15351E+06         0.00000E+00
    0.00000E+00         0.00000E+00        -0.55242E+02
 
   -0.15229E+06         0.40000E+05         0.00000E+00
    0.40000E+05         0.15209E+06         0.00000E+00
    0.00000E+00         0.00000E+00        -0.39485E+02
 
   -0.15062E+06         0.45215E+05         0.00000E+00
    0.45215E+05         0.15049E+06         0.00000E+00
    0.00000E+00         0.00000E+00        -0.26957E+02
 
   -0.14880E+06         0.50375E+05         0.00000E+00
    0.50375E+05         0.14871E+06         0.00000E+00
    0.00000E+00         0.00000E+00        -0.17119E+02
 
   -0.14683E+06         0.55474E+05         0.00000E+00
    0.55474E+05         0.14678E+06         0.00000E+00
    0.00000E+00         0.00000E+00        -0.95109E+01
 
   -0.14470E+06         0.60504E+05         0.00000E+00
    0.60504E+05         0.14468E+06         0.00000E+00
    0.00000E+00         0.00000E+00        -0.37401E+01
 
   -0.14244E+06         0.65461E+05         0.00000E+00
    0.65461E+05         0.14244E+06         0.00000E+00
    0.00000E+00         0.00000E+00         0.52852E+00
 
   -0.14004E+06         0.70337E+05         0.00000E+00
    0.70337E+05         0.14005E+06         0.00000E+00
    0.00000E+00         0.00000E+00         0.35810E+01
 
   -0.13750E+06         0.75129E+05         0.00000E+00
    0.75129E+05         0.13753E+06         0.00000E+00
    0.00000E+00         0.00000E+00         0.56626E+01
 
   -0.13484E+06         0.79832E+05         0.00000E+00
    0.79832E+05         0.13488E+06         0.00000E+00
    0.00000E+00         0.00000E+00         0.69854E+01
 
   -0.13206E+06         0.84442E+05         0.00000E+00
    0.84442E+05         0.13210E+06         0.00000E+00
    0.00000E+00         0.00000E+00         0.77343E+01
 
   -0.12917E+06         0.88956E+05         0.00000E+00
    0.88956E+05         0.12921E+06         0.00000E+00
    0.00000E+00         0.00000E+00         0.80738E+01
 
   -0.12617E+06         0.93371E+05         0.00000E+00
    0.93371E+05         0.12622E+06         0.00000E+00
    0.00000E+00         0.00000E+00         0.81527E+01
 
   -0.12307E+06         0.97685E+05         0.00000E+00
    0.97685E+05         0.12312E+06         0.00000E+00
    0.00000E+00         0.00000E+00         0.81099E+01
 
   -0.11988E+06         0.10190E+06         0.00000E+00
    0.10190E+06         0.11992E+06         0.00000E+00
    0.00000E+00         0.00000E+00         0.80793E+01
 
   -0.11660E+06         0.10600E+06         0.00000E+00
    0.10600E+06         0.11664E+06         0.00000E+00
    0.00000E+00         0.00000E+00         0.81943E+01
 
   -0.11323E+06         0.11001E+06         0.00000E+00
    0.11001E+06         0.11327E+06         0.00000E+00
    0.00000E+00         0.00000E+00         0.85934E+01
 
   -0.10978E+06         0.11391E+06         0.00000E+00
    0.11391E+06         0.10983E+06         0.00000E+00
    0.00000E+00         0.00000E+00         0.94253E+01
 
   -0.10626E+06         0.11770E+06         0.00000E+00
    0.11770E+06         0.10631E+06         0.00000E+00
    0.00000E+00         0.00000E+00         0.10855E+02
 
   -0.10267E+06         0.12139E+06         0.00000E+00
    0.12139E+06         0.10274E+06         0.00000E+00
    0.00000E+00         0.00000E+00         0.13070E+02
 
   -0.99021E+05         0.12498E+06         0.00000E+00
    0.12498E+06         0.99102E+05         0.00000E+00
    0.00000E+00         0.00000E+00         0.16290E+02
 
   -0.95310E+05         0.12847E+06         0.00000E+00
    0.12847E+06         0.95413E+05         0.00000E+00
    0.00000E+00         0.00000E+00         0.20772E+02
 
   -0.91543E+05         0.13187E+06         0.00000E+00
    0.13187E+06         0.91677E+05         0.00000E+00
    0.00000E+00         0.00000E+00         0.26824E+02
 
   -0.87723E+05         0.13516E+06         0.00000E+00
    0.13516E+06         0.87897E+05         0.00000E+00
    0.00000E+00         0.00000E+00         0.34819E+02
 
   -0.83855E+05         0.13837E+06         0.00000E+00
    0.13837E+06         0.84081E+05         0.00000E+00
    0.00000E+00         0.00000E+00         0.45205E+02
 
   -0.79938E+05         0.14148E+06         0.00000E+00
    0.14148E+06         0.80231E+05         0.00000E+00
    0.00000E+00         0.00000E+00         0.58529E+02
 
   -0.75977E+05         0.14450E+06         0.00000E+00
    0.14450E+06         0.76354E+05         0.00000E+00
    0.00000E+00         0.00000E+00         0.75454E+02
 
   -0.71971E+05         0.14744E+06         0.00000E+00
    0.14744E+06         0.72455E+05         0.00000E+00
    0.00000E+00         0.00000E+00         0.96787E+02
 
   -0.67921E+05         0.15031E+06         0.00000E+00
    0.15031E+06         0.68539E+05         0.00000E+00
    0.00000E+00         0.00000E+00         0.12351E+03
 
   -0.63827E+05         0.15309E+06         0.00000E+00
    0.15309E+06         0.64611E+05         0.00000E+00
    0.00000E+00         0.00000E+00         0.15682E+03
 
   -0.59687E+05         0.15580E+06         0.00000E+00
    0.15580E+06         0.60678E+05         0.00000E+00
    0.00000E+00         0.00000E+00         0.19816E+03
 
   -0.55501E+05         0.15845E+06         0.00000E+00
    0.15845E+06         0.56747E+05         0.00000E+00
    0.00000E+00         0.00000E+00         0.24928E+03
 
   -0.51264E+05         0.16103E+06         0.00000E+00
    0.16103E+06         0.52825E+05         0.00000E+00
    0.00000E+00         0.00000E+00         0.31229E+03
 
   -0.46973E+05         0.16354E+06         0.00000E+00
    0.16354E+06         0.48922E+05         0.00000E+00
    0.00000E+00         0.00000E+00         0.38974E+03
 
   -0.42624E+05         0.16600E+06         0.00000E+00
    0.16600E+06         0.45048E+05         0.00000E+00
    0.00000E+00         0.00000E+00         0.48469E+03
 
   -0.38210E+05         0.16841E+06         0.00000E+00
    0.16841E+06         0.41214E+05         0.00000E+00
    0.00000E+00         0.00000E+00         0.60077E+03
 
   -0.33725E+05         0.17077E+06         0.00000E+00
    0.17077E+06         0.37436E+05         0.00000E+00
    0.00000E+00         0.00000E+00         0.74230E+03
 
   -0.29159E+05         0.17308E+06         0.00000E+00
    0.17308E+06         0.33731E+05         0.00000E+00
    0.00000E+00         0.00000E+00         0.91440E+03
 
   -0.24503E+05         0.17535E+06         0.00000E+00
    0.17535E+06         0.30118E+05         0.00000E+00
    0.00000E+00         0.00000E+00         0.11231E+04
 
   -0.19745E+05         0.17757E+06         0.00000E+00
    0.17757E+06         0.26621E+05         0.00000E+00
    0.00000E+00         0.00000E+00         0.13752E+04
 
   -0.14873E+05         0.17976E+06         0.00000E+00
    0.17976E+06         0.23268E+05         0.00000E+00
    0.00000E+00         0.00000E+00         0.16790E+04
 
   -0.98724E+04         0.18192E+06         0.00000E+00
    0.18192E+06         0.20089E+05         0.00000E+00
    0.00000E+00         0.00000E+00         0.20434E+04
 
   -0.47269E+04         0.18404E+06         0.00000E+00
    0.18404E+06         0.17121E+05         0.00000E+00
    0.00000E+00         0.00000E+00         0.24787E+04
 
    0.58047E+03         0.18614E+06         0.00000E+00
    0.18614E+06         0.14400E+05         0.00000E+00
    0.00000E+00         0.00000E+00         0.29962E+04
 
   -0.14684E+06         0.23869E+04         0.00000E+00
    0.23869E+04         0.14501E+06         0.00000E+00
    0.00000E+00         0.00000E+00        -0.36646E+03
 
   -0.14630E+06         0.72039E+04         0.00000E+00
    0.72039E+04         0.14482E+06         0.00000E+00
    0.00000E+00         0.00000E+00        -0.29681E+03
 
   -0.14562E+06         0.12030E+05         0.00000E+00
    0.12030E+05         0.14443E+06         0.00000E+00
    0.00000E+00         0.00000E+00        -0.23860E+03
 
   -0.14481E+06         0.16857E+05         0.00000E+00
    0.16857E+05         0.14386E+06         0.00000E+00
    0.00000E+00         0.00000E+00        -0.19022E+03
 
   -0.14387E+06         0.21679E+05         0.00000E+00
    0.21679E+05         0.14312E+06         0.00000E+00
    0.00000E+00         0.00000E+00        -0.15026E+03
 
   -0.14279E+06         0.26489E+05         0.00000E+00
    0.26489E+05         0.14220E+06         0.00000E+00
    0.00000E+00         0.00000E+00        -0.11744E+03
 
   -0.14157E+06         0.31279E+05         0.00000E+00
    0.31279E+05         0.14112E+06         0.00000E+00
    0.00000E+00         0.00000E+00        -0.90641E+02
 
   -0.14022E+06         0.36043E+05         0.00000E+00
    0.36043E+05         0.13988E+06         0.00000E+00
    0.00000E+00         0.00000E+00        -0.68894E+02
 
   -0.13874E+06         0.40775E+05         0.00000E+00
    0.40775E+05         0.13849E+06         0.00000E+00
    0.00000E+00         0.00000E+00        -0.51366E+02
 
   -0.13713E+06         0.45468E+05         0.00000E+00
    0.45468E+05         0.13695E+06         0.00000E+00
    0.00000E+00         0.00000E+00        -0.37346E+02
 
   -0.13539E+06         0.50116E+05         0.00000E+00
    0.50116E+05         0.13526E+06         0.00000E+00
    0.00000E+00         0.00000E+00        -0.26226E+02
 
   -0.13353E+06         0.54714E+05         0.00000E+00
    0.54714E+05         0.13344E+06         0.00000E+00
    0.00000E+00         0.00000E+00        -0.17493E+02
 
   -0.13155E+06         0.59257E+05         0.00000E+00
    0.59257E+05         0.13149E+06         0.00000E+00
    0.00000E+00         0.00000E+00        -0.10712E+02
 
   -0.12944E+06         0.63740E+05         0.00000E+00
    0.63740E+05         0.12942E+06         0.00000E+00
    0.00000E+00         0.00000E+00        -0.55167E+01
 
   -0.12723E+06         0.68160E+05         0.00000E+00
    0.68160E+05         0.12722E+06         0.00000E+00
    0.00000E+00         0.00000E+00        -0.15938E+01
 
   -0.12490E+06         0.72510E+05         0.00000E+00
    0.72510E+05         0.12490E+06         0.00000E+00
    0.00000E+00         0.00000E+00         0.13221E+01
 
   -0.12246E+06         0.76790E+05         0.00000E+00
    0.76790E+05         0.12248E+06         0.00000E+00
    0.00000E+00         0.00000E+00         0.34596E+01
 
   -0.11992E+06         0.80994E+05         0.00000E+00
    0.80994E+05         0.11995E+06         0.00000E+00
    0.00000E+00         0.00000E+00         0.50176E+01
 
   -0.11729E+06         0.85121E+05         0.00000E+00
    0.85121E+05         0.11732E+06         0.00000E+00
    0.00000E+00         0.00000E+00         0.61726E+01
 
   -0.11456E+06         0.89168E+05         0.00000E+00
    0.89168E+05         0.11459E+06         0.00000E+00
    0.00000E+00         0.00000E+00         0.70850E+01
 
   -0.11174E+06         0.93133E+05         0.00000E+00
    0.93133E+05         0.11178E+06         0.00000E+00
    0.00000E+00         0.00000E+00         0.79050E+01
 
   -0.10883E+06         0.97015E+05         0.00000E+00
    0.97015E+05         0.10887E+06         0.00000E+00
    0.00000E+00         0.00000E+00         0.87784E+01
 
   -0.10584E+06         0.10081E+06         0.00000E+00
    0.10081E+06         0.10589E+06         0.00000E+00
    0.00000E+00         0.00000E+00         0.98525E+01
 
   -0.10277E+06         0.10453E+06         0.00000E+00
    0.10453E+06         0.10283E+06         0.00000E+00
    0.00000E+00         0.00000E+00         0.11282E+02
 
   -0.99629E+05         0.10815E+06         0.00000E+00
    0.10815E+06         0.99695E+05         0.00000E+00
    0.00000E+00         0.00000E+00         0.13234E+02
 
   -0.96414E+05         0.11169E+06         0.00000E+00
    0.11169E+06         0.96494E+05         0.00000E+00
    0.00000E+00         0.00000E+00         0.15898E+02
 
   -0.93131E+05         0.11515E+06         0.00000E+00
    0.11515E+06         0.93229E+05         0.00000E+00
    0.00000E+00         0.00000E+00         0.19491E+02
 
   -0.89783E+05         0.11852E+06         0.00000E+00
    0.11852E+06         0.89904E+05         0.00000E+00
    0.00000E+00         0.00000E+00         0.24265E+02
 
   -0.86372E+05         0.12181E+06         0.00000E+00
    0.12181E+06         0.86524E+05         0.00000E+00
    0.00000E+00         0.00000E+00         0.30524E+02
 
   -0.82900E+05         0.12501E+06         0.00000E+00
    0.12501E+06         0.83093E+05         0.00000E+00
    0.00000E+00         0.00000E+00         0.38629E+02
 
   -0.79369E+05         0.12813E+06         0.00000E+00
    0.12813E+06         0.79614E+05         0.00000E+00
    0.00000E+00         0.00000E+00         0.49017E+02
 
   -0.75782E+05         0.13117E+06         0.00000E+00
    0.13117E+06         0.76093E+05         0.00000E+00
    0.00000E+00         0.00000E+00         0.62219E+02
 
   -0.72138E+05         0.13413E+06         0.00000E+00
    0.13413E+06         0.72532E+05         0.00000E+00
    0.00000E+00         0.00000E+00         0.78877E+02
 
   -0.68438E+05         0.13701E+06         0.00000E+00
    0.13701E+06         0.68937E+05         0.00000E+00
    0.00000E+00         0.00000E+00         0.99773E+02
 
   -0.64683E+05         0.13982E+06         0.00000E+00
    0.13982E+06         0.65312E+05         0.00000E+00
    0.00000E+00         0.00000E+00         0.12586E+03
 
   -0.60872E+05         0.14256E+06         0.00000E+00
    0.14256E+06         0.61663E+05         0.00000E+00
    0.00000E+00         0.00000E+00         0.15829E+03
 
   -0.57003E+05         0.14522E+06         0.00000E+00
    0.14522E+06         0.57995E+05         0.00000E+00
    0.00000E+00         0.00000E+00         0.19846E+03
 
   -0.53075E+05         0.14781E+06         0.00000E+00
    0.14781E+06         0.54316E+05         0.00000E+00
    0.00000E+00         0.00000E+00         0.24807E+03
 
   -0.49086E+05         0.15034E+06         0.00000E+00
    0.15034E+06         0.50631E+05         0.00000E+00
    0.00000E+00         0.00000E+00         0.30916E+03
 
   -0.45031E+05         0.15280E+06         0.00000E+00
    0.15280E+06         0.46952E+05         0.00000E+00
    0.00000E+00         0.00000E+00         0.38418E+03
 
   -0.40907E+05         0.15520E+06         0.00000E+00
    0.15520E+06         0.43287E+05         0.00000E+00
    0.00000E+00         0.00000E+00         0.47609E+03
 
   -0.36708E+05         0.15754E+06         0.00000E+00
    0.15754E+06         0.39650E+05         0.00000E+00
    0.00000E+00         0.00000E+00         0.58839E+03
 
   -0.32428E+05         0.15982E+06         0.00000E+00
    0.15982E+06         0.36055E+05         0.00000E+00
    0.00000E+00         0.00000E+00         0.72526E+03
 
   -0.28061E+05         0.16204E+06         0.00000E+00
    0.16204E+06         0.32519E+05         0.00000E+00
    0.00000E+00         0.00000E+00         0.89162E+03
 
   -0.23596E+05         0.16421E+06         0.00000E+00
    0.16421E+06         0.29062E+05         0.00000E+00
    0.00000E+00         0.00000E+00         0.10932E+04
 
   -0.19025E+05         0.16632E+06         0.00000E+00
    0.16632E+06         0.25709E+05         0.00000E+00
    0.00000E+00         0.00000E+00         0.13369E+04
 
   -0.14336E+05         0.16838E+06         0.00000E+00
    0.16838E+06         0.22486E+05         0.00000E+00
    0.00000E+00         0.00000E+00         0.16302E+04
 
   -0.95162E+04         0.17039E+06         0.00000E+00
    0.17039E+06         0.19426E+05         0.00000E+00
    0.00000E+00         0.00000E+00         0.19820E+04
 
   -0.45529E+04         0.17235E+06         0.00000E+00
    0.17235E+06         0.16564E+05         0.00000E+00
    0.00000E+00         0.00000E+00         0.24021E+04
 
    0.56941E+03         0.17426E+06         0.00000E+00
    0.17426E+06         0.13938E+05         0.00000E+00
    0.00000E+00         0.00000E+00         0.29014E+04
 
   -0.13561E+06         0.21735E+04         0.00000E+00
    0.21735E+04         0.13330E+06         0.00000E+00
    0.00000E+00         0.00000E+00        -0.46149E+03
 
   -0.13501E+06         0.65564E+04         0.00000E+00
    0.65564E+04         0.13313E+06         0.00000E+00
    0.00000E+00         0.00000E+00        -0.37629E+03
 
   -0.13431E+06         0.10948E+05         0.00000E+00
    0.10948E+05         0.13278E+06         0.00000E+00
    0.00000E+00         0.00000E+00        -0.30496E+03
 
   -0.13350E+06         0.15342E+05         0.00000E+00
    0.15342E+05         0.13227E+06         0.00000E+00
    0.00000E+00         0.00000E+00        -0.24558E+03
 
   -0.13259E+06         0.19734E+05         0.00000E+00
    0.19734E+05         0.13160E+06         0.00000E+00
    0.00000E+00         0.00000E+00        -0.19641E+03
 
   -0.13157E+06         0.24118E+05         0.00000E+00
    0.24118E+05         0.13079E+06         0.00000E+00
    0.00000E+00         0.00000E+00        -0.15588E+03
 
   -0.13044E+06         0.28488E+05         0.00000E+00
    0.28488E+05         0.12982E+06         0.00000E+00
    0.00000E+00         0.00000E+00        -0.12265E+03
 
   -0.12920E+06         0.32840E+05         0.00000E+00
    0.32840E+05         0.12872E+06         0.00000E+00
    0.00000E+00         0.00000E+00        -0.95531E+02
 
   -0.12786E+06         0.37169E+05         0.00000E+00
    0.37169E+05         0.12749E+06         0.00000E+00
    0.00000E+00         0.00000E+00        -0.73510E+02
 
   -0.12640E+06         0.41468E+05         0.00000E+00
    0.41468E+05         0.12612E+06         0.00000E+00
    0.00000E+00         0.00000E+00        -0.55724E+02
 
   -0.12484E+06         0.45734E+05         0.00000E+00
    0.45734E+05         0.12464E+06         0.00000E+00
    0.00000E+00         0.00000E+00        -0.41440E+02
 
   -0.12318E+06         0.49962E+05         0.00000E+00
    0.49962E+05         0.12303E+06         0.00000E+00
    0.00000E+00         0.00000E+00        -0.30037E+02
 
   -0.12141E+06         0.54148E+05         0.00000E+00
    0.54148E+05         0.12130E+06         0.00000E+00
    0.00000E+00         0.00000E+00        -0.20993E+02
 
   -0.11954E+06         0.58288E+05         0.00000E+00
    0.58288E+05         0.11947E+06         0.00000E+00
    0.00000E+00         0.00000E+00        -0.13869E+02
 
   -0.11757E+06         0.62377E+05         0.00000E+00
    0.62377E+05         0.11753E+06         0.00000E+00
    0.00000E+00         0.00000E+00        -0.82927E+01
 
   -0.11550E+06         0.66413E+05         0.00000E+00
    0.66413E+05         0.11548E+06         0.00000E+00
    0.00000E+00         0.00000E+00        -0.39508E+01
 
   -0.11334E+06         0.70393E+05         0.00000E+00
    0.70393E+05         0.11333E+06         0.00000E+00
    0.00000E+00         0.00000E+00        -0.57633E+00
 
   -0.11108E+06         0.74312E+05         0.00000E+00
    0.74312E+05         0.11109E+06         0.00000E+00
    0.00000E+00         0.00000E+00         0.20607E+01
 
   -0.10874E+06         0.78169E+05         0.00000E+00
    0.78169E+05         0.10876E+06         0.00000E+00
    0.00000E+00         0.00000E+00         0.41609E+01
 
   -0.10630E+06         0.81962E+05         0.00000E+00
    0.81962E+05         0.10633E+06         0.00000E+00
    0.00000E+00         0.00000E+00         0.59033E+01
 
   -0.10379E+06         0.85688E+05         0.00000E+00
    0.85688E+05         0.10383E+06         0.00000E+00
    0.00000E+00         0.00000E+00         0.74523E+01
 
   -0.10119E+06         0.89345E+05         0.00000E+00
    0.89345E+05         0.10123E+06         0.00000E+00
    0.00000E+00         0.00000E+00         0.89637E+01
 
   -0.98512E+05         0.92933E+05         0.00000E+00
    0.92933E+05         0.98565E+05         0.00000E+00
    0.00000E+00         0.00000E+00         0.10591E+02
 
   -0.95758E+05         0.96449E+05         0.00000E+00
    0.96449E+05         0.95820E+05         0.00000E+00
    0.00000E+00         0.00000E+00         0.12493E+02
 
   -0.92930E+05         0.99893E+05         0.00000E+00
    0.99893E+05         0.93004E+05         0.00000E+00
    0.00000E+00         0.00000E+00         0.14838E+02
 
   -0.90030E+05         0.10326E+06         0.00000E+00
    0.10326E+06         0.90119E+05         0.00000E+00
    0.00000E+00         0.00000E+00         0.17812E+02
 
   -0.87060E+05         0.10656E+06         0.00000E+00
    0.10656E+06         0.87168E+05         0.00000E+00
    0.00000E+00         0.00000E+00         0.21627E+02
 
   -0.84023E+05         0.10979E+06         0.00000E+00
    0.10979E+06         0.84156E+05         0.00000E+00
    0.00000E+00         0.00000E+00         0.26528E+02
 
   -0.80920E+05         0.11293E+06         0.00000E+00
    0.11293E+06         0.81084E+05         0.00000E+00
    0.00000E+00         0.00000E+00         0.32807E+02
 
   -0.77753E+05         0.11601E+06         0.00000E+00
    0.11601E+06         0.77957E+05         0.00000E+00
    0.00000E+00         0.00000E+00         0.40811E+02
 
   -0.74523E+05         0.11901E+06         0.00000E+00
    0.11901E+06         0.74777E+05         0.00000E+00
    0.00000E+00         0.00000E+00         0.50957E+02
 
   -0.71230E+05         0.12194E+06         0.00000E+00
    0.12194E+06         0.71549E+05         0.00000E+00
    0.00000E+00         0.00000E+00         0.63752E+02
 
   -0.67876E+05         0.12480E+06         0.00000E+00
    0.12480E+06         0.68275E+05         0.00000E+00
    0.00000E+00         0.00000E+00         0.79809E+02
 
   -0.64460E+05         0.12758E+06         0.00000E+00
    0.12758E+06         0.64959E+05         0.00000E+00
    0.00000E+00         0.00000E+00         0.99873E+02
 
   -0.60982E+05         0.13029E+06         0.00000E+00
    0.13029E+06         0.61607E+05         0.00000E+00
    0.00000E+00         0.00000E+00         0.12485E+03
 
   -0.57443E+05         0.13293E+06         0.00000E+00
    0.13293E+06         0.58222E+05         0.00000E+00
    0.00000E+00         0.00000E+00         0.15583E+03
 
   -0.53840E+05         0.13550E+06         0.00000E+00
    0.13550E+06         0.54811E+05         0.00000E+00
    0.00000E+00         0.00000E+00         0.19416E+03
 
   -0.50172E+05         0.13800E+06         0.00000E+00
    0.13800E+06         0.51379E+05         0.00000E+00
    0.00000E+00         0.00000E+00         0.24144E+03
 
   -0.46436E+05         0.14044E+06         0.00000E+00
    0.14044E+06         0.47934E+05         0.00000E+00
    0.00000E+00         0.00000E+00         0.29960E+03
 
   -0.42631E+05         0.14280E+06         0.00000E+00
    0.14280E+06         0.44486E+05         0.00000E+00
    0.00000E+00         0.00000E+00         0.37100E+03
 
   -0.38751E+05         0.14510E+06         0.00000E+00
    0.14510E+06         0.41043E+05         0.00000E+00
    0.00000E+00         0.00000E+00         0.45841E+03
 
   -0.34793E+05         0.14733E+06         0.00000E+00
    0.14733E+06         0.37619E+05         0.00000E+00
    0.00000E+00         0.00000E+00         0.56518E+03
 
   -0.30751E+05         0.14950E+06         0.00000E+00
    0.14950E+06         0.34228E+05         0.00000E+00
    0.00000E+00         0.00000E+00         0.69527E+03
 
   -0.26620E+05         0.15160E+06         0.00000E+00
    0.15160E+06         0.30886E+05         0.00000E+00
    0.00000E+00         0.00000E+00         0.85334E+03
 
   -0.22391E+05         0.15364E+06         0.00000E+00
    0.15364E+06         0.27615E+05         0.00000E+00
    0.00000E+00         0.00000E+00         0.10449E+04
 
   -0.18056E+05         0.15561E+06         0.00000E+00
    0.15561E+06         0.24437E+05         0.00000E+00
    0.00000E+00         0.00000E+00         0.12762E+04
 
   -0.13606E+05         0.15752E+06         0.00000E+00
    0.15752E+06         0.21380E+05         0.00000E+00
    0.00000E+00         0.00000E+00         0.15547E+04
 
   -0.90305E+04         0.15937E+06         0.00000E+00
    0.15937E+06         0.18474E+05         0.00000E+00
    0.00000E+00         0.00000E+00         0.18887E+04
 
   -0.43171E+04         0.16116E+06         0.00000E+00
    0.16116E+06         0.15754E+05         0.00000E+00
    0.00000E+00         0.00000E+00         0.22874E+04
 
    0.54684E+03         0.16288E+06         0.00000E+00
    0.16288E+06         0.13259E+05         0.00000E+00
    0.00000E+00         0.00000E+00         0.27612E+04
 
   -0.12530E+06         0.20037E+04         0.00000E+00
    0.20037E+04         0.12262E+06         0.00000E+00
    0.00000E+00         0.00000E+00        -0.53756E+03
 
   -0.12466E+06         0.60376E+04         0.00000E+00
    0.60376E+04         0.12245E+06         0.00000E+00
    0.00000E+00         0.00000E+00        -0.44009E+03
 
   -0.12393E+06         0.10078E+05         0.00000E+00
    0.10078E+05         0.12214E+06         0.00000E+00
    0.00000E+00         0.00000E+00        -0.35840E+03
 
   -0.12312E+06         0.14120E+05         0.00000E+00
    0.14120E+05         0.12167E+06         0.00000E+00
    0.00000E+00         0.00000E+00        -0.29029E+03
 
   -0.12223E+06         0.18160E+05         0.00000E+00
    0.18160E+05         0.12106E+06         0.00000E+00
    0.00000E+00         0.00000E+00        -0.23378E+03
 
   -0.12125E+06         0.22194E+05         0.00000E+00
    0.22194E+05         0.12032E+06         0.00000E+00
    0.00000E+00         0.00000E+00        -0.18712E+03
 
   -0.12019E+06         0.26217E+05         0.00000E+00
    0.26217E+05         0.11945E+06         0.00000E+00
    0.00000E+00         0.00000E+00        -0.14874E+03
 
   -0.11904E+06         0.30225E+05         0.00000E+00
    0.30225E+05         0.11845E+06         0.00000E+00
    0.00000E+00         0.00000E+00        -0.11731E+03
 
   -0.11780E+06         0.34215E+05         0.00000E+00
    0.34215E+05         0.11734E+06         0.00000E+00
    0.00000E+00         0.00000E+00        -0.91673E+02
 
   -0.11647E+06         0.38182E+05         0.00000E+00
    0.38182E+05         0.11611E+06         0.00000E+00
    0.00000E+00         0.00000E+00        -0.70851E+02
 
   -0.11505E+06         0.42122E+05         0.00000E+00
    0.42122E+05         0.11478E+06         0.00000E+00
    0.00000E+00         0.00000E+00        -0.54009E+02
 
   -0.11354E+06         0.46032E+05         0.00000E+00
    0.46032E+05         0.11333E+06         0.00000E+00
    0.00000E+00         0.00000E+00        -0.40443E+02
 
   -0.11194E+06         0.49908E+05         0.00000E+00
    0.49908E+05         0.11179E+06         0.00000E+00
    0.00000E+00         0.00000E+00        -0.29562E+02
 
   -0.11025E+06         0.53746E+05         0.00000E+00
    0.53746E+05         0.11015E+06         0.00000E+00
    0.00000E+00         0.00000E+00        -0.20870E+02
 
   -0.10848E+06         0.57544E+05         0.00000E+00
    0.57544E+05         0.10841E+06         0.00000E+00
    0.00000E+00         0.00000E+00        -0.13949E+02
 
   -0.10662E+06         0.61298E+05         0.00000E+00
    0.61298E+05         0.10657E+06         0.00000E+00
    0.00000E+00         0.00000E+00        -0.84470E+01
 
   -0.10467E+06         0.65006E+05         0.00000E+00
    0.65006E+05         0.10465E+06         0.00000E+00
    0.00000E+00         0.00000E+00        -0.40670E+01
 
   -0.10264E+06         0.68664E+05         0.00000E+00
    0.68664E+05         0.10264E+06         0.00000E+00
    0.00000E+00         0.00000E+00        -0.55518E+00
 
   -0.10054E+06         0.72271E+05         0.00000E+00
    0.72271E+05         0.10055E+06         0.00000E+00
    0.00000E+00         0.00000E+00         0.23079E+01
 
   -0.98348E+05         0.75823E+05         0.00000E+00
    0.75823E+05         0.98372E+05         0.00000E+00
    0.00000E+00         0.00000E+00         0.47153E+01
 
   -0.96082E+05         0.79320E+05         0.00000E+00
    0.79320E+05         0.96116E+05         0.00000E+00
    0.00000E+00         0.00000E+00         0.68418E+01
 
   -0.93739E+05         0.82758E+05         0.00000E+00
    0.82758E+05         0.93784E+05         0.00000E+00
    0.00000E+00         0.00000E+00         0.88498E+01
 
   -0.91322E+05         0.86137E+05         0.00000E+00
    0.86137E+05         0.91377E+05         0.00000E+00
    0.00000E+00         0.00000E+00         0.10897E+02
 
   -0.88832E+05         0.89455E+05         0.00000E+00
    0.89455E+05         0.88898E+05         0.00000E+00
    0.00000E+00         0.00000E+00         0.13142E+02
 
   -0.86271E+05         0.92710E+05         0.00000E+00
    0.92710E+05         0.86350E+05         0.00000E+00
    0.00000E+00         0.00000E+00         0.15752E+02
 
   -0.83640E+05         0.95902E+05         0.00000E+00
    0.95902E+05         0.83735E+05         0.00000E+00
    0.00000E+00         0.00000E+00         0.18908E+02
 
   -0.80941E+05         0.99028E+05         0.00000E+00
    0.99028E+05         0.81055E+05         0.00000E+00
    0.00000E+00         0.00000E+00         0.22814E+02
 
   -0.78175E+05         0.10209E+06         0.00000E+00
    0.10209E+06         0.78313E+05         0.00000E+00
    0.00000E+00         0.00000E+00         0.27706E+02
 
   -0.75343E+05         0.10508E+06         0.00000E+00
    0.10508E+06         0.75512E+05         0.00000E+00
    0.00000E+00         0.00000E+00         0.33859E+02
 
   -0.72446E+05         0.10801E+06         0.00000E+00
    0.10801E+06         0.72654E+05         0.00000E+00
    0.00000E+00         0.00000E+00         0.41602E+02
 
   -0.69484E+05         0.11087E+06         0.00000E+00
    0.11087E+06         0.69741E+05         0.00000E+00
    0.00000E+00         0.00000E+00         0.51330E+02
 
   -0.66460E+05         0.11366E+06         0.00000E+00
    0.11366E+06         0.66777E+05         0.00000E+00
    0.00000E+00         0.00000E+00         0.63519E+02
 
   -0.63372E+05         0.11639E+06         0.00000E+00
    0.11639E+06         0.63765E+05         0.00000E+00
    0.00000E+00         0.00000E+00         0.78746E+02
 
   -0.60221E+05         0.11905E+06         0.00000E+00
    0.11905E+06         0.60709E+05         0.00000E+00
    0.00000E+00         0.00000E+00         0.97712E+02
 
   -0.57006E+05         0.12163E+06         0.00000E+00
    0.12163E+06         0.57612E+05         0.00000E+00
    0.00000E+00         0.00000E+00         0.12127E+03
 
   -0.53727E+05         0.12415E+06         0.00000E+00
    0.12415E+06         0.54479E+05         0.00000E+00
    0.00000E+00         0.00000E+00         0.15044E+03
 
   -0.50383E+05         0.12660E+06         0.00000E+00
    0.12660E+06         0.51316E+05         0.00000E+00
    0.00000E+00         0.00000E+00         0.18648E+03
 
   -0.46973E+05         0.12898E+06         0.00000E+00
    0.12898E+06         0.48127E+05         0.00000E+00
    0.00000E+00         0.00000E+00         0.23090E+03
 
   -0.43494E+05         0.13129E+06         0.00000E+00
    0.13129E+06         0.44921E+05         0.00000E+00
    0.00000E+00         0.00000E+00         0.28551E+03
 
   -0.39944E+05         0.13353E+06         0.00000E+00
    0.13353E+06         0.41706E+05         0.00000E+00
    0.00000E+00         0.00000E+00         0.35251E+03
 
   -0.36320E+05         0.13571E+06         0.00000E+00
    0.13571E+06         0.38492E+05         0.00000E+00
    0.00000E+00         0.00000E+00         0.43452E+03
 
   -0.32618E+05         0.13781E+06         0.00000E+00
    0.13781E+06         0.35291E+05         0.00000E+00
    0.00000E+00         0.00000E+00         0.53465E+03
 
   -0.28834E+05         0.13985E+06         0.00000E+00
    0.13985E+06         0.32117E+05         0.00000E+00
    0.00000E+00         0.00000E+00         0.65662E+03
 
   -0.24962E+05         0.14181E+06         0.00000E+00
    0.14181E+06         0.28986E+05         0.00000E+00
    0.00000E+00         0.00000E+00         0.80481E+03
 
   -0.20997E+05         0.14371E+06         0.00000E+00
    0.14371E+06         0.25919E+05         0.00000E+00
    0.00000E+00         0.00000E+00         0.98432E+03
 
   -0.16931E+05         0.14553E+06         0.00000E+00
    0.14553E+06         0.22937E+05         0.00000E+00
    0.00000E+00         0.00000E+00         0.12011E+04
 
   -0.12756E+05         0.14729E+06         0.00000E+00
    0.14729E+06         0.20067E+05         0.00000E+00
    0.00000E+00         0.00000E+00         0.14621E+04
 
   -0.84636E+04         0.14898E+06         0.00000E+00
    0.14898E+06         0.17338E+05         0.00000E+00
    0.00000E+00         0.00000E+00         0.17749E+04
 
   -0.40430E+04         0.15060E+06         0.00000E+00
    0.15060E+06         0.14785E+05         0.00000E+00
    0.00000E+00         0.00000E+00         0.21484E+04
 
    0.51665E+03         0.15216E+06         0.00000E+00
    0.15216E+06         0.12443E+05         0.00000E+00
    0.00000E+00         0.00000E+00         0.25920E+04
 
   -0.11573E+06         0.18663E+04         0.00000E+00
    0.18663E+04         0.11277E+06         0.00000E+00
    0.00000E+00         0.00000E+00        -0.59174E+03
 
   -0.11505E+06         0.56155E+04         0.00000E+00
    0.56155E+04         0.11262E+06         0.00000E+00
    0.00000E+00         0.00000E+00        -0.48573E+03
 
   -0.11431E+06         0.93679E+04         0.00000E+00
    0.93679E+04         0.11232E+06         0.00000E+00
    0.00000E+00         0.00000E+00        -0.39680E+03
 
   -0.11350E+06         0.13120E+05         0.00000E+00
    0.13120E+05         0.11189E+06         0.00000E+00
    0.00000E+00         0.00000E+00        -0.32257E+03
 
   -0.11263E+06         0.16869E+05         0.00000E+00
    0.16869E+05         0.11133E+06         0.00000E+00
    0.00000E+00         0.00000E+00        -0.26091E+03
 
   -0.11169E+06         0.20612E+05         0.00000E+00
    0.20612E+05         0.11064E+06         0.00000E+00
    0.00000E+00         0.00000E+00        -0.20990E+03
 
   -0.11068E+06         0.24344E+05         0.00000E+00
    0.24344E+05         0.10984E+06         0.00000E+00
    0.00000E+00         0.00000E+00        -0.16788E+03
 
   -0.10960E+06         0.28064E+05         0.00000E+00
    0.28064E+05         0.10893E+06         0.00000E+00
    0.00000E+00         0.00000E+00        -0.13338E+03
 
   -0.10844E+06         0.31766E+05         0.00000E+00
    0.31766E+05         0.10792E+06         0.00000E+00
    0.00000E+00         0.00000E+00        -0.10516E+03
 
   -0.10721E+06         0.35450E+05         0.00000E+00
    0.35450E+05         0.10680E+06         0.00000E+00
    0.00000E+00         0.00000E+00        -0.82152E+02
 
   -0.10590E+06         0.39110E+05         0.00000E+00
    0.39110E+05         0.10558E+06         0.00000E+00
    0.00000E+00         0.00000E+00        -0.63463E+02
 
   -0.10452E+06         0.42744E+05         0.00000E+00
    0.42744E+05         0.10427E+06         0.00000E+00
    0.00000E+00         0.00000E+00        -0.48328E+02
 
   -0.10305E+06         0.46350E+05         0.00000E+00
    0.46350E+05         0.10287E+06         0.00000E+00
    0.00000E+00         0.00000E+00        -0.36108E+02
 
   -0.10152E+06         0.49923E+05         0.00000E+00
    0.49923E+05         0.10138E+06         0.00000E+00
    0.00000E+00         0.00000E+00        -0.26267E+02
 
   -0.99902E+05         0.53462E+05         0.00000E+00
    0.53462E+05         0.99811E+05         0.00000E+00
    0.00000E+00         0.00000E+00        -0.18355E+02
 
   -0.98213E+05         0.56964E+05         0.00000E+00
    0.56964E+05         0.98153E+05         0.00000E+00
    0.00000E+00         0.00000E+00        -0.11996E+02
 
   -0.96448E+05         0.60425E+05         0.00000E+00
    0.60425E+05         0.96414E+05         0.00000E+00
    0.00000E+00         0.00000E+00        -0.68714E+01
 
   -0.94609E+05         0.63845E+05         0.00000E+00
    0.63845E+05         0.94596E+05         0.00000E+00
    0.00000E+00         0.00000E+00        -0.27110E+01
 
   -0.92697E+05         0.67220E+05         0.00000E+00
    0.67220E+05         0.92701E+05         0.00000E+00
    0.00000E+00         0.00000E+00         0.71664E+00
 
   -0.90713E+05         0.70548E+05         0.00000E+00
    0.70548E+05         0.90731E+05         0.00000E+00
    0.00000E+00         0.00000E+00         0.36135E+01
 
   -0.88657E+05         0.73827E+05         0.00000E+00
    0.73827E+05         0.88688E+05         0.00000E+00
    0.00000E+00         0.00000E+00         0.61600E+01
 
   -0.86531E+05         0.77056E+05         0.00000E+00
    0.77056E+05         0.86573E+05         0.00000E+00
    0.00000E+00         0.00000E+00         0.85220E+01
 
   -0.84335E+05         0.80233E+05         0.00000E+00
    0.80233E+05         0.84389E+05         0.00000E+00
    0.00000E+00         0.00000E+00         0.10858E+02
 
   -0.82071E+05         0.83355E+05         0.00000E+00
    0.83355E+05         0.82138E+05         0.00000E+00
    0.00000E+00         0.00000E+00         0.13324E+02
 
   -0.79740E+05         0.86422E+05         0.00000E+00
    0.86422E+05         0.79821E+05         0.00000E+00
    0.00000E+00         0.00000E+00         0.16084E+02
 
   -0.77343E+05         0.89431E+05         0.00000E+00
    0.89431E+05         0.77439E+05         0.00000E+00
    0.00000E+00         0.00000E+00         0.19311E+02
 
   -0.74880E+05         0.92383E+05         0.00000E+00
    0.92383E+05         0.74996E+05         0.00000E+00
    0.00000E+00         0.00000E+00         0.23201E+02
 
   -0.72353E+05         0.95275E+05         0.00000E+00
    0.95275E+05         0.72493E+05         0.00000E+00
    0.00000E+00         0.00000E+00         0.27975E+02
 
   -0.69762E+05         0.98106E+05         0.00000E+00
    0.98106E+05         0.69932E+05         0.00000E+00
    0.00000E+00         0.00000E+00         0.33893E+02
 
   -0.67108E+05         0.10088E+06         0.00000E+00
    0.10088E+06         0.67314E+05         0.00000E+00
    0.00000E+00         0.00000E+00         0.41263E+02
 
   -0.64391E+05         0.10358E+06         0.00000E+00
    0.10358E+06         0.64644E+05         0.00000E+00
    0.00000E+00         0.00000E+00         0.50453E+02
 
   -0.61612E+05         0.10623E+06         0.00000E+00
    0.10623E+06         0.61922E+05         0.00000E+00
    0.00000E+00         0.00000E+00         0.61906E+02
 
   -0.58771E+05         0.10880E+06         0.00000E+00
    0.10880E+06         0.59152E+05         0.00000E+00
    0.00000E+00         0.00000E+00         0.76161E+02
 
   -0.55868E+05         0.11132E+06         0.00000E+00
    0.11132E+06         0.56337E+05         0.00000E+00
    0.00000E+00         0.00000E+00         0.93867E+02
 
   -0.52902E+05         0.11376E+06         0.00000E+00
    0.11376E+06         0.53481E+05         0.00000E+00
    0.00000E+00         0.00000E+00         0.11581E+03
 
   -0.49874E+05         0.11615E+06         0.00000E+00
    0.11615E+06         0.50588E+05         0.00000E+00
    0.00000E+00         0.00000E+00         0.14296E+03
 
   -0.46781E+05         0.11846E+06         0.00000E+00
    0.11846E+06         0.47663E+05         0.00000E+00
    0.00000E+00         0.00000E+00         0.17646E+03
 
   -0.43623E+05         0.12070E+06         0.00000E+00
    0.12070E+06         0.44712E+05         0.00000E+00
    0.00000E+00         0.00000E+00         0.21773E+03
 
   -0.40399E+05         0.12288E+06         0.00000E+00
    0.12288E+06         0.41741E+05         0.00000E+00
    0.00000E+00         0.00000E+00         0.26844E+03
 
   -0.37106E+05         0.12499E+06         0.00000E+00
    0.12499E+06         0.38759E+05         0.00000E+00
    0.00000E+00         0.00000E+00         0.33063E+03
 
   -0.33741E+05         0.12703E+06         0.00000E+00
    0.12703E+06         0.35775E+05         0.00000E+00
    0.00000E+00         0.00000E+00         0.40672E+03
 
   -0.30303E+05         0.12899E+06         0.00000E+00
    0.12899E+06         0.32801E+05         0.00000E+00
    0.00000E+00         0.00000E+00         0.49962E+03
 
   -0.26786E+05         0.13089E+06         0.00000E+00
    0.13089E+06         0.29850E+05         0.00000E+00
    0.00000E+00         0.00000E+00         0.61275E+03
 
   -0.23187E+05         0.13271E+06         0.00000E+00
    0.13271E+06         0.26938E+05         0.00000E+00
    0.00000E+00         0.00000E+00         0.75018E+03
 
   -0.19501E+05         0.13447E+06         0.00000E+00
    0.13447E+06         0.24084E+05         0.00000E+00
    0.00000E+00         0.00000E+00         0.91665E+03
 
   -0.15721E+05         0.13615E+06         0.00000E+00
    0.13615E+06         0.21310E+05         0.00000E+00
    0.00000E+00         0.00000E+00         0.11177E+04
 
   -0.11841E+05         0.13776E+06         0.00000E+00
    0.13776E+06         0.18639E+05         0.00000E+00
    0.00000E+00         0.00000E+00         0.13596E+04
 
   -0.78533E+04         0.13929E+06         0.00000E+00
    0.13929E+06         0.16101E+05         0.00000E+00
    0.00000E+00         0.00000E+00         0.16496E+04
 
   -0.37487E+04         0.14076E+06         0.00000E+00
    0.14076E+06         0.13727E+05         0.00000E+00
    0.00000E+00         0.00000E+00         0.19957E+04
 
    0.48185E+03         0.14215E+06         0.00000E+00
    0.14215E+06         0.11552E+05         0.00000E+00
    0.00000E+00         0.00000E+00         0.24069E+04
 
   -0.10674E+06         0.17527E+04         0.00000E+00
    0.17527E+04         0.10362E+06         0.00000E+00
    0.00000E+00         0.00000E+00        -0.62410E+03
 
   -0.10605E+06         0.52653E+04         0.00000E+00
    0.52653E+04         0.10348E+06         0.00000E+00
    0.00000E+00         0.00000E+00        -0.51324E+03
 
   -0.10530E+06         0.87777E+04         0.00000E+00
    0.87777E+04         0.10320E+06         0.00000E+00
    0.00000E+00         0.00000E+00        -0.42016E+03
 
   -0.10451E+06         0.12288E+05         0.00000E+00
    0.12288E+05         0.10280E+06         0.00000E+00
    0.00000E+00         0.00000E+00        -0.34241E+03
 
   -0.10366E+06         0.15792E+05         0.00000E+00
    0.15792E+05         0.10227E+06         0.00000E+00
    0.00000E+00         0.00000E+00        -0.27775E+03
 
   -0.10276E+06         0.19289E+05         0.00000E+00
    0.19289E+05         0.10164E+06         0.00000E+00
    0.00000E+00         0.00000E+00        -0.22421E+03
 
   -0.10180E+06         0.22775E+05         0.00000E+00
    0.22775E+05         0.10090E+06         0.00000E+00
    0.00000E+00         0.00000E+00        -0.18003E+03
 
   -0.10077E+06         0.26249E+05         0.00000E+00
    0.26249E+05         0.10006E+06         0.00000E+00
    0.00000E+00         0.00000E+00        -0.14370E+03
 
   -0.99688E+05         0.29706E+05         0.00000E+00
    0.29706E+05         0.99119E+05         0.00000E+00
    0.00000E+00         0.00000E+00        -0.11393E+03
 
   -0.98539E+05         0.33145E+05         0.00000E+00
    0.33145E+05         0.98091E+05         0.00000E+00
    0.00000E+00         0.00000E+00        -0.89600E+02
 
   -0.97325E+05         0.36563E+05         0.00000E+00
    0.36563E+05         0.96977E+05         0.00000E+00
    0.00000E+00         0.00000E+00        -0.69777E+02
 
   -0.96046E+05         0.39957E+05         0.00000E+00
    0.39957E+05         0.95777E+05         0.00000E+00
    0.00000E+00         0.00000E+00        -0.53668E+02
 
   -0.94700E+05         0.43325E+05         0.00000E+00
    0.43325E+05         0.94497E+05         0.00000E+00
    0.00000E+00         0.00000E+00        -0.40607E+02
 
   -0.93287E+05         0.46664E+05         0.00000E+00
    0.46664E+05         0.93137E+05         0.00000E+00
    0.00000E+00         0.00000E+00        -0.30036E+02
 
   -0.91808E+05         0.49972E+05         0.00000E+00
    0.49972E+05         0.91701E+05         0.00000E+00
    0.00000E+00         0.00000E+00        -0.21488E+02
 
   -0.90262E+05         0.53247E+05         0.00000E+00
    0.53247E+05         0.90189E+05         0.00000E+00
    0.00000E+00         0.00000E+00        -0.14572E+02
 
   -0.88649E+05         0.56487E+05         0.00000E+00
    0.56487E+05         0.88604E+05         0.00000E+00
    0.00000E+00         0.00000E+00        -0.89590E+01
 
   -0.86970E+05         0.59689E+05         0.00000E+00
    0.59689E+05         0.86948E+05         0.00000E+00
    0.00000E+00         0.00000E+00        -0.43710E+01
 
   -0.85225E+05         0.62851E+05         0.00000E+00
    0.62851E+05         0.85223E+05         0.00000E+00
    0.00000E+00         0.00000E+00        -0.57066E+00
 
   -0.83415E+05         0.65971E+05         0.00000E+00
    0.65971E+05         0.83428E+05         0.00000E+00
    0.00000E+00         0.00000E+00         0.26477E+01
 
   -0.81540E+05         0.69047E+05         0.00000E+00
    0.69047E+05         0.81567E+05         0.00000E+00
    0.00000E+00         0.00000E+00         0.54662E+01
 
   -0.79600E+05         0.72077E+05         0.00000E+00
    0.72077E+05         0.79640E+05         0.00000E+00
    0.00000E+00         0.00000E+00         0.80504E+01
 
   -0.77597E+05         0.75061E+05         0.00000E+00
    0.75061E+05         0.77650E+05         0.00000E+00
    0.00000E+00         0.00000E+00         0.10556E+02
 
   -0.75530E+05         0.77995E+05         0.00000E+00
    0.77995E+05         0.75596E+05         0.00000E+00
    0.00000E+00         0.00000E+00         0.13137E+02
 
   -0.73402E+05         0.80878E+05         0.00000E+00
    0.80878E+05         0.73481E+05         0.00000E+00
    0.00000E+00         0.00000E+00         0.15948E+02
 
   -0.71211E+05         0.83710E+05         0.00000E+00
    0.83710E+05         0.71307E+05         0.00000E+00
    0.00000E+00         0.00000E+00         0.19156E+02
 
   -0.68959E+05         0.86487E+05         0.00000E+00
    0.86487E+05         0.69073E+05         0.00000E+00
    0.00000E+00         0.00000E+00         0.22945E+02
 
   -0.66646E+05         0.89210E+05         0.00000E+00
    0.89210E+05         0.66784E+05         0.00000E+00
    0.00000E+00         0.00000E+00         0.27521E+02
 
   -0.64273E+05         0.91876E+05         0.00000E+00
    0.91876E+05         0.64439E+05         0.00000E+00
    0.00000E+00         0.00000E+00         0.33127E+02
 
   -0.61840E+05         0.94484E+05         0.00000E+00
    0.94484E+05         0.62040E+05         0.00000E+00
    0.00000E+00         0.00000E+00         0.40049E+02
 
   -0.59348E+05         0.97033E+05         0.00000E+00
    0.97033E+05         0.59591E+05         0.00000E+00
    0.00000E+00         0.00000E+00         0.48626E+02
 
   -0.56796E+05         0.99522E+05         0.00000E+00
    0.99522E+05         0.57092E+05         0.00000E+00
    0.00000E+00         0.00000E+00         0.59269E+02
 
   -0.54185E+05         0.10195E+06         0.00000E+00
    0.10195E+06         0.54548E+05         0.00000E+00
    0.00000E+00         0.00000E+00         0.72472E+02
 
   -0.51515E+05         0.10432E+06         0.00000E+00
    0.10432E+06         0.51959E+05         0.00000E+00
    0.00000E+00         0.00000E+00         0.88837E+02
 
   -0.48786E+05         0.10662E+06         0.00000E+00
    0.10662E+06         0.49331E+05         0.00000E+00
    0.00000E+00         0.00000E+00         0.10909E+03
 
   -0.45996E+05         0.10886E+06         0.00000E+00
    0.10886E+06         0.46667E+05         0.00000E+00
    0.00000E+00         0.00000E+00         0.13411E+03
 
   -0.43146E+05         0.11103E+06         0.00000E+00
    0.11103E+06         0.43971E+05         0.00000E+00
    0.00000E+00         0.00000E+00         0.16497E+03
 
   -0.40234E+05         0.11313E+06         0.00000E+00
    0.11313E+06         0.41249E+05         0.00000E+00
    0.00000E+00         0.00000E+00         0.20296E+03
 
   -0.37259E+05         0.11517E+06         0.00000E+00
    0.11517E+06         0.38508E+05         0.00000E+00
    0.00000E+00         0.00000E+00         0.24962E+03
 
   -0.34220E+05         0.11714E+06         0.00000E+00
    0.11714E+06         0.35754E+05         0.00000E+00
    0.00000E+00         0.00000E+00         0.30683E+03
 
   -0.31115E+05         0.11904E+06         0.00000E+00
    0.11904E+06         0.32999E+05         0.00000E+00
    0.00000E+00         0.00000E+00         0.37682E+03
 
   -0.27940E+05         0.12087E+06         0.00000E+00
    0.12087E+06         0.30251E+05         0.00000E+00
    0.00000E+00         0.00000E+00         0.46225E+03
 
   -0.24693E+05         0.12263E+06         0.00000E+00
    0.12263E+06         0.27524E+05         0.00000E+00
    0.00000E+00         0.00000E+00         0.56628E+03
 
   -0.21371E+05         0.12431E+06         0.00000E+00
    0.12431E+06         0.24834E+05         0.00000E+00
    0.00000E+00         0.00000E+00         0.69263E+03
 
   -0.17968E+05         0.12593E+06         0.00000E+00
    0.12593E+06         0.22197E+05         0.00000E+00
    0.00000E+00         0.00000E+00         0.84567E+03
 
   -0.14481E+05         0.12747E+06         0.00000E+00
    0.12747E+06         0.19633E+05         0.00000E+00
    0.00000E+00         0.00000E+00         0.10305E+04
 
   -0.10903E+05         0.12894E+06         0.00000E+00
    0.12894E+06         0.17167E+05         0.00000E+00
    0.00000E+00         0.00000E+00         0.12528E+04
 
   -0.72275E+04         0.13034E+06         0.00000E+00
    0.13034E+06         0.14824E+05         0.00000E+00
    0.00000E+00         0.00000E+00         0.15194E+04
 
   -0.34476E+04         0.13166E+06         0.00000E+00
    0.13166E+06         0.12635E+05         0.00000E+00
    0.00000E+00         0.00000E+00         0.18375E+04
 
    0.44478E+03         0.13291E+06         0.00000E+00
    0.13291E+06         0.10632E+05         0.00000E+00
    0.00000E+00         0.00000E+00         0.22153E+04
 
   -0.98247E+05         0.16565E+04         0.00000E+00
    0.16565E+04         0.95064E+05         0.00000E+00
    0.00000E+00         0.00000E+00        -0.63654E+03
 
   -0.97551E+05         0.49682E+04         0.00000E+00
    0.49682E+04         0.94930E+05         0.00000E+00
    0.00000E+00         0.00000E+00        -0.52416E+03
 
   -0.96817E+05         0.82769E+04         0.00000E+00
    0.82769E+04         0.94669E+05         0.00000E+00
    0.00000E+00         0.00000E+00        -0.42975E+03
 
   -0.96043E+05         0.11580E+05         0.00000E+00
    0.11580E+05         0.94289E+05         0.00000E+00
    0.00000E+00         0.00000E+00        -0.35083E+03
 
   -0.95225E+05         0.14876E+05         0.00000E+00
    0.14876E+05         0.93799E+05         0.00000E+00
    0.00000E+00         0.00000E+00        -0.28516E+03
 
   -0.94359E+05         0.18163E+05         0.00000E+00
    0.18163E+05         0.93206E+05         0.00000E+00
    0.00000E+00         0.00000E+00        -0.23072E+03
 
   -0.93445E+05         0.21438E+05         0.00000E+00
    0.21438E+05         0.92516E+05         0.00000E+00
    0.00000E+00         0.00000E+00        -0.18576E+03
 
   -0.92479E+05         0.24698E+05         0.00000E+00
    0.24698E+05         0.91735E+05         0.00000E+00
    0.00000E+00         0.00000E+00        -0.14874E+03
 
   -0.91460E+05         0.27943E+05         0.00000E+00
    0.27943E+05         0.90868E+05         0.00000E+00
    0.00000E+00         0.00000E+00        -0.11836E+03
 
   -0.90386E+05         0.31169E+05         0.00000E+00
    0.31169E+05         0.89918E+05         0.00000E+00
    0.00000E+00         0.00000E+00        -0.93497E+02
 
   -0.89256E+05         0.34375E+05         0.00000E+00
    0.34375E+05         0.88890E+05         0.00000E+00
    0.00000E+00         0.00000E+00        -0.73197E+02
 
   -0.88069E+05         0.37558E+05         0.00000E+00
    0.37558E+05         0.87785E+05         0.00000E+00
    0.00000E+00         0.00000E+00        -0.56660E+02
 
   -0.86824E+05         0.40717E+05         0.00000E+00
    0.40717E+05         0.86608E+05         0.00000E+00
    0.00000E+00         0.00000E+00        -0.43214E+02
 
   -0.85521E+05         0.43848E+05         0.00000E+00
    0.43848E+05         0.85359E+05         0.00000E+00
    0.00000E+00         0.00000E+00        -0.32297E+02
 
   -0.84159E+05         0.46951E+05         0.00000E+00
    0.46951E+05         0.84042E+05         0.00000E+00
    0.00000E+00         0.00000E+00        -0.23436E+02
 
   -0.82738E+05         0.50022E+05         0.00000E+00
    0.50022E+05         0.82656E+05         0.00000E+00
    0.00000E+00         0.00000E+00        -0.16237E+02
 
   -0.81257E+05         0.53061E+05         0.00000E+00
    0.53061E+05         0.81206E+05         0.00000E+00
    0.00000E+00         0.00000E+00        -0.10369E+02
 
   -0.79718E+05         0.56065E+05         0.00000E+00
    0.56065E+05         0.79690E+05         0.00000E+00
    0.00000E+00         0.00000E+00        -0.55529E+01
 
   -0.78119E+05         0.59031E+05         0.00000E+00
    0.59031E+05         0.78112E+05         0.00000E+00
    0.00000E+00         0.00000E+00        -0.15519E+01
 
   -0.76462E+05         0.61959E+05         0.00000E+00
    0.61959E+05         0.76471E+05         0.00000E+00
    0.00000E+00         0.00000E+00         0.18387E+01
 
   -0.74745E+05         0.64847E+05         0.00000E+00
    0.64847E+05         0.74769E+05         0.00000E+00
    0.00000E+00         0.00000E+00         0.47987E+01
 
   -0.72971E+05         0.67693E+05         0.00000E+00
    0.67693E+05         0.73008E+05         0.00000E+00
    0.00000E+00         0.00000E+00         0.74905E+01
 
   -0.71138E+05         0.70494E+05         0.00000E+00
    0.70494E+05         0.71188E+05         0.00000E+00
    0.00000E+00         0.00000E+00         0.10065E+02
 
   -0.69248E+05         0.73250E+05         0.00000E+00
    0.73250E+05         0.69311E+05         0.00000E+00
    0.00000E+00         0.00000E+00         0.12670E+02
 
   -0.67300E+05         0.75959E+05         0.00000E+00
    0.75959E+05         0.67377E+05         0.00000E+00
    0.00000E+00         0.00000E+00         0.15453E+02
 
   -0.65295E+05         0.78619E+05         0.00000E+00
    0.78619E+05         0.65388E+05         0.00000E+00
    0.00000E+00         0.00000E+00         0.18571E+02
 
   -0.63233E+05         0.81229E+05         0.00000E+00
    0.81229E+05         0.63344E+05         0.00000E+00
    0.00000E+00         0.00000E+00         0.22194E+02
 
   -0.61116E+05         0.83787E+05         0.00000E+00
    0.83787E+05         0.61248E+05         0.00000E+00
    0.00000E+00         0.00000E+00         0.26516E+02
 
   -0.58942E+05         0.86292E+05         0.00000E+00
    0.86292E+05         0.59101E+05         0.00000E+00
    0.00000E+00         0.00000E+00         0.31760E+02
 
   -0.56713E+05         0.88742E+05         0.00000E+00
    0.88742E+05         0.56904E+05         0.00000E+00
    0.00000E+00         0.00000E+00         0.38189E+02
 
   -0.54429E+05         0.91137E+05         0.00000E+00
    0.91137E+05         0.54659E+05         0.00000E+00
    0.00000E+00         0.00000E+00         0.46114E+02
 
   -0.52089E+05         0.93474E+05         0.00000E+00
    0.93474E+05         0.52369E+05         0.00000E+00
    0.00000E+00         0.00000E+00         0.55913E+02
 
   -0.49694E+05         0.95752E+05         0.00000E+00
    0.95752E+05         0.50034E+05         0.00000E+00
    0.00000E+00         0.00000E+00         0.68038E+02
 
   -0.47244E+05         0.97971E+05         0.00000E+00
    0.97971E+05         0.47659E+05         0.00000E+00
    0.00000E+00         0.00000E+00         0.83038E+02
 
   -0.44739E+05         0.10013E+06         0.00000E+00
    0.10013E+06         0.45247E+05         0.00000E+00
    0.00000E+00         0.00000E+00         0.10158E+03
 
   -0.42178E+05         0.10222E+06         0.00000E+00
    0.10222E+06         0.42800E+05         0.00000E+00
    0.00000E+00         0.00000E+00         0.12447E+03
 
   -0.39560E+05         0.10425E+06         0.00000E+00
    0.10425E+06         0.40324E+05         0.00000E+00
    0.00000E+00         0.00000E+00         0.15267E+03
 
   -0.36886E+05         0.10622E+06         0.00000E+00
    0.10622E+06         0.37823E+05         0.00000E+00
    0.00000E+00         0.00000E+00         0.18738E+03
 
   -0.34154E+05         0.10812E+06         0.00000E+00
    0.10812E+06         0.35304E+05         0.00000E+00
    0.00000E+00         0.00000E+00         0.23001E+03
 
   -0.31363E+05         0.10996E+06         0.00000E+00
    0.10996E+06         0.32774E+05         0.00000E+00
    0.00000E+00         0.00000E+00         0.28225E+03
 
   -0.28510E+05         0.11172E+06         0.00000E+00
    0.11172E+06         0.30241E+05         0.00000E+00
    0.00000E+00         0.00000E+00         0.34616E+03
 
   -0.25595E+05         0.11342E+06         0.00000E+00
    0.11342E+06         0.27716E+05         0.00000E+00
    0.00000E+00         0.00000E+00         0.42416E+03
 
   -0.22615E+05         0.11505E+06         0.00000E+00
    0.11505E+06         0.25210E+05         0.00000E+00
    0.00000E+00         0.00000E+00         0.51913E+03
 
   -0.19566E+05         0.11660E+06         0.00000E+00
    0.11660E+06         0.22738E+05         0.00000E+00
    0.00000E+00         0.00000E+00         0.63448E+03
 
   -0.16445E+05         0.11809E+06         0.00000E+00
    0.11809E+06         0.20316E+05         0.00000E+00
    0.00000E+00         0.00000E+00         0.77417E+03
 
   -0.13248E+05         0.11950E+06         0.00000E+00
    0.11950E+06         0.17963E+05         0.00000E+00
    0.00000E+00         0.00000E+00         0.94284E+03
 
   -0.99706E+04         0.12085E+06         0.00000E+00
    0.12085E+06         0.15700E+05         0.00000E+00
    0.00000E+00         0.00000E+00         0.11458E+04
 
   -0.66063E+04         0.12212E+06         0.00000E+00
    0.12212E+06         0.13552E+05         0.00000E+00
    0.00000E+00         0.00000E+00         0.13891E+04
 
   -0.31494E+04         0.12332E+06         0.00000E+00
    0.12332E+06         0.11546E+05         0.00000E+00
    0.00000E+00         0.00000E+00         0.16794E+04
 
    0.40710E+03         0.12445E+06         0.00000E+00
    0.12445E+06         0.97137E+04         0.00000E+00
    0.00000E+00         0.00000E+00         0.20242E+04
 
   -0.90173E+05         0.15730E+04         0.00000E+00
    0.15730E+04         0.87013E+05         0.00000E+00
    0.00000E+00         0.00000E+00        -0.63190E+03
 
   -0.89491E+05         0.47108E+04         0.00000E+00
    0.47108E+04         0.86887E+05         0.00000E+00
    0.00000E+00         0.00000E+00        -0.52085E+03
 
   -0.88778E+05         0.78428E+04         0.00000E+00
    0.78428E+04         0.86641E+05         0.00000E+00
    0.00000E+00         0.00000E+00        -0.42751E+03
 
   -0.88032E+05         0.10967E+05         0.00000E+00
    0.10967E+05         0.86285E+05         0.00000E+00
    0.00000E+00         0.00000E+00        -0.34944E+03
 
   -0.87248E+05         0.14082E+05         0.00000E+00
    0.14082E+05         0.85826E+05         0.00000E+00
    0.00000E+00         0.00000E+00        -0.28443E+03
 
   -0.86425E+05         0.17186E+05         0.00000E+00
    0.17186E+05         0.85272E+05         0.00000E+00
    0.00000E+00         0.00000E+00        -0.23051E+03
 
   -0.85559E+05         0.20276E+05         0.00000E+00
    0.20276E+05         0.84629E+05         0.00000E+00
    0.00000E+00         0.00000E+00        -0.18594E+03
 
   -0.84649E+05         0.23352E+05         0.00000E+00
    0.23352E+05         0.83903E+05         0.00000E+00
    0.00000E+00         0.00000E+00        -0.14922E+03
 
   -0.83694E+05         0.26410E+05         0.00000E+00
    0.26410E+05         0.83098E+05         0.00000E+00
    0.00000E+00         0.00000E+00        -0.11905E+03
 
   -0.82690E+05         0.29450E+05         0.00000E+00
    0.29450E+05         0.82219E+05         0.00000E+00
    0.00000E+00         0.00000E+00        -0.94323E+02
 
   -0.81638E+05         0.32469E+05         0.00000E+00
    0.32469E+05         0.81268E+05         0.00000E+00
    0.00000E+00         0.00000E+00        -0.74109E+02
 
   -0.80536E+05         0.35465E+05         0.00000E+00
    0.35465E+05         0.80248E+05         0.00000E+00
    0.00000E+00         0.00000E+00        -0.57615E+02
 
   -0.79383E+05         0.38438E+05         0.00000E+00
    0.38438E+05         0.79162E+05         0.00000E+00
    0.00000E+00         0.00000E+00        -0.44179E+02
 
   -0.78179E+05         0.41384E+05         0.00000E+00
    0.41384E+05         0.78013E+05         0.00000E+00
    0.00000E+00         0.00000E+00        -0.33246E+02
 
   -0.76923E+05         0.44302E+05         0.00000E+00
    0.44302E+05         0.76801E+05         0.00000E+00
    0.00000E+00         0.00000E+00        -0.24349E+02
 
   -0.75614E+05         0.47191E+05         0.00000E+00
    0.47191E+05         0.75529E+05         0.00000E+00
    0.00000E+00         0.00000E+00        -0.17102E+02
 
   -0.74253E+05         0.50048E+05         0.00000E+00
    0.50048E+05         0.74197E+05         0.00000E+00
    0.00000E+00         0.00000E+00        -0.11178E+02
 
   -0.72839E+05         0.52872E+05         0.00000E+00
    0.52872E+05         0.72807E+05         0.00000E+00
    0.00000E+00         0.00000E+00        -0.63051E+01
 
   -0.71372E+05         0.55660E+05         0.00000E+00
    0.55660E+05         0.71360E+05         0.00000E+00
    0.00000E+00         0.00000E+00        -0.22497E+01
 
   -0.69852E+05         0.58413E+05         0.00000E+00
    0.58413E+05         0.69858E+05         0.00000E+00
    0.00000E+00         0.00000E+00         0.11872E+01
 
   -0.68279E+05         0.61127E+05         0.00000E+00
    0.61127E+05         0.68300E+05         0.00000E+00
    0.00000E+00         0.00000E+00         0.41798E+01
 
   -0.66653E+05         0.63801E+05         0.00000E+00
    0.63801E+05         0.66688E+05         0.00000E+00
    0.00000E+00         0.00000E+00         0.68845E+01
 
   -0.64975E+05         0.66434E+05         0.00000E+00
    0.66434E+05         0.65022E+05         0.00000E+00
    0.00000E+00         0.00000E+00         0.94460E+01
 
   -0.63244E+05         0.69023E+05         0.00000E+00
    0.69023E+05         0.63304E+05         0.00000E+00
    0.00000E+00         0.00000E+00         0.12004E+02
 
   -0.61462E+05         0.71568E+05         0.00000E+00
    0.71568E+05         0.61535E+05         0.00000E+00
    0.00000E+00         0.00000E+00         0.14696E+02
 
   -0.59627E+05         0.74067E+05         0.00000E+00
    0.74067E+05         0.59715E+05         0.00000E+00
    0.00000E+00         0.00000E+00         0.17670E+02
 
   -0.57741E+05         0.76518E+05         0.00000E+00
    0.76518E+05         0.57846E+05         0.00000E+00
    0.00000E+00         0.00000E+00         0.21084E+02
 
   -0.55803E+05         0.78921E+05         0.00000E+00
    0.78921E+05         0.55929E+05         0.00000E+00
    0.00000E+00         0.00000E+00         0.25115E+02
 
   -0.53815E+05         0.81272E+05         0.00000E+00
    0.81272E+05         0.53965E+05         0.00000E+00
    0.00000E+00         0.00000E+00         0.29968E+02
 
   -0.51775E+05         0.83571E+05         0.00000E+00
    0.83571E+05         0.51955E+05         0.00000E+00
    0.00000E+00         0.00000E+00         0.35882E+02
 
   -0.49685E+05         0.85817E+05         0.00000E+00
    0.85817E+05         0.49901E+05         0.00000E+00
    0.00000E+00         0.00000E+00         0.43144E+02
 
   -0.47544E+05         0.88009E+05         0.00000E+00
    0.88009E+05         0.47805E+05         0.00000E+00
    0.00000E+00         0.00000E+00         0.52094E+02
 
   -0.45353E+05         0.90144E+05         0.00000E+00
    0.90144E+05         0.45669E+05         0.00000E+00
    0.00000E+00         0.00000E+00         0.63147E+02
 
   -0.43111E+05         0.92221E+05         0.00000E+00
    0.92221E+05         0.43495E+05         0.00000E+00
    0.00000E+00         0.00000E+00         0.76800E+02
 
   -0.40819E+05         0.94240E+05         0.00000E+00
    0.94240E+05         0.41287E+05         0.00000E+00
    0.00000E+00         0.00000E+00         0.93660E+02
 
   -0.38475E+05         0.96198E+05         0.00000E+00
    0.96198E+05         0.39048E+05         0.00000E+00
    0.00000E+00         0.00000E+00         0.11446E+03
 
   -0.36081E+05         0.98096E+05         0.00000E+00
    0.98096E+05         0.36781E+05         0.00000E+00
    0.00000E+00         0.00000E+00         0.14008E+03
 
   -0.33635E+05         0.99930E+05         0.00000E+00
    0.99930E+05         0.34493E+05         0.00000E+00
    0.00000E+00         0.00000E+00         0.17159E+03
 
   -0.31136E+05         0.10170E+06         0.00000E+00
    0.10170E+06         0.32188E+05         0.00000E+00
    0.00000E+00         0.00000E+00         0.21028E+03
 
   -0.28584E+05         0.10341E+06         0.00000E+00
    0.10341E+06         0.29873E+05         0.00000E+00
    0.00000E+00         0.00000E+00         0.25770E+03
 
   -0.25977E+05         0.10505E+06         0.00000E+00
    0.10505E+06         0.27556E+05         0.00000E+00
    0.00000E+00         0.00000E+00         0.31570E+03
 
   -0.23314E+05         0.10662E+06         0.00000E+00
    0.10662E+06         0.25246E+05         0.00000E+00
    0.00000E+00         0.00000E+00         0.38648E+03
 
   -0.20592E+05         0.10813E+06         0.00000E+00
    0.10813E+06         0.22956E+05         0.00000E+00
    0.00000E+00         0.00000E+00         0.47266E+03
 
   -0.17810E+05         0.10956E+06         0.00000E+00
    0.10956E+06         0.20697E+05         0.00000E+00
    0.00000E+00         0.00000E+00         0.57732E+03
 
   -0.14964E+05         0.11093E+06         0.00000E+00
    0.11093E+06         0.18484E+05         0.00000E+00
    0.00000E+00         0.00000E+00         0.70408E+03
 
   -0.12050E+05         0.11223E+06         0.00000E+00
    0.11223E+06         0.16335E+05         0.00000E+00
    0.00000E+00         0.00000E+00         0.85712E+03
 
   -0.90646E+04         0.11346E+06         0.00000E+00
    0.11346E+06         0.14271E+05         0.00000E+00
    0.00000E+00         0.00000E+00         0.10413E+04
 
   -0.60032E+04         0.11462E+06         0.00000E+00
    0.11462E+06         0.12313E+05         0.00000E+00
    0.00000E+00         0.00000E+00         0.12620E+04
 
   -0.28603E+04         0.11571E+06         0.00000E+00
    0.11571E+06         0.10487E+05         0.00000E+00
    0.00000E+00         0.00000E+00         0.15254E+04
 
    0.36999E+03         0.11673E+06         0.00000E+00
    0.11673E+06         0.88207E+04         0.00000E+00
    0.00000E+00         0.00000E+00         0.18381E+04
 
   -0.82469E+05         0.14990E+04         0.00000E+00
    0.14990E+04         0.79403E+05         0.00000E+00
    0.00000E+00         0.00000E+00        -0.61335E+03
 
   -0.81813E+05         0.44833E+04         0.00000E+00
    0.44833E+04         0.79284E+05         0.00000E+00
    0.00000E+00         0.00000E+00        -0.50593E+03
 
   -0.81131E+05         0.74596E+04         0.00000E+00
    0.74596E+04         0.79053E+05         0.00000E+00
    0.00000E+00         0.00000E+00        -0.41560E+03
 
   -0.80420E+05         0.10426E+05         0.00000E+00
    0.10426E+05         0.78720E+05         0.00000E+00
    0.00000E+00         0.00000E+00        -0.34002E+03
 
   -0.79677E+05         0.13382E+05         0.00000E+00
    0.13382E+05         0.78292E+05         0.00000E+00
    0.00000E+00         0.00000E+00        -0.27705E+03
 
   -0.78900E+05         0.16324E+05         0.00000E+00
    0.16324E+05         0.77776E+05         0.00000E+00
    0.00000E+00         0.00000E+00        -0.22480E+03
 
   -0.78086E+05         0.19252E+05         0.00000E+00
    0.19252E+05         0.77178E+05         0.00000E+00
    0.00000E+00         0.00000E+00        -0.18158E+03
 
   -0.77233E+05         0.22164E+05         0.00000E+00
    0.22164E+05         0.76503E+05         0.00000E+00
    0.00000E+00         0.00000E+00        -0.14595E+03
 
   -0.76340E+05         0.25057E+05         0.00000E+00
    0.25057E+05         0.75757E+05         0.00000E+00
    0.00000E+00         0.00000E+00        -0.11665E+03
 
   -0.75406E+05         0.27932E+05         0.00000E+00
    0.27932E+05         0.74942E+05         0.00000E+00
    0.00000E+00         0.00000E+00        -0.92624E+02
 
   -0.74428E+05         0.30785E+05         0.00000E+00
    0.30785E+05         0.74063E+05         0.00000E+00
    0.00000E+00         0.00000E+00        -0.72958E+02
 
   -0.73407E+05         0.33616E+05         0.00000E+00
    0.33616E+05         0.73122E+05         0.00000E+00
    0.00000E+00         0.00000E+00        -0.56893E+02
 
   -0.72340E+05         0.36422E+05         0.00000E+00
    0.36422E+05         0.72121E+05         0.00000E+00
    0.00000E+00         0.00000E+00        -0.43789E+02
 
   -0.71228E+05         0.39202E+05         0.00000E+00
    0.39202E+05         0.71063E+05         0.00000E+00
    0.00000E+00         0.00000E+00        -0.33108E+02
 
   -0.70070E+05         0.41955E+05         0.00000E+00
    0.41955E+05         0.69948E+05         0.00000E+00
    0.00000E+00         0.00000E+00        -0.24404E+02
 
   -0.68866E+05         0.44679E+05         0.00000E+00
    0.44679E+05         0.68779E+05         0.00000E+00
    0.00000E+00         0.00000E+00        -0.17300E+02
 
   -0.67614E+05         0.47372E+05         0.00000E+00
    0.47372E+05         0.67557E+05         0.00000E+00
    0.00000E+00         0.00000E+00        -0.11484E+02
 
   -0.66316E+05         0.50034E+05         0.00000E+00
    0.50034E+05         0.66282E+05         0.00000E+00
    0.00000E+00         0.00000E+00        -0.66912E+01
 
   -0.64970E+05         0.52661E+05         0.00000E+00
    0.52661E+05         0.64956E+05         0.00000E+00
    0.00000E+00         0.00000E+00        -0.26995E+01
 
   -0.63576E+05         0.55253E+05         0.00000E+00
    0.55253E+05         0.63580E+05         0.00000E+00
    0.00000E+00         0.00000E+00         0.68225E+00
 
   -0.62136E+05         0.57809E+05         0.00000E+00
    0.57809E+05         0.62154E+05         0.00000E+00
    0.00000E+00         0.00000E+00         0.36204E+01
 
   -0.60648E+05         0.60326E+05         0.00000E+00
    0.60326E+05         0.60679E+05         0.00000E+00
    0.00000E+00         0.00000E+00         0.62632E+01
 
   -0.59112E+05         0.62803E+05         0.00000E+00
    0.62803E+05         0.59156E+05         0.00000E+00
    0.00000E+00         0.00000E+00         0.87473E+01
 
   -0.57530E+05         0.65239E+05         0.00000E+00
    0.65239E+05         0.57586E+05         0.00000E+00
    0.00000E+00         0.00000E+00         0.11203E+02
 
   -0.55900E+05         0.67633E+05         0.00000E+00
    0.67633E+05         0.55969E+05         0.00000E+00
    0.00000E+00         0.00000E+00         0.13760E+02
 
   -0.54224E+05         0.69982E+05         0.00000E+00
    0.69982E+05         0.54306E+05         0.00000E+00
    0.00000E+00         0.00000E+00         0.16553E+02
 
   -0.52501E+05         0.72285E+05         0.00000E+00
    0.72285E+05         0.52599E+05         0.00000E+00
    0.00000E+00         0.00000E+00         0.19727E+02
 
   -0.50731E+05         0.74542E+05         0.00000E+00
    0.74542E+05         0.50849E+05         0.00000E+00
    0.00000E+00         0.00000E+00         0.23446E+02
 
   -0.48916E+05         0.76750E+05         0.00000E+00
    0.76750E+05         0.49055E+05         0.00000E+00
    0.00000E+00         0.00000E+00         0.27894E+02
 
   -0.47054E+05         0.78908E+05         0.00000E+00
    0.78908E+05         0.47220E+05         0.00000E+00
    0.00000E+00         0.00000E+00         0.33291E+02
 
   -0.45147E+05         0.81015E+05         0.00000E+00
    0.81015E+05         0.45346E+05         0.00000E+00
    0.00000E+00         0.00000E+00         0.39895E+02
 
   -0.43193E+05         0.83070E+05         0.00000E+00
    0.83070E+05         0.43433E+05         0.00000E+00
    0.00000E+00         0.00000E+00         0.48015E+02
 
   -0.41195E+05         0.85070E+05         0.00000E+00
    0.85070E+05         0.41485E+05         0.00000E+00
    0.00000E+00         0.00000E+00         0.58025E+02
 
   -0.39150E+05         0.87016E+05         0.00000E+00
    0.87016E+05         0.39502E+05         0.00000E+00
    0.00000E+00         0.00000E+00         0.70376E+02
 
   -0.37060E+05         0.88904E+05         0.00000E+00
    0.88904E+05         0.37488E+05         0.00000E+00
    0.00000E+00         0.00000E+00         0.85616E+02
 
   -0.34925E+05         0.90735E+05         0.00000E+00
    0.90735E+05         0.35447E+05         0.00000E+00
    0.00000E+00         0.00000E+00         0.10440E+03
 
   -0.32743E+05         0.92507E+05         0.00000E+00
    0.92507E+05         0.33381E+05         0.00000E+00
    0.00000E+00         0.00000E+00         0.12754E+03
 
   -0.30515E+05         0.94219E+05         0.00000E+00
    0.94219E+05         0.31295E+05         0.00000E+00
    0.00000E+00         0.00000E+00         0.15599E+03
 
   -0.28240E+05         0.95869E+05         0.00000E+00
    0.95869E+05         0.29195E+05         0.00000E+00
    0.00000E+00         0.00000E+00         0.19092E+03
 
   -0.25918E+05         0.97457E+05         0.00000E+00
    0.97457E+05         0.27086E+05         0.00000E+00
    0.00000E+00         0.00000E+00         0.23373E+03
 
   -0.23547E+05         0.98982E+05         0.00000E+00
    0.98982E+05         0.24977E+05         0.00000E+00
    0.00000E+00         0.00000E+00         0.28608E+03
 
   -0.21125E+05         0.10044E+06         0.00000E+00
    0.10044E+06         0.22875E+05         0.00000E+00
    0.00000E+00         0.00000E+00         0.34996E+03
 
   -0.18653E+05         0.10184E+06         0.00000E+00
    0.10184E+06         0.20791E+05         0.00000E+00
    0.00000E+00         0.00000E+00         0.42775E+03
 
   -0.16126E+05         0.10317E+06         0.00000E+00
    0.10317E+06         0.18737E+05         0.00000E+00
    0.00000E+00         0.00000E+00         0.52221E+03
 
   -0.13544E+05         0.10443E+06         0.00000E+00
    0.10443E+06         0.16727E+05         0.00000E+00
    0.00000E+00         0.00000E+00         0.63662E+03
 
   -0.10902E+05         0.10563E+06         0.00000E+00
    0.10563E+06         0.14776E+05         0.00000E+00
    0.00000E+00         0.00000E+00         0.77474E+03
 
   -0.81975E+04         0.10676E+06         0.00000E+00
    0.10676E+06         0.12902E+05         0.00000E+00
    0.00000E+00         0.00000E+00         0.94093E+03
 
   -0.54265E+04         0.10782E+06         0.00000E+00
    0.10782E+06         0.11127E+05         0.00000E+00
    0.00000E+00         0.00000E+00         0.11401E+04
 
   -0.25843E+04         0.10882E+06         0.00000E+00
    0.10882E+06         0.94735E+04         0.00000E+00
    0.00000E+00         0.00000E+00         0.13778E+04
 
    0.33419E+03         0.10975E+06         0.00000E+00
    0.10975E+06         0.79664E+04         0.00000E+00
    0.00000E+00         0.00000E+00         0.16601E+04
 
   -0.75100E+05         0.14323E+04         0.00000E+00
    0.14323E+04         0.72179E+05         0.00000E+00
    0.00000E+00         0.00000E+00        -0.58402E+03
 
   -0.74478E+05         0.42791E+04         0.00000E+00
    0.42791E+04         0.72068E+05         0.00000E+00
    0.00000E+00         0.00000E+00        -0.48201E+03
 
   -0.73835E+05         0.71163E+04         0.00000E+00
    0.71163E+04         0.71854E+05         0.00000E+00
    0.00000E+00         0.00000E+00        -0.39619E+03
 
   -0.73165E+05         0.99422E+04         0.00000E+00
    0.99422E+04         0.71544E+05         0.00000E+00
    0.00000E+00         0.00000E+00        -0.32436E+03
 
   -0.72468E+05         0.12755E+05         0.00000E+00
    0.12755E+05         0.71146E+05         0.00000E+00
    0.00000E+00         0.00000E+00        -0.26450E+03
 
   -0.71741E+05         0.15554E+05         0.00000E+00
    0.15554E+05         0.70667E+05         0.00000E+00
    0.00000E+00         0.00000E+00        -0.21480E+03
 
   -0.70981E+05         0.18337E+05         0.00000E+00
    0.18337E+05         0.70112E+05         0.00000E+00
    0.00000E+00         0.00000E+00        -0.17368E+03
 
   -0.70187E+05         0.21103E+05         0.00000E+00
    0.21103E+05         0.69488E+05         0.00000E+00
    0.00000E+00         0.00000E+00        -0.13976E+03
 
   -0.69358E+05         0.23850E+05         0.00000E+00
    0.23850E+05         0.68798E+05         0.00000E+00
    0.00000E+00         0.00000E+00        -0.11185E+03
 
   -0.68491E+05         0.26577E+05         0.00000E+00
    0.26577E+05         0.68047E+05         0.00000E+00
    0.00000E+00         0.00000E+00        -0.88946E+02
 
   -0.67587E+05         0.29282E+05         0.00000E+00
    0.29282E+05         0.67236E+05         0.00000E+00
    0.00000E+00         0.00000E+00        -0.70187E+02
 
   -0.66644E+05         0.31964E+05         0.00000E+00
    0.31964E+05         0.66370E+05         0.00000E+00
    0.00000E+00         0.00000E+00        -0.54851E+02
 
   -0.65661E+05         0.34622E+05         0.00000E+00
    0.34622E+05         0.65449E+05         0.00000E+00
    0.00000E+00         0.00000E+00        -0.42329E+02
 
   -0.64637E+05         0.37254E+05         0.00000E+00
    0.37254E+05         0.64477E+05         0.00000E+00
    0.00000E+00         0.00000E+00        -0.32113E+02
 
   -0.63573E+05         0.39858E+05         0.00000E+00
    0.39858E+05         0.63454E+05         0.00000E+00
    0.00000E+00         0.00000E+00        -0.23777E+02
 
   -0.62467E+05         0.42434E+05         0.00000E+00
    0.42434E+05         0.62382E+05         0.00000E+00
    0.00000E+00         0.00000E+00        -0.16966E+02
 
   -0.61319E+05         0.44980E+05         0.00000E+00
    0.44980E+05         0.61262E+05         0.00000E+00
    0.00000E+00         0.00000E+00        -0.11383E+02
 
   -0.60129E+05         0.47494E+05         0.00000E+00
    0.47494E+05         0.60095E+05         0.00000E+00
    0.00000E+00         0.00000E+00        -0.67790E+01
 
   -0.58897E+05         0.49976E+05         0.00000E+00
    0.49976E+05         0.58882E+05         0.00000E+00
    0.00000E+00         0.00000E+00        -0.29424E+01
 
   -0.57623E+05         0.52423E+05         0.00000E+00
    0.52423E+05         0.57624E+05         0.00000E+00
    0.00000E+00         0.00000E+00         0.30627E+00
 
   -0.56306E+05         0.54834E+05         0.00000E+00
    0.54834E+05         0.56321E+05         0.00000E+00
    0.00000E+00         0.00000E+00         0.31234E+01
 
   -0.54947E+05         0.57208E+05         0.00000E+00
    0.57208E+05         0.54975E+05         0.00000E+00
    0.00000E+00         0.00000E+00         0.56480E+01
 
   -0.53545E+05         0.59544E+05         0.00000E+00
    0.59544E+05         0.53585E+05         0.00000E+00
    0.00000E+00         0.00000E+00         0.80071E+01
 
   -0.52102E+05         0.61840E+05         0.00000E+00
    0.61840E+05         0.52153E+05         0.00000E+00
    0.00000E+00         0.00000E+00         0.10321E+02
 
   -0.50616E+05         0.64095E+05         0.00000E+00
    0.64095E+05         0.50680E+05         0.00000E+00
    0.00000E+00         0.00000E+00         0.12711E+02
 
   -0.49089E+05         0.66307E+05         0.00000E+00
    0.66307E+05         0.49165E+05         0.00000E+00
    0.00000E+00         0.00000E+00         0.15298E+02
 
   -0.47519E+05         0.68475E+05         0.00000E+00
    0.68475E+05         0.47610E+05         0.00000E+00
    0.00000E+00         0.00000E+00         0.18217E+02
 
   -0.45908E+05         0.70598E+05         0.00000E+00
    0.70598E+05         0.46016E+05         0.00000E+00
    0.00000E+00         0.00000E+00         0.21613E+02
 
   -0.44256E+05         0.72674E+05         0.00000E+00
    0.72674E+05         0.44384E+05         0.00000E+00
    0.00000E+00         0.00000E+00         0.25657E+02
 
   -0.42562E+05         0.74702E+05         0.00000E+00
    0.74702E+05         0.42715E+05         0.00000E+00
    0.00000E+00         0.00000E+00         0.30544E+02
 
   -0.40828E+05         0.76681E+05         0.00000E+00
    0.76681E+05         0.41010E+05         0.00000E+00
    0.00000E+00         0.00000E+00         0.36508E+02
 
   -0.39053E+05         0.78610E+05         0.00000E+00
    0.78610E+05         0.39272E+05         0.00000E+00
    0.00000E+00         0.00000E+00         0.43828E+02
 
   -0.37236E+05         0.80487E+05         0.00000E+00
    0.80487E+05         0.37501E+05         0.00000E+00
    0.00000E+00         0.00000E+00         0.52840E+02
 
   -0.35380E+05         0.82310E+05         0.00000E+00
    0.82310E+05         0.35699E+05         0.00000E+00
    0.00000E+00         0.00000E+00         0.63950E+02
 
   -0.33482E+05         0.84080E+05         0.00000E+00
    0.84080E+05         0.33871E+05         0.00000E+00
    0.00000E+00         0.00000E+00         0.77649E+02
 
   -0.31544E+05         0.85794E+05         0.00000E+00
    0.85794E+05         0.32017E+05         0.00000E+00
    0.00000E+00         0.00000E+00         0.94532E+02
 
   -0.29565E+05         0.87451E+05         0.00000E+00
    0.87451E+05         0.30142E+05         0.00000E+00
    0.00000E+00         0.00000E+00         0.11532E+03
 
   -0.27546E+05         0.89050E+05         0.00000E+00
    0.89050E+05         0.28250E+05         0.00000E+00
    0.00000E+00         0.00000E+00         0.14087E+03
 
   -0.25484E+05         0.90591E+05         0.00000E+00
    0.90591E+05         0.26346E+05         0.00000E+00
    0.00000E+00         0.00000E+00         0.17224E+03
 
   -0.23381E+05         0.92072E+05         0.00000E+00
    0.92072E+05         0.24434E+05         0.00000E+00
    0.00000E+00         0.00000E+00         0.21068E+03
 
   -0.21235E+05         0.93492E+05         0.00000E+00
    0.93492E+05         0.22523E+05         0.00000E+00
    0.00000E+00         0.00000E+00         0.25770E+03
 
   -0.19045E+05         0.94851E+05         0.00000E+00
    0.94851E+05         0.20620E+05         0.00000E+00
    0.00000E+00         0.00000E+00         0.31507E+03
 
   -0.16809E+05         0.96147E+05         0.00000E+00
    0.96147E+05         0.18734E+05         0.00000E+00
    0.00000E+00         0.00000E+00         0.38492E+03
 
   -0.14527E+05         0.97381E+05         0.00000E+00
    0.97381E+05         0.16876E+05         0.00000E+00
    0.00000E+00         0.00000E+00         0.46976E+03
 
   -0.12196E+05         0.98551E+05         0.00000E+00
    0.98551E+05         0.15058E+05         0.00000E+00
    0.00000E+00         0.00000E+00         0.57250E+03
 
   -0.98132E+04         0.99659E+05         0.00000E+00
    0.99659E+05         0.13296E+05         0.00000E+00
    0.00000E+00         0.00000E+00         0.69654E+03
 
   -0.73759E+04         0.10070E+06         0.00000E+00
    0.10070E+06         0.11605E+05         0.00000E+00
    0.00000E+00         0.00000E+00         0.84578E+03
 
   -0.48806E+04         0.10168E+06         0.00000E+00
    0.10168E+06         0.10004E+05         0.00000E+00
    0.00000E+00         0.00000E+00         0.10247E+04
 
   -0.23234E+04         0.10260E+06         0.00000E+00
    0.10260E+06         0.85141E+04         0.00000E+00
    0.00000E+00         0.00000E+00         0.12381E+04
 
    0.30016E+03         0.10346E+06         0.00000E+00
    0.10346E+06         0.71580E+04         0.00000E+00
    0.00000E+00         0.00000E+00         0.14916E+04
 
   -0.68035E+05         0.13716E+04         0.00000E+00
    0.13716E+04         0.65301E+05         0.00000E+00
    0.00000E+00         0.00000E+00        -0.54676E+03
 
   -0.67456E+05         0.40941E+04         0.00000E+00
    0.40941E+04         0.65198E+05         0.00000E+00
    0.00000E+00         0.00000E+00        -0.45145E+03
 
   -0.66856E+05         0.68056E+04         0.00000E+00
    0.68056E+04         0.65000E+05         0.00000E+00
    0.00000E+00         0.00000E+00        -0.37125E+03
 
   -0.66234E+05         0.95047E+04         0.00000E+00
    0.95047E+04         0.64713E+05         0.00000E+00
    0.00000E+00         0.00000E+00        -0.30410E+03
 
   -0.65586E+05         0.12190E+05         0.00000E+00
    0.12190E+05         0.64346E+05         0.00000E+00
    0.00000E+00         0.00000E+00        -0.24812E+03
 
   -0.64912E+05         0.14860E+05         0.00000E+00
    0.14860E+05         0.63904E+05         0.00000E+00
    0.00000E+00         0.00000E+00        -0.20163E+03
 
   -0.64209E+05         0.17513E+05         0.00000E+00
    0.17513E+05         0.63393E+05         0.00000E+00
    0.00000E+00         0.00000E+00        -0.16314E+03
 
   -0.63476E+05         0.20148E+05         0.00000E+00
    0.20148E+05         0.62819E+05         0.00000E+00
    0.00000E+00         0.00000E+00        -0.13139E+03
 
   -0.62711E+05         0.22764E+05         0.00000E+00
    0.22764E+05         0.62185E+05         0.00000E+00
    0.00000E+00         0.00000E+00        -0.10525E+03
 
   -0.61913E+05         0.25358E+05         0.00000E+00
    0.25358E+05         0.61494E+05         0.00000E+00
    0.00000E+00         0.00000E+00        -0.83791E+02
 
   -0.61081E+05         0.27931E+05         0.00000E+00
    0.27931E+05         0.60750E+05         0.00000E+00
    0.00000E+00         0.00000E+00        -0.66206E+02
 
   -0.60215E+05         0.30480E+05         0.00000E+00
    0.30480E+05         0.59956E+05         0.00000E+00
    0.00000E+00         0.00000E+00        -0.51820E+02
 
   -0.59313E+05         0.33005E+05         0.00000E+00
    0.33005E+05         0.59113E+05         0.00000E+00
    0.00000E+00         0.00000E+00        -0.40066E+02
 
   -0.58375E+05         0.35504E+05         0.00000E+00
    0.35504E+05         0.58223E+05         0.00000E+00
    0.00000E+00         0.00000E+00        -0.30470E+02
 
   -0.57401E+05         0.37975E+05         0.00000E+00
    0.37975E+05         0.57288E+05         0.00000E+00
    0.00000E+00         0.00000E+00        -0.22634E+02
 
   -0.56390E+05         0.40418E+05         0.00000E+00
    0.40418E+05         0.56309E+05         0.00000E+00
    0.00000E+00         0.00000E+00        -0.16227E+02
 
   -0.55342E+05         0.42831E+05         0.00000E+00
    0.42831E+05         0.55287E+05         0.00000E+00
    0.00000E+00         0.00000E+00        -0.10971E+02
 
   -0.54256E+05         0.45213E+05         0.00000E+00
    0.45213E+05         0.54223E+05         0.00000E+00
    0.00000E+00         0.00000E+00        -0.66337E+01
 
   -0.53133E+05         0.47563E+05         0.00000E+00
    0.47563E+05         0.53117E+05         0.00000E+00
    0.00000E+00         0.00000E+00        -0.30196E+01
 
   -0.51972E+05         0.49879E+05         0.00000E+00
    0.49879E+05         0.51972E+05         0.00000E+00
    0.00000E+00         0.00000E+00         0.38918E-01
 
   -0.50773E+05         0.52161E+05         0.00000E+00
    0.52161E+05         0.50786E+05         0.00000E+00
    0.00000E+00         0.00000E+00         0.26869E+01
 
   -0.49537E+05         0.54406E+05         0.00000E+00
    0.54406E+05         0.49562E+05         0.00000E+00
    0.00000E+00         0.00000E+00         0.50526E+01
 
   -0.48263E+05         0.56613E+05         0.00000E+00
    0.56613E+05         0.48299E+05         0.00000E+00
    0.00000E+00         0.00000E+00         0.72532E+01
 
   -0.46951E+05         0.58782E+05         0.00000E+00
    0.58782E+05         0.46998E+05         0.00000E+00
    0.00000E+00         0.00000E+00         0.93996E+01
 
   -0.45602E+05         0.60911E+05         0.00000E+00
    0.60911E+05         0.45660E+05         0.00000E+00
    0.00000E+00         0.00000E+00         0.11601E+02
 
   -0.44216E+05         0.62999E+05         0.00000E+00
    0.62999E+05         0.44286E+05         0.00000E+00
    0.00000E+00         0.00000E+00         0.13968E+02
 
   -0.42793E+05         0.65044E+05         0.00000E+00
    0.65044E+05         0.42876E+05         0.00000E+00
    0.00000E+00         0.00000E+00         0.16623E+02
 
   -0.41332E+05         0.67046E+05         0.00000E+00
    0.67046E+05         0.41431E+05         0.00000E+00
    0.00000E+00         0.00000E+00         0.19697E+02
 
   -0.39835E+05         0.69003E+05         0.00000E+00
    0.69003E+05         0.39952E+05         0.00000E+00
    0.00000E+00         0.00000E+00         0.23343E+02
 
   -0.38301E+05         0.70913E+05         0.00000E+00
    0.70913E+05         0.38440E+05         0.00000E+00
    0.00000E+00         0.00000E+00         0.27737E+02
 
   -0.36731E+05         0.72776E+05         0.00000E+00
    0.72776E+05         0.36897E+05         0.00000E+00
    0.00000E+00         0.00000E+00         0.33088E+02
 
   -0.35125E+05         0.74590E+05         0.00000E+00
    0.74590E+05         0.35323E+05         0.00000E+00
    0.00000E+00         0.00000E+00         0.39646E+02
 
   -0.33483E+05         0.76355E+05         0.00000E+00
    0.76355E+05         0.33721E+05         0.00000E+00
    0.00000E+00         0.00000E+00         0.47712E+02
 
   -0.31805E+05         0.78068E+05         0.00000E+00
    0.78068E+05         0.32093E+05         0.00000E+00
    0.00000E+00         0.00000E+00         0.57649E+02
 
   -0.30091E+05         0.79730E+05         0.00000E+00
    0.79730E+05         0.30440E+05         0.00000E+00
    0.00000E+00         0.00000E+00         0.69896E+02
 
   -0.28341E+05         0.81338E+05         0.00000E+00
    0.81338E+05         0.28766E+05         0.00000E+00
    0.00000E+00         0.00000E+00         0.84985E+02
 
   -0.26555E+05         0.82892E+05         0.00000E+00
    0.82892E+05         0.27073E+05         0.00000E+00
    0.00000E+00         0.00000E+00         0.10356E+03
 
   -0.24734E+05         0.84391E+05         0.00000E+00
    0.84391E+05         0.25366E+05         0.00000E+00
    0.00000E+00         0.00000E+00         0.12639E+03
 
   -0.22876E+05         0.85833E+05         0.00000E+00
    0.85833E+05         0.23648E+05         0.00000E+00
    0.00000E+00         0.00000E+00         0.15442E+03
 
   -0.20981E+05         0.87218E+05         0.00000E+00
    0.87218E+05         0.21925E+05         0.00000E+00
    0.00000E+00         0.00000E+00         0.18877E+03
 
   -0.19049E+05         0.88546E+05         0.00000E+00
    0.88546E+05         0.20202E+05         0.00000E+00
    0.00000E+00         0.00000E+00         0.23077E+03
 
   -0.17078E+05         0.89814E+05         0.00000E+00
    0.89814E+05         0.18488E+05         0.00000E+00
    0.00000E+00         0.00000E+00         0.28203E+03
 
   -0.15068E+05         0.91024E+05         0.00000E+00
    0.91024E+05         0.16791E+05         0.00000E+00
    0.00000E+00         0.00000E+00         0.34444E+03
 
   -0.13018E+05         0.92174E+05         0.00000E+00
    0.92174E+05         0.15119E+05         0.00000E+00
    0.00000E+00         0.00000E+00         0.42024E+03
 
   -0.10925E+05         0.93263E+05         0.00000E+00
    0.93263E+05         0.13485E+05         0.00000E+00
    0.00000E+00         0.00000E+00         0.51203E+03
 
   -0.87872E+04         0.94293E+05         0.00000E+00
    0.94293E+05         0.11902E+05         0.00000E+00
    0.00000E+00         0.00000E+00         0.62287E+03
 
   -0.66023E+04         0.95263E+05         0.00000E+00
    0.95263E+05         0.10383E+05         0.00000E+00
    0.00000E+00         0.00000E+00         0.75622E+03
 
   -0.43671E+04         0.96174E+05         0.00000E+00
    0.96174E+05         0.89474E+04         0.00000E+00
    0.00000E+00         0.00000E+00         0.91605E+03
 
   -0.20782E+04         0.97026E+05         0.00000E+00
    0.97026E+05         0.76122E+04         0.00000E+00
    0.00000E+00         0.00000E+00         0.11068E+04
 
    0.26809E+03         0.97820E+05         0.00000E+00
    0.97820E+05         0.63984E+04         0.00000E+00
    0.00000E+00         0.00000E+00         0.13333E+04
 
   -0.61252E+05         0.13160E+04         0.00000E+00
    0.13160E+04         0.58732E+05         0.00000E+00
    0.00000E+00         0.00000E+00        -0.50402E+03
 
   -0.60719E+05         0.39254E+04         0.00000E+00
    0.39254E+04         0.58638E+05         0.00000E+00
    0.00000E+00         0.00000E+00        -0.41629E+03
 
   -0.60168E+05         0.65231E+04         0.00000E+00
    0.65231E+04         0.58455E+05         0.00000E+00
    0.00000E+00         0.00000E+00        -0.34246E+03
 
   -0.59596E+05         0.91075E+04         0.00000E+00
    0.91075E+04         0.58193E+05         0.00000E+00
    0.00000E+00         0.00000E+00        -0.28062E+03
 
   -0.59002E+05         0.11677E+05         0.00000E+00
    0.11677E+05         0.57856E+05         0.00000E+00
    0.00000E+00         0.00000E+00        -0.22906E+03
 
   -0.58383E+05         0.14231E+05         0.00000E+00
    0.14231E+05         0.57452E+05         0.00000E+00
    0.00000E+00         0.00000E+00        -0.18623E+03
 
   -0.57739E+05         0.16767E+05         0.00000E+00
    0.16767E+05         0.56985E+05         0.00000E+00
    0.00000E+00         0.00000E+00        -0.15076E+03
 
   -0.57067E+05         0.19285E+05         0.00000E+00
    0.19285E+05         0.56460E+05         0.00000E+00
    0.00000E+00         0.00000E+00        -0.12149E+03
 
   -0.56368E+05         0.21782E+05         0.00000E+00
    0.21782E+05         0.55881E+05         0.00000E+00
    0.00000E+00         0.00000E+00        -0.97390E+02
 
   -0.55639E+05         0.24259E+05         0.00000E+00
    0.24259E+05         0.55251E+05         0.00000E+00
    0.00000E+00         0.00000E+00        -0.77594E+02
 
   -0.54880E+05         0.26712E+05         0.00000E+00
    0.26712E+05         0.54573E+05         0.00000E+00
    0.00000E+00         0.00000E+00        -0.61366E+02
 
   -0.54090E+05         0.29143E+05         0.00000E+00
    0.29143E+05         0.53849E+05         0.00000E+00
    0.00000E+00         0.00000E+00        -0.48085E+02
 
   -0.53268E+05         0.31548E+05         0.00000E+00
    0.31548E+05         0.53082E+05         0.00000E+00
    0.00000E+00         0.00000E+00        -0.37230E+02
 
   -0.52414E+05         0.33928E+05         0.00000E+00
    0.33928E+05         0.52273E+05         0.00000E+00
    0.00000E+00         0.00000E+00        -0.28363E+02
 
   -0.51528E+05         0.36280E+05         0.00000E+00
    0.36280E+05         0.51423E+05         0.00000E+00
    0.00000E+00         0.00000E+00        -0.21118E+02
 
   -0.50609E+05         0.38604E+05         0.00000E+00
    0.38604E+05         0.50534E+05         0.00000E+00
    0.00000E+00         0.00000E+00        -0.15192E+02
 
   -0.49658E+05         0.40899E+05         0.00000E+00
    0.40899E+05         0.49606E+05         0.00000E+00
    0.00000E+00         0.00000E+00        -0.10328E+02
 
   -0.48673E+05         0.43162E+05         0.00000E+00
    0.43162E+05         0.48641E+05         0.00000E+00
    0.00000E+00         0.00000E+00        -0.63139E+01
 
   -0.47654E+05         0.45394E+05         0.00000E+00
    0.45394E+05         0.47640E+05         0.00000E+00
    0.00000E+00         0.00000E+00        -0.29691E+01
 
   -0.46603E+05         0.47593E+05         0.00000E+00
    0.47593E+05         0.46602E+05         0.00000E+00
    0.00000E+00         0.00000E+00        -0.14025E+00
 
   -0.45518E+05         0.49758E+05         0.00000E+00
    0.49758E+05         0.45529E+05         0.00000E+00
    0.00000E+00         0.00000E+00         0.23054E+01
 
   -0.44399E+05         0.51887E+05         0.00000E+00
    0.51887E+05         0.44422E+05         0.00000E+00
    0.00000E+00         0.00000E+00         0.44851E+01
 
   -0.43247E+05         0.53980E+05         0.00000E+00
    0.53980E+05         0.43280E+05         0.00000E+00
    0.00000E+00         0.00000E+00         0.65055E+01
 
   -0.42062E+05         0.56035E+05         0.00000E+00
    0.56035E+05         0.42105E+05         0.00000E+00
    0.00000E+00         0.00000E+00         0.84670E+01
 
   -0.40844E+05         0.58051E+05         0.00000E+00
    0.58051E+05         0.40897E+05         0.00000E+00
    0.00000E+00         0.00000E+00         0.10468E+02
 
   -0.39593E+05         0.60027E+05         0.00000E+00
    0.60027E+05         0.39656E+05         0.00000E+00
    0.00000E+00         0.00000E+00         0.12610E+02
 
   -0.38310E+05         0.61962E+05         0.00000E+00
    0.61962E+05         0.38385E+05         0.00000E+00
    0.00000E+00         0.00000E+00         0.15001E+02
 
   -0.36993E+05         0.63855E+05         0.00000E+00
    0.63855E+05         0.37082E+05         0.00000E+00
    0.00000E+00         0.00000E+00         0.17758E+02
 
   -0.35644E+05         0.65704E+05         0.00000E+00
    0.65704E+05         0.35750E+05         0.00000E+00
    0.00000E+00         0.00000E+00         0.21019E+02
 
   -0.34263E+05         0.67509E+05         0.00000E+00
    0.67509E+05         0.34388E+05         0.00000E+00
    0.00000E+00         0.00000E+00         0.24940E+02
 
   -0.32850E+05         0.69268E+05         0.00000E+00
    0.69268E+05         0.32999E+05         0.00000E+00
    0.00000E+00         0.00000E+00         0.29708E+02
 
   -0.31406E+05         0.70980E+05         0.00000E+00
    0.70980E+05         0.31583E+05         0.00000E+00
    0.00000E+00         0.00000E+00         0.35545E+02
 
   -0.29929E+05         0.72644E+05         0.00000E+00
    0.72644E+05         0.30143E+05         0.00000E+00
    0.00000E+00         0.00000E+00         0.42720E+02
 
   -0.28422E+05         0.74259E+05         0.00000E+00
    0.74259E+05         0.28679E+05         0.00000E+00
    0.00000E+00         0.00000E+00         0.51554E+02
 
   -0.26882E+05         0.75824E+05         0.00000E+00
    0.75824E+05         0.27195E+05         0.00000E+00
    0.00000E+00         0.00000E+00         0.62438E+02
 
   -0.25312E+05         0.77338E+05         0.00000E+00
    0.77338E+05         0.25691E+05         0.00000E+00
    0.00000E+00         0.00000E+00         0.75846E+02
 
   -0.23710E+05         0.78800E+05         0.00000E+00
    0.78800E+05         0.24172E+05         0.00000E+00
    0.00000E+00         0.00000E+00         0.92348E+02
 
   -0.22077E+05         0.80209E+05         0.00000E+00
    0.80209E+05         0.22640E+05         0.00000E+00
    0.00000E+00         0.00000E+00         0.11263E+03
 
   -0.20413E+05         0.81565E+05         0.00000E+00
    0.81565E+05         0.21100E+05         0.00000E+00
    0.00000E+00         0.00000E+00         0.13754E+03
 
   -0.18716E+05         0.82866E+05         0.00000E+00
    0.82866E+05         0.19556E+05         0.00000E+00
    0.00000E+00         0.00000E+00         0.16805E+03
 
   -0.16987E+05         0.84111E+05         0.00000E+00
    0.84111E+05         0.18014E+05         0.00000E+00
    0.00000E+00         0.00000E+00         0.20537E+03
 
   -0.15225E+05         0.85301E+05         0.00000E+00
    0.85301E+05         0.16479E+05         0.00000E+00
    0.00000E+00         0.00000E+00         0.25091E+03
 
   -0.13429E+05         0.86435E+05         0.00000E+00
    0.86435E+05         0.14961E+05         0.00000E+00
    0.00000E+00         0.00000E+00         0.30636E+03
 
   -0.11598E+05         0.87512E+05         0.00000E+00
    0.87512E+05         0.13466E+05         0.00000E+00
    0.00000E+00         0.00000E+00         0.37370E+03
 
   -0.97297E+04         0.88532E+05         0.00000E+00
    0.88532E+05         0.12006E+05         0.00000E+00
    0.00000E+00         0.00000E+00         0.45527E+03
 
   -0.78232E+04         0.89496E+05         0.00000E+00
    0.89496E+05         0.10592E+05         0.00000E+00
    0.00000E+00         0.00000E+00         0.55374E+03
 
   -0.58760E+04         0.90403E+05         0.00000E+00
    0.90403E+05         0.92372E+04         0.00000E+00
    0.00000E+00         0.00000E+00         0.67223E+03
 
   -0.38854E+04         0.91254E+05         0.00000E+00
    0.91254E+05         0.79567E+04         0.00000E+00
    0.00000E+00         0.00000E+00         0.81426E+03
 
   -0.18485E+04         0.92050E+05         0.00000E+00
    0.92050E+05         0.67673E+04         0.00000E+00
    0.00000E+00         0.00000E+00         0.98375E+03
 
    0.23803E+03         0.92791E+05         0.00000E+00
    0.92791E+05         0.56871E+04         0.00000E+00
    0.00000E+00         0.00000E+00         0.11850E+04
 
   -0.54730E+05         0.12652E+04         0.00000E+00
    0.12652E+04         0.52440E+05         0.00000E+00
    0.00000E+00         0.00000E+00        -0.45781E+03
 
   -0.54246E+05         0.37717E+04         0.00000E+00
    0.37717E+04         0.52355E+05         0.00000E+00
    0.00000E+00         0.00000E+00        -0.37822E+03
 
   -0.53745E+05         0.62661E+04         0.00000E+00
    0.62661E+04         0.52189E+05         0.00000E+00
    0.00000E+00         0.00000E+00        -0.31122E+03
 
   -0.53226E+05         0.87467E+04         0.00000E+00
    0.87467E+04         0.51951E+05         0.00000E+00
    0.00000E+00         0.00000E+00        -0.25510E+03
 
   -0.52687E+05         0.11212E+05         0.00000E+00
    0.11212E+05         0.51646E+05         0.00000E+00
    0.00000E+00         0.00000E+00        -0.20829E+03
 
   -0.52126E+05         0.13661E+05         0.00000E+00
    0.13661E+05         0.51279E+05         0.00000E+00
    0.00000E+00         0.00000E+00        -0.16940E+03
 
   -0.51542E+05         0.16092E+05         0.00000E+00
    0.16092E+05         0.50856E+05         0.00000E+00
    0.00000E+00         0.00000E+00        -0.13719E+03
 
   -0.50933E+05         0.18504E+05         0.00000E+00
    0.18504E+05         0.50380E+05         0.00000E+00
    0.00000E+00         0.00000E+00        -0.11060E+03
 
   -0.50300E+05         0.20896E+05         0.00000E+00
    0.20896E+05         0.49856E+05         0.00000E+00
    0.00000E+00         0.00000E+00        -0.88703E+02
 
   -0.49640E+05         0.23266E+05         0.00000E+00
    0.23266E+05         0.49286E+05         0.00000E+00
    0.00000E+00         0.00000E+00        -0.70712E+02
 
   -0.48953E+05         0.25614E+05         0.00000E+00
    0.25614E+05         0.48673E+05         0.00000E+00
    0.00000E+00         0.00000E+00        -0.55961E+02
 
   -0.48239E+05         0.27938E+05         0.00000E+00
    0.27938E+05         0.48020E+05         0.00000E+00
    0.00000E+00         0.00000E+00        -0.43885E+02
 
   -0.47497E+05         0.30237E+05         0.00000E+00
    0.30237E+05         0.47327E+05         0.00000E+00
    0.00000E+00         0.00000E+00        -0.34011E+02
 
   -0.46726E+05         0.32510E+05         0.00000E+00
    0.32510E+05         0.46596E+05         0.00000E+00
    0.00000E+00         0.00000E+00        -0.25943E+02
 
   -0.45927E+05         0.34756E+05         0.00000E+00
    0.34756E+05         0.45830E+05         0.00000E+00
    0.00000E+00         0.00000E+00        -0.19349E+02
 
   -0.45098E+05         0.36974E+05         0.00000E+00
    0.36974E+05         0.45029E+05         0.00000E+00
    0.00000E+00         0.00000E+00        -0.13954E+02
 
   -0.44241E+05         0.39163E+05         0.00000E+00
    0.39163E+05         0.44193E+05         0.00000E+00
    0.00000E+00         0.00000E+00        -0.95250E+01
 
   -0.43354E+05         0.41321E+05         0.00000E+00
    0.41321E+05         0.43325E+05         0.00000E+00
    0.00000E+00         0.00000E+00        -0.58696E+01
 
   -0.42438E+05         0.43448E+05         0.00000E+00
    0.43448E+05         0.42424E+05         0.00000E+00
    0.00000E+00         0.00000E+00        -0.28243E+01
 
   -0.41492E+05         0.45542E+05         0.00000E+00
    0.45542E+05         0.41491E+05         0.00000E+00
    0.00000E+00         0.00000E+00        -0.25025E+00
 
   -0.40517E+05         0.47603E+05         0.00000E+00
    0.47603E+05         0.40527E+05         0.00000E+00
    0.00000E+00         0.00000E+00         0.19724E+01
 
   -0.39513E+05         0.49629E+05         0.00000E+00
    0.49629E+05         0.39533E+05         0.00000E+00
    0.00000E+00         0.00000E+00         0.39494E+01
 
   -0.38479E+05         0.51620E+05         0.00000E+00
    0.51620E+05         0.38508E+05         0.00000E+00
    0.00000E+00         0.00000E+00         0.57768E+01
 
   -0.37416E+05         0.53574E+05         0.00000E+00
    0.53574E+05         0.37454E+05         0.00000E+00
    0.00000E+00         0.00000E+00         0.75447E+01
 
   -0.36324E+05         0.55490E+05         0.00000E+00
    0.55490E+05         0.36371E+05         0.00000E+00
    0.00000E+00         0.00000E+00         0.93413E+01
 
   -0.35204E+05         0.57367E+05         0.00000E+00
    0.57367E+05         0.35260E+05         0.00000E+00
    0.00000E+00         0.00000E+00         0.11257E+02
 
   -0.34054E+05         0.59204E+05         0.00000E+00
    0.59204E+05         0.34121E+05         0.00000E+00
    0.00000E+00         0.00000E+00         0.13387E+02
 
   -0.32876E+05         0.61000E+05         0.00000E+00
    0.61000E+05         0.32955E+05         0.00000E+00
    0.00000E+00         0.00000E+00         0.15838E+02
 
   -0.31670E+05         0.62753E+05         0.00000E+00
    0.62753E+05         0.31763E+05         0.00000E+00
    0.00000E+00         0.00000E+00         0.18729E+02
 
   -0.30435E+05         0.64464E+05         0.00000E+00
    0.64464E+05         0.30546E+05         0.00000E+00
    0.00000E+00         0.00000E+00         0.22200E+02
 
   -0.29173E+05         0.66131E+05         0.00000E+00
    0.66131E+05         0.29305E+05         0.00000E+00
    0.00000E+00         0.00000E+00         0.26417E+02
 
   -0.27882E+05         0.67752E+05         0.00000E+00
    0.67752E+05         0.28040E+05         0.00000E+00
    0.00000E+00         0.00000E+00         0.31574E+02
 
   -0.26565E+05         0.69327E+05         0.00000E+00
    0.69327E+05         0.26754E+05         0.00000E+00
    0.00000E+00         0.00000E+00         0.37910E+02
 
   -0.25220E+05         0.70856E+05         0.00000E+00
    0.70856E+05         0.25448E+05         0.00000E+00
    0.00000E+00         0.00000E+00         0.45710E+02
 
   -0.23848E+05         0.72336E+05         0.00000E+00
    0.72336E+05         0.24124E+05         0.00000E+00
    0.00000E+00         0.00000E+00         0.55318E+02
 
   -0.22448E+05         0.73767E+05         0.00000E+00
    0.73767E+05         0.22784E+05         0.00000E+00
    0.00000E+00         0.00000E+00         0.67151E+02
 
   -0.21022E+05         0.75148E+05         0.00000E+00
    0.75148E+05         0.21431E+05         0.00000E+00
    0.00000E+00         0.00000E+00         0.81716E+02
 
   -0.19569E+05         0.76479E+05         0.00000E+00
    0.76479E+05         0.20067E+05         0.00000E+00
    0.00000E+00         0.00000E+00         0.99620E+02
 
   -0.18088E+05         0.77759E+05         0.00000E+00
    0.77759E+05         0.18696E+05         0.00000E+00
    0.00000E+00         0.00000E+00         0.12160E+03
 
   -0.16580E+05         0.78986E+05         0.00000E+00
    0.78986E+05         0.17323E+05         0.00000E+00
    0.00000E+00         0.00000E+00         0.14853E+03
 
   -0.15044E+05         0.80161E+05         0.00000E+00
    0.80161E+05         0.15951E+05         0.00000E+00
    0.00000E+00         0.00000E+00         0.18146E+03
 
   -0.13479E+05         0.81282E+05         0.00000E+00
    0.81282E+05         0.14588E+05         0.00000E+00
    0.00000E+00         0.00000E+00         0.22166E+03
 
   -0.11886E+05         0.82351E+05         0.00000E+00
    0.82351E+05         0.13239E+05         0.00000E+00
    0.00000E+00         0.00000E+00         0.27060E+03
 
   -0.10262E+05         0.83365E+05         0.00000E+00
    0.83365E+05         0.11912E+05         0.00000E+00
    0.00000E+00         0.00000E+00         0.33005E+03
 
   -0.86065E+04         0.84326E+05         0.00000E+00
    0.84326E+05         0.10617E+05         0.00000E+00
    0.00000E+00         0.00000E+00         0.40204E+03
 
   -0.69180E+04         0.85233E+05         0.00000E+00
    0.85233E+05         0.93629E+04         0.00000E+00
    0.00000E+00         0.00000E+00         0.48897E+03
 
   -0.51946E+04         0.86087E+05         0.00000E+00
    0.86087E+05         0.81624E+04         0.00000E+00
    0.00000E+00         0.00000E+00         0.59357E+03
 
   -0.34339E+04         0.86887E+05         0.00000E+00
    0.86887E+05         0.70286E+04         0.00000E+00
    0.00000E+00         0.00000E+00         0.71895E+03
 
   -0.16334E+04         0.87636E+05         0.00000E+00
    0.87636E+05         0.59763E+04         0.00000E+00
    0.00000E+00         0.00000E+00         0.86857E+03
 
    0.20990E+03         0.88334E+05         0.00000E+00
    0.88334E+05         0.50214E+04         0.00000E+00
    0.00000E+00         0.00000E+00         0.10463E+04
 
   -0.48447E+05         0.12189E+04         0.00000E+00
    0.12189E+04         0.46398E+05         0.00000E+00
    0.00000E+00         0.00000E+00        -0.40971E+03
 
   -0.48014E+05         0.36323E+04         0.00000E+00
    0.36323E+04         0.46321E+05         0.00000E+00
    0.00000E+00         0.00000E+00        -0.33854E+03
 
   -0.47566E+05         0.60333E+04         0.00000E+00
    0.60333E+04         0.46173E+05         0.00000E+00
    0.00000E+00         0.00000E+00        -0.27862E+03
 
   -0.47101E+05         0.84204E+04         0.00000E+00
    0.84204E+04         0.45959E+05         0.00000E+00
    0.00000E+00         0.00000E+00        -0.22843E+03
 
   -0.46618E+05         0.10792E+05         0.00000E+00
    0.10792E+05         0.45685E+05         0.00000E+00
    0.00000E+00         0.00000E+00        -0.18655E+03
 
   -0.46115E+05         0.13147E+05         0.00000E+00
    0.13147E+05         0.45356E+05         0.00000E+00
    0.00000E+00         0.00000E+00        -0.15176E+03
 
   -0.45592E+05         0.15484E+05         0.00000E+00
    0.15484E+05         0.44977E+05         0.00000E+00
    0.00000E+00         0.00000E+00        -0.12294E+03
 
   -0.45047E+05         0.17802E+05         0.00000E+00
    0.17802E+05         0.44551E+05         0.00000E+00
    0.00000E+00         0.00000E+00        -0.99139E+02
 
   -0.44479E+05         0.20099E+05         0.00000E+00
    0.20099E+05         0.44082E+05         0.00000E+00
    0.00000E+00         0.00000E+00        -0.79538E+02
 
   -0.43889E+05         0.22375E+05         0.00000E+00
    0.22375E+05         0.43572E+05         0.00000E+00
    0.00000E+00         0.00000E+00        -0.63430E+02
 
   -0.43274E+05         0.24628E+05         0.00000E+00
    0.24628E+05         0.43023E+05         0.00000E+00
    0.00000E+00         0.00000E+00        -0.50221E+02
 
   -0.42636E+05         0.26857E+05         0.00000E+00
    0.26857E+05         0.42438E+05         0.00000E+00
    0.00000E+00         0.00000E+00        -0.39405E+02
 
   -0.41972E+05         0.29062E+05         0.00000E+00
    0.29062E+05         0.41819E+05         0.00000E+00
    0.00000E+00         0.00000E+00        -0.30560E+02
 
   -0.41283E+05         0.31240E+05         0.00000E+00
    0.31240E+05         0.41167E+05         0.00000E+00
    0.00000E+00         0.00000E+00        -0.23332E+02
 
   -0.40570E+05         0.33392E+05         0.00000E+00
    0.33392E+05         0.40483E+05         0.00000E+00
    0.00000E+00         0.00000E+00        -0.17423E+02
 
   -0.39830E+05         0.35516E+05         0.00000E+00
    0.35516E+05         0.39767E+05         0.00000E+00
    0.00000E+00         0.00000E+00        -0.12587E+02
 
   -0.39065E+05         0.37611E+05         0.00000E+00
    0.37611E+05         0.39022E+05         0.00000E+00
    0.00000E+00         0.00000E+00        -0.86177E+01
 
   -0.38275E+05         0.39676E+05         0.00000E+00
    0.39676E+05         0.38248E+05         0.00000E+00
    0.00000E+00         0.00000E+00        -0.53415E+01
 
   -0.37458E+05         0.41710E+05         0.00000E+00
    0.41710E+05         0.37445E+05         0.00000E+00
    0.00000E+00         0.00000E+00        -0.26128E+01
 
   -0.36616E+05         0.43713E+05         0.00000E+00
    0.43713E+05         0.36615E+05         0.00000E+00
    0.00000E+00         0.00000E+00        -0.30781E+00
 
   -0.35748E+05         0.45682E+05         0.00000E+00
    0.45682E+05         0.35757E+05         0.00000E+00
    0.00000E+00         0.00000E+00         0.16805E+01
 
   -0.34855E+05         0.47617E+05         0.00000E+00
    0.47617E+05         0.34872E+05         0.00000E+00
    0.00000E+00         0.00000E+00         0.34462E+01
 
   -0.33936E+05         0.49518E+05         0.00000E+00
    0.49518E+05         0.33961E+05         0.00000E+00
    0.00000E+00         0.00000E+00         0.50747E+01
 
   -0.32991E+05         0.51382E+05         0.00000E+00
    0.51382E+05         0.33024E+05         0.00000E+00
    0.00000E+00         0.00000E+00         0.66459E+01
 
   -0.32021E+05         0.53210E+05         0.00000E+00
    0.53210E+05         0.32062E+05         0.00000E+00
    0.00000E+00         0.00000E+00         0.82379E+01
 
   -0.31026E+05         0.54999E+05         0.00000E+00
    0.54999E+05         0.31076E+05         0.00000E+00
    0.00000E+00         0.00000E+00         0.99304E+01
 
   -0.30006E+05         0.56750E+05         0.00000E+00
    0.56750E+05         0.30065E+05         0.00000E+00
    0.00000E+00         0.00000E+00         0.11808E+02
 
   -0.28962E+05         0.58461E+05         0.00000E+00
    0.58461E+05         0.29031E+05         0.00000E+00
    0.00000E+00         0.00000E+00         0.13963E+02
 
   -0.27892E+05         0.60131E+05         0.00000E+00
    0.60131E+05         0.27975E+05         0.00000E+00
    0.00000E+00         0.00000E+00         0.16502E+02
 
   -0.26799E+05         0.61759E+05         0.00000E+00
    0.61759E+05         0.26897E+05         0.00000E+00
    0.00000E+00         0.00000E+00         0.19546E+02
 
   -0.25681E+05         0.63345E+05         0.00000E+00
    0.63345E+05         0.25797E+05         0.00000E+00
    0.00000E+00         0.00000E+00         0.23241E+02
 
   -0.24540E+05         0.64887E+05         0.00000E+00
    0.64887E+05         0.24678E+05         0.00000E+00
    0.00000E+00         0.00000E+00         0.27759E+02
 
   -0.23374E+05         0.66385E+05         0.00000E+00
    0.66385E+05         0.23541E+05         0.00000E+00
    0.00000E+00         0.00000E+00         0.33307E+02
 
   -0.22185E+05         0.67837E+05         0.00000E+00
    0.67837E+05         0.22386E+05         0.00000E+00
    0.00000E+00         0.00000E+00         0.40136E+02
 
   -0.20973E+05         0.69243E+05         0.00000E+00
    0.69243E+05         0.21216E+05         0.00000E+00
    0.00000E+00         0.00000E+00         0.48546E+02
 
   -0.19737E+05         0.70602E+05         0.00000E+00
    0.70602E+05         0.20032E+05         0.00000E+00
    0.00000E+00         0.00000E+00         0.58905E+02
 
   -0.18479E+05         0.71913E+05         0.00000E+00
    0.71913E+05         0.18837E+05         0.00000E+00
    0.00000E+00         0.00000E+00         0.71654E+02
 
   -0.17197E+05         0.73176E+05         0.00000E+00
    0.73176E+05         0.17633E+05         0.00000E+00
    0.00000E+00         0.00000E+00         0.87326E+02
 
   -0.15891E+05         0.74390E+05         0.00000E+00
    0.74390E+05         0.16424E+05         0.00000E+00
    0.00000E+00         0.00000E+00         0.10656E+03
 
   -0.14563E+05         0.75554E+05         0.00000E+00
    0.75554E+05         0.15213E+05         0.00000E+00
    0.00000E+00         0.00000E+00         0.13014E+03
 
   -0.13210E+05         0.76668E+05         0.00000E+00
    0.76668E+05         0.14005E+05         0.00000E+00
    0.00000E+00         0.00000E+00         0.15897E+03
 
   -0.11833E+05         0.77731E+05         0.00000E+00
    0.77731E+05         0.12804E+05         0.00000E+00
    0.00000E+00         0.00000E+00         0.19416E+03
 
   -0.10431E+05         0.78743E+05         0.00000E+00
    0.78743E+05         0.11616E+05         0.00000E+00
    0.00000E+00         0.00000E+00         0.23701E+03
 
   -0.90038E+04         0.79704E+05         0.00000E+00
    0.79704E+05         0.10449E+05         0.00000E+00
    0.00000E+00         0.00000E+00         0.28906E+03
 
   -0.75494E+04         0.80614E+05         0.00000E+00
    0.80614E+05         0.93098E+04         0.00000E+00
    0.00000E+00         0.00000E+00         0.35209E+03
 
   -0.60667E+04         0.81474E+05         0.00000E+00
    0.81474E+05         0.82078E+04         0.00000E+00
    0.00000E+00         0.00000E+00         0.42821E+03
 
   -0.45542E+04         0.82282E+05         0.00000E+00
    0.82282E+05         0.71532E+04         0.00000E+00
    0.00000E+00         0.00000E+00         0.51979E+03
 
   -0.30099E+04         0.83041E+05         0.00000E+00
    0.83041E+05         0.61578E+04         0.00000E+00
    0.00000E+00         0.00000E+00         0.62958E+03
 
   -0.14315E+04         0.83751E+05         0.00000E+00
    0.83751E+05         0.52345E+04         0.00000E+00
    0.00000E+00         0.00000E+00         0.76060E+03
 
    0.18357E+03         0.84414E+05         0.00000E+00
    0.84414E+05         0.43974E+04         0.00000E+00
    0.00000E+00         0.00000E+00         0.91620E+03
 
   -0.42383E+05         0.11771E+04         0.00000E+00
    0.11771E+04         0.40578E+05         0.00000E+00
    0.00000E+00         0.00000E+00        -0.36089E+03
 
   -0.42001E+05         0.35070E+04         0.00000E+00
    0.35070E+04         0.40510E+05         0.00000E+00
    0.00000E+00         0.00000E+00        -0.29824E+03
 
   -0.41606E+05         0.58244E+04         0.00000E+00
    0.58244E+04         0.40379E+05         0.00000E+00
    0.00000E+00         0.00000E+00        -0.24549E+03
 
   -0.41196E+05         0.81279E+04         0.00000E+00
    0.81279E+04         0.40189E+05         0.00000E+00
    0.00000E+00         0.00000E+00        -0.20129E+03
 
   -0.40769E+05         0.10416E+05         0.00000E+00
    0.10416E+05         0.39947E+05         0.00000E+00
    0.00000E+00         0.00000E+00        -0.16442E+03
 
   -0.40325E+05         0.12687E+05         0.00000E+00
    0.12687E+05         0.39656E+05         0.00000E+00
    0.00000E+00         0.00000E+00        -0.13377E+03
 
   -0.39863E+05         0.14940E+05         0.00000E+00
    0.14940E+05         0.39321E+05         0.00000E+00
    0.00000E+00         0.00000E+00        -0.10839E+03
 
   -0.39382E+05         0.17174E+05         0.00000E+00
    0.17174E+05         0.38945E+05         0.00000E+00
    0.00000E+00         0.00000E+00        -0.87423E+02
 
   -0.38881E+05         0.19388E+05         0.00000E+00
    0.19388E+05         0.38530E+05         0.00000E+00
    0.00000E+00         0.00000E+00        -0.70154E+02
 
   -0.38359E+05         0.21580E+05         0.00000E+00
    0.21580E+05         0.38079E+05         0.00000E+00
    0.00000E+00         0.00000E+00        -0.55962E+02
 
   -0.37816E+05         0.23750E+05         0.00000E+00
    0.23750E+05         0.37595E+05         0.00000E+00
    0.00000E+00         0.00000E+00        -0.44321E+02
 
   -0.37253E+05         0.25895E+05         0.00000E+00
    0.25895E+05         0.37079E+05         0.00000E+00
    0.00000E+00         0.00000E+00        -0.34789E+02
 
   -0.36667E+05         0.28017E+05         0.00000E+00
    0.28017E+05         0.36532E+05         0.00000E+00
    0.00000E+00         0.00000E+00        -0.26993E+02
 
   -0.36060E+05         0.30112E+05         0.00000E+00
    0.30112E+05         0.35957E+05         0.00000E+00
    0.00000E+00         0.00000E+00        -0.20621E+02
 
   -0.35430E+05         0.32181E+05         0.00000E+00
    0.32181E+05         0.35353E+05         0.00000E+00
    0.00000E+00         0.00000E+00        -0.15412E+02
 
   -0.34779E+05         0.34223E+05         0.00000E+00
    0.34223E+05         0.34723E+05         0.00000E+00
    0.00000E+00         0.00000E+00        -0.11149E+02
 
   -0.34105E+05         0.36236E+05         0.00000E+00
    0.36236E+05         0.34066E+05         0.00000E+00
    0.00000E+00         0.00000E+00        -0.76495E+01
 
   -0.33408E+05         0.38219E+05         0.00000E+00
    0.38219E+05         0.33385E+05         0.00000E+00
    0.00000E+00         0.00000E+00        -0.47616E+01
 
   -0.32690E+05         0.40172E+05         0.00000E+00
    0.40172E+05         0.32678E+05         0.00000E+00
    0.00000E+00         0.00000E+00        -0.23571E+01
 
   -0.31949E+05         0.42094E+05         0.00000E+00
    0.42094E+05         0.31947E+05         0.00000E+00
    0.00000E+00         0.00000E+00        -0.32703E+00
 
   -0.31186E+05         0.43983E+05         0.00000E+00
    0.43983E+05         0.31193E+05         0.00000E+00
    0.00000E+00         0.00000E+00         0.14225E+01
 
   -0.30400E+05         0.45839E+05         0.00000E+00
    0.45839E+05         0.30415E+05         0.00000E+00
    0.00000E+00         0.00000E+00         0.29742E+01
 
   -0.29593E+05         0.47661E+05         0.00000E+00
    0.47661E+05         0.29615E+05         0.00000E+00
    0.00000E+00         0.00000E+00         0.44028E+01
 
   -0.28763E+05         0.49447E+05         0.00000E+00
    0.49447E+05         0.28792E+05         0.00000E+00
    0.00000E+00         0.00000E+00         0.57783E+01
 
   -0.27912E+05         0.51198E+05         0.00000E+00
    0.51198E+05         0.27948E+05         0.00000E+00
    0.00000E+00         0.00000E+00         0.71690E+01
 
   -0.27039E+05         0.52911E+05         0.00000E+00
    0.52911E+05         0.27083E+05         0.00000E+00
    0.00000E+00         0.00000E+00         0.86443E+01
 
   -0.26145E+05         0.54587E+05         0.00000E+00
    0.54587E+05         0.26196E+05         0.00000E+00
    0.00000E+00         0.00000E+00         0.10278E+02
 
   -0.25229E+05         0.56224E+05         0.00000E+00
    0.56224E+05         0.25290E+05         0.00000E+00
    0.00000E+00         0.00000E+00         0.12150E+02
 
   -0.24293E+05         0.57822E+05         0.00000E+00
    0.57822E+05         0.24365E+05         0.00000E+00
    0.00000E+00         0.00000E+00         0.14353E+02
 
   -0.23335E+05         0.59379E+05         0.00000E+00
    0.59379E+05         0.23420E+05         0.00000E+00
    0.00000E+00         0.00000E+00         0.16993E+02
 
   -0.22357E+05         0.60894E+05         0.00000E+00
    0.60894E+05         0.22458E+05         0.00000E+00
    0.00000E+00         0.00000E+00         0.20196E+02
 
   -0.21359E+05         0.62368E+05         0.00000E+00
    0.62368E+05         0.21479E+05         0.00000E+00
    0.00000E+00         0.00000E+00         0.24110E+02
 
   -0.20340E+05         0.63798E+05         0.00000E+00
    0.63798E+05         0.20484E+05         0.00000E+00
    0.00000E+00         0.00000E+00         0.28916E+02
 
   -0.19301E+05         0.65185E+05         0.00000E+00
    0.65185E+05         0.19475E+05         0.00000E+00
    0.00000E+00         0.00000E+00         0.34830E+02
 
   -0.18242E+05         0.66527E+05         0.00000E+00
    0.66527E+05         0.18453E+05         0.00000E+00
    0.00000E+00         0.00000E+00         0.42115E+02
 
   -0.17164E+05         0.67824E+05         0.00000E+00
    0.67824E+05         0.17419E+05         0.00000E+00
    0.00000E+00         0.00000E+00         0.51086E+02
 
   -0.16065E+05         0.69075E+05         0.00000E+00
    0.69075E+05         0.16376E+05         0.00000E+00
    0.00000E+00         0.00000E+00         0.62129E+02
 
   -0.14947E+05         0.70279E+05         0.00000E+00
    0.70279E+05         0.15326E+05         0.00000E+00
    0.00000E+00         0.00000E+00         0.75703E+02
 
   -0.13810E+05         0.71437E+05         0.00000E+00
    0.71437E+05         0.14271E+05         0.00000E+00
    0.00000E+00         0.00000E+00         0.92367E+02
 
   -0.12652E+05         0.72547E+05         0.00000E+00
    0.72547E+05         0.13216E+05         0.00000E+00
    0.00000E+00         0.00000E+00         0.11279E+03
 
   -0.11474E+05         0.73608E+05         0.00000E+00
    0.73608E+05         0.12163E+05         0.00000E+00
    0.00000E+00         0.00000E+00         0.13776E+03
 
   -0.10276E+05         0.74622E+05         0.00000E+00
    0.74622E+05         0.11117E+05         0.00000E+00
    0.00000E+00         0.00000E+00         0.16825E+03
 
   -0.90565E+04         0.75587E+05         0.00000E+00
    0.75587E+05         0.10083E+05         0.00000E+00
    0.00000E+00         0.00000E+00         0.20537E+03
 
   -0.78153E+04         0.76503E+05         0.00000E+00
    0.76503E+05         0.90676E+04         0.00000E+00
    0.00000E+00         0.00000E+00         0.25046E+03
 
   -0.65514E+04         0.77370E+05         0.00000E+00
    0.77370E+05         0.80767E+04         0.00000E+00
    0.00000E+00         0.00000E+00         0.30508E+03
 
   -0.52636E+04         0.78190E+05         0.00000E+00
    0.78190E+05         0.71187E+04         0.00000E+00
    0.00000E+00         0.00000E+00         0.37102E+03
 
   -0.39505E+04         0.78961E+05         0.00000E+00
    0.78961E+05         0.62024E+04         0.00000E+00
    0.00000E+00         0.00000E+00         0.45038E+03
 
   -0.26104E+04         0.79685E+05         0.00000E+00
    0.79685E+05         0.53379E+04         0.00000E+00
    0.00000E+00         0.00000E+00         0.54551E+03
 
   -0.12413E+04         0.80363E+05         0.00000E+00
    0.80363E+05         0.45366E+04         0.00000E+00
    0.00000E+00         0.00000E+00         0.65904E+03
 
    0.15883E+03         0.80996E+05         0.00000E+00
    0.80996E+05         0.38106E+04         0.00000E+00
    0.00000E+00         0.00000E+00         0.79388E+03
 
   -0.36516E+05         0.11400E+04         0.00000E+00
    0.11400E+04         0.34955E+05         0.00000E+00
    0.00000E+00         0.00000E+00        -0.31217E+03
 
   -0.36186E+05         0.33959E+04         0.00000E+00
    0.33959E+04         0.34896E+05         0.00000E+00
    0.00000E+00         0.00000E+00        -0.25800E+03
 
   -0.35843E+05         0.56394E+04         0.00000E+00
    0.56394E+04         0.34781E+05         0.00000E+00
    0.00000E+00         0.00000E+00        -0.21239E+03
 
   -0.35488E+05         0.78690E+04         0.00000E+00
    0.78690E+04         0.34617E+05         0.00000E+00
    0.00000E+00         0.00000E+00        -0.17417E+03
 
   -0.35117E+05         0.10083E+05         0.00000E+00
    0.10083E+05         0.34406E+05         0.00000E+00
    0.00000E+00         0.00000E+00        -0.14228E+03
 
   -0.34732E+05         0.12281E+05         0.00000E+00
    0.12281E+05         0.34153E+05         0.00000E+00
    0.00000E+00         0.00000E+00        -0.11577E+03
 
   -0.34331E+05         0.14461E+05         0.00000E+00
    0.14461E+05         0.33862E+05         0.00000E+00
    0.00000E+00         0.00000E+00        -0.93814E+02
 
   -0.33913E+05         0.16621E+05         0.00000E+00
    0.16621E+05         0.33535E+05         0.00000E+00
    0.00000E+00         0.00000E+00        -0.75678E+02
 
   -0.33478E+05         0.18762E+05         0.00000E+00
    0.18762E+05         0.33174E+05         0.00000E+00
    0.00000E+00         0.00000E+00        -0.60738E+02
 
   -0.33025E+05         0.20881E+05         0.00000E+00
    0.20881E+05         0.32782E+05         0.00000E+00
    0.00000E+00         0.00000E+00        -0.48459E+02
 
   -0.32554E+05         0.22977E+05         0.00000E+00
    0.22977E+05         0.32362E+05         0.00000E+00
    0.00000E+00         0.00000E+00        -0.38387E+02
 
   -0.32064E+05         0.25050E+05         0.00000E+00
    0.25050E+05         0.31913E+05         0.00000E+00
    0.00000E+00         0.00000E+00        -0.30139E+02
 
   -0.31556E+05         0.27099E+05         0.00000E+00
    0.27099E+05         0.31439E+05         0.00000E+00
    0.00000E+00         0.00000E+00        -0.23392E+02
 
   -0.31029E+05         0.29123E+05         0.00000E+00
    0.29123E+05         0.30939E+05         0.00000E+00
    0.00000E+00         0.00000E+00        -0.17878E+02
 
   -0.30483E+05         0.31120E+05         0.00000E+00
    0.31120E+05         0.30416E+05         0.00000E+00
    0.00000E+00         0.00000E+00        -0.13370E+02
 
   -0.29917E+05         0.33090E+05         0.00000E+00
    0.33090E+05         0.29869E+05         0.00000E+00
    0.00000E+00         0.00000E+00        -0.96805E+01
 
   -0.29333E+05         0.35032E+05         0.00000E+00
    0.35032E+05         0.29300E+05         0.00000E+00
    0.00000E+00         0.00000E+00        -0.66523E+01
 
   -0.28730E+05         0.36944E+05         0.00000E+00
    0.36944E+05         0.28709E+05         0.00000E+00
    0.00000E+00         0.00000E+00        -0.41538E+01
 
   -0.28107E+05         0.38827E+05         0.00000E+00
    0.38827E+05         0.28097E+05         0.00000E+00
    0.00000E+00         0.00000E+00        -0.20742E+01
 
   -0.27465E+05         0.40679E+05         0.00000E+00
    0.40679E+05         0.27464E+05         0.00000E+00
    0.00000E+00         0.00000E+00        -0.31931E+00
 
   -0.26805E+05         0.42499E+05         0.00000E+00
    0.42499E+05         0.26811E+05         0.00000E+00
    0.00000E+00         0.00000E+00         0.11919E+01
 
   -0.26125E+05         0.44286E+05         0.00000E+00
    0.44286E+05         0.26138E+05         0.00000E+00
    0.00000E+00         0.00000E+00         0.25308E+01
 
   -0.25427E+05         0.46040E+05         0.00000E+00
    0.46040E+05         0.25446E+05         0.00000E+00
    0.00000E+00         0.00000E+00         0.37619E+01
 
   -0.24710E+05         0.47760E+05         0.00000E+00
    0.47760E+05         0.24734E+05         0.00000E+00
    0.00000E+00         0.00000E+00         0.49453E+01
 
   -0.23974E+05         0.49444E+05         0.00000E+00
    0.49444E+05         0.24005E+05         0.00000E+00
    0.00000E+00         0.00000E+00         0.61398E+01
 
   -0.23220E+05         0.51093E+05         0.00000E+00
    0.51093E+05         0.23257E+05         0.00000E+00
    0.00000E+00         0.00000E+00         0.74049E+01
 
   -0.22448E+05         0.52704E+05         0.00000E+00
    0.52704E+05         0.22492E+05         0.00000E+00
    0.00000E+00         0.00000E+00         0.88038E+01
 
   -0.21658E+05         0.54278E+05         0.00000E+00
    0.54278E+05         0.21710E+05         0.00000E+00
    0.00000E+00         0.00000E+00         0.10406E+02
 
   -0.20850E+05         0.55813E+05         0.00000E+00
    0.55813E+05         0.20911E+05         0.00000E+00
    0.00000E+00         0.00000E+00         0.12289E+02
 
   -0.20024E+05         0.57309E+05         0.00000E+00
    0.57309E+05         0.20097E+05         0.00000E+00
    0.00000E+00         0.00000E+00         0.14545E+02
 
   -0.19181E+05         0.58765E+05         0.00000E+00
    0.58765E+05         0.19267E+05         0.00000E+00
    0.00000E+00         0.00000E+00         0.17281E+02
 
   -0.18321E+05         0.60180E+05         0.00000E+00
    0.60180E+05         0.18424E+05         0.00000E+00
    0.00000E+00         0.00000E+00         0.20624E+02
 
   -0.17443E+05         0.61553E+05         0.00000E+00
    0.61553E+05         0.17567E+05         0.00000E+00
    0.00000E+00         0.00000E+00         0.24728E+02
 
   -0.16549E+05         0.62884E+05         0.00000E+00
    0.62884E+05         0.16698E+05         0.00000E+00
    0.00000E+00         0.00000E+00         0.29779E+02
 
   -0.15638E+05         0.64172E+05         0.00000E+00
    0.64172E+05         0.15818E+05         0.00000E+00
    0.00000E+00         0.00000E+00         0.35999E+02
 
   -0.14711E+05         0.65416E+05         0.00000E+00
    0.65416E+05         0.14929E+05         0.00000E+00
    0.00000E+00         0.00000E+00         0.43661E+02
 
   -0.13767E+05         0.66616E+05         0.00000E+00
    0.66616E+05         0.14032E+05         0.00000E+00
    0.00000E+00         0.00000E+00         0.53091E+02
 
   -0.12806E+05         0.67771E+05         0.00000E+00
    0.67771E+05         0.13129E+05         0.00000E+00
    0.00000E+00         0.00000E+00         0.64685E+02
 
   -0.11829E+05         0.68881E+05         0.00000E+00
    0.68881E+05         0.12223E+05         0.00000E+00
    0.00000E+00         0.00000E+00         0.78918E+02
 
   -0.10835E+05         0.69945E+05         0.00000E+00
    0.69945E+05         0.11317E+05         0.00000E+00
    0.00000E+00         0.00000E+00         0.96360E+02
 
   -0.98244E+04         0.70963E+05         0.00000E+00
    0.70963E+05         0.10413E+05         0.00000E+00
    0.00000E+00         0.00000E+00         0.11769E+03
 
   -0.87966E+04         0.71934E+05         0.00000E+00
    0.71934E+05         0.95153E+04         0.00000E+00
    0.00000E+00         0.00000E+00         0.14374E+03
 
   -0.77512E+04         0.72860E+05         0.00000E+00
    0.72860E+05         0.86284E+04         0.00000E+00
    0.00000E+00         0.00000E+00         0.17545E+03
 
   -0.66876E+04         0.73738E+05         0.00000E+00
    0.73738E+05         0.77574E+04         0.00000E+00
    0.00000E+00         0.00000E+00         0.21397E+03
 
   -0.56050E+04         0.74571E+05         0.00000E+00
    0.74571E+05         0.69081E+04         0.00000E+00
    0.00000E+00         0.00000E+00         0.26063E+03
 
   -0.45024E+04         0.75357E+05         0.00000E+00
    0.75357E+05         0.60872E+04         0.00000E+00
    0.00000E+00         0.00000E+00         0.31697E+03
 
   -0.33786E+04         0.76097E+05         0.00000E+00
    0.76097E+05         0.53024E+04         0.00000E+00
    0.00000E+00         0.00000E+00         0.38477E+03
 
   -0.22322E+04         0.76792E+05         0.00000E+00
    0.76792E+05         0.45624E+04         0.00000E+00
    0.00000E+00         0.00000E+00         0.46605E+03
 
   -0.10614E+04         0.77444E+05         0.00000E+00
    0.77444E+05         0.38767E+04         0.00000E+00
    0.00000E+00         0.00000E+00         0.56306E+03
 
    0.13551E+03         0.78052E+05         0.00000E+00
    0.78052E+05         0.32559E+04         0.00000E+00
    0.00000E+00         0.00000E+00         0.67828E+03
 
   -0.30824E+05         0.11076E+04         0.00000E+00
    0.11076E+04         0.29503E+05         0.00000E+00
    0.00000E+00         0.00000E+00        -0.26409E+03
 
   -0.30544E+05         0.32992E+04         0.00000E+00
    0.32992E+04         0.29453E+05         0.00000E+00
    0.00000E+00         0.00000E+00        -0.21828E+03
 
   -0.30254E+05         0.54785E+04         0.00000E+00
    0.54785E+04         0.29356E+05         0.00000E+00
    0.00000E+00         0.00000E+00        -0.17970E+03
 
   -0.29952E+05         0.76441E+04         0.00000E+00
    0.76441E+04         0.29216E+05         0.00000E+00
    0.00000E+00         0.00000E+00        -0.14737E+03
 
   -0.29638E+05         0.97946E+04         0.00000E+00
    0.97946E+04         0.29036E+05         0.00000E+00
    0.00000E+00         0.00000E+00        -0.12039E+03
 
   -0.29311E+05         0.11929E+05         0.00000E+00
    0.11929E+05         0.28821E+05         0.00000E+00
    0.00000E+00         0.00000E+00        -0.97972E+02
 
   -0.28970E+05         0.14045E+05         0.00000E+00
    0.14045E+05         0.28573E+05         0.00000E+00
    0.00000E+00         0.00000E+00        -0.79397E+02
 
   -0.28615E+05         0.16142E+05         0.00000E+00
    0.16142E+05         0.28295E+05         0.00000E+00
    0.00000E+00         0.00000E+00        -0.64053E+02
 
   -0.28245E+05         0.18220E+05         0.00000E+00
    0.18220E+05         0.27988E+05         0.00000E+00
    0.00000E+00         0.00000E+00        -0.51413E+02
 
   -0.27860E+05         0.20276E+05         0.00000E+00
    0.20276E+05         0.27655E+05         0.00000E+00
    0.00000E+00         0.00000E+00        -0.41024E+02
 
   -0.27460E+05         0.22310E+05         0.00000E+00
    0.22310E+05         0.27298E+05         0.00000E+00
    0.00000E+00         0.00000E+00        -0.32501E+02
 
   -0.27044E+05         0.24321E+05         0.00000E+00
    0.24321E+05         0.26917E+05         0.00000E+00
    0.00000E+00         0.00000E+00        -0.25522E+02
 
   -0.26612E+05         0.26308E+05         0.00000E+00
    0.26308E+05         0.26513E+05         0.00000E+00
    0.00000E+00         0.00000E+00        -0.19813E+02
 
   -0.26165E+05         0.28269E+05         0.00000E+00
    0.28269E+05         0.26089E+05         0.00000E+00
    0.00000E+00         0.00000E+00        -0.15147E+02
 
   -0.25701E+05         0.30205E+05         0.00000E+00
    0.30205E+05         0.25644E+05         0.00000E+00
    0.00000E+00         0.00000E+00        -0.11332E+02
 
   -0.25221E+05         0.32114E+05         0.00000E+00
    0.32114E+05         0.25180E+05         0.00000E+00
    0.00000E+00         0.00000E+00        -0.82107E+01
 
   -0.24725E+05         0.33995E+05         0.00000E+00
    0.33995E+05         0.24697E+05         0.00000E+00
    0.00000E+00         0.00000E+00        -0.56488E+01
 
   -0.24213E+05         0.35848E+05         0.00000E+00
    0.35848E+05         0.24195E+05         0.00000E+00
    0.00000E+00         0.00000E+00        -0.35354E+01
 
   -0.23685E+05         0.37671E+05         0.00000E+00
    0.37671E+05         0.23676E+05         0.00000E+00
    0.00000E+00         0.00000E+00        -0.17768E+01
 
   -0.23141E+05         0.39464E+05         0.00000E+00
    0.39464E+05         0.23139E+05         0.00000E+00
    0.00000E+00         0.00000E+00        -0.29356E+00
 
   -0.22581E+05         0.41225E+05         0.00000E+00
    0.41225E+05         0.22586E+05         0.00000E+00
    0.00000E+00         0.00000E+00         0.98292E+00
 
   -0.22005E+05         0.42955E+05         0.00000E+00
    0.42955E+05         0.22016E+05         0.00000E+00
    0.00000E+00         0.00000E+00         0.21128E+01
 
   -0.21413E+05         0.44651E+05         0.00000E+00
    0.44651E+05         0.21429E+05         0.00000E+00
    0.00000E+00         0.00000E+00         0.31506E+01
 
   -0.20806E+05         0.46314E+05         0.00000E+00
    0.46314E+05         0.20827E+05         0.00000E+00
    0.00000E+00         0.00000E+00         0.41470E+01
 
   -0.20184E+05         0.47943E+05         0.00000E+00
    0.47943E+05         0.20209E+05         0.00000E+00
    0.00000E+00         0.00000E+00         0.51514E+01
 
   -0.19546E+05         0.49536E+05         0.00000E+00
    0.49536E+05         0.19577E+05         0.00000E+00
    0.00000E+00         0.00000E+00         0.62140E+01
 
   -0.18892E+05         0.51093E+05         0.00000E+00
    0.51093E+05         0.18929E+05         0.00000E+00
    0.00000E+00         0.00000E+00         0.73877E+01
 
   -0.18224E+05         0.52613E+05         0.00000E+00
    0.52613E+05         0.18268E+05         0.00000E+00
    0.00000E+00         0.00000E+00         0.87308E+01
 
   -0.17542E+05         0.54096E+05         0.00000E+00
    0.54096E+05         0.17593E+05         0.00000E+00
    0.00000E+00         0.00000E+00         0.10309E+02
 
   -0.16844E+05         0.55541E+05         0.00000E+00
    0.55541E+05         0.16905E+05         0.00000E+00
    0.00000E+00         0.00000E+00         0.12199E+02
 
   -0.16132E+05         0.56946E+05         0.00000E+00
    0.56946E+05         0.16205E+05         0.00000E+00
    0.00000E+00         0.00000E+00         0.14490E+02
 
   -0.15406E+05         0.58312E+05         0.00000E+00
    0.58312E+05         0.15492E+05         0.00000E+00
    0.00000E+00         0.00000E+00         0.17290E+02
 
   -0.14666E+05         0.59637E+05         0.00000E+00
    0.59637E+05         0.14769E+05         0.00000E+00
    0.00000E+00         0.00000E+00         0.20728E+02
 
   -0.13911E+05         0.60921E+05         0.00000E+00
    0.60921E+05         0.14036E+05         0.00000E+00
    0.00000E+00         0.00000E+00         0.24958E+02
 
   -0.13143E+05         0.62164E+05         0.00000E+00
    0.62164E+05         0.13294E+05         0.00000E+00
    0.00000E+00         0.00000E+00         0.30168E+02
 
   -0.12362E+05         0.63364E+05         0.00000E+00
    0.63364E+05         0.12544E+05         0.00000E+00
    0.00000E+00         0.00000E+00         0.36585E+02
 
   -0.11566E+05         0.64521E+05         0.00000E+00
    0.64521E+05         0.11789E+05         0.00000E+00
    0.00000E+00         0.00000E+00         0.44484E+02
 
   -0.10757E+05         0.65635E+05         0.00000E+00
    0.65635E+05         0.11028E+05         0.00000E+00
    0.00000E+00         0.00000E+00         0.54196E+02
 
   -0.99346E+04         0.66705E+05         0.00000E+00
    0.66705E+05         0.10265E+05         0.00000E+00
    0.00000E+00         0.00000E+00         0.66118E+02
 
   -0.90984E+04         0.67732E+05         0.00000E+00
    0.67732E+05         0.95020E+04         0.00000E+00
    0.00000E+00         0.00000E+00         0.80730E+02
 
   -0.82483E+04         0.68713E+05         0.00000E+00
    0.68713E+05         0.87413E+04         0.00000E+00
    0.00000E+00         0.00000E+00         0.98605E+02
 
   -0.73841E+04         0.69651E+05         0.00000E+00
    0.69651E+05         0.79862E+04         0.00000E+00
    0.00000E+00         0.00000E+00         0.12042E+03
 
   -0.65055E+04         0.70543E+05         0.00000E+00
    0.70543E+05         0.72405E+04         0.00000E+00
    0.00000E+00         0.00000E+00         0.14699E+03
 
   -0.56119E+04         0.71391E+05         0.00000E+00
    0.71391E+05         0.65082E+04         0.00000E+00
    0.00000E+00         0.00000E+00         0.17927E+03
 
   -0.47027E+04         0.72194E+05         0.00000E+00
    0.72194E+05         0.57945E+04         0.00000E+00
    0.00000E+00         0.00000E+00         0.21837E+03
 
   -0.37770E+04         0.72953E+05         0.00000E+00
    0.72953E+05         0.51049E+04         0.00000E+00
    0.00000E+00         0.00000E+00         0.26558E+03
 
   -0.28338E+04         0.73668E+05         0.00000E+00
    0.73668E+05         0.44458E+04         0.00000E+00
    0.00000E+00         0.00000E+00         0.32240E+03
 
   -0.18720E+04         0.74340E+05         0.00000E+00
    0.74340E+05         0.38246E+04         0.00000E+00
    0.00000E+00         0.00000E+00         0.39051E+03
 
   -0.89015E+03         0.74970E+05         0.00000E+00
    0.74970E+05         0.32493E+04         0.00000E+00
    0.00000E+00         0.00000E+00         0.47182E+03
 
    0.11337E+03         0.75559E+05         0.00000E+00
    0.75559E+05         0.27286E+04         0.00000E+00
    0.00000E+00         0.00000E+00         0.56839E+03
 
   -0.25283E+05         0.10801E+04         0.00000E+00
    0.10801E+04         0.24198E+05         0.00000E+00
    0.00000E+00         0.00000E+00        -0.21694E+03
 
   -0.25053E+05         0.32172E+04         0.00000E+00
    0.32172E+04         0.24157E+05         0.00000E+00
    0.00000E+00         0.00000E+00        -0.17932E+03
 
   -0.24814E+05         0.53422E+04         0.00000E+00
    0.53422E+04         0.24076E+05         0.00000E+00
    0.00000E+00         0.00000E+00        -0.14763E+03
 
   -0.24566E+05         0.74538E+04         0.00000E+00
    0.74538E+04         0.23960E+05         0.00000E+00
    0.00000E+00         0.00000E+00        -0.12107E+03
 
   -0.24307E+05         0.95504E+04         0.00000E+00
    0.95504E+04         0.23812E+05         0.00000E+00
    0.00000E+00         0.00000E+00        -0.98916E+02
 
   -0.24037E+05         0.11631E+05         0.00000E+00
    0.11631E+05         0.23635E+05         0.00000E+00
    0.00000E+00         0.00000E+00        -0.80498E+02
 
   -0.23756E+05         0.13694E+05         0.00000E+00
    0.13694E+05         0.23430E+05         0.00000E+00
    0.00000E+00         0.00000E+00        -0.65239E+02
 
   -0.23463E+05         0.15738E+05         0.00000E+00
    0.15738E+05         0.23200E+05         0.00000E+00
    0.00000E+00         0.00000E+00        -0.52635E+02
 
   -0.23158E+05         0.17762E+05         0.00000E+00
    0.17762E+05         0.22947E+05         0.00000E+00
    0.00000E+00         0.00000E+00        -0.42250E+02
 
   -0.22841E+05         0.19766E+05         0.00000E+00
    0.19766E+05         0.22672E+05         0.00000E+00
    0.00000E+00         0.00000E+00        -0.33715E+02
 
   -0.22511E+05         0.21748E+05         0.00000E+00
    0.21748E+05         0.22377E+05         0.00000E+00
    0.00000E+00         0.00000E+00        -0.26714E+02
 
   -0.22168E+05         0.23706E+05         0.00000E+00
    0.23706E+05         0.22063E+05         0.00000E+00
    0.00000E+00         0.00000E+00        -0.20979E+02
 
   -0.21811E+05         0.25642E+05         0.00000E+00
    0.25642E+05         0.21730E+05         0.00000E+00
    0.00000E+00         0.00000E+00        -0.16289E+02
 
   -0.21442E+05         0.27552E+05         0.00000E+00
    0.27552E+05         0.21380E+05         0.00000E+00
    0.00000E+00         0.00000E+00        -0.12456E+02
 
   -0.21060E+05         0.29436E+05         0.00000E+00
    0.29436E+05         0.21013E+05         0.00000E+00
    0.00000E+00         0.00000E+00        -0.93219E+01
 
   -0.20664E+05         0.31295E+05         0.00000E+00
    0.31295E+05         0.20631E+05         0.00000E+00
    0.00000E+00         0.00000E+00        -0.67575E+01
 
   -0.20256E+05         0.33125E+05         0.00000E+00
    0.33125E+05         0.20232E+05         0.00000E+00
    0.00000E+00         0.00000E+00        -0.46531E+01
 
   -0.19834E+05         0.34928E+05         0.00000E+00
    0.34928E+05         0.19819E+05         0.00000E+00
    0.00000E+00         0.00000E+00        -0.29175E+01
 
   -0.19399E+05         0.36701E+05         0.00000E+00
    0.36701E+05         0.19391E+05         0.00000E+00
    0.00000E+00         0.00000E+00        -0.14737E+01
 
   -0.18951E+05         0.38445E+05         0.00000E+00
    0.38445E+05         0.18949E+05         0.00000E+00
    0.00000E+00         0.00000E+00        -0.25647E+00
 
   -0.18490E+05         0.40158E+05         0.00000E+00
    0.40158E+05         0.18494E+05         0.00000E+00
    0.00000E+00         0.00000E+00         0.79050E+00
 
   -0.18016E+05         0.41839E+05         0.00000E+00
    0.41839E+05         0.18024E+05         0.00000E+00
    0.00000E+00         0.00000E+00         0.17166E+01
 
   -0.17529E+05         0.43489E+05         0.00000E+00
    0.43489E+05         0.17542E+05         0.00000E+00
    0.00000E+00         0.00000E+00         0.25663E+01
 
   -0.17030E+05         0.45105E+05         0.00000E+00
    0.45105E+05         0.17046E+05         0.00000E+00
    0.00000E+00         0.00000E+00         0.33813E+01
 
   -0.16518E+05         0.46687E+05         0.00000E+00
    0.46687E+05         0.16539E+05         0.00000E+00
    0.00000E+00         0.00000E+00         0.42020E+01
 
   -0.15993E+05         0.48235E+05         0.00000E+00
    0.48235E+05         0.16019E+05         0.00000E+00
    0.00000E+00         0.00000E+00         0.50693E+01
 
   -0.15457E+05         0.49747E+05         0.00000E+00
    0.49747E+05         0.15487E+05         0.00000E+00
    0.00000E+00         0.00000E+00         0.60267E+01
 
   -0.14908E+05         0.51223E+05         0.00000E+00
    0.51223E+05         0.14943E+05         0.00000E+00
    0.00000E+00         0.00000E+00         0.71216E+01
 
   -0.14347E+05         0.52663E+05         0.00000E+00
    0.52663E+05         0.14389E+05         0.00000E+00
    0.00000E+00         0.00000E+00         0.84076E+01
 
   -0.13775E+05         0.54065E+05         0.00000E+00
    0.54065E+05         0.13824E+05         0.00000E+00
    0.00000E+00         0.00000E+00         0.99472E+01
 
   -0.13190E+05         0.55429E+05         0.00000E+00
    0.55429E+05         0.13250E+05         0.00000E+00
    0.00000E+00         0.00000E+00         0.11814E+02
 
   -0.12595E+05         0.56755E+05         0.00000E+00
    0.56755E+05         0.12665E+05         0.00000E+00
    0.00000E+00         0.00000E+00         0.14094E+02
 
   -0.11988E+05         0.58041E+05         0.00000E+00
    0.58041E+05         0.12072E+05         0.00000E+00
    0.00000E+00         0.00000E+00         0.16894E+02
 
   -0.11369E+05         0.59286E+05         0.00000E+00
    0.59286E+05         0.11471E+05         0.00000E+00
    0.00000E+00         0.00000E+00         0.20339E+02
 
   -0.10740E+05         0.60492E+05         0.00000E+00
    0.60492E+05         0.10863E+05         0.00000E+00
    0.00000E+00         0.00000E+00         0.24582E+02
 
   -0.10100E+05         0.61656E+05         0.00000E+00
    0.61656E+05         0.10249E+05         0.00000E+00
    0.00000E+00         0.00000E+00         0.29810E+02
 
   -0.94484E+04         0.62779E+05         0.00000E+00
    0.62779E+05         0.96296E+04         0.00000E+00
    0.00000E+00         0.00000E+00         0.36244E+02
 
   -0.87862E+04         0.63859E+05         0.00000E+00
    0.63859E+05         0.90070E+04         0.00000E+00
    0.00000E+00         0.00000E+00         0.44155E+02
 
   -0.81131E+04         0.64897E+05         0.00000E+00
    0.64897E+05         0.83825E+04         0.00000E+00
    0.00000E+00         0.00000E+00         0.53868E+02
 
   -0.74291E+04         0.65893E+05         0.00000E+00
    0.65893E+05         0.77580E+04         0.00000E+00
    0.00000E+00         0.00000E+00         0.65773E+02
 
   -0.67340E+04         0.66845E+05         0.00000E+00
    0.66845E+05         0.71357E+04         0.00000E+00
    0.00000E+00         0.00000E+00         0.80337E+02
 
   -0.60276E+04         0.67754E+05         0.00000E+00
    0.67754E+05         0.65181E+04         0.00000E+00
    0.00000E+00         0.00000E+00         0.98114E+02
 
   -0.53096E+04         0.68620E+05         0.00000E+00
    0.68620E+05         0.59084E+04         0.00000E+00
    0.00000E+00         0.00000E+00         0.11977E+03
 
   -0.45796E+04         0.69443E+05         0.00000E+00
    0.69443E+05         0.53099E+04         0.00000E+00
    0.00000E+00         0.00000E+00         0.14607E+03
 
   -0.38371E+04         0.70223E+05         0.00000E+00
    0.70223E+05         0.47267E+04         0.00000E+00
    0.00000E+00         0.00000E+00         0.17793E+03
 
   -0.30814E+04         0.70960E+05         0.00000E+00
    0.70960E+05         0.41634E+04         0.00000E+00
    0.00000E+00         0.00000E+00         0.21641E+03
 
   -0.23117E+04         0.71655E+05         0.00000E+00
    0.71655E+05         0.36252E+04         0.00000E+00
    0.00000E+00         0.00000E+00         0.26271E+03
 
   -0.15269E+04         0.72308E+05         0.00000E+00
    0.72308E+05         0.31181E+04         0.00000E+00
    0.00000E+00         0.00000E+00         0.31823E+03
 
   -0.72607E+03         0.72921E+05         0.00000E+00
    0.72921E+05         0.26486E+04         0.00000E+00
    0.00000E+00         0.00000E+00         0.38451E+03
 
    0.92235E+02         0.73495E+05         0.00000E+00
    0.73495E+05         0.22239E+04         0.00000E+00
    0.00000E+00         0.00000E+00         0.46323E+03
 
   -0.19869E+05         0.10576E+04         0.00000E+00
    0.10576E+04         0.19014E+05         0.00000E+00
    0.00000E+00         0.00000E+00        -0.17084E+03
 
   -0.19688E+05         0.31502E+04         0.00000E+00
    0.31502E+04         0.18981E+05         0.00000E+00
    0.00000E+00         0.00000E+00        -0.14121E+03
 
   -0.19499E+05         0.52310E+04         0.00000E+00
    0.52310E+04         0.18918E+05         0.00000E+00
    0.00000E+00         0.00000E+00        -0.11626E+03
 
   -0.19303E+05         0.72986E+04         0.00000E+00
    0.72986E+04         0.18826E+05         0.00000E+00
    0.00000E+00         0.00000E+00        -0.95351E+02
 
   -0.19099E+05         0.93514E+04         0.00000E+00
    0.93514E+04         0.18709E+05         0.00000E+00
    0.00000E+00         0.00000E+00        -0.77904E+02
 
   -0.18886E+05         0.11388E+05         0.00000E+00
    0.11388E+05         0.18569E+05         0.00000E+00
    0.00000E+00         0.00000E+00        -0.63400E+02
 
   -0.18664E+05         0.13408E+05         0.00000E+00
    0.13408E+05         0.18407E+05         0.00000E+00
    0.00000E+00         0.00000E+00        -0.51385E+02
 
   -0.18433E+05         0.15409E+05         0.00000E+00
    0.15409E+05         0.18225E+05         0.00000E+00
    0.00000E+00         0.00000E+00        -0.41459E+02
 
   -0.18192E+05         0.17391E+05         0.00000E+00
    0.17391E+05         0.18025E+05         0.00000E+00
    0.00000E+00         0.00000E+00        -0.33282E+02
 
   -0.17941E+05         0.19352E+05         0.00000E+00
    0.19352E+05         0.17808E+05         0.00000E+00
    0.00000E+00         0.00000E+00        -0.26560E+02
 
   -0.17680E+05         0.21291E+05         0.00000E+00
    0.21291E+05         0.17575E+05         0.00000E+00
    0.00000E+00         0.00000E+00        -0.21046E+02
 
   -0.17409E+05         0.23208E+05         0.00000E+00
    0.23208E+05         0.17327E+05         0.00000E+00
    0.00000E+00         0.00000E+00        -0.16531E+02
 
   -0.17128E+05         0.25101E+05         0.00000E+00
    0.25101E+05         0.17064E+05         0.00000E+00
    0.00000E+00         0.00000E+00        -0.12837E+02
 
   -0.16837E+05         0.26970E+05         0.00000E+00
    0.26970E+05         0.16787E+05         0.00000E+00
    0.00000E+00         0.00000E+00        -0.98178E+01
 
   -0.16535E+05         0.28813E+05         0.00000E+00
    0.28813E+05         0.16498E+05         0.00000E+00
    0.00000E+00         0.00000E+00        -0.73500E+01
 
   -0.16223E+05         0.30631E+05         0.00000E+00
    0.30631E+05         0.16196E+05         0.00000E+00
    0.00000E+00         0.00000E+00        -0.53305E+01
 
   -0.15900E+05         0.32421E+05         0.00000E+00
    0.32421E+05         0.15882E+05         0.00000E+00
    0.00000E+00         0.00000E+00        -0.36735E+01
 
   -0.15567E+05         0.34183E+05         0.00000E+00
    0.34183E+05         0.15556E+05         0.00000E+00
    0.00000E+00         0.00000E+00        -0.23071E+01
 
   -0.15224E+05         0.35917E+05         0.00000E+00
    0.35917E+05         0.15218E+05         0.00000E+00
    0.00000E+00         0.00000E+00        -0.11706E+01
 
   -0.14871E+05         0.37621E+05         0.00000E+00
    0.37621E+05         0.14870E+05         0.00000E+00
    0.00000E+00         0.00000E+00        -0.21285E+00
 
   -0.14507E+05         0.39295E+05         0.00000E+00
    0.39295E+05         0.14510E+05         0.00000E+00
    0.00000E+00         0.00000E+00         0.61052E+00
 
   -0.14134E+05         0.40938E+05         0.00000E+00
    0.40938E+05         0.14141E+05         0.00000E+00
    0.00000E+00         0.00000E+00         0.13383E+01
 
   -0.13750E+05         0.42549E+05         0.00000E+00
    0.42549E+05         0.13760E+05         0.00000E+00
    0.00000E+00         0.00000E+00         0.20055E+01
 
   -0.13357E+05         0.44128E+05         0.00000E+00
    0.44128E+05         0.13370E+05         0.00000E+00
    0.00000E+00         0.00000E+00         0.26447E+01
 
   -0.12954E+05         0.45673E+05         0.00000E+00
    0.45673E+05         0.12970E+05         0.00000E+00
    0.00000E+00         0.00000E+00         0.32877E+01
 
   -0.12541E+05         0.47185E+05         0.00000E+00
    0.47185E+05         0.12561E+05         0.00000E+00
    0.00000E+00         0.00000E+00         0.39666E+01
 
   -0.12119E+05         0.48662E+05         0.00000E+00
    0.48662E+05         0.12142E+05         0.00000E+00
    0.00000E+00         0.00000E+00         0.47152E+01
 
   -0.11687E+05         0.50103E+05         0.00000E+00
    0.50103E+05         0.11715E+05         0.00000E+00
    0.00000E+00         0.00000E+00         0.55709E+01
 
   -0.11246E+05         0.51508E+05         0.00000E+00
    0.51508E+05         0.11279E+05         0.00000E+00
    0.00000E+00         0.00000E+00         0.65755E+01
 
   -0.10796E+05         0.52877E+05         0.00000E+00
    0.52877E+05         0.10835E+05         0.00000E+00
    0.00000E+00         0.00000E+00         0.77777E+01
 
   -0.10337E+05         0.54208E+05         0.00000E+00
    0.54208E+05         0.10383E+05         0.00000E+00
    0.00000E+00         0.00000E+00         0.92349E+01
 
   -0.98685E+04         0.55501E+05         0.00000E+00
    0.55501E+05         0.99236E+04         0.00000E+00
    0.00000E+00         0.00000E+00         0.11015E+02
 
   -0.93916E+04         0.56756E+05         0.00000E+00
    0.56756E+05         0.94576E+04         0.00000E+00
    0.00000E+00         0.00000E+00         0.13201E+02
 
   -0.89060E+04         0.57972E+05         0.00000E+00
    0.57972E+05         0.89855E+04         0.00000E+00
    0.00000E+00         0.00000E+00         0.15890E+02
 
   -0.84119E+04         0.59148E+05         0.00000E+00
    0.59148E+05         0.85079E+04         0.00000E+00
    0.00000E+00         0.00000E+00         0.19203E+02
 
   -0.79093E+04         0.60283E+05         0.00000E+00
    0.60283E+05         0.80257E+04         0.00000E+00
    0.00000E+00         0.00000E+00         0.23284E+02
 
   -0.73982E+04         0.61379E+05         0.00000E+00
    0.61379E+05         0.75397E+04         0.00000E+00
    0.00000E+00         0.00000E+00         0.28308E+02
 
   -0.68788E+04         0.62433E+05         0.00000E+00
    0.62433E+05         0.70512E+04         0.00000E+00
    0.00000E+00         0.00000E+00         0.34485E+02
 
   -0.63509E+04         0.63446E+05         0.00000E+00
    0.63446E+05         0.65613E+04         0.00000E+00
    0.00000E+00         0.00000E+00         0.42070E+02
 
   -0.58147E+04         0.64417E+05         0.00000E+00
    0.64417E+05         0.60715E+04         0.00000E+00
    0.00000E+00         0.00000E+00         0.51366E+02
 
   -0.52699E+04         0.65346E+05         0.00000E+00
    0.65346E+05         0.55836E+04         0.00000E+00
    0.00000E+00         0.00000E+00         0.62739E+02
 
   -0.47164E+04         0.66233E+05         0.00000E+00
    0.66233E+05         0.50996E+04         0.00000E+00
    0.00000E+00         0.00000E+00         0.76623E+02
 
   -0.41541E+04         0.67079E+05         0.00000E+00
    0.67079E+05         0.46217E+04         0.00000E+00
    0.00000E+00         0.00000E+00         0.93533E+02
 
   -0.35825E+04         0.67882E+05         0.00000E+00
    0.67882E+05         0.41529E+04         0.00000E+00
    0.00000E+00         0.00000E+00         0.11408E+03
 
   -0.30013E+04         0.68643E+05         0.00000E+00
    0.68643E+05         0.36961E+04         0.00000E+00
    0.00000E+00         0.00000E+00         0.13896E+03
 
   -0.24099E+04         0.69364E+05         0.00000E+00
    0.69364E+05         0.32550E+04         0.00000E+00
    0.00000E+00         0.00000E+00         0.16902E+03
 
   -0.18077E+04         0.70043E+05         0.00000E+00
    0.70043E+05         0.28337E+04         0.00000E+00
    0.00000E+00         0.00000E+00         0.20520E+03
 
   -0.11940E+04         0.70682E+05         0.00000E+00
    0.70682E+05         0.24369E+04         0.00000E+00
    0.00000E+00         0.00000E+00         0.24858E+03
 
   -0.56779E+03         0.71281E+05         0.00000E+00
    0.71281E+05         0.20696E+04         0.00000E+00
    0.00000E+00         0.00000E+00         0.30036E+03
 
    0.71897E+02         0.71843E+05         0.00000E+00
    0.71843E+05         0.17375E+04         0.00000E+00
    0.00000E+00         0.00000E+00         0.36188E+03
 
   -0.14556E+05         0.10403E+04         0.00000E+00
    0.10403E+04         0.13927E+05         0.00000E+00
    0.00000E+00         0.00000E+00        -0.12576E+03
 
   -0.14422E+05         0.30986E+04         0.00000E+00
    0.30986E+04         0.13903E+05         0.00000E+00
    0.00000E+00         0.00000E+00        -0.10395E+03
 
   -0.14284E+05         0.51453E+04         0.00000E+00
    0.51453E+04         0.13856E+05         0.00000E+00
    0.00000E+00         0.00000E+00        -0.85583E+02
 
   -0.14139E+05         0.71790E+04         0.00000E+00
    0.71790E+04         0.13788E+05         0.00000E+00
    0.00000E+00         0.00000E+00        -0.70192E+02
 
   -0.13989E+05         0.91983E+04         0.00000E+00
    0.91983E+04         0.13702E+05         0.00000E+00
    0.00000E+00         0.00000E+00        -0.57350E+02
 
   -0.13832E+05         0.11202E+05         0.00000E+00
    0.11202E+05         0.13598E+05         0.00000E+00
    0.00000E+00         0.00000E+00        -0.46676E+02
 
   -0.13668E+05         0.13188E+05         0.00000E+00
    0.13188E+05         0.13479E+05         0.00000E+00
    0.00000E+00         0.00000E+00        -0.37832E+02
 
   -0.13498E+05         0.15156E+05         0.00000E+00
    0.15156E+05         0.13345E+05         0.00000E+00
    0.00000E+00         0.00000E+00        -0.30527E+02
 
   -0.13320E+05         0.17105E+05         0.00000E+00
    0.17105E+05         0.13198E+05         0.00000E+00
    0.00000E+00         0.00000E+00        -0.24508E+02
 
   -0.13136E+05         0.19033E+05         0.00000E+00
    0.19033E+05         0.13038E+05         0.00000E+00
    0.00000E+00         0.00000E+00        -0.19561E+02
 
   -0.12944E+05         0.20940E+05         0.00000E+00
    0.20940E+05         0.12866E+05         0.00000E+00
    0.00000E+00         0.00000E+00        -0.15502E+02
 
   -0.12744E+05         0.22825E+05         0.00000E+00
    0.22825E+05         0.12683E+05         0.00000E+00
    0.00000E+00         0.00000E+00        -0.12178E+02
 
   -0.12537E+05         0.24686E+05         0.00000E+00
    0.24686E+05         0.12490E+05         0.00000E+00
    0.00000E+00         0.00000E+00        -0.94591E+01
 
   -0.12323E+05         0.26524E+05         0.00000E+00
    0.26524E+05         0.12287E+05         0.00000E+00
    0.00000E+00         0.00000E+00        -0.72365E+01
 
   -0.12101E+05         0.28336E+05         0.00000E+00
    0.28336E+05         0.12074E+05         0.00000E+00
    0.00000E+00         0.00000E+00        -0.54197E+01
 
   -0.11871E+05         0.30122E+05         0.00000E+00
    0.30122E+05         0.11852E+05         0.00000E+00
    0.00000E+00         0.00000E+00        -0.39330E+01
 
   -0.11634E+05         0.31881E+05         0.00000E+00
    0.31881E+05         0.11621E+05         0.00000E+00
    0.00000E+00         0.00000E+00        -0.27131E+01
 
   -0.11389E+05         0.33613E+05         0.00000E+00
    0.33613E+05         0.11381E+05         0.00000E+00
    0.00000E+00         0.00000E+00        -0.17072E+01
 
   -0.11137E+05         0.35317E+05         0.00000E+00
    0.35317E+05         0.11133E+05         0.00000E+00
    0.00000E+00         0.00000E+00        -0.87071E+00
 
   -0.10878E+05         0.36991E+05         0.00000E+00
    0.36991E+05         0.10877E+05         0.00000E+00
    0.00000E+00         0.00000E+00        -0.16595E+00
 
   -0.10611E+05         0.38636E+05         0.00000E+00
    0.38636E+05         0.10613E+05         0.00000E+00
    0.00000E+00         0.00000E+00         0.43958E+00
 
   -0.10336E+05         0.40249E+05         0.00000E+00
    0.40249E+05         0.10341E+05         0.00000E+00
    0.00000E+00         0.00000E+00         0.97437E+00
 
   -0.10055E+05         0.41832E+05         0.00000E+00
    0.41832E+05         0.10062E+05         0.00000E+00
    0.00000E+00         0.00000E+00         0.14641E+01
 
   -0.97663E+04         0.43382E+05         0.00000E+00
    0.43382E+05         0.97759E+04         0.00000E+00
    0.00000E+00         0.00000E+00         0.19327E+01
 
   -0.94704E+04         0.44899E+05         0.00000E+00
    0.44899E+05         0.94825E+04         0.00000E+00
    0.00000E+00         0.00000E+00         0.24033E+01
 
   -0.91676E+04         0.46383E+05         0.00000E+00
    0.46383E+05         0.91821E+04         0.00000E+00
    0.00000E+00         0.00000E+00         0.28995E+01
 
   -0.88579E+04         0.47833E+05         0.00000E+00
    0.47833E+05         0.88751E+04         0.00000E+00
    0.00000E+00         0.00000E+00         0.34460E+01
 
   -0.85414E+04         0.49248E+05         0.00000E+00
    0.49248E+05         0.85617E+04         0.00000E+00
    0.00000E+00         0.00000E+00         0.40698E+01
 
   -0.82181E+04         0.50627E+05         0.00000E+00
    0.50627E+05         0.82421E+04         0.00000E+00
    0.00000E+00         0.00000E+00         0.48017E+01
 
   -0.78882E+04         0.51970E+05         0.00000E+00
    0.51970E+05         0.79166E+04         0.00000E+00
    0.00000E+00         0.00000E+00         0.56771E+01
 
   -0.75517E+04         0.53277E+05         0.00000E+00
    0.53277E+05         0.75854E+04         0.00000E+00
    0.00000E+00         0.00000E+00         0.67377E+01
 
   -0.72089E+04         0.54546E+05         0.00000E+00
    0.54546E+05         0.72490E+04         0.00000E+00
    0.00000E+00         0.00000E+00         0.80331E+01
 
   -0.68596E+04         0.55777E+05         0.00000E+00
    0.55777E+05         0.69078E+04         0.00000E+00
    0.00000E+00         0.00000E+00         0.96232E+01
 
   -0.65042E+04         0.56970E+05         0.00000E+00
    0.56970E+05         0.65621E+04         0.00000E+00
    0.00000E+00         0.00000E+00         0.11580E+02
 
   -0.61425E+04         0.58124E+05         0.00000E+00
    0.58124E+05         0.62125E+04         0.00000E+00
    0.00000E+00         0.00000E+00         0.13990E+02
 
   -0.57747E+04         0.59238E+05         0.00000E+00
    0.59238E+05         0.58595E+04         0.00000E+00
    0.00000E+00         0.00000E+00         0.16959E+02
 
   -0.54009E+04         0.60313E+05         0.00000E+00
    0.60313E+05         0.55040E+04         0.00000E+00
    0.00000E+00         0.00000E+00         0.20614E+02
 
   -0.50210E+04         0.61347E+05         0.00000E+00
    0.61347E+05         0.51466E+04         0.00000E+00
    0.00000E+00         0.00000E+00         0.25108E+02
 
   -0.46351E+04         0.62341E+05         0.00000E+00
    0.62341E+05         0.47883E+04         0.00000E+00
    0.00000E+00         0.00000E+00         0.30627E+02
 
   -0.42432E+04         0.63294E+05         0.00000E+00
    0.63294E+05         0.44301E+04         0.00000E+00
    0.00000E+00         0.00000E+00         0.37391E+02
 
   -0.38451E+04         0.64206E+05         0.00000E+00
    0.64206E+05         0.40735E+04         0.00000E+00
    0.00000E+00         0.00000E+00         0.45668E+02
 
   -0.34409E+04         0.65077E+05         0.00000E+00
    0.65077E+05         0.37197E+04         0.00000E+00
    0.00000E+00         0.00000E+00         0.55772E+02
 
   -0.30302E+04         0.65907E+05         0.00000E+00
    0.65907E+05         0.33706E+04         0.00000E+00
    0.00000E+00         0.00000E+00         0.68080E+02
 
   -0.26129E+04         0.66696E+05         0.00000E+00
    0.66696E+05         0.30281E+04         0.00000E+00
    0.00000E+00         0.00000E+00         0.83034E+02
 
   -0.21887E+04         0.67444E+05         0.00000E+00
    0.67444E+05         0.26945E+04         0.00000E+00
    0.00000E+00         0.00000E+00         0.10115E+03
 
   -0.17572E+04         0.68151E+05         0.00000E+00
    0.68151E+05         0.23724E+04         0.00000E+00
    0.00000E+00         0.00000E+00         0.12304E+03
 
   -0.13180E+04         0.68819E+05         0.00000E+00
    0.68819E+05         0.20649E+04         0.00000E+00
    0.00000E+00         0.00000E+00         0.14938E+03
 
   -0.87049E+03         0.69447E+05         0.00000E+00
    0.69447E+05         0.17753E+04         0.00000E+00
    0.00000E+00         0.00000E+00         0.18097E+03
 
   -0.41400E+03         0.70037E+05         0.00000E+00
    0.70037E+05         0.15074E+04         0.00000E+00
    0.00000E+00         0.00000E+00         0.21868E+03
 
    0.52184E+02         0.70590E+05         0.00000E+00
    0.70590E+05         0.12653E+04         0.00000E+00
    0.00000E+00         0.00000E+00         0.26350E+03
 
   -0.93178E+04         0.10281E+04         0.00000E+00
    0.10281E+04         0.89100E+04         0.00000E+00
    0.00000E+00         0.00000E+00        -0.81567E+02
 
   -0.92314E+04         0.30626E+04         0.00000E+00
    0.30626E+04         0.88943E+04         0.00000E+00
    0.00000E+00         0.00000E+00        -0.67418E+02
 
   -0.91415E+04         0.50856E+04         0.00000E+00
    0.50856E+04         0.88640E+04         0.00000E+00
    0.00000E+00         0.00000E+00        -0.55506E+02
 
   -0.90480E+04         0.70958E+04         0.00000E+00
    0.70958E+04         0.88204E+04         0.00000E+00
    0.00000E+00         0.00000E+00        -0.45526E+02
 
   -0.89507E+04         0.90916E+04         0.00000E+00
    0.90916E+04         0.87647E+04         0.00000E+00
    0.00000E+00         0.00000E+00        -0.37199E+02
 
   -0.88493E+04         0.11072E+05         0.00000E+00
    0.11072E+05         0.86979E+04         0.00000E+00
    0.00000E+00         0.00000E+00        -0.30278E+02
 
   -0.87436E+04         0.13035E+05         0.00000E+00
    0.13035E+05         0.86209E+04         0.00000E+00
    0.00000E+00         0.00000E+00        -0.24545E+02
 
   -0.86336E+04         0.14980E+05         0.00000E+00
    0.14980E+05         0.85346E+04         0.00000E+00
    0.00000E+00         0.00000E+00        -0.19809E+02
 
   -0.85192E+04         0.16906E+05         0.00000E+00
    0.16906E+05         0.84396E+04         0.00000E+00
    0.00000E+00         0.00000E+00        -0.15907E+02
 
   -0.84001E+04         0.18812E+05         0.00000E+00
    0.18812E+05         0.83366E+04         0.00000E+00
    0.00000E+00         0.00000E+00        -0.12699E+02
 
   -0.82764E+04         0.20697E+05         0.00000E+00
    0.20697E+05         0.82260E+04         0.00000E+00
    0.00000E+00         0.00000E+00        -0.10068E+02
 
   -0.81479E+04         0.22559E+05         0.00000E+00
    0.22559E+05         0.81084E+04         0.00000E+00
    0.00000E+00         0.00000E+00        -0.79120E+01
 
   -0.80147E+04         0.24399E+05         0.00000E+00
    0.24399E+05         0.79840E+04         0.00000E+00
    0.00000E+00         0.00000E+00        -0.61486E+01
 
   -0.78767E+04         0.26214E+05         0.00000E+00
    0.26214E+05         0.78532E+04         0.00000E+00
    0.00000E+00         0.00000E+00        -0.47068E+01
 
   -0.77340E+04         0.28004E+05         0.00000E+00
    0.28004E+05         0.77163E+04         0.00000E+00
    0.00000E+00         0.00000E+00        -0.35280E+01
 
   -0.75864E+04         0.29769E+05         0.00000E+00
    0.29769E+05         0.75736E+04         0.00000E+00
    0.00000E+00         0.00000E+00        -0.25631E+01
 
   -0.74341E+04         0.31507E+05         0.00000E+00
    0.31507E+05         0.74252E+04         0.00000E+00
    0.00000E+00         0.00000E+00        -0.17713E+01
 
   -0.72770E+04         0.33218E+05         0.00000E+00
    0.33218E+05         0.72714E+04         0.00000E+00
    0.00000E+00         0.00000E+00        -0.11182E+01
 
   -0.71151E+04         0.34900E+05         0.00000E+00
    0.34900E+05         0.71122E+04         0.00000E+00
    0.00000E+00         0.00000E+00        -0.57521E+00
 
   -0.69485E+04         0.36554E+05         0.00000E+00
    0.36554E+05         0.69479E+04         0.00000E+00
    0.00000E+00         0.00000E+00        -0.11781E+00
 
   -0.67773E+04         0.38178E+05         0.00000E+00
    0.38178E+05         0.67786E+04         0.00000E+00
    0.00000E+00         0.00000E+00         0.27492E+00
 
   -0.66014E+04         0.39772E+05         0.00000E+00
    0.39772E+05         0.66045E+04         0.00000E+00
    0.00000E+00         0.00000E+00         0.62136E+00
 
   -0.64209E+04         0.41334E+05         0.00000E+00
    0.41334E+05         0.64256E+04         0.00000E+00
    0.00000E+00         0.00000E+00         0.93801E+00
 
   -0.62358E+04         0.42865E+05         0.00000E+00
    0.42865E+05         0.62420E+04         0.00000E+00
    0.00000E+00         0.00000E+00         0.12402E+01
 
   -0.60463E+04         0.44363E+05         0.00000E+00
    0.44363E+05         0.60540E+04         0.00000E+00
    0.00000E+00         0.00000E+00         0.15429E+01
 
   -0.58523E+04         0.45828E+05         0.00000E+00
    0.45828E+05         0.58616E+04         0.00000E+00
    0.00000E+00         0.00000E+00         0.18610E+01
 
   -0.56539E+04         0.47259E+05         0.00000E+00
    0.47259E+05         0.56649E+04         0.00000E+00
    0.00000E+00         0.00000E+00         0.22104E+01
 
   -0.54512E+04         0.48656E+05         0.00000E+00
    0.48656E+05         0.54642E+04         0.00000E+00
    0.00000E+00         0.00000E+00         0.26083E+01
 
   -0.52442E+04         0.50017E+05         0.00000E+00
    0.50017E+05         0.52596E+04         0.00000E+00
    0.00000E+00         0.00000E+00         0.30741E+01
 
   -0.50331E+04         0.51343E+05         0.00000E+00
    0.51343E+05         0.50512E+04         0.00000E+00
    0.00000E+00         0.00000E+00         0.36305E+01
 
   -0.48178E+04         0.52632E+05         0.00000E+00
    0.52632E+05         0.48393E+04         0.00000E+00
    0.00000E+00         0.00000E+00         0.43039E+01
 
   -0.45984E+04         0.53885E+05         0.00000E+00
    0.53885E+05         0.46241E+04         0.00000E+00
    0.00000E+00         0.00000E+00         0.51259E+01
 
   -0.43751E+04         0.55100E+05         0.00000E+00
    0.55100E+05         0.44058E+04         0.00000E+00
    0.00000E+00         0.00000E+00         0.61343E+01
 
   -0.41478E+04         0.56277E+05         0.00000E+00
    0.56277E+05         0.41847E+04         0.00000E+00
    0.00000E+00         0.00000E+00         0.73749E+01
 
   -0.39166E+04         0.57415E+05         0.00000E+00
    0.57415E+05         0.39611E+04         0.00000E+00
    0.00000E+00         0.00000E+00         0.89029E+01
 
   -0.36815E+04         0.58515E+05         0.00000E+00
    0.58515E+05         0.37355E+04         0.00000E+00
    0.00000E+00         0.00000E+00         0.10785E+02
 
   -0.34427E+04         0.59575E+05         0.00000E+00
    0.59575E+05         0.35082E+04         0.00000E+00
    0.00000E+00         0.00000E+00         0.13102E+02
 
   -0.32000E+04         0.60596E+05         0.00000E+00
    0.60596E+05         0.32798E+04         0.00000E+00
    0.00000E+00         0.00000E+00         0.15951E+02
 
   -0.29536E+04         0.61577E+05         0.00000E+00
    0.61577E+05         0.30509E+04         0.00000E+00
    0.00000E+00         0.00000E+00         0.19450E+02
 
   -0.27034E+04         0.62518E+05         0.00000E+00
    0.62518E+05         0.28221E+04         0.00000E+00
    0.00000E+00         0.00000E+00         0.23739E+02
 
   -0.24494E+04         0.63418E+05         0.00000E+00
    0.63418E+05         0.25943E+04         0.00000E+00
    0.00000E+00         0.00000E+00         0.28987E+02
 
   -0.21915E+04         0.64278E+05         0.00000E+00
    0.64278E+05         0.23685E+04         0.00000E+00
    0.00000E+00         0.00000E+00         0.35396E+02
 
   -0.19296E+04         0.65097E+05         0.00000E+00
    0.65097E+05         0.21456E+04         0.00000E+00
    0.00000E+00         0.00000E+00         0.43203E+02
 
   -0.16636E+04         0.65876E+05         0.00000E+00
    0.65876E+05         0.19270E+04         0.00000E+00
    0.00000E+00         0.00000E+00         0.52690E+02
 
   -0.13933E+04         0.66615E+05         0.00000E+00
    0.66615E+05         0.17142E+04         0.00000E+00
    0.00000E+00         0.00000E+00         0.64186E+02
 
   -0.11184E+04         0.67314E+05         0.00000E+00
    0.67314E+05         0.15088E+04         0.00000E+00
    0.00000E+00         0.00000E+00         0.78076E+02
 
   -0.83877E+03         0.67974E+05         0.00000E+00
    0.67974E+05         0.13128E+04         0.00000E+00
    0.00000E+00         0.00000E+00         0.94799E+02
 
   -0.55394E+03         0.68596E+05         0.00000E+00
    0.68596E+05         0.11282E+04         0.00000E+00
    0.00000E+00         0.00000E+00         0.11486E+03
 
   -0.26353E+03         0.69179E+05         0.00000E+00
    0.69179E+05         0.95760E+03         0.00000E+00
    0.00000E+00         0.00000E+00         0.13881E+03
 
    0.32931E+02         0.69726E+05         0.00000E+00
    0.69726E+05         0.80350E+03         0.00000E+00
    0.00000E+00         0.00000E+00         0.16729E+03
 
   -0.41284E+04         0.10213E+04         0.00000E+00
    0.10213E+04         0.39382E+04         0.00000E+00
    0.00000E+00         0.00000E+00        -0.38048E+02
 
   -0.40882E+04         0.30424E+04         0.00000E+00
    0.30424E+04         0.39310E+04         0.00000E+00
    0.00000E+00         0.00000E+00        -0.31445E+02
 
   -0.40466E+04         0.50523E+04         0.00000E+00
    0.50523E+04         0.39172E+04         0.00000E+00
    0.00000E+00         0.00000E+00        -0.25889E+02
 
   -0.40035E+04         0.70493E+04         0.00000E+00
    0.70493E+04         0.38974E+04         0.00000E+00
    0.00000E+00         0.00000E+00        -0.21236E+02
 
   -0.39589E+04         0.90321E+04         0.00000E+00
    0.90321E+04         0.38721E+04         0.00000E+00
    0.00000E+00         0.00000E+00        -0.17356E+02
 
   -0.39126E+04         0.10999E+05         0.00000E+00
    0.10999E+05         0.38419E+04         0.00000E+00
    0.00000E+00         0.00000E+00        -0.14133E+02
 
   -0.38645E+04         0.12950E+05         0.00000E+00
    0.12950E+05         0.38071E+04         0.00000E+00
    0.00000E+00         0.00000E+00        -0.11462E+02
 
   -0.38145E+04         0.14882E+05         0.00000E+00
    0.14882E+05         0.37682E+04         0.00000E+00
    0.00000E+00         0.00000E+00        -0.92566E+01
 
   -0.37627E+04         0.16796E+05         0.00000E+00
    0.16796E+05         0.37255E+04         0.00000E+00
    0.00000E+00         0.00000E+00        -0.74392E+01
 
   -0.37090E+04         0.18689E+05         0.00000E+00
    0.18689E+05         0.36792E+04         0.00000E+00
    0.00000E+00         0.00000E+00        -0.59450E+01
 
   -0.36533E+04         0.20561E+05         0.00000E+00
    0.20561E+05         0.36297E+04         0.00000E+00
    0.00000E+00         0.00000E+00        -0.47187E+01
 
   -0.35956E+04         0.22411E+05         0.00000E+00
    0.22411E+05         0.35770E+04         0.00000E+00
    0.00000E+00         0.00000E+00        -0.37137E+01
 
   -0.35358E+04         0.24238E+05         0.00000E+00
    0.24238E+05         0.35214E+04         0.00000E+00
    0.00000E+00         0.00000E+00        -0.28910E+01
 
   -0.34741E+04         0.26041E+05         0.00000E+00
    0.26041E+05         0.34630E+04         0.00000E+00
    0.00000E+00         0.00000E+00        -0.22179E+01
 
   -0.34103E+04         0.27820E+05         0.00000E+00
    0.27820E+05         0.34020E+04         0.00000E+00
    0.00000E+00         0.00000E+00        -0.16670E+01
 
   -0.33445E+04         0.29572E+05         0.00000E+00
    0.29572E+05         0.33384E+04         0.00000E+00
    0.00000E+00         0.00000E+00        -0.12156E+01
 
   -0.32766E+04         0.31299E+05         0.00000E+00
    0.31299E+05         0.32724E+04         0.00000E+00
    0.00000E+00         0.00000E+00        -0.84474E+00
 
   -0.32067E+04         0.32998E+05         0.00000E+00
    0.32998E+05         0.32040E+04         0.00000E+00
    0.00000E+00         0.00000E+00        -0.53863E+00
 
   -0.31347E+04         0.34668E+05         0.00000E+00
    0.34668E+05         0.31333E+04         0.00000E+00
    0.00000E+00         0.00000E+00        -0.28396E+00
 
   -0.30607E+04         0.36311E+05         0.00000E+00
    0.36311E+05         0.30604E+04         0.00000E+00
    0.00000E+00         0.00000E+00        -0.69501E-01
 
   -0.29847E+04         0.37923E+05         0.00000E+00
    0.37923E+05         0.29853E+04         0.00000E+00
    0.00000E+00         0.00000E+00         0.11436E+00
 
   -0.29067E+04         0.39505E+05         0.00000E+00
    0.39505E+05         0.29081E+04         0.00000E+00
    0.00000E+00         0.00000E+00         0.27599E+00
 
   -0.28267E+04         0.41057E+05         0.00000E+00
    0.41057E+05         0.28288E+04         0.00000E+00
    0.00000E+00         0.00000E+00         0.42290E+00
 
   -0.27447E+04         0.42576E+05         0.00000E+00
    0.42576E+05         0.27475E+04         0.00000E+00
    0.00000E+00         0.00000E+00         0.56201E+00
 
   -0.26607E+04         0.44064E+05         0.00000E+00
    0.44064E+05         0.26642E+04         0.00000E+00
    0.00000E+00         0.00000E+00         0.69997E+00
 
   -0.25749E+04         0.45518E+05         0.00000E+00
    0.45518E+05         0.25791E+04         0.00000E+00
    0.00000E+00         0.00000E+00         0.84343E+00
 
   -0.24871E+04         0.46938E+05         0.00000E+00
    0.46938E+05         0.24921E+04         0.00000E+00
    0.00000E+00         0.00000E+00         0.99935E+00
 
   -0.23974E+04         0.48325E+05         0.00000E+00
    0.48325E+05         0.24033E+04         0.00000E+00
    0.00000E+00         0.00000E+00         0.11753E+01
 
   -0.23059E+04         0.49676E+05         0.00000E+00
    0.49676E+05         0.23128E+04         0.00000E+00
    0.00000E+00         0.00000E+00         0.13798E+01
 
   -0.22126E+04         0.50992E+05         0.00000E+00
    0.50992E+05         0.22207E+04         0.00000E+00
    0.00000E+00         0.00000E+00         0.16227E+01
 
   -0.21174E+04         0.52271E+05         0.00000E+00
    0.52271E+05         0.21270E+04         0.00000E+00
    0.00000E+00         0.00000E+00         0.19154E+01
 
   -0.20205E+04         0.53514E+05         0.00000E+00
    0.53514E+05         0.20319E+04         0.00000E+00
    0.00000E+00         0.00000E+00         0.22716E+01
 
   -0.19219E+04         0.54720E+05         0.00000E+00
    0.54720E+05         0.19354E+04         0.00000E+00
    0.00000E+00         0.00000E+00         0.27077E+01
 
   -0.18215E+04         0.55888E+05         0.00000E+00
    0.55888E+05         0.18377E+04         0.00000E+00
    0.00000E+00         0.00000E+00         0.32435E+01
 
   -0.17195E+04         0.57018E+05         0.00000E+00
    0.57018E+05         0.17390E+04         0.00000E+00
    0.00000E+00         0.00000E+00         0.39029E+01
 
   -0.16158E+04         0.58110E+05         0.00000E+00
    0.58110E+05         0.16393E+04         0.00000E+00
    0.00000E+00         0.00000E+00         0.47148E+01
 
   -0.15104E+04         0.59162E+05         0.00000E+00
    0.59162E+05         0.15390E+04         0.00000E+00
    0.00000E+00         0.00000E+00         0.57142E+01
 
   -0.14035E+04         0.60176E+05         0.00000E+00
    0.60176E+05         0.14382E+04         0.00000E+00
    0.00000E+00         0.00000E+00         0.69432E+01
 
   -0.12949E+04         0.61149E+05         0.00000E+00
    0.61149E+05         0.13372E+04         0.00000E+00
    0.00000E+00         0.00000E+00         0.84527E+01
 
   -0.11847E+04         0.62083E+05         0.00000E+00
    0.62083E+05         0.12363E+04         0.00000E+00
    0.00000E+00         0.00000E+00         0.10304E+02
 
   -0.10730E+04         0.62977E+05         0.00000E+00
    0.62977E+05         0.11358E+04         0.00000E+00
    0.00000E+00         0.00000E+00         0.12570E+02
 
   -0.95956E+03         0.63830E+05         0.00000E+00
    0.63830E+05         0.10362E+04         0.00000E+00
    0.00000E+00         0.00000E+00         0.15338E+02
 
   -0.84451E+03         0.64644E+05         0.00000E+00
    0.64644E+05         0.93807E+03         0.00000E+00
    0.00000E+00         0.00000E+00         0.18712E+02
 
   -0.72775E+03         0.65418E+05         0.00000E+00
    0.65418E+05         0.84182E+03         0.00000E+00
    0.00000E+00         0.00000E+00         0.22814E+02
 
   -0.60922E+03         0.66152E+05         0.00000E+00
    0.66152E+05         0.74817E+03         0.00000E+00
    0.00000E+00         0.00000E+00         0.27789E+02
 
   -0.48884E+03         0.66846E+05         0.00000E+00
    0.66846E+05         0.65785E+03         0.00000E+00
    0.00000E+00         0.00000E+00         0.33803E+02
 
   -0.36648E+03         0.67502E+05         0.00000E+00
    0.67502E+05         0.57173E+03         0.00000E+00
    0.00000E+00         0.00000E+00         0.41050E+02
 
   -0.24200E+03         0.68120E+05         0.00000E+00
    0.68120E+05         0.49075E+03         0.00000E+00
    0.00000E+00         0.00000E+00         0.49750E+02
 
   -0.11525E+03         0.68700E+05         0.00000E+00
    0.68700E+05         0.41600E+03         0.00000E+00
    0.00000E+00         0.00000E+00         0.60151E+02
 
    0.13986E+02         0.69244E+05         0.00000E+00
    0.69244E+05         0.34865E+03         0.00000E+00
    0.00000E+00         0.00000E+00         0.72528E+02
 
    0.10399E+04         0.10199E+04         0.00000E+00
    0.10199E+04        -0.10146E+04         0.00000E+00
    0.00000E+00         0.00000E+00         0.50569E+01
 
    0.10342E+04         0.30384E+04         0.00000E+00
    0.30384E+04        -0.10132E+04         0.00000E+00
    0.00000E+00         0.00000E+00         0.41874E+01
 
    0.10278E+04         0.50456E+04         0.00000E+00
    0.50456E+04        -0.10105E+04         0.00000E+00
    0.00000E+00         0.00000E+00         0.34473E+01
 
    0.10207E+04         0.70400E+04         0.00000E+00
    0.70400E+04        -0.10066E+04         0.00000E+00
    0.00000E+00         0.00000E+00         0.28220E+01
 
    0.10129E+04         0.90203E+04         0.00000E+00
    0.90203E+04        -0.10014E+04         0.00000E+00
    0.00000E+00         0.00000E+00         0.22969E+01
 
    0.10043E+04         0.10985E+05         0.00000E+00
    0.10985E+05        -0.99503E+03         0.00000E+00
    0.00000E+00         0.00000E+00         0.18585E+01
 
    0.99504E+03         0.12933E+05         0.00000E+00
    0.12933E+05        -0.98756E+03         0.00000E+00
    0.00000E+00         0.00000E+00         0.14944E+01
 
    0.98501E+03         0.14863E+05         0.00000E+00
    0.14863E+05        -0.97904E+03         0.00000E+00
    0.00000E+00         0.00000E+00         0.11933E+01
 
    0.97423E+03         0.16774E+05         0.00000E+00
    0.16774E+05        -0.96950E+03         0.00000E+00
    0.00000E+00         0.00000E+00         0.94551E+00
 
    0.96270E+03         0.18665E+05         0.00000E+00
    0.18665E+05        -0.95899E+03         0.00000E+00
    0.00000E+00         0.00000E+00         0.74247E+00
 
    0.95043E+03         0.20534E+05         0.00000E+00
    0.20534E+05        -0.94754E+03         0.00000E+00
    0.00000E+00         0.00000E+00         0.57679E+00
 
    0.93742E+03         0.22382E+05         0.00000E+00
    0.22382E+05        -0.93520E+03         0.00000E+00
    0.00000E+00         0.00000E+00         0.44215E+00
 
    0.92367E+03         0.24207E+05         0.00000E+00
    0.24207E+05        -0.92200E+03         0.00000E+00
    0.00000E+00         0.00000E+00         0.33315E+00
 
    0.90920E+03         0.26007E+05         0.00000E+00
    0.26007E+05        -0.90798E+03         0.00000E+00
    0.00000E+00         0.00000E+00         0.24522E+00
 
    0.89402E+03         0.27783E+05         0.00000E+00
    0.27783E+05        -0.89315E+03         0.00000E+00
    0.00000E+00         0.00000E+00         0.17447E+00
 
    0.87814E+03         0.29533E+05         0.00000E+00
    0.29533E+05        -0.87755E+03         0.00000E+00
    0.00000E+00         0.00000E+00         0.11761E+00
 
    0.86158E+03         0.31257E+05         0.00000E+00
    0.31257E+05        -0.86122E+03         0.00000E+00
    0.00000E+00         0.00000E+00         0.71845E-01
 
    0.84434E+03         0.32953E+05         0.00000E+00
    0.32953E+05        -0.84416E+03         0.00000E+00
    0.00000E+00         0.00000E+00         0.34765E-01
 
    0.82645E+03         0.34621E+05         0.00000E+00
    0.34621E+05        -0.82642E+03         0.00000E+00
    0.00000E+00         0.00000E+00         0.42998E-02
 
    0.80791E+03         0.36261E+05         0.00000E+00
    0.36261E+05        -0.80802E+03         0.00000E+00
    0.00000E+00         0.00000E+00        -0.21376E-01
 
    0.78876E+03         0.37871E+05         0.00000E+00
    0.37871E+05        -0.78898E+03         0.00000E+00
    0.00000E+00         0.00000E+00        -0.43902E-01
 
    0.76899E+03         0.39451E+05         0.00000E+00
    0.39451E+05        -0.76932E+03         0.00000E+00
    0.00000E+00         0.00000E+00        -0.64795E-01
 
    0.74864E+03         0.40999E+05         0.00000E+00
    0.40999E+05        -0.74907E+03         0.00000E+00
    0.00000E+00         0.00000E+00        -0.85510E-01
 
    0.72771E+03         0.42516E+05         0.00000E+00
    0.42516E+05        -0.72824E+03         0.00000E+00
    0.00000E+00         0.00000E+00        -0.10749E+00
 
    0.70621E+03         0.44001E+05         0.00000E+00
    0.44001E+05        -0.70688E+03         0.00000E+00
    0.00000E+00         0.00000E+00        -0.13225E+00
 
    0.68418E+03         0.45453E+05         0.00000E+00
    0.45453E+05        -0.68498E+03         0.00000E+00
    0.00000E+00         0.00000E+00        -0.16138E+00
 
    0.66160E+03         0.46871E+05         0.00000E+00
    0.46871E+05        -0.66259E+03         0.00000E+00
    0.00000E+00         0.00000E+00        -0.19670E+00
 
    0.63851E+03         0.48254E+05         0.00000E+00
    0.48254E+05        -0.63971E+03         0.00000E+00
    0.00000E+00         0.00000E+00        -0.24024E+00
 
    0.61491E+03         0.49603E+05         0.00000E+00
    0.49603E+05        -0.61638E+03         0.00000E+00
    0.00000E+00         0.00000E+00        -0.29440E+00
 
    0.59081E+03         0.50916E+05         0.00000E+00
    0.50916E+05        -0.59262E+03         0.00000E+00
    0.00000E+00         0.00000E+00        -0.36201E+00
 
    0.56622E+03         0.52194E+05         0.00000E+00
    0.52194E+05        -0.56845E+03         0.00000E+00
    0.00000E+00         0.00000E+00        -0.44645E+00
 
    0.54114E+03         0.53434E+05         0.00000E+00
    0.53434E+05        -0.54390E+03         0.00000E+00
    0.00000E+00         0.00000E+00        -0.55177E+00
 
    0.51559E+03         0.54638E+05         0.00000E+00
    0.54638E+05        -0.51900E+03         0.00000E+00
    0.00000E+00         0.00000E+00        -0.68287E+00
 
    0.48955E+03         0.55804E+05         0.00000E+00
    0.55804E+05        -0.49378E+03         0.00000E+00
    0.00000E+00         0.00000E+00        -0.84569E+00
 
    0.46303E+03         0.56932E+05         0.00000E+00
    0.56932E+05        -0.46827E+03         0.00000E+00
    0.00000E+00         0.00000E+00        -0.10474E+01
 
    0.43604E+03         0.58021E+05         0.00000E+00
    0.58021E+05        -0.44252E+03         0.00000E+00
    0.00000E+00         0.00000E+00        -0.12966E+01
 
    0.40855E+03         0.59071E+05         0.00000E+00
    0.59071E+05        -0.41657E+03         0.00000E+00
    0.00000E+00         0.00000E+00        -0.16038E+01
 
    0.38056E+03         0.60083E+05         0.00000E+00
    0.60083E+05        -0.39047E+03         0.00000E+00
    0.00000E+00         0.00000E+00        -0.19815E+01
 
    0.35206E+03         0.61055E+05         0.00000E+00
    0.61055E+05        -0.36428E+03         0.00000E+00
    0.00000E+00         0.00000E+00        -0.24449E+01
 
    0.32302E+03         0.61987E+05         0.00000E+00
    0.61987E+05        -0.33808E+03         0.00000E+00
    0.00000E+00         0.00000E+00        -0.30119E+01
 
    0.29343E+03         0.62879E+05         0.00000E+00
    0.62879E+05        -0.31195E+03         0.00000E+00
    0.00000E+00         0.00000E+00        -0.37041E+01
 
    0.26325E+03         0.63731E+05         0.00000E+00
    0.63731E+05        -0.28599E+03         0.00000E+00
    0.00000E+00         0.00000E+00        -0.45470E+01
 
    0.23246E+03         0.64544E+05         0.00000E+00
    0.64544E+05        -0.26031E+03         0.00000E+00
    0.00000E+00         0.00000E+00        -0.55704E+01
 
    0.20100E+03         0.65316E+05         0.00000E+00
    0.65316E+05        -0.23505E+03         0.00000E+00
    0.00000E+00         0.00000E+00        -0.68094E+01
 
    0.16883E+03         0.66049E+05         0.00000E+00
    0.66049E+05        -0.21036E+03         0.00000E+00
    0.00000E+00         0.00000E+00        -0.83046E+01
 
    0.13590E+03         0.66743E+05         0.00000E+00
    0.66743E+05        -0.18642E+03         0.00000E+00
    0.00000E+00         0.00000E+00        -0.10102E+02
 
    0.10215E+03         0.67398E+05         0.00000E+00
    0.67398E+05        -0.16343E+03         0.00000E+00
    0.00000E+00         0.00000E+00        -0.12256E+02
 
    0.67496E+02         0.68015E+05         0.00000E+00
    0.68015E+05        -0.14161E+03         0.00000E+00
    0.00000E+00         0.00000E+00        -0.14823E+02
 
    0.31876E+02         0.68596E+05         0.00000E+00
    0.68596E+05        -0.12122E+03         0.00000E+00
    0.00000E+00         0.00000E+00        -0.17869E+02
 
   -0.47932E+01         0.69140E+05         0.00000E+00
    0.69140E+05        -0.10250E+03         0.00000E+00
    0.00000E+00         0.00000E+00        -0.21459E+02
 
    0.62147E+04         0.10240E+04         0.00000E+00
    0.10240E+04        -0.59745E+04         0.00000E+00
    0.00000E+00         0.00000E+00         0.48050E+02
 
    0.61632E+04         0.30506E+04         0.00000E+00
    0.30506E+04        -0.59645E+04         0.00000E+00
    0.00000E+00         0.00000E+00         0.39727E+02
 
    0.61088E+04         0.50660E+04         0.00000E+00
    0.50660E+04        -0.59453E+04         0.00000E+00
    0.00000E+00         0.00000E+00         0.32707E+02
 
    0.60515E+04         0.70685E+04         0.00000E+00
    0.70685E+04        -0.59175E+04         0.00000E+00
    0.00000E+00         0.00000E+00         0.26818E+02
 
    0.59912E+04         0.90568E+04         0.00000E+00
    0.90568E+04        -0.58817E+04         0.00000E+00
    0.00000E+00         0.00000E+00         0.21899E+02
 
    0.59277E+04         0.11030E+05         0.00000E+00
    0.11030E+05        -0.58386E+04         0.00000E+00
    0.00000E+00         0.00000E+00         0.17807E+02
 
    0.58609E+04         0.12985E+05         0.00000E+00
    0.12985E+05        -0.57888E+04         0.00000E+00
    0.00000E+00         0.00000E+00         0.14416E+02
 
    0.57907E+04         0.14923E+05         0.00000E+00
    0.14923E+05        -0.57326E+04         0.00000E+00
    0.00000E+00         0.00000E+00         0.11615E+02
 
    0.57172E+04         0.16842E+05         0.00000E+00
    0.16842E+05        -0.56706E+04         0.00000E+00
    0.00000E+00         0.00000E+00         0.93068E+01
 
    0.56401E+04         0.18740E+05         0.00000E+00
    0.18740E+05        -0.56031E+04         0.00000E+00
    0.00000E+00         0.00000E+00         0.74108E+01
 
    0.55597E+04         0.20618E+05         0.00000E+00
    0.20618E+05        -0.55304E+04         0.00000E+00
    0.00000E+00         0.00000E+00         0.58566E+01
 
    0.54757E+04         0.22473E+05         0.00000E+00
    0.22473E+05        -0.54527E+04         0.00000E+00
    0.00000E+00         0.00000E+00         0.45854E+01
 
    0.53882E+04         0.24305E+05         0.00000E+00
    0.24305E+05        -0.53705E+04         0.00000E+00
    0.00000E+00         0.00000E+00         0.35472E+01
 
    0.52972E+04         0.26112E+05         0.00000E+00
    0.26112E+05        -0.52837E+04         0.00000E+00
    0.00000E+00         0.00000E+00         0.27003E+01
 
    0.52028E+04         0.27895E+05         0.00000E+00
    0.27895E+05        -0.51927E+04         0.00000E+00
    0.00000E+00         0.00000E+00         0.20097E+01
 
    0.51049E+04         0.29652E+05         0.00000E+00
    0.29652E+05        -0.50976E+04         0.00000E+00
    0.00000E+00         0.00000E+00         0.14462E+01
 
    0.50035E+04         0.31383E+05         0.00000E+00
    0.31383E+05        -0.49986E+04         0.00000E+00
    0.00000E+00         0.00000E+00         0.98515E+00
 
    0.48988E+04         0.33086E+05         0.00000E+00
    0.33086E+05        -0.48958E+04         0.00000E+00
    0.00000E+00         0.00000E+00         0.60608E+00
 
    0.47907E+04         0.34761E+05         0.00000E+00
    0.34761E+05        -0.47893E+04         0.00000E+00
    0.00000E+00         0.00000E+00         0.29156E+00
 
    0.46793E+04         0.36406E+05         0.00000E+00
    0.36406E+05        -0.46792E+04         0.00000E+00
    0.00000E+00         0.00000E+00         0.26716E-01
 
    0.45647E+04         0.38023E+05         0.00000E+00
    0.38023E+05        -0.45657E+04         0.00000E+00
    0.00000E+00         0.00000E+00        -0.20131E+00
 
    0.44468E+04         0.39608E+05         0.00000E+00
    0.39608E+05        -0.44488E+04         0.00000E+00
    0.00000E+00         0.00000E+00        -0.40392E+00
 
    0.43257E+04         0.41163E+05         0.00000E+00
    0.41163E+05        -0.43287E+04         0.00000E+00
    0.00000E+00         0.00000E+00        -0.59149E+00
 
    0.42016E+04         0.42686E+05         0.00000E+00
    0.42686E+05        -0.42055E+04         0.00000E+00
    0.00000E+00         0.00000E+00        -0.77383E+00
 
    0.40744E+04         0.44176E+05         0.00000E+00
    0.44176E+05        -0.40792E+04         0.00000E+00
    0.00000E+00         0.00000E+00        -0.96059E+00
 
    0.39441E+04         0.45633E+05         0.00000E+00
    0.45633E+05        -0.39499E+04         0.00000E+00
    0.00000E+00         0.00000E+00        -0.11616E+01
 
    0.38109E+04         0.47056E+05         0.00000E+00
    0.47056E+05        -0.38179E+04         0.00000E+00
    0.00000E+00         0.00000E+00        -0.13875E+01
 
    0.36748E+04         0.48445E+05         0.00000E+00
    0.48445E+05        -0.36831E+04         0.00000E+00
    0.00000E+00         0.00000E+00        -0.16498E+01
 
    0.35359E+04         0.49799E+05         0.00000E+00
    0.49799E+05        -0.35457E+04         0.00000E+00
    0.00000E+00         0.00000E+00        -0.19619E+01
 
    0.33941E+04         0.51117E+05         0.00000E+00
    0.51117E+05        -0.34058E+04         0.00000E+00
    0.00000E+00         0.00000E+00        -0.23392E+01
 
    0.32496E+04         0.52399E+05         0.00000E+00
    0.52399E+05        -0.32636E+04         0.00000E+00
    0.00000E+00         0.00000E+00        -0.27999E+01
 
    0.31023E+04         0.53644E+05         0.00000E+00
    0.53644E+05        -0.31191E+04         0.00000E+00
    0.00000E+00         0.00000E+00        -0.33658E+01
 
    0.29524E+04         0.54852E+05         0.00000E+00
    0.54852E+05        -0.29727E+04         0.00000E+00
    0.00000E+00         0.00000E+00        -0.40631E+01
 
    0.27998E+04         0.56022E+05         0.00000E+00
    0.56022E+05        -0.28244E+04         0.00000E+00
    0.00000E+00         0.00000E+00        -0.49233E+01
 
    0.26446E+04         0.57154E+05         0.00000E+00
    0.57154E+05        -0.26745E+04         0.00000E+00
    0.00000E+00         0.00000E+00        -0.59847E+01
 
    0.24868E+04         0.58248E+05         0.00000E+00
    0.58248E+05        -0.25233E+04         0.00000E+00
    0.00000E+00         0.00000E+00        -0.72934E+01
 
    0.23264E+04         0.59302E+05         0.00000E+00
    0.59302E+05        -0.23710E+04         0.00000E+00
    0.00000E+00         0.00000E+00        -0.89052E+01
 
    0.21634E+04         0.60317E+05         0.00000E+00
    0.60317E+05        -0.22179E+04         0.00000E+00
    0.00000E+00         0.00000E+00        -0.10887E+02
 
    0.19979E+04         0.61293E+05         0.00000E+00
    0.61293E+05        -0.20645E+04         0.00000E+00
    0.00000E+00         0.00000E+00        -0.13321E+02
 
    0.18296E+04         0.62228E+05         0.00000E+00
    0.62228E+05        -0.19111E+04         0.00000E+00
    0.00000E+00         0.00000E+00        -0.16303E+02
 
    0.16587E+04         0.63124E+05         0.00000E+00
    0.63124E+05        -0.17584E+04         0.00000E+00
    0.00000E+00         0.00000E+00        -0.19949E+02
 
    0.14850E+04         0.63980E+05         0.00000E+00
    0.63980E+05        -0.16070E+04         0.00000E+00
    0.00000E+00         0.00000E+00        -0.24398E+02
 
    0.13084E+04         0.64795E+05         0.00000E+00
    0.64795E+05        -0.14575E+04         0.00000E+00
    0.00000E+00         0.00000E+00        -0.29813E+02
 
    0.11288E+04         0.65571E+05         0.00000E+00
    0.65571E+05        -0.13108E+04         0.00000E+00
    0.00000E+00         0.00000E+00        -0.36387E+02
 
    0.94607E+03         0.66307E+05         0.00000E+00
    0.66307E+05        -0.11678E+04         0.00000E+00
    0.00000E+00         0.00000E+00        -0.44343E+02
 
    0.75996E+03         0.67004E+05         0.00000E+00
    0.67004E+05        -0.10297E+04         0.00000E+00
    0.00000E+00         0.00000E+00        -0.53943E+02
 
    0.57024E+03         0.67662E+05         0.00000E+00
    0.67662E+05        -0.89766E+03         0.00000E+00
    0.00000E+00         0.00000E+00        -0.65485E+02
 
    0.37663E+03         0.68281E+05         0.00000E+00
    0.68281E+05        -0.77316E+03         0.00000E+00
    0.00000E+00         0.00000E+00        -0.79305E+02
 
    0.17883E+03         0.68864E+05         0.00000E+00
    0.68864E+05        -0.65773E+03         0.00000E+00
    0.00000E+00         0.00000E+00        -0.95781E+02
 
   -0.23539E+02         0.69411E+05         0.00000E+00
    0.69411E+05        -0.55306E+03         0.00000E+00
    0.00000E+00         0.00000E+00        -0.11532E+03
 
    0.11424E+05         0.10337E+04         0.00000E+00
    0.10337E+04        -0.10968E+05         0.00000E+00
    0.00000E+00         0.00000E+00         0.91259E+02
 
    0.11327E+05         0.30794E+04         0.00000E+00
    0.30794E+04        -0.10949E+05         0.00000E+00
    0.00000E+00         0.00000E+00         0.75445E+02
 
    0.11224E+05         0.51138E+04         0.00000E+00
    0.51138E+04        -0.10913E+05         0.00000E+00
    0.00000E+00         0.00000E+00         0.62114E+02
 
    0.11116E+05         0.71352E+04         0.00000E+00
    0.71352E+04        -0.10862E+05         0.00000E+00
    0.00000E+00         0.00000E+00         0.50934E+02
 
    0.11003E+05         0.91422E+04         0.00000E+00
    0.91422E+04        -0.10795E+05         0.00000E+00
    0.00000E+00         0.00000E+00         0.41599E+02
 
    0.10884E+05         0.11134E+05         0.00000E+00
    0.11134E+05        -0.10715E+05         0.00000E+00
    0.00000E+00         0.00000E+00         0.33836E+02
 
    0.10759E+05         0.13108E+05         0.00000E+00
    0.13108E+05        -0.10622E+05         0.00000E+00
    0.00000E+00         0.00000E+00         0.27402E+02
 
    0.10629E+05         0.15064E+05         0.00000E+00
    0.15064E+05        -0.10518E+05         0.00000E+00
    0.00000E+00         0.00000E+00         0.22088E+02
 
    0.10492E+05         0.17001E+05         0.00000E+00
    0.17001E+05        -0.10403E+05         0.00000E+00
    0.00000E+00         0.00000E+00         0.17709E+02
 
    0.10349E+05         0.18917E+05         0.00000E+00
    0.18917E+05        -0.10278E+05         0.00000E+00
    0.00000E+00         0.00000E+00         0.14112E+02
 
    0.10200E+05         0.20812E+05         0.00000E+00
    0.20812E+05        -0.10144E+05         0.00000E+00
    0.00000E+00         0.00000E+00         0.11162E+02
 
    0.10044E+05         0.22684E+05         0.00000E+00
    0.22684E+05        -0.10000E+05         0.00000E+00
    0.00000E+00         0.00000E+00         0.87487E+01
 
    0.98822E+04         0.24533E+05         0.00000E+00
    0.24533E+05        -0.98483E+04         0.00000E+00
    0.00000E+00         0.00000E+00         0.67767E+01
 
    0.97141E+04         0.26358E+05         0.00000E+00
    0.26358E+05        -0.96882E+04         0.00000E+00
    0.00000E+00         0.00000E+00         0.51671E+01
 
    0.95397E+04         0.28158E+05         0.00000E+00
    0.28158E+05        -0.95204E+04         0.00000E+00
    0.00000E+00         0.00000E+00         0.38536E+01
 
    0.93591E+04         0.29931E+05         0.00000E+00
    0.29931E+05        -0.93452E+04         0.00000E+00
    0.00000E+00         0.00000E+00         0.27810E+01
 
    0.91723E+04         0.31678E+05         0.00000E+00
    0.31678E+05        -0.91628E+04         0.00000E+00
    0.00000E+00         0.00000E+00         0.19028E+01
 
    0.89794E+04         0.33397E+05         0.00000E+00
    0.33397E+05        -0.89735E+04         0.00000E+00
    0.00000E+00         0.00000E+00         0.11802E+01
 
    0.87804E+04         0.35087E+05         0.00000E+00
    0.35087E+05        -0.87775E+04         0.00000E+00
    0.00000E+00         0.00000E+00         0.58030E+00
 
    0.85754E+04         0.36749E+05         0.00000E+00
    0.36749E+05        -0.85751E+04         0.00000E+00
    0.00000E+00         0.00000E+00         0.75262E-01
 
    0.83645E+04         0.38380E+05         0.00000E+00
    0.38380E+05        -0.83663E+04         0.00000E+00
    0.00000E+00         0.00000E+00        -0.35912E+00
 
    0.81478E+04         0.39980E+05         0.00000E+00
    0.39980E+05        -0.81515E+04         0.00000E+00
    0.00000E+00         0.00000E+00        -0.74419E+00
 
    0.79253E+04         0.41549E+05         0.00000E+00
    0.41549E+05        -0.79308E+04         0.00000E+00
    0.00000E+00         0.00000E+00        -0.10993E+01
 
    0.76971E+04         0.43086E+05         0.00000E+00
    0.43086E+05        -0.77043E+04         0.00000E+00
    0.00000E+00         0.00000E+00        -0.14426E+01
 
    0.74634E+04         0.44590E+05         0.00000E+00
    0.44590E+05        -0.74723E+04         0.00000E+00
    0.00000E+00         0.00000E+00        -0.17920E+01
 
    0.72241E+04         0.46061E+05         0.00000E+00
    0.46061E+05        -0.72350E+04         0.00000E+00
    0.00000E+00         0.00000E+00        -0.21657E+01
 
    0.69795E+04         0.47497E+05         0.00000E+00
    0.47497E+05        -0.69924E+04         0.00000E+00
    0.00000E+00         0.00000E+00        -0.25829E+01
 
    0.67296E+04         0.48899E+05         0.00000E+00
    0.48899E+05        -0.67449E+04         0.00000E+00
    0.00000E+00         0.00000E+00        -0.30650E+01
 
    0.64744E+04         0.50265E+05         0.00000E+00
    0.50265E+05        -0.64926E+04         0.00000E+00
    0.00000E+00         0.00000E+00        -0.36362E+01
 
    0.62141E+04         0.51595E+05         0.00000E+00
    0.51595E+05        -0.62358E+04         0.00000E+00
    0.00000E+00         0.00000E+00        -0.43246E+01
 
    0.59488E+04         0.52889E+05         0.00000E+00
    0.52889E+05        -0.59747E+04         0.00000E+00
    0.00000E+00         0.00000E+00        -0.51634E+01
 
    0.56786E+04         0.54146E+05         0.00000E+00
    0.54146E+05        -0.57095E+04         0.00000E+00
    0.00000E+00         0.00000E+00        -0.61922E+01
 
    0.54034E+04         0.55365E+05         0.00000E+00
    0.55365E+05        -0.54407E+04         0.00000E+00
    0.00000E+00         0.00000E+00        -0.74585E+01
 
    0.51235E+04         0.56546E+05         0.00000E+00
    0.56546E+05        -0.51686E+04         0.00000E+00
    0.00000E+00         0.00000E+00        -0.90197E+01
 
    0.48388E+04         0.57688E+05         0.00000E+00
    0.57688E+05        -0.48935E+04         0.00000E+00
    0.00000E+00         0.00000E+00        -0.10945E+02
 
    0.45493E+04         0.58792E+05         0.00000E+00
    0.58792E+05        -0.46159E+04         0.00000E+00
    0.00000E+00         0.00000E+00        -0.13319E+02
 
    0.42552E+04         0.59856E+05         0.00000E+00
    0.59856E+05        -0.43364E+04         0.00000E+00
    0.00000E+00         0.00000E+00        -0.16242E+02
 
    0.39564E+04         0.60880E+05         0.00000E+00
    0.60880E+05        -0.40556E+04         0.00000E+00
    0.00000E+00         0.00000E+00        -0.19837E+02
 
    0.36529E+04         0.61865E+05         0.00000E+00
    0.61865E+05        -0.37741E+04         0.00000E+00
    0.00000E+00         0.00000E+00        -0.24251E+02
 
    0.33446E+04         0.62809E+05         0.00000E+00
    0.62809E+05        -0.34929E+04         0.00000E+00
    0.00000E+00         0.00000E+00        -0.29661E+02
 
    0.30315E+04         0.63713E+05         0.00000E+00
    0.63713E+05        -0.32129E+04         0.00000E+00
    0.00000E+00         0.00000E+00        -0.36277E+02
 
    0.27134E+04         0.64576E+05         0.00000E+00
    0.64576E+05        -0.29352E+04         0.00000E+00
    0.00000E+00         0.00000E+00        -0.44351E+02
 
    0.23902E+04         0.65400E+05         0.00000E+00
    0.65400E+05        -0.26611E+04         0.00000E+00
    0.00000E+00         0.00000E+00        -0.54181E+02
 
    0.20617E+04         0.66182E+05         0.00000E+00
    0.66182E+05        -0.23923E+04         0.00000E+00
    0.00000E+00         0.00000E+00        -0.66117E+02
 
    0.17275E+04         0.66925E+05         0.00000E+00
    0.66925E+05        -0.21304E+04         0.00000E+00
    0.00000E+00         0.00000E+00        -0.80569E+02
 
    0.13874E+04         0.67628E+05         0.00000E+00
    0.67628E+05        -0.18774E+04         0.00000E+00
    0.00000E+00         0.00000E+00        -0.98012E+02
 
    0.10408E+04         0.68292E+05         0.00000E+00
    0.68292E+05        -0.16358E+04         0.00000E+00
    0.00000E+00         0.00000E+00        -0.11899E+03
 
    0.68742E+03         0.68918E+05         0.00000E+00
    0.68918E+05        -0.14081E+04         0.00000E+00
    0.00000E+00         0.00000E+00        -0.14413E+03
 
    0.32656E+03         0.69506E+05         0.00000E+00
    0.69506E+05        -0.11971E+04         0.00000E+00
    0.00000E+00         0.00000E+00        -0.17410E+03
 
   -0.42381E+02         0.70058E+05         0.00000E+00
    0.70058E+05        -0.10060E+04         0.00000E+00
    0.00000E+00         0.00000E+00        -0.20967E+03
 
    0.16697E+05         0.10490E+04         0.00000E+00
    0.10490E+04        -0.16022E+05         0.00000E+00
    0.00000E+00         0.00000E+00         0.13503E+03
 
    0.16553E+05         0.31249E+04         0.00000E+00
    0.31249E+04        -0.15995E+05         0.00000E+00
    0.00000E+00         0.00000E+00         0.11163E+03
 
    0.16401E+05         0.51893E+04         0.00000E+00
    0.51893E+04        -0.15942E+05         0.00000E+00
    0.00000E+00         0.00000E+00         0.91902E+02
 
    0.16242E+05         0.72405E+04         0.00000E+00
    0.72405E+04        -0.15865E+05         0.00000E+00
    0.00000E+00         0.00000E+00         0.75362E+02
 
    0.16075E+05         0.92772E+04         0.00000E+00
    0.92772E+04        -0.15768E+05         0.00000E+00
    0.00000E+00         0.00000E+00         0.61555E+02
 
    0.15900E+05         0.11298E+05         0.00000E+00
    0.11298E+05        -0.15650E+05         0.00000E+00
    0.00000E+00         0.00000E+00         0.50073E+02
 
    0.15717E+05         0.13301E+05         0.00000E+00
    0.13301E+05        -0.15514E+05         0.00000E+00
    0.00000E+00         0.00000E+00         0.40558E+02
 
    0.15525E+05         0.15286E+05         0.00000E+00
    0.15286E+05        -0.15362E+05         0.00000E+00
    0.00000E+00         0.00000E+00         0.32697E+02
 
    0.15324E+05         0.17251E+05         0.00000E+00
    0.17251E+05        -0.15193E+05         0.00000E+00
    0.00000E+00         0.00000E+00         0.26222E+02
 
    0.15114E+05         0.19196E+05         0.00000E+00
    0.19196E+05        -0.15010E+05         0.00000E+00
    0.00000E+00         0.00000E+00         0.20901E+02
 
    0.14895E+05         0.21119E+05         0.00000E+00
    0.21119E+05        -0.14813E+05         0.00000E+00
    0.00000E+00         0.00000E+00         0.16538E+02
 
    0.14667E+05         0.23019E+05         0.00000E+00
    0.23019E+05        -0.14603E+05         0.00000E+00
    0.00000E+00         0.00000E+00         0.12967E+02
 
    0.14430E+05         0.24895E+05         0.00000E+00
    0.24895E+05        -0.14380E+05         0.00000E+00
    0.00000E+00         0.00000E+00         0.10049E+02
 
    0.14184E+05         0.26746E+05         0.00000E+00
    0.26746E+05        -0.14146E+05         0.00000E+00
    0.00000E+00         0.00000E+00         0.76666E+01
 
    0.13929E+05         0.28572E+05         0.00000E+00
    0.28572E+05        -0.13900E+05         0.00000E+00
    0.00000E+00         0.00000E+00         0.57222E+01
 
    0.13665E+05         0.30372E+05         0.00000E+00
    0.30372E+05        -0.13644E+05         0.00000E+00
    0.00000E+00         0.00000E+00         0.41338E+01
 
    0.13391E+05         0.32144E+05         0.00000E+00
    0.32144E+05        -0.13377E+05         0.00000E+00
    0.00000E+00         0.00000E+00         0.28329E+01
 
    0.13109E+05         0.33888E+05         0.00000E+00
    0.33888E+05        -0.13100E+05         0.00000E+00
    0.00000E+00         0.00000E+00         0.17623E+01
 
    0.12818E+05         0.35604E+05         0.00000E+00
    0.35604E+05        -0.12814E+05         0.00000E+00
    0.00000E+00         0.00000E+00         0.87332E+00
 
    0.12518E+05         0.37289E+05         0.00000E+00
    0.37289E+05        -0.12518E+05         0.00000E+00
    0.00000E+00         0.00000E+00         0.12493E+00
 
    0.12210E+05         0.38945E+05         0.00000E+00
    0.38945E+05        -0.12213E+05         0.00000E+00
    0.00000E+00         0.00000E+00        -0.51851E+00
 
    0.11893E+05         0.40569E+05         0.00000E+00
    0.40569E+05        -0.11899E+05         0.00000E+00
    0.00000E+00         0.00000E+00        -0.10884E+01
 
    0.11568E+05         0.42161E+05         0.00000E+00
    0.42161E+05        -0.11576E+05         0.00000E+00
    0.00000E+00         0.00000E+00        -0.16132E+01
 
    0.11235E+05         0.43720E+05         0.00000E+00
    0.43720E+05        -0.11245E+05         0.00000E+00
    0.00000E+00         0.00000E+00        -0.21196E+01
 
    0.10893E+05         0.45246E+05         0.00000E+00
    0.45246E+05        -0.10906E+05         0.00000E+00
    0.00000E+00         0.00000E+00        -0.26337E+01
 
    0.10543E+05         0.46738E+05         0.00000E+00
    0.46738E+05        -0.10559E+05         0.00000E+00
    0.00000E+00         0.00000E+00        -0.31821E+01
 
    0.10186E+05         0.48196E+05         0.00000E+00
    0.48196E+05        -0.10205E+05         0.00000E+00
    0.00000E+00         0.00000E+00        -0.37930E+01
 
    0.98208E+04         0.49618E+05         0.00000E+00
    0.49618E+05        -0.98433E+04         0.00000E+00
    0.00000E+00         0.00000E+00        -0.44975E+01
 
    0.94480E+04         0.51004E+05         0.00000E+00
    0.51004E+05        -0.94747E+04         0.00000E+00
    0.00000E+00         0.00000E+00        -0.53310E+01
 
    0.90678E+04         0.52354E+05         0.00000E+00
    0.52354E+05        -0.90995E+04         0.00000E+00
    0.00000E+00         0.00000E+00        -0.63342E+01
 
    0.86803E+04         0.53667E+05         0.00000E+00
    0.53667E+05        -0.87181E+04         0.00000E+00
    0.00000E+00         0.00000E+00        -0.75556E+01
 
    0.82855E+04         0.54942E+05         0.00000E+00
    0.54942E+05        -0.83308E+04         0.00000E+00
    0.00000E+00         0.00000E+00        -0.90528E+01
 
    0.78837E+04         0.56179E+05         0.00000E+00
    0.56179E+05        -0.79382E+04         0.00000E+00
    0.00000E+00         0.00000E+00        -0.10895E+02
 
    0.74748E+04         0.57377E+05         0.00000E+00
    0.57377E+05        -0.75406E+04         0.00000E+00
    0.00000E+00         0.00000E+00        -0.13165E+02
 
    0.70590E+04         0.58536E+05         0.00000E+00
    0.58536E+05        -0.71388E+04         0.00000E+00
    0.00000E+00         0.00000E+00        -0.15965E+02
 
    0.66364E+04         0.59656E+05         0.00000E+00
    0.59656E+05        -0.67335E+04         0.00000E+00
    0.00000E+00         0.00000E+00        -0.19416E+02
 
    0.62069E+04         0.60735E+05         0.00000E+00
    0.60735E+05        -0.63252E+04         0.00000E+00
    0.00000E+00         0.00000E+00        -0.23666E+02
 
    0.57706E+04         0.61775E+05         0.00000E+00
    0.61775E+05        -0.59151E+04         0.00000E+00
    0.00000E+00         0.00000E+00        -0.28893E+02
 
    0.53275E+04         0.62773E+05         0.00000E+00
    0.62773E+05        -0.55041E+04         0.00000E+00
    0.00000E+00         0.00000E+00        -0.35311E+02
 
    0.48775E+04         0.63731E+05         0.00000E+00
    0.63731E+05        -0.50934E+04         0.00000E+00
    0.00000E+00         0.00000E+00        -0.43176E+02
 
    0.44205E+04         0.64649E+05         0.00000E+00
    0.64649E+05        -0.46845E+04         0.00000E+00
    0.00000E+00         0.00000E+00        -0.52797E+02
 
    0.39564E+04         0.65525E+05         0.00000E+00
    0.65525E+05        -0.42791E+04         0.00000E+00
    0.00000E+00         0.00000E+00        -0.64539E+02
 
    0.34848E+04         0.66360E+05         0.00000E+00
    0.66360E+05        -0.38790E+04         0.00000E+00
    0.00000E+00         0.00000E+00        -0.78836E+02
 
    0.30055E+04         0.67154E+05         0.00000E+00
    0.67154E+05        -0.34865E+04         0.00000E+00
    0.00000E+00         0.00000E+00        -0.96197E+02
 
    0.25182E+04         0.67907E+05         0.00000E+00
    0.67907E+05        -0.31043E+04         0.00000E+00
    0.00000E+00         0.00000E+00        -0.11722E+03
 
    0.20222E+04         0.68621E+05         0.00000E+00
    0.68621E+05        -0.27352E+04         0.00000E+00
    0.00000E+00         0.00000E+00        -0.14260E+03
 
    0.15170E+04         0.69294E+05         0.00000E+00
    0.69294E+05        -0.23826E+04         0.00000E+00
    0.00000E+00         0.00000E+00        -0.17313E+03
 
    0.10019E+04         0.69929E+05         0.00000E+00
    0.69929E+05        -0.20504E+04         0.00000E+00
    0.00000E+00         0.00000E+00        -0.20971E+03
 
    0.47602E+03         0.70526E+05         0.00000E+00
    0.70526E+05        -0.17427E+04         0.00000E+00
    0.00000E+00         0.00000E+00        -0.25334E+03
 
   -0.61446E+02         0.71085E+05         0.00000E+00
    0.71085E+05        -0.14642E+04         0.00000E+00
    0.00000E+00         0.00000E+00        -0.30513E+03
 
    0.22062E+05         0.10699E+04         0.00000E+00
    0.10699E+04        -0.21163E+05         0.00000E+00
    0.00000E+00         0.00000E+00         0.17970E+03
 
    0.21870E+05         0.31873E+04         0.00000E+00
    0.31873E+04        -0.21127E+05         0.00000E+00
    0.00000E+00         0.00000E+00         0.14856E+03
 
    0.21669E+05         0.52929E+04         0.00000E+00
    0.52929E+04        -0.21057E+05         0.00000E+00
    0.00000E+00         0.00000E+00         0.12231E+03
 
    0.21457E+05         0.73850E+04         0.00000E+00
    0.73850E+04        -0.20956E+05         0.00000E+00
    0.00000E+00         0.00000E+00         0.10030E+03
 
    0.21236E+05         0.94622E+04         0.00000E+00
    0.94622E+04        -0.20826E+05         0.00000E+00
    0.00000E+00         0.00000E+00         0.81928E+02
 
    0.21004E+05         0.11523E+05         0.00000E+00
    0.11523E+05        -0.20671E+05         0.00000E+00
    0.00000E+00         0.00000E+00         0.66650E+02
 
    0.20761E+05         0.13566E+05         0.00000E+00
    0.13566E+05        -0.20491E+05         0.00000E+00
    0.00000E+00         0.00000E+00         0.53989E+02
 
    0.20506E+05         0.15591E+05         0.00000E+00
    0.15591E+05        -0.20289E+05         0.00000E+00
    0.00000E+00         0.00000E+00         0.43530E+02
 
    0.20240E+05         0.17595E+05         0.00000E+00
    0.17595E+05        -0.20066E+05         0.00000E+00
    0.00000E+00         0.00000E+00         0.34914E+02
 
    0.19963E+05         0.19578E+05         0.00000E+00
    0.19578E+05        -0.19823E+05         0.00000E+00
    0.00000E+00         0.00000E+00         0.27834E+02
 
    0.19673E+05         0.21539E+05         0.00000E+00
    0.21539E+05        -0.19563E+05         0.00000E+00
    0.00000E+00         0.00000E+00         0.22028E+02
 
    0.19371E+05         0.23477E+05         0.00000E+00
    0.23477E+05        -0.19285E+05         0.00000E+00
    0.00000E+00         0.00000E+00         0.17275E+02
 
    0.19058E+05         0.25391E+05         0.00000E+00
    0.25391E+05        -0.18991E+05         0.00000E+00
    0.00000E+00         0.00000E+00         0.13392E+02
 
    0.18732E+05         0.27279E+05         0.00000E+00
    0.27279E+05        -0.18681E+05         0.00000E+00
    0.00000E+00         0.00000E+00         0.10220E+02
 
    0.18395E+05         0.29141E+05         0.00000E+00
    0.29141E+05        -0.18356E+05         0.00000E+00
    0.00000E+00         0.00000E+00         0.76317E+01
 
    0.18045E+05         0.30977E+05         0.00000E+00
    0.30977E+05        -0.18018E+05         0.00000E+00
    0.00000E+00         0.00000E+00         0.55165E+01
 
    0.17684E+05         0.32784E+05         0.00000E+00
    0.32784E+05        -0.17665E+05         0.00000E+00
    0.00000E+00         0.00000E+00         0.37840E+01
 
    0.17311E+05         0.34563E+05         0.00000E+00
    0.34563E+05        -0.17299E+05         0.00000E+00
    0.00000E+00         0.00000E+00         0.23577E+01
 
    0.16926E+05         0.36312E+05         0.00000E+00
    0.36312E+05        -0.16921E+05         0.00000E+00
    0.00000E+00         0.00000E+00         0.11735E+01
 
    0.16530E+05         0.38032E+05         0.00000E+00
    0.38032E+05        -0.16529E+05         0.00000E+00
    0.00000E+00         0.00000E+00         0.17644E+00
 
    0.16123E+05         0.39720E+05         0.00000E+00
    0.39720E+05        -0.16126E+05         0.00000E+00
    0.00000E+00         0.00000E+00        -0.68063E+00
 
    0.15704E+05         0.41376E+05         0.00000E+00
    0.41376E+05        -0.15712E+05         0.00000E+00
    0.00000E+00         0.00000E+00        -0.14394E+01
 
    0.15275E+05         0.43000E+05         0.00000E+00
    0.43000E+05        -0.15285E+05         0.00000E+00
    0.00000E+00         0.00000E+00        -0.21375E+01
 
    0.14834E+05         0.44591E+05         0.00000E+00
    0.44591E+05        -0.14848E+05         0.00000E+00
    0.00000E+00         0.00000E+00        -0.28105E+01
 
    0.14383E+05         0.46147E+05         0.00000E+00
    0.46147E+05        -0.14400E+05         0.00000E+00
    0.00000E+00         0.00000E+00        -0.34927E+01
 
    0.13921E+05         0.47669E+05         0.00000E+00
    0.47669E+05        -0.13942E+05         0.00000E+00
    0.00000E+00         0.00000E+00        -0.42195E+01
 
    0.13449E+05         0.49156E+05         0.00000E+00
    0.49156E+05        -0.13474E+05         0.00000E+00
    0.00000E+00         0.00000E+00        -0.50280E+01
 
    0.12967E+05         0.50606E+05         0.00000E+00
    0.50606E+05        -0.12997E+05         0.00000E+00
    0.00000E+00         0.00000E+00        -0.59594E+01
 
    0.12474E+05         0.52020E+05         0.00000E+00
    0.52020E+05        -0.12510E+05         0.00000E+00
    0.00000E+00         0.00000E+00        -0.70602E+01
 
    0.11972E+05         0.53397E+05         0.00000E+00
    0.53397E+05        -0.12014E+05         0.00000E+00
    0.00000E+00         0.00000E+00        -0.83843E+01
 
    0.11460E+05         0.54736E+05         0.00000E+00
    0.54736E+05        -0.11510E+05         0.00000E+00
    0.00000E+00         0.00000E+00        -0.99955E+01
 
    0.10939E+05         0.56037E+05         0.00000E+00
    0.56037E+05        -0.10999E+05         0.00000E+00
    0.00000E+00         0.00000E+00        -0.11970E+02
 
    0.10408E+05         0.57298E+05         0.00000E+00
    0.57298E+05        -0.10480E+05         0.00000E+00
    0.00000E+00         0.00000E+00        -0.14398E+02
 
    0.98682E+04         0.58520E+05         0.00000E+00
    0.58520E+05        -0.99551E+04         0.00000E+00
    0.00000E+00         0.00000E+00        -0.17391E+02
 
    0.93190E+04         0.59702E+05         0.00000E+00
    0.59702E+05        -0.94244E+04         0.00000E+00
    0.00000E+00         0.00000E+00        -0.21081E+02
 
    0.87608E+04         0.60844E+05         0.00000E+00
    0.60844E+05        -0.88889E+04         0.00000E+00
    0.00000E+00         0.00000E+00        -0.25629E+02
 
    0.81936E+04         0.61945E+05         0.00000E+00
    0.61945E+05        -0.83497E+04         0.00000E+00
    0.00000E+00         0.00000E+00        -0.31230E+02
 
    0.76174E+04         0.63006E+05         0.00000E+00
    0.63006E+05        -0.78080E+04         0.00000E+00
    0.00000E+00         0.00000E+00        -0.38119E+02
 
    0.70323E+04         0.64024E+05         0.00000E+00
    0.64024E+05        -0.72651E+04         0.00000E+00
    0.00000E+00         0.00000E+00        -0.46577E+02
 
    0.64380E+04         0.65001E+05         0.00000E+00
    0.65001E+05        -0.67227E+04         0.00000E+00
    0.00000E+00         0.00000E+00        -0.56943E+02
 
    0.58346E+04         0.65936E+05         0.00000E+00
    0.65936E+05        -0.61827E+04         0.00000E+00
    0.00000E+00         0.00000E+00        -0.69623E+02
 
    0.52217E+04         0.66830E+05         0.00000E+00
    0.66830E+05        -0.56472E+04         0.00000E+00
    0.00000E+00         0.00000E+00        -0.85099E+02
 
    0.45992E+04         0.67681E+05         0.00000E+00
    0.67681E+05        -0.51189E+04         0.00000E+00
    0.00000E+00         0.00000E+00        -0.10394E+03
 
    0.39664E+04         0.68491E+05         0.00000E+00
    0.68491E+05        -0.46006E+04         0.00000E+00
    0.00000E+00         0.00000E+00        -0.12683E+03
 
    0.33231E+04         0.69259E+05         0.00000E+00
    0.69259E+05        -0.40958E+04         0.00000E+00
    0.00000E+00         0.00000E+00        -0.15454E+03
 
    0.26684E+04         0.69986E+05         0.00000E+00
    0.69986E+05        -0.36084E+04         0.00000E+00
    0.00000E+00         0.00000E+00        -0.18800E+03
 
    0.20017E+04         0.70673E+05         0.00000E+00
    0.70673E+05        -0.31429E+04         0.00000E+00
    0.00000E+00         0.00000E+00        -0.22825E+03
 
    0.13220E+04         0.71320E+05         0.00000E+00
    0.71320E+05        -0.27044E+04         0.00000E+00
    0.00000E+00         0.00000E+00        -0.27648E+03
 
    0.62818E+03         0.71928E+05         0.00000E+00
    0.71928E+05        -0.22983E+04         0.00000E+00
    0.00000E+00         0.00000E+00        -0.33402E+03
 
   -0.80864E+02         0.72498E+05         0.00000E+00
    0.72498E+05        -0.19308E+04         0.00000E+00
    0.00000E+00         0.00000E+00        -0.40232E+03
 
    0.27548E+05         0.10967E+04         0.00000E+00
    0.10967E+04        -0.26420E+05         0.00000E+00
    0.00000E+00         0.00000E+00         0.22564E+03
 
    0.27307E+05         0.32669E+04         0.00000E+00
    0.32669E+04        -0.26374E+05         0.00000E+00
    0.00000E+00         0.00000E+00         0.18653E+03
 
    0.27055E+05         0.54249E+04         0.00000E+00
    0.54249E+04        -0.26287E+05         0.00000E+00
    0.00000E+00         0.00000E+00         0.15358E+03
 
    0.26790E+05         0.75691E+04         0.00000E+00
    0.75691E+04        -0.26160E+05         0.00000E+00
    0.00000E+00         0.00000E+00         0.12595E+03
 
    0.26513E+05         0.96980E+04         0.00000E+00
    0.96980E+04        -0.25999E+05         0.00000E+00
    0.00000E+00         0.00000E+00         0.10288E+03
 
    0.26222E+05         0.11810E+05         0.00000E+00
    0.11810E+05        -0.25804E+05         0.00000E+00
    0.00000E+00         0.00000E+00         0.83698E+02
 
    0.25918E+05         0.13904E+05         0.00000E+00
    0.13904E+05        -0.25579E+05         0.00000E+00
    0.00000E+00         0.00000E+00         0.67804E+02
 
    0.25600E+05         0.15979E+05         0.00000E+00
    0.15979E+05        -0.25327E+05         0.00000E+00
    0.00000E+00         0.00000E+00         0.54674E+02
 
    0.25267E+05         0.18033E+05         0.00000E+00
    0.18033E+05        -0.25048E+05         0.00000E+00
    0.00000E+00         0.00000E+00         0.43856E+02
 
    0.24920E+05         0.20065E+05         0.00000E+00
    0.20065E+05        -0.24745E+05         0.00000E+00
    0.00000E+00         0.00000E+00         0.34967E+02
 
    0.24558E+05         0.22075E+05         0.00000E+00
    0.22075E+05        -0.24420E+05         0.00000E+00
    0.00000E+00         0.00000E+00         0.27677E+02
 
    0.24181E+05         0.24061E+05         0.00000E+00
    0.24061E+05        -0.24073E+05         0.00000E+00
    0.00000E+00         0.00000E+00         0.21710E+02
 
    0.23790E+05         0.26022E+05         0.00000E+00
    0.26022E+05        -0.23705E+05         0.00000E+00
    0.00000E+00         0.00000E+00         0.16833E+02
 
    0.23383E+05         0.27958E+05         0.00000E+00
    0.27958E+05        -0.23319E+05         0.00000E+00
    0.00000E+00         0.00000E+00         0.12850E+02
 
    0.22961E+05         0.29866E+05         0.00000E+00
    0.29866E+05        -0.22913E+05         0.00000E+00
    0.00000E+00         0.00000E+00         0.95982E+01
 
    0.22525E+05         0.31747E+05         0.00000E+00
    0.31747E+05        -0.22490E+05         0.00000E+00
    0.00000E+00         0.00000E+00         0.69411E+01
 
    0.22074E+05         0.33600E+05         0.00000E+00
    0.33600E+05        -0.22050E+05         0.00000E+00
    0.00000E+00         0.00000E+00         0.47642E+01
 
    0.21609E+05         0.35423E+05         0.00000E+00
    0.35423E+05        -0.21594E+05         0.00000E+00
    0.00000E+00         0.00000E+00         0.29719E+01
 
    0.21129E+05         0.37216E+05         0.00000E+00
    0.37216E+05        -0.21121E+05         0.00000E+00
    0.00000E+00         0.00000E+00         0.14835E+01
 
    0.20634E+05         0.38978E+05         0.00000E+00
    0.38978E+05        -0.20633E+05         0.00000E+00
    0.00000E+00         0.00000E+00         0.23037E+00
 
    0.20126E+05         0.40709E+05         0.00000E+00
    0.40709E+05        -0.20130E+05         0.00000E+00
    0.00000E+00         0.00000E+00        -0.84678E+00
 
    0.19603E+05         0.42407E+05         0.00000E+00
    0.42407E+05        -0.19612E+05         0.00000E+00
    0.00000E+00         0.00000E+00        -0.18001E+01
 
    0.19067E+05         0.44071E+05         0.00000E+00
    0.44071E+05        -0.19080E+05         0.00000E+00
    0.00000E+00         0.00000E+00        -0.26769E+01
 
    0.18517E+05         0.45702E+05         0.00000E+00
    0.45702E+05        -0.18535E+05         0.00000E+00
    0.00000E+00         0.00000E+00        -0.35213E+01
 
    0.17954E+05         0.47297E+05         0.00000E+00
    0.47297E+05        -0.17976E+05         0.00000E+00
    0.00000E+00         0.00000E+00        -0.43767E+01
 
    0.17378E+05         0.48857E+05         0.00000E+00
    0.48857E+05        -0.17404E+05         0.00000E+00
    0.00000E+00         0.00000E+00        -0.52869E+01
 
    0.16788E+05         0.50381E+05         0.00000E+00
    0.50381E+05        -0.16820E+05         0.00000E+00
    0.00000E+00         0.00000E+00        -0.62986E+01
 
    0.16186E+05         0.51868E+05         0.00000E+00
    0.51868E+05        -0.16224E+05         0.00000E+00
    0.00000E+00         0.00000E+00        -0.74630E+01
 
    0.15572E+05         0.53318E+05         0.00000E+00
    0.53318E+05        -0.15616E+05         0.00000E+00
    0.00000E+00         0.00000E+00        -0.88381E+01
 
    0.14945E+05         0.54729E+05         0.00000E+00
    0.54729E+05        -0.14997E+05         0.00000E+00
    0.00000E+00         0.00000E+00        -0.10491E+02
 
    0.14306E+05         0.56102E+05         0.00000E+00
    0.56102E+05        -0.14369E+05         0.00000E+00
    0.00000E+00         0.00000E+00        -0.12502E+02
 
    0.13655E+05         0.57435E+05         0.00000E+00
    0.57435E+05        -0.13730E+05         0.00000E+00
    0.00000E+00         0.00000E+00        -0.14966E+02
 
    0.12993E+05         0.58729E+05         0.00000E+00
    0.58729E+05        -0.13083E+05         0.00000E+00
    0.00000E+00         0.00000E+00        -0.17995E+02
 
    0.12318E+05         0.59982E+05         0.00000E+00
    0.59982E+05        -0.12427E+05         0.00000E+00
    0.00000E+00         0.00000E+00        -0.21729E+02
 
    0.11633E+05         0.61194E+05         0.00000E+00
    0.61194E+05        -0.11764E+05         0.00000E+00
    0.00000E+00         0.00000E+00        -0.26331E+02
 
    0.10936E+05         0.62364E+05         0.00000E+00
    0.62364E+05        -0.11096E+05         0.00000E+00
    0.00000E+00         0.00000E+00        -0.32004E+02
 
    0.10228E+05         0.63493E+05         0.00000E+00
    0.63493E+05        -0.10423E+05         0.00000E+00
    0.00000E+00         0.00000E+00        -0.38989E+02
 
    0.95085E+04         0.64579E+05         0.00000E+00
    0.64579E+05        -0.97464E+04         0.00000E+00
    0.00000E+00         0.00000E+00        -0.47580E+02
 
    0.87780E+04         0.65623E+05         0.00000E+00
    0.65623E+05        -0.90686E+04         0.00000E+00
    0.00000E+00         0.00000E+00        -0.58128E+02
 
    0.80361E+04         0.66625E+05         0.00000E+00
    0.66625E+05        -0.83914E+04         0.00000E+00
    0.00000E+00         0.00000E+00        -0.71056E+02
 
    0.72827E+04         0.67583E+05         0.00000E+00
    0.67583E+05        -0.77171E+04         0.00000E+00
    0.00000E+00         0.00000E+00        -0.86870E+02
 
    0.65176E+04         0.68499E+05         0.00000E+00
    0.68499E+05        -0.70485E+04         0.00000E+00
    0.00000E+00         0.00000E+00        -0.10617E+03
 
    0.57404E+04         0.69371E+05         0.00000E+00
    0.69371E+05        -0.63888E+04         0.00000E+00
    0.00000E+00         0.00000E+00        -0.12967E+03
 
    0.49506E+04         0.70201E+05         0.00000E+00
    0.70201E+05        -0.57417E+04         0.00000E+00
    0.00000E+00         0.00000E+00        -0.15822E+03
 
    0.41475E+04         0.70988E+05         0.00000E+00
    0.70988E+05        -0.51114E+04         0.00000E+00
    0.00000E+00         0.00000E+00        -0.19279E+03
 
    0.33303E+04         0.71732E+05         0.00000E+00
    0.71732E+05        -0.45029E+04         0.00000E+00
    0.00000E+00         0.00000E+00        -0.23452E+03
 
    0.24982E+04         0.72436E+05         0.00000E+00
    0.72436E+05        -0.39218E+04         0.00000E+00
    0.00000E+00         0.00000E+00        -0.28473E+03
 
    0.16498E+04         0.73098E+05         0.00000E+00
    0.73098E+05        -0.33743E+04         0.00000E+00
    0.00000E+00         0.00000E+00        -0.34490E+03
 
    0.78402E+03         0.73720E+05         0.00000E+00
    0.73720E+05        -0.28674E+04         0.00000E+00
    0.00000E+00         0.00000E+00        -0.41668E+03
 
   -0.10077E+03         0.74304E+05         0.00000E+00
    0.74304E+05        -0.24087E+04         0.00000E+00
    0.00000E+00         0.00000E+00        -0.50190E+03
 
    0.33185E+05         0.11293E+04         0.00000E+00
    0.11293E+04        -0.31819E+05         0.00000E+00
    0.00000E+00         0.00000E+00         0.27318E+03
 
    0.32893E+05         0.33637E+04         0.00000E+00
    0.33637E+04        -0.31764E+05         0.00000E+00
    0.00000E+00         0.00000E+00         0.22583E+03
 
    0.32588E+05         0.55856E+04         0.00000E+00
    0.55856E+04        -0.31659E+05         0.00000E+00
    0.00000E+00         0.00000E+00         0.18594E+03
 
    0.32269E+05         0.77932E+04         0.00000E+00
    0.77932E+04        -0.31506E+05         0.00000E+00
    0.00000E+00         0.00000E+00         0.15249E+03
 
    0.31934E+05         0.99850E+04         0.00000E+00
    0.99850E+04        -0.31311E+05         0.00000E+00
    0.00000E+00         0.00000E+00         0.12456E+03
 
    0.31584E+05         0.12160E+05         0.00000E+00
    0.12160E+05        -0.31077E+05         0.00000E+00
    0.00000E+00         0.00000E+00         0.10134E+03
 
    0.31217E+05         0.14315E+05         0.00000E+00
    0.14315E+05        -0.30806E+05         0.00000E+00
    0.00000E+00         0.00000E+00         0.82105E+02
 
    0.30833E+05         0.16451E+05         0.00000E+00
    0.16451E+05        -0.30502E+05         0.00000E+00
    0.00000E+00         0.00000E+00         0.66210E+02
 
    0.30432E+05         0.18566E+05         0.00000E+00
    0.18566E+05        -0.30166E+05         0.00000E+00
    0.00000E+00         0.00000E+00         0.53115E+02
 
    0.30013E+05         0.20659E+05         0.00000E+00
    0.20659E+05        -0.29802E+05         0.00000E+00
    0.00000E+00         0.00000E+00         0.42354E+02
 
    0.29577E+05         0.22728E+05         0.00000E+00
    0.22728E+05        -0.29410E+05         0.00000E+00
    0.00000E+00         0.00000E+00         0.33528E+02
 
    0.29124E+05         0.24773E+05         0.00000E+00
    0.24773E+05        -0.28992E+05         0.00000E+00
    0.00000E+00         0.00000E+00         0.26304E+02
 
    0.28652E+05         0.26792E+05         0.00000E+00
    0.26792E+05        -0.28550E+05         0.00000E+00
    0.00000E+00         0.00000E+00         0.20398E+02
 
    0.28162E+05         0.28785E+05         0.00000E+00
    0.28785E+05        -0.28084E+05         0.00000E+00
    0.00000E+00         0.00000E+00         0.15575E+02
 
    0.27655E+05         0.30750E+05         0.00000E+00
    0.30750E+05        -0.27597E+05         0.00000E+00
    0.00000E+00         0.00000E+00         0.11637E+02
 
    0.27130E+05         0.32687E+05         0.00000E+00
    0.32687E+05        -0.27087E+05         0.00000E+00
    0.00000E+00         0.00000E+00         0.84187E+01
 
    0.26587E+05         0.34595E+05         0.00000E+00
    0.34595E+05        -0.26558E+05         0.00000E+00
    0.00000E+00         0.00000E+00         0.57814E+01
 
    0.26026E+05         0.36472E+05         0.00000E+00
    0.36472E+05        -0.26008E+05         0.00000E+00
    0.00000E+00         0.00000E+00         0.36097E+01
 
    0.25448E+05         0.38319E+05         0.00000E+00
    0.38319E+05        -0.25439E+05         0.00000E+00
    0.00000E+00         0.00000E+00         0.18059E+01
 
    0.24853E+05         0.40133E+05         0.00000E+00
    0.40133E+05        -0.24852E+05         0.00000E+00
    0.00000E+00         0.00000E+00         0.28704E+00
 
    0.24241E+05         0.41916E+05         0.00000E+00
    0.41916E+05        -0.24246E+05         0.00000E+00
    0.00000E+00         0.00000E+00        -0.10185E+01
 
    0.23612E+05         0.43664E+05         0.00000E+00
    0.43664E+05        -0.23623E+05         0.00000E+00
    0.00000E+00         0.00000E+00        -0.21738E+01
 
    0.22967E+05         0.45379E+05         0.00000E+00
    0.45379E+05        -0.22983E+05         0.00000E+00
    0.00000E+00         0.00000E+00        -0.32359E+01
 
    0.22305E+05         0.47058E+05         0.00000E+00
    0.47058E+05        -0.22326E+05         0.00000E+00
    0.00000E+00         0.00000E+00        -0.42583E+01
 
    0.21627E+05         0.48702E+05         0.00000E+00
    0.48702E+05        -0.21654E+05         0.00000E+00
    0.00000E+00         0.00000E+00        -0.52932E+01
 
    0.20933E+05         0.50309E+05         0.00000E+00
    0.50309E+05        -0.20965E+05         0.00000E+00
    0.00000E+00         0.00000E+00        -0.63935E+01
 
    0.20224E+05         0.51878E+05         0.00000E+00
    0.51878E+05        -0.20262E+05         0.00000E+00
    0.00000E+00         0.00000E+00        -0.76155E+01
 
    0.19499E+05         0.53410E+05         0.00000E+00
    0.53410E+05        -0.19544E+05         0.00000E+00
    0.00000E+00         0.00000E+00        -0.90208E+01
 
    0.18759E+05         0.54904E+05         0.00000E+00
    0.54904E+05        -0.18812E+05         0.00000E+00
    0.00000E+00         0.00000E+00        -0.10680E+02
 
    0.18004E+05         0.56358E+05         0.00000E+00
    0.56358E+05        -0.18068E+05         0.00000E+00
    0.00000E+00         0.00000E+00        -0.12673E+02
 
    0.17235E+05         0.57772E+05         0.00000E+00
    0.57772E+05        -0.17310E+05         0.00000E+00
    0.00000E+00         0.00000E+00        -0.15097E+02
 
    0.16451E+05         0.59145E+05         0.00000E+00
    0.59145E+05        -0.16541E+05         0.00000E+00
    0.00000E+00         0.00000E+00        -0.18065E+02
 
    0.15653E+05         0.60478E+05         0.00000E+00
    0.60478E+05        -0.15761E+05         0.00000E+00
    0.00000E+00         0.00000E+00        -0.21715E+02
 
    0.14841E+05         0.61769E+05         0.00000E+00
    0.61769E+05        -0.14972E+05         0.00000E+00
    0.00000E+00         0.00000E+00        -0.26212E+02
 
    0.14015E+05         0.63017E+05         0.00000E+00
    0.63017E+05        -0.14174E+05         0.00000E+00
    0.00000E+00         0.00000E+00        -0.31755E+02
 
    0.13176E+05         0.64223E+05         0.00000E+00
    0.64223E+05        -0.13369E+05         0.00000E+00
    0.00000E+00         0.00000E+00        -0.38588E+02
 
    0.12323E+05         0.65386E+05         0.00000E+00
    0.65386E+05        -0.12558E+05         0.00000E+00
    0.00000E+00         0.00000E+00        -0.47000E+02
 
    0.11456E+05         0.66505E+05         0.00000E+00
    0.66505E+05        -0.11743E+05         0.00000E+00
    0.00000E+00         0.00000E+00        -0.57346E+02
 
    0.10576E+05         0.67580E+05         0.00000E+00
    0.67580E+05        -0.10926E+05         0.00000E+00
    0.00000E+00         0.00000E+00        -0.70049E+02
 
    0.96822E+04         0.68612E+05         0.00000E+00
    0.68612E+05        -0.10110E+05         0.00000E+00
    0.00000E+00         0.00000E+00        -0.85618E+02
 
    0.87745E+04         0.69599E+05         0.00000E+00
    0.69599E+05        -0.92979E+04         0.00000E+00
    0.00000E+00         0.00000E+00        -0.10466E+03
 
    0.78527E+04         0.70541E+05         0.00000E+00
    0.70541E+05        -0.84923E+04         0.00000E+00
    0.00000E+00         0.00000E+00        -0.12791E+03
 
    0.69163E+04         0.71439E+05         0.00000E+00
    0.71439E+05        -0.76973E+04         0.00000E+00
    0.00000E+00         0.00000E+00        -0.15621E+03
 
    0.59646E+04         0.72293E+05         0.00000E+00
    0.72293E+05        -0.69175E+04         0.00000E+00
    0.00000E+00         0.00000E+00        -0.19059E+03
 
    0.49970E+04         0.73103E+05         0.00000E+00
    0.73103E+05        -0.61581E+04         0.00000E+00
    0.00000E+00         0.00000E+00        -0.23222E+03
 
    0.40124E+04         0.73870E+05         0.00000E+00
    0.73870E+05        -0.54248E+04         0.00000E+00
    0.00000E+00         0.00000E+00        -0.28249E+03
 
    0.30098E+04         0.74593E+05         0.00000E+00
    0.74593E+05        -0.47246E+04         0.00000E+00
    0.00000E+00         0.00000E+00        -0.34296E+03
 
    0.19877E+04         0.75274E+05         0.00000E+00
    0.75274E+05        -0.40648E+04         0.00000E+00
    0.00000E+00         0.00000E+00        -0.41543E+03
 
    0.94460E+03         0.75914E+05         0.00000E+00
    0.75914E+05        -0.34541E+04         0.00000E+00
    0.00000E+00         0.00000E+00        -0.50189E+03
 
   -0.12131E+03         0.76514E+05         0.00000E+00
    0.76514E+05        -0.29014E+04         0.00000E+00
    0.00000E+00         0.00000E+00        -0.60454E+03
 
    0.39002E+05         0.11677E+04         0.00000E+00
    0.11677E+04        -0.37389E+05         0.00000E+00
    0.00000E+00         0.00000E+00         0.32263E+03
 
    0.38658E+05         0.34781E+04         0.00000E+00
    0.34781E+04        -0.37325E+05         0.00000E+00
    0.00000E+00         0.00000E+00         0.26672E+03
 
    0.38299E+05         0.57753E+04         0.00000E+00
    0.57753E+04        -0.37201E+05         0.00000E+00
    0.00000E+00         0.00000E+00         0.21960E+03
 
    0.37922E+05         0.80578E+04         0.00000E+00
    0.80578E+04        -0.37022E+05         0.00000E+00
    0.00000E+00         0.00000E+00         0.18010E+03
 
    0.37528E+05         0.10324E+05         0.00000E+00
    0.10324E+05        -0.36793E+05         0.00000E+00
    0.00000E+00         0.00000E+00         0.14713E+03
 
    0.37116E+05         0.12572E+05         0.00000E+00
    0.12572E+05        -0.36517E+05         0.00000E+00
    0.00000E+00         0.00000E+00         0.11971E+03
 
    0.36684E+05         0.14801E+05         0.00000E+00
    0.14801E+05        -0.36199E+05         0.00000E+00
    0.00000E+00         0.00000E+00         0.96987E+02
 
    0.36233E+05         0.17010E+05         0.00000E+00
    0.17010E+05        -0.35842E+05         0.00000E+00
    0.00000E+00         0.00000E+00         0.78217E+02
 
    0.35762E+05         0.19196E+05         0.00000E+00
    0.19196E+05        -0.35448E+05         0.00000E+00
    0.00000E+00         0.00000E+00         0.62753E+02
 
    0.35270E+05         0.21360E+05         0.00000E+00
    0.21360E+05        -0.35020E+05         0.00000E+00
    0.00000E+00         0.00000E+00         0.50044E+02
 
    0.34758E+05         0.23499E+05         0.00000E+00
    0.23499E+05        -0.34560E+05         0.00000E+00
    0.00000E+00         0.00000E+00         0.39621E+02
 
    0.34225E+05         0.25614E+05         0.00000E+00
    0.25614E+05        -0.34069E+05         0.00000E+00
    0.00000E+00         0.00000E+00         0.31088E+02
 
    0.33671E+05         0.27702E+05         0.00000E+00
    0.27702E+05        -0.33550E+05         0.00000E+00
    0.00000E+00         0.00000E+00         0.24113E+02
 
    0.33096E+05         0.29762E+05         0.00000E+00
    0.29762E+05        -0.33004E+05         0.00000E+00
    0.00000E+00         0.00000E+00         0.18415E+02
 
    0.32500E+05         0.31795E+05         0.00000E+00
    0.31795E+05        -0.32432E+05         0.00000E+00
    0.00000E+00         0.00000E+00         0.13763E+02
 
    0.31884E+05         0.33798E+05         0.00000E+00
    0.33798E+05        -0.31834E+05         0.00000E+00
    0.00000E+00         0.00000E+00         0.99592E+01
 
    0.31247E+05         0.35771E+05         0.00000E+00
    0.35771E+05        -0.31212E+05         0.00000E+00
    0.00000E+00         0.00000E+00         0.68422E+01
 
    0.30589E+05         0.37713E+05         0.00000E+00
    0.37713E+05        -0.30567E+05         0.00000E+00
    0.00000E+00         0.00000E+00         0.42750E+01
 
    0.29911E+05         0.39623E+05         0.00000E+00
    0.39623E+05        -0.29900E+05         0.00000E+00
    0.00000E+00         0.00000E+00         0.21423E+01
 
    0.29212E+05         0.41501E+05         0.00000E+00
    0.41501E+05        -0.29210E+05         0.00000E+00
    0.00000E+00         0.00000E+00         0.34627E+00
 
    0.28493E+05         0.43344E+05         0.00000E+00
    0.43344E+05        -0.28499E+05         0.00000E+00
    0.00000E+00         0.00000E+00        -0.11977E+01
 
    0.27755E+05         0.45153E+05         0.00000E+00
    0.45153E+05        -0.27768E+05         0.00000E+00
    0.00000E+00         0.00000E+00        -0.25638E+01
 
    0.26997E+05         0.46927E+05         0.00000E+00
    0.46927E+05        -0.27016E+05         0.00000E+00
    0.00000E+00         0.00000E+00        -0.38195E+01
 
    0.26220E+05         0.48665E+05         0.00000E+00
    0.48665E+05        -0.26245E+05         0.00000E+00
    0.00000E+00         0.00000E+00        -0.50278E+01
 
    0.25424E+05         0.50366E+05         0.00000E+00
    0.50366E+05        -0.25455E+05         0.00000E+00
    0.00000E+00         0.00000E+00        -0.62500E+01
 
    0.24609E+05         0.52029E+05         0.00000E+00
    0.52029E+05        -0.24647E+05         0.00000E+00
    0.00000E+00         0.00000E+00        -0.75486E+01
 
    0.23776E+05         0.53653E+05         0.00000E+00
    0.53653E+05        -0.23821E+05         0.00000E+00
    0.00000E+00         0.00000E+00        -0.89897E+01
 
    0.22925E+05         0.55239E+05         0.00000E+00
    0.55239E+05        -0.22978E+05         0.00000E+00
    0.00000E+00         0.00000E+00        -0.10646E+02
 
    0.22056E+05         0.56784E+05         0.00000E+00
    0.56784E+05        -0.22119E+05         0.00000E+00
    0.00000E+00         0.00000E+00        -0.12600E+02
 
    0.21169E+05         0.58289E+05         0.00000E+00
    0.58289E+05        -0.21244E+05         0.00000E+00
    0.00000E+00         0.00000E+00        -0.14947E+02
 
    0.20265E+05         0.59753E+05         0.00000E+00
    0.59753E+05        -0.20354E+05         0.00000E+00
    0.00000E+00         0.00000E+00        -0.17800E+02
 
    0.19344E+05         0.61175E+05         0.00000E+00
    0.61175E+05        -0.19451E+05         0.00000E+00
    0.00000E+00         0.00000E+00        -0.21293E+02
 
    0.18406E+05         0.62554E+05         0.00000E+00
    0.62554E+05        -0.18534E+05         0.00000E+00
    0.00000E+00         0.00000E+00        -0.25586E+02
 
    0.17452E+05         0.63890E+05         0.00000E+00
    0.63890E+05        -0.17606E+05         0.00000E+00
    0.00000E+00         0.00000E+00        -0.30876E+02
 
    0.16482E+05         0.65183E+05         0.00000E+00
    0.65183E+05        -0.16669E+05         0.00000E+00
    0.00000E+00         0.00000E+00        -0.37396E+02
 
    0.15495E+05         0.66431E+05         0.00000E+00
    0.66431E+05        -0.15722E+05         0.00000E+00
    0.00000E+00         0.00000E+00        -0.45431E+02
 
    0.14492E+05         0.67634E+05         0.00000E+00
    0.67634E+05        -0.14769E+05         0.00000E+00
    0.00000E+00         0.00000E+00        -0.55325E+02
 
    0.13473E+05         0.68793E+05         0.00000E+00
    0.68793E+05        -0.13811E+05         0.00000E+00
    0.00000E+00         0.00000E+00        -0.67491E+02
 
    0.12438E+05         0.69906E+05         0.00000E+00
    0.69906E+05        -0.12851E+05         0.00000E+00
    0.00000E+00         0.00000E+00        -0.82430E+02
 
    0.11388E+05         0.70973E+05         0.00000E+00
    0.70973E+05        -0.11891E+05         0.00000E+00
    0.00000E+00         0.00000E+00        -0.10074E+03
 
    0.10320E+05         0.71994E+05         0.00000E+00
    0.71994E+05        -0.10936E+05         0.00000E+00
    0.00000E+00         0.00000E+00        -0.12313E+03
 
    0.92361E+04         0.72969E+05         0.00000E+00
    0.72969E+05        -0.99885E+04         0.00000E+00
    0.00000E+00         0.00000E+00        -0.15047E+03
 
    0.81348E+04         0.73898E+05         0.00000E+00
    0.73898E+05        -0.90536E+04         0.00000E+00
    0.00000E+00         0.00000E+00        -0.18375E+03
 
    0.70155E+04         0.74782E+05         0.00000E+00
    0.74782E+05        -0.81364E+04         0.00000E+00
    0.00000E+00         0.00000E+00        -0.22418E+03
 
    0.58774E+04         0.75619E+05         0.00000E+00
    0.75619E+05        -0.72431E+04         0.00000E+00
    0.00000E+00         0.00000E+00        -0.27314E+03
 
    0.47194E+04         0.76411E+05         0.00000E+00
    0.76411E+05        -0.63807E+04         0.00000E+00
    0.00000E+00         0.00000E+00        -0.33225E+03
 
    0.35401E+04         0.77159E+05         0.00000E+00
    0.77159E+05        -0.55569E+04         0.00000E+00
    0.00000E+00         0.00000E+00        -0.40336E+03
 
    0.23380E+04         0.77862E+05         0.00000E+00
    0.77862E+05        -0.47809E+04         0.00000E+00
    0.00000E+00         0.00000E+00        -0.48859E+03
 
    0.11111E+04         0.78523E+05         0.00000E+00
    0.78523E+05        -0.40624E+04         0.00000E+00
    0.00000E+00         0.00000E+00        -0.59028E+03
 
   -0.14263E+03         0.79142E+05         0.00000E+00
    0.79142E+05        -0.34123E+04         0.00000E+00
    0.00000E+00         0.00000E+00        -0.71100E+03
 
    0.45030E+05         0.12121E+04         0.00000E+00
    0.12121E+04        -0.43159E+05         0.00000E+00
    0.00000E+00         0.00000E+00         0.37427E+03
 
    0.44631E+05         0.36100E+04         0.00000E+00
    0.36100E+04        -0.43084E+05         0.00000E+00
    0.00000E+00         0.00000E+00         0.30941E+03
 
    0.44215E+05         0.59942E+04         0.00000E+00
    0.59942E+04        -0.42941E+05         0.00000E+00
    0.00000E+00         0.00000E+00         0.25476E+03
 
    0.43780E+05         0.83632E+04         0.00000E+00
    0.83632E+04        -0.42735E+05         0.00000E+00
    0.00000E+00         0.00000E+00         0.20894E+03
 
    0.43324E+05         0.10715E+05         0.00000E+00
    0.10715E+05        -0.42471E+05         0.00000E+00
    0.00000E+00         0.00000E+00         0.17069E+03
 
    0.42848E+05         0.13049E+05         0.00000E+00
    0.13049E+05        -0.42153E+05         0.00000E+00
    0.00000E+00         0.00000E+00         0.13889E+03
 
    0.42349E+05         0.15362E+05         0.00000E+00
    0.15362E+05        -0.41787E+05         0.00000E+00
    0.00000E+00         0.00000E+00         0.11253E+03
 
    0.41829E+05         0.17654E+05         0.00000E+00
    0.17654E+05        -0.41375E+05         0.00000E+00
    0.00000E+00         0.00000E+00         0.90759E+02
 
    0.41285E+05         0.19924E+05         0.00000E+00
    0.19924E+05        -0.40921E+05         0.00000E+00
    0.00000E+00         0.00000E+00         0.72822E+02
 
    0.40718E+05         0.22170E+05         0.00000E+00
    0.22170E+05        -0.40428E+05         0.00000E+00
    0.00000E+00         0.00000E+00         0.58080E+02
 
    0.40127E+05         0.24391E+05         0.00000E+00
    0.24391E+05        -0.39897E+05         0.00000E+00
    0.00000E+00         0.00000E+00         0.45988E+02
 
    0.39513E+05         0.26586E+05         0.00000E+00
    0.26586E+05        -0.39332E+05         0.00000E+00
    0.00000E+00         0.00000E+00         0.36089E+02
 
    0.38874E+05         0.28754E+05         0.00000E+00
    0.28754E+05        -0.38734E+05         0.00000E+00
    0.00000E+00         0.00000E+00         0.27996E+02
 
    0.38212E+05         0.30893E+05         0.00000E+00
    0.30893E+05        -0.38105E+05         0.00000E+00
    0.00000E+00         0.00000E+00         0.21385E+02
 
    0.37525E+05         0.33004E+05         0.00000E+00
    0.33004E+05        -0.37445E+05         0.00000E+00
    0.00000E+00         0.00000E+00         0.15985E+02
 
    0.36815E+05         0.35084E+05         0.00000E+00
    0.35084E+05        -0.36757E+05         0.00000E+00
    0.00000E+00         0.00000E+00         0.11570E+02
 
    0.36080E+05         0.37133E+05         0.00000E+00
    0.37133E+05        -0.36040E+05         0.00000E+00
    0.00000E+00         0.00000E+00         0.79518E+01
 
    0.35322E+05         0.39150E+05         0.00000E+00
    0.39150E+05        -0.35297E+05         0.00000E+00
    0.00000E+00         0.00000E+00         0.49707E+01
 
    0.34540E+05         0.41134E+05         0.00000E+00
    0.41134E+05        -0.34528E+05         0.00000E+00
    0.00000E+00         0.00000E+00         0.24937E+01
 
    0.33735E+05         0.43084E+05         0.00000E+00
    0.43084E+05        -0.33733E+05         0.00000E+00
    0.00000E+00         0.00000E+00         0.40717E+00
 
    0.32907E+05         0.45000E+05         0.00000E+00
    0.45000E+05        -0.32914E+05         0.00000E+00
    0.00000E+00         0.00000E+00        -0.13867E+01
 
    0.32056E+05         0.46880E+05         0.00000E+00
    0.46880E+05        -0.32071E+05         0.00000E+00
    0.00000E+00         0.00000E+00        -0.29741E+01
 
    0.31182E+05         0.48723E+05         0.00000E+00
    0.48723E+05        -0.31205E+05         0.00000E+00
    0.00000E+00         0.00000E+00        -0.44330E+01
 
    0.30286E+05         0.50529E+05         0.00000E+00
    0.50529E+05        -0.30316E+05         0.00000E+00
    0.00000E+00         0.00000E+00        -0.58363E+01
 
    0.29368E+05         0.52296E+05         0.00000E+00
    0.52296E+05        -0.29405E+05         0.00000E+00
    0.00000E+00         0.00000E+00        -0.72551E+01
 
    0.28429E+05         0.54025E+05         0.00000E+00
    0.54025E+05        -0.28473E+05         0.00000E+00
    0.00000E+00         0.00000E+00        -0.87617E+01
 
    0.27468E+05         0.55714E+05         0.00000E+00
    0.55714E+05        -0.27520E+05         0.00000E+00
    0.00000E+00         0.00000E+00        -0.10433E+02
 
    0.26486E+05         0.57362E+05         0.00000E+00
    0.57362E+05        -0.26547E+05         0.00000E+00
    0.00000E+00         0.00000E+00        -0.12352E+02
 
    0.25483E+05         0.58969E+05         0.00000E+00
    0.58969E+05        -0.25556E+05         0.00000E+00
    0.00000E+00         0.00000E+00        -0.14615E+02
 
    0.24460E+05         0.60534E+05         0.00000E+00
    0.60534E+05        -0.24546E+05         0.00000E+00
    0.00000E+00         0.00000E+00        -0.17332E+02
 
    0.23417E+05         0.62055E+05         0.00000E+00
    0.62055E+05        -0.23520E+05         0.00000E+00
    0.00000E+00         0.00000E+00        -0.20633E+02
 
    0.22354E+05         0.63534E+05         0.00000E+00
    0.63534E+05        -0.22477E+05         0.00000E+00
    0.00000E+00         0.00000E+00        -0.24674E+02
 
    0.21271E+05         0.64968E+05         0.00000E+00
    0.64968E+05        -0.21419E+05         0.00000E+00
    0.00000E+00         0.00000E+00        -0.29641E+02
 
    0.20169E+05         0.66357E+05         0.00000E+00
    0.66357E+05        -0.20348E+05         0.00000E+00
    0.00000E+00         0.00000E+00        -0.35759E+02
 
    0.19049E+05         0.67701E+05         0.00000E+00
    0.67701E+05        -0.19265E+05         0.00000E+00
    0.00000E+00         0.00000E+00        -0.43299E+02
 
    0.17909E+05         0.68999E+05         0.00000E+00
    0.68999E+05        -0.18172E+05         0.00000E+00
    0.00000E+00         0.00000E+00        -0.52590E+02
 
    0.16751E+05         0.70251E+05         0.00000E+00
    0.70251E+05        -0.17071E+05         0.00000E+00
    0.00000E+00         0.00000E+00        -0.64030E+02
 
    0.15574E+05         0.71455E+05         0.00000E+00
    0.71455E+05        -0.15964E+05         0.00000E+00
    0.00000E+00         0.00000E+00        -0.78097E+02
 
    0.14378E+05         0.72613E+05         0.00000E+00
    0.72613E+05        -0.14855E+05         0.00000E+00
    0.00000E+00         0.00000E+00        -0.95368E+02
 
    0.13164E+05         0.73722E+05         0.00000E+00
    0.73722E+05        -0.13747E+05         0.00000E+00
    0.00000E+00         0.00000E+00        -0.11654E+03
 
    0.11931E+05         0.74784E+05         0.00000E+00
    0.74784E+05        -0.12643E+05         0.00000E+00
    0.00000E+00         0.00000E+00        -0.14243E+03
 
    0.10678E+05         0.75797E+05         0.00000E+00
    0.75797E+05        -0.11548E+05         0.00000E+00
    0.00000E+00         0.00000E+00        -0.17403E+03
 
    0.94048E+04         0.76763E+05         0.00000E+00
    0.76763E+05        -0.10467E+05         0.00000E+00
    0.00000E+00         0.00000E+00        -0.21251E+03
 
    0.81111E+04         0.77680E+05         0.00000E+00
    0.77680E+05        -0.94073E+04         0.00000E+00
    0.00000E+00         0.00000E+00        -0.25925E+03
 
    0.67954E+04         0.78550E+05         0.00000E+00
    0.78550E+05        -0.83747E+04         0.00000E+00
    0.00000E+00         0.00000E+00        -0.31586E+03
 
    0.54566E+04         0.79373E+05         0.00000E+00
    0.79373E+05        -0.73776E+04         0.00000E+00
    0.00000E+00         0.00000E+00        -0.38419E+03
 
    0.40932E+04         0.80149E+05         0.00000E+00
    0.80149E+05        -0.64253E+04         0.00000E+00
    0.00000E+00         0.00000E+00        -0.46641E+03
 
    0.27032E+04         0.80879E+05         0.00000E+00
    0.80879E+05        -0.55280E+04         0.00000E+00
    0.00000E+00         0.00000E+00        -0.56495E+03
 
    0.12847E+04         0.81564E+05         0.00000E+00
    0.81564E+05        -0.46973E+04         0.00000E+00
    0.00000E+00         0.00000E+00        -0.68252E+03
 
   -0.16491E+03         0.82205E+05         0.00000E+00
    0.82205E+05        -0.39456E+04         0.00000E+00
    0.00000E+00         0.00000E+00        -0.82209E+03
 
    0.51298E+05         0.12623E+04         0.00000E+00
    0.12623E+04        -0.49156E+05         0.00000E+00
    0.00000E+00         0.00000E+00         0.42831E+03
 
    0.50842E+05         0.37595E+04         0.00000E+00
    0.37595E+04        -0.49072E+05         0.00000E+00
    0.00000E+00         0.00000E+00         0.35408E+03
 
    0.50367E+05         0.62425E+04         0.00000E+00
    0.62425E+04        -0.48909E+05         0.00000E+00
    0.00000E+00         0.00000E+00         0.29154E+03
 
    0.49870E+05         0.87096E+04         0.00000E+00
    0.87096E+04        -0.48675E+05         0.00000E+00
    0.00000E+00         0.00000E+00         0.23911E+03
 
    0.49351E+05         0.11159E+05         0.00000E+00
    0.11159E+05        -0.48374E+05         0.00000E+00
    0.00000E+00         0.00000E+00         0.19534E+03
 
    0.48808E+05         0.13589E+05         0.00000E+00
    0.13589E+05        -0.48013E+05         0.00000E+00
    0.00000E+00         0.00000E+00         0.15895E+03
 
    0.48241E+05         0.15999E+05         0.00000E+00
    0.15999E+05        -0.47597E+05         0.00000E+00
    0.00000E+00         0.00000E+00         0.12880E+03
 
    0.47648E+05         0.18386E+05         0.00000E+00
    0.18386E+05        -0.47129E+05         0.00000E+00
    0.00000E+00         0.00000E+00         0.10388E+03
 
    0.47030E+05         0.20751E+05         0.00000E+00
    0.20751E+05        -0.46613E+05         0.00000E+00
    0.00000E+00         0.00000E+00         0.83359E+02
 
    0.46385E+05         0.23090E+05         0.00000E+00
    0.23090E+05        -0.46053E+05         0.00000E+00
    0.00000E+00         0.00000E+00         0.66489E+02
 
    0.45714E+05         0.25404E+05         0.00000E+00
    0.25404E+05        -0.45450E+05         0.00000E+00
    0.00000E+00         0.00000E+00         0.52652E+02
 
    0.45015E+05         0.27691E+05         0.00000E+00
    0.27691E+05        -0.44809E+05         0.00000E+00
    0.00000E+00         0.00000E+00         0.41323E+02
 
    0.44290E+05         0.29950E+05         0.00000E+00
    0.29950E+05        -0.44129E+05         0.00000E+00
    0.00000E+00         0.00000E+00         0.32061E+02
 
    0.43537E+05         0.32180E+05         0.00000E+00
    0.32180E+05        -0.43414E+05         0.00000E+00
    0.00000E+00         0.00000E+00         0.24493E+02
 
    0.42756E+05         0.34379E+05         0.00000E+00
    0.34379E+05        -0.42665E+05         0.00000E+00
    0.00000E+00         0.00000E+00         0.18312E+02
 
    0.41949E+05         0.36548E+05         0.00000E+00
    0.36548E+05        -0.41883E+05         0.00000E+00
    0.00000E+00         0.00000E+00         0.13257E+02
 
    0.41114E+05         0.38684E+05         0.00000E+00
    0.38684E+05        -0.41069E+05         0.00000E+00
    0.00000E+00         0.00000E+00         0.91124E+01
 
    0.40253E+05         0.40787E+05         0.00000E+00
    0.40787E+05        -0.40224E+05         0.00000E+00
    0.00000E+00         0.00000E+00         0.56975E+01
 
    0.39364E+05         0.42856E+05         0.00000E+00
    0.42856E+05        -0.39350E+05         0.00000E+00
    0.00000E+00         0.00000E+00         0.28592E+01
 
    0.38449E+05         0.44890E+05         0.00000E+00
    0.44890E+05        -0.38447E+05         0.00000E+00
    0.00000E+00         0.00000E+00         0.46782E+00
 
    0.37508E+05         0.46888E+05         0.00000E+00
    0.46888E+05        -0.37516E+05         0.00000E+00
    0.00000E+00         0.00000E+00        -0.15887E+01
 
    0.36540E+05         0.48849E+05         0.00000E+00
    0.48849E+05        -0.36557E+05         0.00000E+00
    0.00000E+00         0.00000E+00        -0.34087E+01
 
    0.35547E+05         0.50772E+05         0.00000E+00
    0.50772E+05        -0.35572E+05         0.00000E+00
    0.00000E+00         0.00000E+00        -0.50814E+01
 
    0.34528E+05         0.52656E+05         0.00000E+00
    0.52656E+05        -0.34562E+05         0.00000E+00
    0.00000E+00         0.00000E+00        -0.66902E+01
 
    0.33484E+05         0.54501E+05         0.00000E+00
    0.54501E+05        -0.33526E+05         0.00000E+00
    0.00000E+00         0.00000E+00        -0.83162E+01
 
    0.32415E+05         0.56305E+05         0.00000E+00
    0.56305E+05        -0.32465E+05         0.00000E+00
    0.00000E+00         0.00000E+00        -0.10042E+02
 
    0.31322E+05         0.58068E+05         0.00000E+00
    0.58068E+05        -0.31381E+05         0.00000E+00
    0.00000E+00         0.00000E+00        -0.11955E+02
 
    0.30204E+05         0.59789E+05         0.00000E+00
    0.59789E+05        -0.30275E+05         0.00000E+00
    0.00000E+00         0.00000E+00        -0.14151E+02
 
    0.29063E+05         0.61466E+05         0.00000E+00
    0.61466E+05        -0.29146E+05         0.00000E+00
    0.00000E+00         0.00000E+00        -0.16740E+02
 
    0.27898E+05         0.63100E+05         0.00000E+00
    0.63100E+05        -0.27997E+05         0.00000E+00
    0.00000E+00         0.00000E+00        -0.19846E+02
 
    0.26710E+05         0.64690E+05         0.00000E+00
    0.64690E+05        -0.26828E+05         0.00000E+00
    0.00000E+00         0.00000E+00        -0.23619E+02
 
    0.25499E+05         0.66234E+05         0.00000E+00
    0.66234E+05        -0.25641E+05         0.00000E+00
    0.00000E+00         0.00000E+00        -0.28237E+02
 
    0.24266E+05         0.67732E+05         0.00000E+00
    0.67732E+05        -0.24436E+05         0.00000E+00
    0.00000E+00         0.00000E+00        -0.33911E+02
 
    0.23011E+05         0.69183E+05         0.00000E+00
    0.69183E+05        -0.23216E+05         0.00000E+00
    0.00000E+00         0.00000E+00        -0.40899E+02
 
    0.21734E+05         0.70587E+05         0.00000E+00
    0.70587E+05        -0.21982E+05         0.00000E+00
    0.00000E+00         0.00000E+00        -0.49511E+02
 
    0.20435E+05         0.71942E+05         0.00000E+00
    0.71942E+05        -0.20736E+05         0.00000E+00
    0.00000E+00         0.00000E+00        -0.60122E+02
 
    0.19115E+05         0.73250E+05         0.00000E+00
    0.73250E+05        -0.19481E+05         0.00000E+00
    0.00000E+00         0.00000E+00        -0.73186E+02
 
    0.17773E+05         0.74508E+05         0.00000E+00
    0.74508E+05        -0.18219E+05         0.00000E+00
    0.00000E+00         0.00000E+00        -0.89249E+02
 
    0.16410E+05         0.75716E+05         0.00000E+00
    0.75716E+05        -0.16955E+05         0.00000E+00
    0.00000E+00         0.00000E+00        -0.10897E+03
 
    0.15025E+05         0.76875E+05         0.00000E+00
    0.76875E+05        -0.15691E+05         0.00000E+00
    0.00000E+00         0.00000E+00        -0.13314E+03
 
    0.13618E+05         0.77984E+05         0.00000E+00
    0.77984E+05        -0.14431E+05         0.00000E+00
    0.00000E+00         0.00000E+00        -0.16271E+03
 
    0.12189E+05         0.79042E+05         0.00000E+00
    0.79042E+05        -0.13182E+05         0.00000E+00
    0.00000E+00         0.00000E+00        -0.19879E+03
 
    0.10736E+05         0.80050E+05         0.00000E+00
    0.80050E+05        -0.11950E+05         0.00000E+00
    0.00000E+00         0.00000E+00        -0.24273E+03
 
    0.92596E+04         0.81007E+05         0.00000E+00
    0.81007E+05        -0.10740E+05         0.00000E+00
    0.00000E+00         0.00000E+00        -0.29610E+03
 
    0.77580E+04         0.81915E+05         0.00000E+00
    0.81915E+05        -0.95616E+04         0.00000E+00
    0.00000E+00         0.00000E+00        -0.36073E+03
 
    0.62298E+04         0.82773E+05         0.00000E+00
    0.82773E+05        -0.84236E+04         0.00000E+00
    0.00000E+00         0.00000E+00        -0.43875E+03
 
    0.46733E+04         0.83582E+05         0.00000E+00
    0.83582E+05        -0.73365E+04         0.00000E+00
    0.00000E+00         0.00000E+00        -0.53263E+03
 
    0.30865E+04         0.84342E+05         0.00000E+00
    0.84342E+05        -0.63121E+04         0.00000E+00
    0.00000E+00         0.00000E+00        -0.64514E+03
 
    0.14668E+04         0.85055E+05         0.00000E+00
    0.85055E+05        -0.53637E+04         0.00000E+00
    0.00000E+00         0.00000E+00        -0.77937E+03
 
   -0.18835E+03         0.85723E+05         0.00000E+00
    0.85723E+05        -0.45054E+04         0.00000E+00
    0.00000E+00         0.00000E+00        -0.93874E+03
 
    0.57836E+05         0.13185E+04         0.00000E+00
    0.13185E+04        -0.55411E+05         0.00000E+00
    0.00000E+00         0.00000E+00         0.48485E+03
 
    0.57321E+05         0.39267E+04         0.00000E+00
    0.39267E+04        -0.55317E+05         0.00000E+00
    0.00000E+00         0.00000E+00         0.40082E+03
 
    0.56784E+05         0.65202E+04         0.00000E+00
    0.65202E+04        -0.55134E+05         0.00000E+00
    0.00000E+00         0.00000E+00         0.33002E+03
 
    0.56223E+05         0.90970E+04         0.00000E+00
    0.90970E+04        -0.54870E+05         0.00000E+00
    0.00000E+00         0.00000E+00         0.27067E+03
 
    0.55638E+05         0.11656E+05         0.00000E+00
    0.11656E+05        -0.54533E+05         0.00000E+00
    0.00000E+00         0.00000E+00         0.22113E+03
 
    0.55027E+05         0.14194E+05         0.00000E+00
    0.14194E+05        -0.54127E+05         0.00000E+00
    0.00000E+00         0.00000E+00         0.17994E+03
 
    0.54388E+05         0.16712E+05         0.00000E+00
    0.16712E+05        -0.53659E+05         0.00000E+00
    0.00000E+00         0.00000E+00         0.14581E+03
 
    0.53722E+05         0.19206E+05         0.00000E+00
    0.19206E+05        -0.53134E+05         0.00000E+00
    0.00000E+00         0.00000E+00         0.11761E+03
 
    0.53026E+05         0.21677E+05         0.00000E+00
    0.21677E+05        -0.52554E+05         0.00000E+00
    0.00000E+00         0.00000E+00         0.94377E+02
 
    0.52301E+05         0.24122E+05         0.00000E+00
    0.24122E+05        -0.51925E+05         0.00000E+00
    0.00000E+00         0.00000E+00         0.75282E+02
 
    0.51546E+05         0.26540E+05         0.00000E+00
    0.26540E+05        -0.51248E+05         0.00000E+00
    0.00000E+00         0.00000E+00         0.59620E+02
 
    0.50761E+05         0.28931E+05         0.00000E+00
    0.28931E+05        -0.50527E+05         0.00000E+00
    0.00000E+00         0.00000E+00         0.46796E+02
 
    0.49946E+05         0.31293E+05         0.00000E+00
    0.31293E+05        -0.49764E+05         0.00000E+00
    0.00000E+00         0.00000E+00         0.36310E+02
 
    0.49100E+05         0.33624E+05         0.00000E+00
    0.33624E+05        -0.48961E+05         0.00000E+00
    0.00000E+00         0.00000E+00         0.27742E+02
 
    0.48223E+05         0.35924E+05         0.00000E+00
    0.35924E+05        -0.48119E+05         0.00000E+00
    0.00000E+00         0.00000E+00         0.20742E+02
 
    0.47315E+05         0.38193E+05         0.00000E+00
    0.38193E+05        -0.47240E+05         0.00000E+00
    0.00000E+00         0.00000E+00         0.15017E+02
 
    0.46378E+05         0.40428E+05         0.00000E+00
    0.40428E+05        -0.46326E+05         0.00000E+00
    0.00000E+00         0.00000E+00         0.10323E+02
 
    0.45409E+05         0.42628E+05         0.00000E+00
    0.42628E+05        -0.45377E+05         0.00000E+00
    0.00000E+00         0.00000E+00         0.64533E+01
 
    0.44410E+05         0.44793E+05         0.00000E+00
    0.44793E+05        -0.44394E+05         0.00000E+00
    0.00000E+00         0.00000E+00         0.32363E+01
 
    0.43382E+05         0.46922E+05         0.00000E+00
    0.46922E+05        -0.43379E+05         0.00000E+00
    0.00000E+00         0.00000E+00         0.52492E+00
 
    0.42323E+05         0.49014E+05         0.00000E+00
    0.49014E+05        -0.42332E+05         0.00000E+00
    0.00000E+00         0.00000E+00        -0.18074E+01
 
    0.41235E+05         0.51067E+05         0.00000E+00
    0.51067E+05        -0.41254E+05         0.00000E+00
    0.00000E+00         0.00000E+00        -0.38722E+01
 
    0.40118E+05         0.53081E+05         0.00000E+00
    0.53081E+05        -0.40147E+05         0.00000E+00
    0.00000E+00         0.00000E+00        -0.57702E+01
 
    0.38971E+05         0.55055E+05         0.00000E+00
    0.55055E+05        -0.39009E+05         0.00000E+00
    0.00000E+00         0.00000E+00        -0.75957E+01
 
    0.37797E+05         0.56988E+05         0.00000E+00
    0.56988E+05        -0.37844E+05         0.00000E+00
    0.00000E+00         0.00000E+00        -0.94406E+01
 
    0.36594E+05         0.58878E+05         0.00000E+00
    0.58878E+05        -0.36651E+05         0.00000E+00
    0.00000E+00         0.00000E+00        -0.11398E+02
 
    0.35363E+05         0.60726E+05         0.00000E+00
    0.60726E+05        -0.35430E+05         0.00000E+00
    0.00000E+00         0.00000E+00        -0.13567E+02
 
    0.34104E+05         0.62529E+05         0.00000E+00
    0.62529E+05        -0.34184E+05         0.00000E+00
    0.00000E+00         0.00000E+00        -0.16057E+02
 
    0.32819E+05         0.64288E+05         0.00000E+00
    0.64288E+05        -0.32914E+05         0.00000E+00
    0.00000E+00         0.00000E+00        -0.18989E+02
 
    0.31506E+05         0.66001E+05         0.00000E+00
    0.66001E+05        -0.31619E+05         0.00000E+00
    0.00000E+00         0.00000E+00        -0.22508E+02
 
    0.30168E+05         0.67668E+05         0.00000E+00
    0.67668E+05        -0.30302E+05         0.00000E+00
    0.00000E+00         0.00000E+00        -0.26781E+02
 
    0.28803E+05         0.69287E+05         0.00000E+00
    0.69287E+05        -0.28963E+05         0.00000E+00
    0.00000E+00         0.00000E+00        -0.32008E+02
 
    0.27413E+05         0.70858E+05         0.00000E+00
    0.70858E+05        -0.27605E+05         0.00000E+00
    0.00000E+00         0.00000E+00        -0.38430E+02
 
    0.25998E+05         0.72381E+05         0.00000E+00
    0.72381E+05        -0.26229E+05         0.00000E+00
    0.00000E+00         0.00000E+00        -0.46339E+02
 
    0.24557E+05         0.73853E+05         0.00000E+00
    0.73853E+05        -0.24838E+05         0.00000E+00
    0.00000E+00         0.00000E+00        -0.56084E+02
 
    0.23092E+05         0.75276E+05         0.00000E+00
    0.75276E+05        -0.23432E+05         0.00000E+00
    0.00000E+00         0.00000E+00        -0.68090E+02
 
    0.21602E+05         0.76647E+05         0.00000E+00
    0.76647E+05        -0.22016E+05         0.00000E+00
    0.00000E+00         0.00000E+00        -0.82870E+02
 
    0.20087E+05         0.77967E+05         0.00000E+00
    0.77967E+05        -0.20593E+05         0.00000E+00
    0.00000E+00         0.00000E+00        -0.10104E+03
 
    0.18548E+05         0.79235E+05         0.00000E+00
    0.79235E+05        -0.19165E+05         0.00000E+00
    0.00000E+00         0.00000E+00        -0.12335E+03
 
    0.16984E+05         0.80451E+05         0.00000E+00
    0.80451E+05        -0.17738E+05         0.00000E+00
    0.00000E+00         0.00000E+00        -0.15070E+03
 
    0.15395E+05         0.81613E+05         0.00000E+00
    0.81613E+05        -0.16316E+05         0.00000E+00
    0.00000E+00         0.00000E+00        -0.18414E+03
 
    0.13780E+05         0.82723E+05         0.00000E+00
    0.82723E+05        -0.14905E+05         0.00000E+00
    0.00000E+00         0.00000E+00        -0.22496E+03
 
    0.12139E+05         0.83780E+05         0.00000E+00
    0.83780E+05        -0.13512E+05         0.00000E+00
    0.00000E+00         0.00000E+00        -0.27466E+03
 
    0.10470E+05         0.84784E+05         0.00000E+00
    0.84784E+05        -0.12145E+05         0.00000E+00
    0.00000E+00         0.00000E+00        -0.33503E+03
 
    0.87729E+04         0.85735E+05         0.00000E+00
    0.85735E+05        -0.10814E+05         0.00000E+00
    0.00000E+00         0.00000E+00        -0.40814E+03
 
    0.70452E+04         0.86634E+05         0.00000E+00
    0.86634E+05        -0.95272E+04         0.00000E+00
    0.00000E+00         0.00000E+00        -0.49640E+03
 
    0.52853E+04         0.87480E+05         0.00000E+00
    0.87480E+05        -0.82982E+04         0.00000E+00
    0.00000E+00         0.00000E+00        -0.60259E+03
 
    0.34908E+04         0.88276E+05         0.00000E+00
    0.88276E+05        -0.71400E+04         0.00000E+00
    0.00000E+00         0.00000E+00        -0.72985E+03
 
    0.16590E+04         0.89022E+05         0.00000E+00
    0.89022E+05        -0.60674E+04         0.00000E+00
    0.00000E+00         0.00000E+00        -0.88169E+03
 
   -0.21316E+03         0.89720E+05         0.00000E+00
    0.89720E+05        -0.50967E+04         0.00000E+00
    0.00000E+00         0.00000E+00        -0.10620E+04
 
    0.64673E+05         0.13804E+04         0.00000E+00
    0.13804E+04        -0.61953E+05         0.00000E+00
    0.00000E+00         0.00000E+00         0.54384E+03
 
    0.64096E+05         0.41114E+04         0.00000E+00
    0.41114E+04        -0.61848E+05         0.00000E+00
    0.00000E+00         0.00000E+00         0.44957E+03
 
    0.63495E+05         0.68271E+04         0.00000E+00
    0.68271E+04        -0.61644E+05         0.00000E+00
    0.00000E+00         0.00000E+00         0.37016E+03
 
    0.62869E+05         0.95256E+04         0.00000E+00
    0.95256E+04        -0.61351E+05         0.00000E+00
    0.00000E+00         0.00000E+00         0.30358E+03
 
    0.62215E+05         0.12205E+05         0.00000E+00
    0.12205E+05        -0.60975E+05         0.00000E+00
    0.00000E+00         0.00000E+00         0.24802E+03
 
    0.61533E+05         0.14864E+05         0.00000E+00
    0.14864E+05        -0.60524E+05         0.00000E+00
    0.00000E+00         0.00000E+00         0.20182E+03
 
    0.60821E+05         0.17501E+05         0.00000E+00
    0.17501E+05        -0.60003E+05         0.00000E+00
    0.00000E+00         0.00000E+00         0.16354E+03
 
    0.60078E+05         0.20115E+05         0.00000E+00
    0.20115E+05        -0.59418E+05         0.00000E+00
    0.00000E+00         0.00000E+00         0.13191E+03
 
    0.59303E+05         0.22704E+05         0.00000E+00
    0.22704E+05        -0.58773E+05         0.00000E+00
    0.00000E+00         0.00000E+00         0.10586E+03
 
    0.58495E+05         0.25266E+05         0.00000E+00
    0.25266E+05        -0.58073E+05         0.00000E+00
    0.00000E+00         0.00000E+00         0.84444E+02
 
    0.57654E+05         0.27801E+05         0.00000E+00
    0.27801E+05        -0.57320E+05         0.00000E+00
    0.00000E+00         0.00000E+00         0.66878E+02
 
    0.56780E+05         0.30308E+05         0.00000E+00
    0.30308E+05        -0.56518E+05         0.00000E+00
    0.00000E+00         0.00000E+00         0.52495E+02
 
    0.55872E+05         0.32784E+05         0.00000E+00
    0.32784E+05        -0.55668E+05         0.00000E+00
    0.00000E+00         0.00000E+00         0.40733E+02
 
    0.54930E+05         0.35229E+05         0.00000E+00
    0.35229E+05        -0.54774E+05         0.00000E+00
    0.00000E+00         0.00000E+00         0.31122E+02
 
    0.53954E+05         0.37643E+05         0.00000E+00
    0.37643E+05        -0.53837E+05         0.00000E+00
    0.00000E+00         0.00000E+00         0.23269E+02
 
    0.52943E+05         0.40023E+05         0.00000E+00
    0.40023E+05        -0.52859E+05         0.00000E+00
    0.00000E+00         0.00000E+00         0.16845E+02
 
    0.51899E+05         0.42368E+05         0.00000E+00
    0.42368E+05        -0.51841E+05         0.00000E+00
    0.00000E+00         0.00000E+00         0.11576E+02
 
    0.50820E+05         0.44678E+05         0.00000E+00
    0.44678E+05        -0.50784E+05         0.00000E+00
    0.00000E+00         0.00000E+00         0.72320E+01
 
    0.49707E+05         0.46952E+05         0.00000E+00
    0.46952E+05        -0.49689E+05         0.00000E+00
    0.00000E+00         0.00000E+00         0.36194E+01
 
    0.48561E+05         0.49188E+05         0.00000E+00
    0.49188E+05        -0.48558E+05         0.00000E+00
    0.00000E+00         0.00000E+00         0.57337E+00
 
    0.47381E+05         0.51385E+05         0.00000E+00
    0.51385E+05        -0.47392E+05         0.00000E+00
    0.00000E+00         0.00000E+00        -0.20479E+01
 
    0.46168E+05         0.53543E+05         0.00000E+00
    0.53543E+05        -0.46190E+05         0.00000E+00
    0.00000E+00         0.00000E+00        -0.43695E+01
 
    0.44922E+05         0.55659E+05         0.00000E+00
    0.55659E+05        -0.44955E+05         0.00000E+00
    0.00000E+00         0.00000E+00        -0.65044E+01
 
    0.43644E+05         0.57734E+05         0.00000E+00
    0.57734E+05        -0.43687E+05         0.00000E+00
    0.00000E+00         0.00000E+00        -0.85584E+01
 
    0.42333E+05         0.59766E+05         0.00000E+00
    0.59766E+05        -0.42386E+05         0.00000E+00
    0.00000E+00         0.00000E+00        -0.10634E+02
 
    0.40991E+05         0.61755E+05         0.00000E+00
    0.61755E+05        -0.41055E+05         0.00000E+00
    0.00000E+00         0.00000E+00        -0.12837E+02
 
    0.39617E+05         0.63698E+05         0.00000E+00
    0.63698E+05        -0.39693E+05         0.00000E+00
    0.00000E+00         0.00000E+00        -0.15278E+02
 
    0.38211E+05         0.65596E+05         0.00000E+00
    0.65596E+05        -0.38302E+05         0.00000E+00
    0.00000E+00         0.00000E+00        -0.18079E+02
 
    0.36776E+05         0.67447E+05         0.00000E+00
    0.67447E+05        -0.36883E+05         0.00000E+00
    0.00000E+00         0.00000E+00        -0.21377E+02
 
    0.35310E+05         0.69250E+05         0.00000E+00
    0.69250E+05        -0.35436E+05         0.00000E+00
    0.00000E+00         0.00000E+00        -0.25334E+02
 
    0.33814E+05         0.71005E+05         0.00000E+00
    0.71005E+05        -0.33964E+05         0.00000E+00
    0.00000E+00         0.00000E+00        -0.30138E+02
 
    0.32288E+05         0.72710E+05         0.00000E+00
    0.72710E+05        -0.32468E+05         0.00000E+00
    0.00000E+00         0.00000E+00        -0.36014E+02
 
    0.30734E+05         0.74364E+05         0.00000E+00
    0.74364E+05        -0.30950E+05         0.00000E+00
    0.00000E+00         0.00000E+00        -0.43232E+02
 
    0.29150E+05         0.75968E+05         0.00000E+00
    0.75968E+05        -0.29411E+05         0.00000E+00
    0.00000E+00         0.00000E+00        -0.52119E+02
 
    0.27539E+05         0.77519E+05         0.00000E+00
    0.77519E+05        -0.27854E+05         0.00000E+00
    0.00000E+00         0.00000E+00        -0.63069E+02
 
    0.25898E+05         0.79017E+05         0.00000E+00
    0.79017E+05        -0.26281E+05         0.00000E+00
    0.00000E+00         0.00000E+00        -0.76558E+02
 
    0.24230E+05         0.80462E+05         0.00000E+00
    0.80462E+05        -0.24696E+05         0.00000E+00
    0.00000E+00         0.00000E+00        -0.93163E+02
 
    0.22534E+05         0.81853E+05         0.00000E+00
    0.81853E+05        -0.23102E+05         0.00000E+00
    0.00000E+00         0.00000E+00        -0.11358E+03
 
    0.20810E+05         0.83189E+05         0.00000E+00
    0.83189E+05        -0.21503E+05         0.00000E+00
    0.00000E+00         0.00000E+00        -0.13864E+03
 
    0.19057E+05         0.84470E+05         0.00000E+00
    0.84470E+05        -0.19904E+05         0.00000E+00
    0.00000E+00         0.00000E+00        -0.16936E+03
 
    0.17276E+05         0.85695E+05         0.00000E+00
    0.85695E+05        -0.18311E+05         0.00000E+00
    0.00000E+00         0.00000E+00        -0.20692E+03
 
    0.15465E+05         0.86864E+05         0.00000E+00
    0.86864E+05        -0.16729E+05         0.00000E+00
    0.00000E+00         0.00000E+00        -0.25277E+03
 
    0.13625E+05         0.87977E+05         0.00000E+00
    0.87977E+05        -0.15168E+05         0.00000E+00
    0.00000E+00         0.00000E+00        -0.30860E+03
 
    0.11753E+05         0.89034E+05         0.00000E+00
    0.89034E+05        -0.13635E+05         0.00000E+00
    0.00000E+00         0.00000E+00        -0.37641E+03
 
    0.98487E+04         0.90035E+05         0.00000E+00
    0.90035E+05        -0.12141E+05         0.00000E+00
    0.00000E+00         0.00000E+00        -0.45852E+03
 
    0.79099E+04         0.90981E+05         0.00000E+00
    0.90981E+05        -0.10698E+05         0.00000E+00
    0.00000E+00         0.00000E+00        -0.55765E+03
 
    0.59345E+04         0.91871E+05         0.00000E+00
    0.91871E+05        -0.93190E+04         0.00000E+00
    0.00000E+00         0.00000E+00        -0.67692E+03
 
    0.39198E+04         0.92708E+05         0.00000E+00
    0.92708E+05        -0.80191E+04         0.00000E+00
    0.00000E+00         0.00000E+00        -0.81985E+03
 
    0.18629E+04         0.93491E+05         0.00000E+00
    0.93491E+05        -0.68149E+04         0.00000E+00
    0.00000E+00         0.00000E+00        -0.99040E+03
 
   -0.23956E+03         0.94223E+05         0.00000E+00
    0.94223E+05        -0.57248E+04         0.00000E+00
    0.00000E+00         0.00000E+00        -0.11929E+04
 
    0.71837E+05         0.14482E+04         0.00000E+00
    0.14482E+04        -0.68812E+05         0.00000E+00
    0.00000E+00         0.00000E+00         0.60503E+03
 
    0.71196E+05         0.43136E+04         0.00000E+00
    0.43136E+04        -0.68695E+05         0.00000E+00
    0.00000E+00         0.00000E+00         0.50014E+03
 
    0.70529E+05         0.71633E+04         0.00000E+00
    0.71633E+04        -0.68470E+05         0.00000E+00
    0.00000E+00         0.00000E+00         0.41177E+03
 
    0.69835E+05         0.99953E+04         0.00000E+00
    0.99953E+04        -0.68147E+05         0.00000E+00
    0.00000E+00         0.00000E+00         0.33770E+03
 
    0.69111E+05         0.12808E+05         0.00000E+00
    0.12808E+05        -0.67732E+05         0.00000E+00
    0.00000E+00         0.00000E+00         0.27588E+03
 
    0.68356E+05         0.15599E+05         0.00000E+00
    0.15599E+05        -0.67234E+05         0.00000E+00
    0.00000E+00         0.00000E+00         0.22449E+03
 
    0.67568E+05         0.18368E+05         0.00000E+00
    0.18368E+05        -0.66659E+05         0.00000E+00
    0.00000E+00         0.00000E+00         0.18190E+03
 
    0.66747E+05         0.21113E+05         0.00000E+00
    0.21113E+05        -0.66013E+05         0.00000E+00
    0.00000E+00         0.00000E+00         0.14672E+03
 
    0.65890E+05         0.23832E+05         0.00000E+00
    0.23832E+05        -0.65301E+05         0.00000E+00
    0.00000E+00         0.00000E+00         0.11774E+03
 
    0.64998E+05         0.26524E+05         0.00000E+00
    0.26524E+05        -0.64528E+05         0.00000E+00
    0.00000E+00         0.00000E+00         0.93921E+02
 
    0.64069E+05         0.29188E+05         0.00000E+00
    0.29188E+05        -0.63697E+05         0.00000E+00
    0.00000E+00         0.00000E+00         0.74382E+02
 
    0.63103E+05         0.31823E+05         0.00000E+00
    0.31823E+05        -0.62811E+05         0.00000E+00
    0.00000E+00         0.00000E+00         0.58383E+02
 
    0.62099E+05         0.34427E+05         0.00000E+00
    0.34427E+05        -0.61873E+05         0.00000E+00
    0.00000E+00         0.00000E+00         0.45299E+02
 
    0.61059E+05         0.36999E+05         0.00000E+00
    0.36999E+05        -0.60886E+05         0.00000E+00
    0.00000E+00         0.00000E+00         0.34608E+02
 
    0.59980E+05         0.39538E+05         0.00000E+00
    0.39538E+05        -0.59850E+05         0.00000E+00
    0.00000E+00         0.00000E+00         0.25870E+02
 
    0.58863E+05         0.42042E+05         0.00000E+00
    0.42042E+05        -0.58769E+05         0.00000E+00
    0.00000E+00         0.00000E+00         0.18722E+02
 
    0.57708E+05         0.44511E+05         0.00000E+00
    0.44511E+05        -0.57644E+05         0.00000E+00
    0.00000E+00         0.00000E+00         0.12858E+02
 
    0.56516E+05         0.46943E+05         0.00000E+00
    0.46943E+05        -0.56476E+05         0.00000E+00
    0.00000E+00         0.00000E+00         0.80225E+01
 
    0.55285E+05         0.49338E+05         0.00000E+00
    0.49338E+05        -0.55265E+05         0.00000E+00
    0.00000E+00         0.00000E+00         0.39994E+01
 
    0.54017E+05         0.51693E+05         0.00000E+00
    0.51693E+05        -0.54014E+05         0.00000E+00
    0.00000E+00         0.00000E+00         0.60581E+00
 
    0.52712E+05         0.54009E+05         0.00000E+00
    0.54009E+05        -0.52724E+05         0.00000E+00
    0.00000E+00         0.00000E+00        -0.23162E+01
 
    0.51370E+05         0.56283E+05         0.00000E+00
    0.56283E+05        -0.51394E+05         0.00000E+00
    0.00000E+00         0.00000E+00        -0.49056E+01
 
    0.49990E+05         0.58515E+05         0.00000E+00
    0.58515E+05        -0.50027E+05         0.00000E+00
    0.00000E+00         0.00000E+00        -0.72884E+01
 
    0.48574E+05         0.60704E+05         0.00000E+00
    0.60704E+05        -0.48622E+05         0.00000E+00
    0.00000E+00         0.00000E+00        -0.95823E+01
 
    0.47122E+05         0.62848E+05         0.00000E+00
    0.62848E+05        -0.47182E+05         0.00000E+00
    0.00000E+00         0.00000E+00        -0.11902E+02
 
    0.45634E+05         0.64946E+05         0.00000E+00
    0.64946E+05        -0.45706E+05         0.00000E+00
    0.00000E+00         0.00000E+00        -0.14365E+02
 
    0.44111E+05         0.66998E+05         0.00000E+00
    0.66998E+05        -0.44197E+05         0.00000E+00
    0.00000E+00         0.00000E+00        -0.17094E+02
 
    0.42553E+05         0.69001E+05         0.00000E+00
    0.69001E+05        -0.42654E+05         0.00000E+00
    0.00000E+00         0.00000E+00        -0.20226E+02
 
    0.40960E+05         0.70956E+05         0.00000E+00
    0.70956E+05        -0.41080E+05         0.00000E+00
    0.00000E+00         0.00000E+00        -0.23915E+02
 
    0.39333E+05         0.72861E+05         0.00000E+00
    0.72861E+05        -0.39475E+05         0.00000E+00
    0.00000E+00         0.00000E+00        -0.28339E+02
 
    0.37672E+05         0.74716E+05         0.00000E+00
    0.74716E+05        -0.37841E+05         0.00000E+00
    0.00000E+00         0.00000E+00        -0.33710E+02
 
    0.35978E+05         0.76518E+05         0.00000E+00
    0.76518E+05        -0.36180E+05         0.00000E+00
    0.00000E+00         0.00000E+00        -0.40279E+02
 
    0.34251E+05         0.78267E+05         0.00000E+00
    0.78267E+05        -0.34493E+05         0.00000E+00
    0.00000E+00         0.00000E+00        -0.48348E+02
 
    0.32492E+05         0.79963E+05         0.00000E+00
    0.79963E+05        -0.32783E+05         0.00000E+00
    0.00000E+00         0.00000E+00        -0.58281E+02
 
    0.30700E+05         0.81603E+05         0.00000E+00
    0.81603E+05        -0.31052E+05         0.00000E+00
    0.00000E+00         0.00000E+00        -0.70519E+02
 
    0.28876E+05         0.83188E+05         0.00000E+00
    0.83188E+05        -0.29304E+05         0.00000E+00
    0.00000E+00         0.00000E+00        -0.85594E+02
 
    0.27020E+05         0.84717E+05         0.00000E+00
    0.84717E+05        -0.27541E+05         0.00000E+00
    0.00000E+00         0.00000E+00        -0.10415E+03
 
    0.25132E+05         0.86188E+05         0.00000E+00
    0.86188E+05        -0.25767E+05         0.00000E+00
    0.00000E+00         0.00000E+00        -0.12696E+03
 
    0.23212E+05         0.87602E+05         0.00000E+00
    0.87602E+05        -0.23987E+05         0.00000E+00
    0.00000E+00         0.00000E+00        -0.15497E+03
 
    0.21261E+05         0.88957E+05         0.00000E+00
    0.88957E+05        -0.22207E+05         0.00000E+00
    0.00000E+00         0.00000E+00        -0.18928E+03
 
    0.19276E+05         0.90254E+05         0.00000E+00
    0.90254E+05        -0.20432E+05         0.00000E+00
    0.00000E+00         0.00000E+00        -0.23126E+03
 
    0.17258E+05         0.91491E+05         0.00000E+00
    0.91491E+05        -0.18671E+05         0.00000E+00
    0.00000E+00         0.00000E+00        -0.28248E+03
 
    0.15206E+05         0.92668E+05         0.00000E+00
    0.92668E+05        -0.16931E+05         0.00000E+00
    0.00000E+00         0.00000E+00        -0.34486E+03
 
    0.13119E+05         0.93786E+05         0.00000E+00
    0.93786E+05        -0.15222E+05         0.00000E+00
    0.00000E+00         0.00000E+00        -0.42060E+03
 
    0.10995E+05         0.94845E+05         0.00000E+00
    0.94845E+05        -0.13556E+05         0.00000E+00
    0.00000E+00         0.00000E+00        -0.51234E+03
 
    0.88314E+04         0.95844E+05         0.00000E+00
    0.95844E+05        -0.11947E+05         0.00000E+00
    0.00000E+00         0.00000E+00        -0.62308E+03
 
    0.66265E+04         0.96785E+05         0.00000E+00
    0.96785E+05        -0.10408E+05         0.00000E+00
    0.00000E+00         0.00000E+00        -0.75632E+03
 
    0.43773E+04         0.97669E+05         0.00000E+00
    0.97669E+05        -0.89573E+04         0.00000E+00
    0.00000E+00         0.00000E+00        -0.91600E+03
 
    0.20805E+04         0.98495E+05         0.00000E+00
    0.98495E+05        -0.76131E+04         0.00000E+00
    0.00000E+00         0.00000E+00        -0.11065E+04
 
   -0.26784E+03         0.99267E+05         0.00000E+00
    0.99267E+05        -0.63957E+04         0.00000E+00
    0.00000E+00         0.00000E+00        -0.13327E+04
 
    0.79357E+05         0.15216E+04         0.00000E+00
    0.15216E+04        -0.76017E+05         0.00000E+00
    0.00000E+00         0.00000E+00         0.66792E+03
 
    0.78650E+05         0.45331E+04         0.00000E+00
    0.45331E+04        -0.75890E+05         0.00000E+00
    0.00000E+00         0.00000E+00         0.55208E+03
 
    0.77916E+05         0.75286E+04         0.00000E+00
    0.75286E+04        -0.75643E+05         0.00000E+00
    0.00000E+00         0.00000E+00         0.45450E+03
 
    0.77152E+05         0.10506E+05         0.00000E+00
    0.10506E+05        -0.75288E+05         0.00000E+00
    0.00000E+00         0.00000E+00         0.37272E+03
 
    0.76356E+05         0.13464E+05         0.00000E+00
    0.13464E+05        -0.74834E+05         0.00000E+00
    0.00000E+00         0.00000E+00         0.30447E+03
 
    0.75526E+05         0.16400E+05         0.00000E+00
    0.16400E+05        -0.74288E+05         0.00000E+00
    0.00000E+00         0.00000E+00         0.24773E+03
 
    0.74661E+05         0.19313E+05         0.00000E+00
    0.19313E+05        -0.73658E+05         0.00000E+00
    0.00000E+00         0.00000E+00         0.20072E+03
 
    0.73759E+05         0.22201E+05         0.00000E+00
    0.22201E+05        -0.72950E+05         0.00000E+00
    0.00000E+00         0.00000E+00         0.16189E+03
 
    0.72819E+05         0.25064E+05         0.00000E+00
    0.25064E+05        -0.72169E+05         0.00000E+00
    0.00000E+00         0.00000E+00         0.12990E+03
 
    0.71840E+05         0.27898E+05         0.00000E+00
    0.27898E+05        -0.71321E+05         0.00000E+00
    0.00000E+00         0.00000E+00         0.10361E+03
 
    0.70820E+05         0.30704E+05         0.00000E+00
    0.30704E+05        -0.70410E+05         0.00000E+00
    0.00000E+00         0.00000E+00         0.82049E+02
 
    0.69760E+05         0.33480E+05         0.00000E+00
    0.33480E+05        -0.69438E+05         0.00000E+00
    0.00000E+00         0.00000E+00         0.64393E+02
 
    0.68659E+05         0.36224E+05         0.00000E+00
    0.36224E+05        -0.68410E+05         0.00000E+00
    0.00000E+00         0.00000E+00         0.49953E+02
 
    0.67517E+05         0.38936E+05         0.00000E+00
    0.38936E+05        -0.67326E+05         0.00000E+00
    0.00000E+00         0.00000E+00         0.38153E+02
 
    0.66333E+05         0.41614E+05         0.00000E+00
    0.41614E+05        -0.66190E+05         0.00000E+00
    0.00000E+00         0.00000E+00         0.28510E+02
 
    0.65106E+05         0.44256E+05         0.00000E+00
    0.44256E+05        -0.65003E+05         0.00000E+00
    0.00000E+00         0.00000E+00         0.20620E+02
 
    0.63838E+05         0.46861E+05         0.00000E+00
    0.46861E+05        -0.63767E+05         0.00000E+00
    0.00000E+00         0.00000E+00         0.14147E+02
 
    0.62528E+05         0.49429E+05         0.00000E+00
    0.49429E+05        -0.62484E+05         0.00000E+00
    0.00000E+00         0.00000E+00         0.88066E+01
 
    0.61176E+05         0.51958E+05         0.00000E+00
    0.51958E+05        -0.61154E+05         0.00000E+00
    0.00000E+00         0.00000E+00         0.43625E+01
 
    0.59782E+05         0.54447E+05         0.00000E+00
    0.54447E+05        -0.59779E+05         0.00000E+00
    0.00000E+00         0.00000E+00         0.61208E+00
 
    0.58346E+05         0.56894E+05         0.00000E+00
    0.56894E+05        -0.58360E+05         0.00000E+00
    0.00000E+00         0.00000E+00        -0.26194E+01
 
    0.56870E+05         0.59299E+05         0.00000E+00
    0.59299E+05        -0.56897E+05         0.00000E+00
    0.00000E+00         0.00000E+00        -0.54855E+01
 
    0.55351E+05         0.61659E+05         0.00000E+00
    0.61659E+05        -0.55392E+05         0.00000E+00
    0.00000E+00         0.00000E+00        -0.81254E+01
 
    0.53793E+05         0.63975E+05         0.00000E+00
    0.63975E+05        -0.53846E+05         0.00000E+00
    0.00000E+00         0.00000E+00        -0.10670E+02
 
    0.52193E+05         0.66244E+05         0.00000E+00
    0.66244E+05        -0.52260E+05         0.00000E+00
    0.00000E+00         0.00000E+00        -0.13245E+02
 
    0.50554E+05         0.68466E+05         0.00000E+00
    0.68466E+05        -0.50634E+05         0.00000E+00
    0.00000E+00         0.00000E+00        -0.15982E+02
 
    0.48875E+05         0.70638E+05         0.00000E+00
    0.70638E+05        -0.48970E+05         0.00000E+00
    0.00000E+00         0.00000E+00        -0.19017E+02
 
    0.47157E+05         0.72761E+05         0.00000E+00
    0.72761E+05        -0.47269E+05         0.00000E+00
    0.00000E+00         0.00000E+00        -0.22502E+02
 
    0.45400E+05         0.74833E+05         0.00000E+00
    0.74833E+05        -0.45533E+05         0.00000E+00
    0.00000E+00         0.00000E+00        -0.26607E+02
 
    0.43604E+05         0.76853E+05         0.00000E+00
    0.76853E+05        -0.43762E+05         0.00000E+00
    0.00000E+00         0.00000E+00        -0.31532E+02
 
    0.41770E+05         0.78819E+05         0.00000E+00
    0.78819E+05        -0.41958E+05         0.00000E+00
    0.00000E+00         0.00000E+00        -0.37510E+02
 
    0.39899E+05         0.80731E+05         0.00000E+00
    0.80731E+05        -0.40123E+05         0.00000E+00
    0.00000E+00         0.00000E+00        -0.44823E+02
 
    0.37991E+05         0.82587E+05         0.00000E+00
    0.82587E+05        -0.38260E+05         0.00000E+00
    0.00000E+00         0.00000E+00        -0.53805E+02
 
    0.36046E+05         0.84387E+05         0.00000E+00
    0.84387E+05        -0.36370E+05         0.00000E+00
    0.00000E+00         0.00000E+00        -0.64861E+02
 
    0.34064E+05         0.86128E+05         0.00000E+00
    0.86128E+05        -0.34456E+05         0.00000E+00
    0.00000E+00         0.00000E+00        -0.78482E+02
 
    0.32046E+05         0.87812E+05         0.00000E+00
    0.87812E+05        -0.32522E+05         0.00000E+00
    0.00000E+00         0.00000E+00        -0.95261E+02
 
    0.29992E+05         0.89435E+05         0.00000E+00
    0.89435E+05        -0.30571E+05         0.00000E+00
    0.00000E+00         0.00000E+00        -0.11591E+03
 
    0.27901E+05         0.90998E+05         0.00000E+00
    0.90998E+05        -0.28608E+05         0.00000E+00
    0.00000E+00         0.00000E+00        -0.14130E+03
 
    0.25775E+05         0.92500E+05         0.00000E+00
    0.92500E+05        -0.26637E+05         0.00000E+00
    0.00000E+00         0.00000E+00        -0.17246E+03
 
    0.23611E+05         0.93940E+05         0.00000E+00
    0.93940E+05        -0.24665E+05         0.00000E+00
    0.00000E+00         0.00000E+00        -0.21065E+03
 
    0.21411E+05         0.95318E+05         0.00000E+00
    0.95318E+05        -0.22698E+05         0.00000E+00
    0.00000E+00         0.00000E+00        -0.25735E+03
 
    0.19173E+05         0.96633E+05         0.00000E+00
    0.96633E+05        -0.20745E+05         0.00000E+00
    0.00000E+00         0.00000E+00        -0.31435E+03
 
    0.16897E+05         0.97884E+05         0.00000E+00
    0.97884E+05        -0.18815E+05         0.00000E+00
    0.00000E+00         0.00000E+00        -0.38375E+03
 
    0.14580E+05         0.99072E+05         0.00000E+00
    0.99072E+05        -0.16920E+05         0.00000E+00
    0.00000E+00         0.00000E+00        -0.46803E+03
 
    0.12221E+05         0.10020E+06         0.00000E+00
    0.10020E+06        -0.15071E+05         0.00000E+00
    0.00000E+00         0.00000E+00        -0.57009E+03
 
    0.98177E+04         0.10126E+06         0.00000E+00
    0.10126E+06        -0.13284E+05         0.00000E+00
    0.00000E+00         0.00000E+00        -0.69331E+03
 
    0.73677E+04         0.10226E+06         0.00000E+00
    0.10226E+06        -0.11575E+05         0.00000E+00
    0.00000E+00         0.00000E+00        -0.84155E+03
 
    0.48676E+04         0.10319E+06         0.00000E+00
    0.10319E+06        -0.99636E+04         0.00000E+00
    0.00000E+00         0.00000E+00        -0.10192E+04
 
    0.23136E+04         0.10407E+06         0.00000E+00
    0.10407E+06        -0.84694E+04         0.00000E+00
    0.00000E+00         0.00000E+00        -0.12312E+04
 
   -0.29825E+03         0.10489E+06         0.00000E+00
    0.10489E+06        -0.71157E+04         0.00000E+00
    0.00000E+00         0.00000E+00        -0.14828E+04
 
    0.87259E+05         0.16006E+04         0.00000E+00
    0.16006E+04        -0.83601E+05         0.00000E+00
    0.00000E+00         0.00000E+00         0.73163E+03
 
    0.86485E+05         0.47699E+04         0.00000E+00
    0.47699E+04        -0.83462E+05         0.00000E+00
    0.00000E+00         0.00000E+00         0.60467E+03
 
    0.85682E+05         0.79230E+04         0.00000E+00
    0.79230E+04        -0.83194E+05         0.00000E+00
    0.00000E+00         0.00000E+00         0.49774E+03
 
    0.84848E+05         0.11058E+05         0.00000E+00
    0.11058E+05        -0.82807E+05         0.00000E+00
    0.00000E+00         0.00000E+00         0.40813E+03
 
    0.83979E+05         0.14173E+05         0.00000E+00
    0.14173E+05        -0.82312E+05         0.00000E+00
    0.00000E+00         0.00000E+00         0.33335E+03
 
    0.83074E+05         0.17266E+05         0.00000E+00
    0.17266E+05        -0.81718E+05         0.00000E+00
    0.00000E+00         0.00000E+00         0.27120E+03
 
    0.82130E+05         0.20336E+05         0.00000E+00
    0.20336E+05        -0.81031E+05         0.00000E+00
    0.00000E+00         0.00000E+00         0.21971E+03
 
    0.81146E+05         0.23381E+05         0.00000E+00
    0.23381E+05        -0.80260E+05         0.00000E+00
    0.00000E+00         0.00000E+00         0.17718E+03
 
    0.80121E+05         0.26400E+05         0.00000E+00
    0.26400E+05        -0.79410E+05         0.00000E+00
    0.00000E+00         0.00000E+00         0.14215E+03
 
    0.79053E+05         0.29391E+05         0.00000E+00
    0.29391E+05        -0.78486E+05         0.00000E+00
    0.00000E+00         0.00000E+00         0.11336E+03
 
    0.77941E+05         0.32352E+05         0.00000E+00
    0.32352E+05        -0.77493E+05         0.00000E+00
    0.00000E+00         0.00000E+00         0.89747E+02
 
    0.76785E+05         0.35283E+05         0.00000E+00
    0.35283E+05        -0.76433E+05         0.00000E+00
    0.00000E+00         0.00000E+00         0.70415E+02
 
    0.75584E+05         0.38181E+05         0.00000E+00
    0.38181E+05        -0.75311E+05         0.00000E+00
    0.00000E+00         0.00000E+00         0.54607E+02
 
    0.74338E+05         0.41046E+05         0.00000E+00
    0.41046E+05        -0.74129E+05         0.00000E+00
    0.00000E+00         0.00000E+00         0.41688E+02
 
    0.73045E+05         0.43877E+05         0.00000E+00
    0.43877E+05        -0.72889E+05         0.00000E+00
    0.00000E+00         0.00000E+00         0.31132E+02
 
    0.71706E+05         0.46671E+05         0.00000E+00
    0.46671E+05        -0.71594E+05         0.00000E+00
    0.00000E+00         0.00000E+00         0.22494E+02
 
    0.70321E+05         0.49428E+05         0.00000E+00
    0.49428E+05        -0.70244E+05         0.00000E+00
    0.00000E+00         0.00000E+00         0.15406E+02
 
    0.68889E+05         0.52145E+05         0.00000E+00
    0.52145E+05        -0.68841E+05         0.00000E+00
    0.00000E+00         0.00000E+00         0.95579E+01
 
    0.67411E+05         0.54823E+05         0.00000E+00
    0.54823E+05        -0.67388E+05         0.00000E+00
    0.00000E+00         0.00000E+00         0.46895E+01
 
    0.65887E+05         0.57459E+05         0.00000E+00
    0.57459E+05        -0.65884E+05         0.00000E+00
    0.00000E+00         0.00000E+00         0.57875E+00
 
    0.64316E+05         0.60052E+05         0.00000E+00
    0.60052E+05        -0.64331E+05         0.00000E+00
    0.00000E+00         0.00000E+00        -0.29660E+01
 
    0.62700E+05         0.62602E+05         0.00000E+00
    0.62602E+05        -0.62730E+05         0.00000E+00
    0.00000E+00         0.00000E+00        -0.61135E+01
 
    0.61037E+05         0.65105E+05         0.00000E+00
    0.65105E+05        -0.61083E+05         0.00000E+00
    0.00000E+00         0.00000E+00        -0.90167E+01
 
    0.59330E+05         0.67562E+05         0.00000E+00
    0.67562E+05        -0.59389E+05         0.00000E+00
    0.00000E+00         0.00000E+00        -0.11819E+02
 
    0.57577E+05         0.69970E+05         0.00000E+00
    0.69970E+05        -0.57650E+05         0.00000E+00
    0.00000E+00         0.00000E+00        -0.14661E+02
 
    0.55780E+05         0.72329E+05         0.00000E+00
    0.72329E+05        -0.55868E+05         0.00000E+00
    0.00000E+00         0.00000E+00        -0.17685E+02
 
    0.53938E+05         0.74638E+05         0.00000E+00
    0.74638E+05        -0.54043E+05         0.00000E+00
    0.00000E+00         0.00000E+00        -0.21043E+02
 
    0.52052E+05         0.76894E+05         0.00000E+00
    0.76894E+05        -0.52176E+05         0.00000E+00
    0.00000E+00         0.00000E+00        -0.24903E+02
 
    0.50122E+05         0.79096E+05         0.00000E+00
    0.79096E+05        -0.50270E+05         0.00000E+00
    0.00000E+00         0.00000E+00        -0.29453E+02
 
    0.48150E+05         0.81244E+05         0.00000E+00
    0.81244E+05        -0.48324E+05         0.00000E+00
    0.00000E+00         0.00000E+00        -0.34914E+02
 
    0.46135E+05         0.83336E+05         0.00000E+00
    0.83336E+05        -0.46342E+05         0.00000E+00
    0.00000E+00         0.00000E+00        -0.41545E+02
 
    0.44077E+05         0.85371E+05         0.00000E+00
    0.85371E+05        -0.44325E+05         0.00000E+00
    0.00000E+00         0.00000E+00        -0.49658E+02
 
    0.41978E+05         0.87347E+05         0.00000E+00
    0.87347E+05        -0.42276E+05         0.00000E+00
    0.00000E+00         0.00000E+00        -0.59623E+02
 
    0.39837E+05         0.89264E+05         0.00000E+00
    0.89264E+05        -0.40196E+05         0.00000E+00
    0.00000E+00         0.00000E+00        -0.71890E+02
 
    0.37654E+05         0.91120E+05         0.00000E+00
    0.91120E+05        -0.38089E+05         0.00000E+00
    0.00000E+00         0.00000E+00        -0.87002E+02
 
    0.35431E+05         0.92914E+05         0.00000E+00
    0.92914E+05        -0.35959E+05         0.00000E+00
    0.00000E+00         0.00000E+00        -0.10562E+03
 
    0.33167E+05         0.94645E+05         0.00000E+00
    0.94645E+05        -0.33809E+05         0.00000E+00
    0.00000E+00         0.00000E+00        -0.12853E+03
 
    0.30862E+05         0.96312E+05         0.00000E+00
    0.96312E+05        -0.31645E+05         0.00000E+00
    0.00000E+00         0.00000E+00        -0.15669E+03
 
    0.28515E+05         0.97914E+05         0.00000E+00
    0.97914E+05        -0.29472E+05         0.00000E+00
    0.00000E+00         0.00000E+00        -0.19126E+03
 
    0.26128E+05         0.99450E+05         0.00000E+00
    0.99450E+05        -0.27296E+05         0.00000E+00
    0.00000E+00         0.00000E+00        -0.23362E+03
 
    0.23698E+05         0.10092E+06         0.00000E+00
    0.10092E+06        -0.25125E+05         0.00000E+00
    0.00000E+00         0.00000E+00        -0.28543E+03
 
    0.21226E+05         0.10232E+06         0.00000E+00
    0.10232E+06        -0.22969E+05         0.00000E+00
    0.00000E+00         0.00000E+00        -0.34865E+03
 
    0.18709E+05         0.10366E+06         0.00000E+00
    0.10366E+06        -0.20837E+05         0.00000E+00
    0.00000E+00         0.00000E+00        -0.42562E+03
 
    0.16147E+05         0.10493E+06         0.00000E+00
    0.10493E+06        -0.18742E+05         0.00000E+00
    0.00000E+00         0.00000E+00        -0.51910E+03
 
    0.13537E+05         0.10613E+06         0.00000E+00
    0.10613E+06        -0.16699E+05         0.00000E+00
    0.00000E+00         0.00000E+00        -0.63230E+03
 
    0.10877E+05         0.10726E+06         0.00000E+00
    0.10726E+06        -0.14722E+05         0.00000E+00
    0.00000E+00         0.00000E+00        -0.76896E+03
 
    0.81644E+04         0.10833E+06         0.00000E+00
    0.10833E+06        -0.12831E+05         0.00000E+00
    0.00000E+00         0.00000E+00        -0.93337E+03
 
    0.53949E+04         0.10933E+06         0.00000E+00
    0.10933E+06        -0.11047E+05         0.00000E+00
    0.00000E+00         0.00000E+00        -0.11304E+04
 
    0.25646E+04         0.11026E+06         0.00000E+00
    0.11026E+06        -0.93919E+04         0.00000E+00
    0.00000E+00         0.00000E+00        -0.13655E+04
 
   -0.33108E+03         0.11113E+06         0.00000E+00
    0.11113E+06        -0.78916E+04         0.00000E+00
    0.00000E+00         0.00000E+00        -0.16445E+04
 
    0.95569E+05         0.16852E+04         0.00000E+00
    0.16852E+04        -0.91595E+05         0.00000E+00
    0.00000E+00         0.00000E+00         0.79486E+03
 
    0.94729E+05         0.50241E+04         0.00000E+00
    0.50241E+04        -0.91445E+05         0.00000E+00
    0.00000E+00         0.00000E+00         0.65683E+03
 
    0.93857E+05         0.83470E+04         0.00000E+00
    0.83470E+04        -0.91154E+05         0.00000E+00
    0.00000E+00         0.00000E+00         0.54059E+03
 
    0.92952E+05         0.11652E+05         0.00000E+00
    0.11652E+05        -0.90736E+05         0.00000E+00
    0.00000E+00         0.00000E+00         0.44318E+03
 
    0.92010E+05         0.14937E+05         0.00000E+00
    0.14937E+05        -0.90200E+05         0.00000E+00
    0.00000E+00         0.00000E+00         0.36192E+03
 
    0.91029E+05         0.18201E+05         0.00000E+00
    0.18201E+05        -0.89557E+05         0.00000E+00
    0.00000E+00         0.00000E+00         0.29438E+03
 
    0.90006E+05         0.21441E+05         0.00000E+00
    0.21441E+05        -0.88814E+05         0.00000E+00
    0.00000E+00         0.00000E+00         0.23843E+03
 
    0.88940E+05         0.24656E+05         0.00000E+00
    0.24656E+05        -0.87979E+05         0.00000E+00
    0.00000E+00         0.00000E+00         0.19223E+03
 
    0.87828E+05         0.27845E+05         0.00000E+00
    0.27845E+05        -0.87058E+05         0.00000E+00
    0.00000E+00         0.00000E+00         0.15418E+03
 
    0.86671E+05         0.31006E+05         0.00000E+00
    0.31006E+05        -0.86056E+05         0.00000E+00
    0.00000E+00         0.00000E+00         0.12292E+03
 
    0.85465E+05         0.34137E+05         0.00000E+00
    0.34137E+05        -0.84979E+05         0.00000E+00
    0.00000E+00         0.00000E+00         0.97280E+02
 
    0.84211E+05         0.37237E+05         0.00000E+00
    0.37237E+05        -0.83830E+05         0.00000E+00
    0.00000E+00         0.00000E+00         0.76292E+02
 
    0.82908E+05         0.40304E+05         0.00000E+00
    0.40304E+05        -0.82612E+05         0.00000E+00
    0.00000E+00         0.00000E+00         0.59131E+02
 
    0.81554E+05         0.43338E+05         0.00000E+00
    0.43338E+05        -0.81329E+05         0.00000E+00
    0.00000E+00         0.00000E+00         0.45110E+02
 
    0.80150E+05         0.46336E+05         0.00000E+00
    0.46336E+05        -0.79982E+05         0.00000E+00
    0.00000E+00         0.00000E+00         0.33652E+02
 
    0.78696E+05         0.49297E+05         0.00000E+00
    0.49297E+05        -0.78574E+05         0.00000E+00
    0.00000E+00         0.00000E+00         0.24278E+02
 
    0.77190E+05         0.52220E+05         0.00000E+00
    0.52220E+05        -0.77107E+05         0.00000E+00
    0.00000E+00         0.00000E+00         0.16586E+02
 
    0.75633E+05         0.55103E+05         0.00000E+00
    0.55103E+05        -0.75581E+05         0.00000E+00
    0.00000E+00         0.00000E+00         0.10240E+02
 
    0.74024E+05         0.57945E+05         0.00000E+00
    0.57945E+05        -0.74000E+05         0.00000E+00
    0.00000E+00         0.00000E+00         0.49542E+01
 
    0.72365E+05         0.60744E+05         0.00000E+00
    0.60744E+05        -0.72362E+05         0.00000E+00
    0.00000E+00         0.00000E+00         0.48865E+00
 
    0.70654E+05         0.63498E+05         0.00000E+00
    0.63498E+05        -0.70671E+05         0.00000E+00
    0.00000E+00         0.00000E+00        -0.33657E+01
 
    0.68892E+05         0.66207E+05         0.00000E+00
    0.66207E+05        -0.68926E+05         0.00000E+00
    0.00000E+00         0.00000E+00        -0.67930E+01
 
    0.67080E+05         0.68869E+05         0.00000E+00
    0.68869E+05        -0.67130E+05         0.00000E+00
    0.00000E+00         0.00000E+00        -0.99604E+01
 
    0.65217E+05         0.71482E+05         0.00000E+00
    0.71482E+05        -0.65282E+05         0.00000E+00
    0.00000E+00         0.00000E+00        -0.13025E+02
 
    0.63304E+05         0.74046E+05         0.00000E+00
    0.74046E+05        -0.63384E+05         0.00000E+00
    0.00000E+00         0.00000E+00        -0.16140E+02
 
    0.61341E+05         0.76557E+05         0.00000E+00
    0.76557E+05        -0.61438E+05         0.00000E+00
    0.00000E+00         0.00000E+00        -0.19463E+02
 
    0.59328E+05         0.79016E+05         0.00000E+00
    0.79016E+05        -0.59444E+05         0.00000E+00
    0.00000E+00         0.00000E+00        -0.23160E+02
 
    0.57267E+05         0.81420E+05         0.00000E+00
    0.81420E+05        -0.57404E+05         0.00000E+00
    0.00000E+00         0.00000E+00        -0.27417E+02
 
    0.55156E+05         0.83769E+05         0.00000E+00
    0.83769E+05        -0.55318E+05         0.00000E+00
    0.00000E+00         0.00000E+00        -0.32441E+02
 
    0.52998E+05         0.86060E+05         0.00000E+00
    0.86060E+05        -0.53190E+05         0.00000E+00
    0.00000E+00         0.00000E+00        -0.38476E+02
 
    0.50791E+05         0.88292E+05         0.00000E+00
    0.88292E+05        -0.51020E+05         0.00000E+00
    0.00000E+00         0.00000E+00        -0.45809E+02
 
    0.48537E+05         0.90464E+05         0.00000E+00
    0.90464E+05        -0.48811E+05         0.00000E+00
    0.00000E+00         0.00000E+00        -0.54783E+02
 
    0.46236E+05         0.92575E+05         0.00000E+00
    0.92575E+05        -0.46565E+05         0.00000E+00
    0.00000E+00         0.00000E+00        -0.65808E+02
 
    0.43888E+05         0.94623E+05         0.00000E+00
    0.94623E+05        -0.44285E+05         0.00000E+00
    0.00000E+00         0.00000E+00        -0.79383E+02
 
    0.41494E+05         0.96607E+05         0.00000E+00
    0.96607E+05        -0.41975E+05         0.00000E+00
    0.00000E+00         0.00000E+00        -0.96106E+02
 
    0.39053E+05         0.98525E+05         0.00000E+00
    0.98525E+05        -0.39637E+05         0.00000E+00
    0.00000E+00         0.00000E+00        -0.11671E+03
 
    0.36567E+05         0.10038E+06         0.00000E+00
    0.10038E+06        -0.37277E+05         0.00000E+00
    0.00000E+00         0.00000E+00        -0.14206E+03
 
    0.34033E+05         0.10216E+06         0.00000E+00
    0.10216E+06        -0.34899E+05         0.00000E+00
    0.00000E+00         0.00000E+00        -0.17323E+03
 
    0.31454E+05         0.10388E+06         0.00000E+00
    0.10388E+06        -0.32511E+05         0.00000E+00
    0.00000E+00         0.00000E+00        -0.21148E+03
 
    0.28827E+05         0.10552E+06         0.00000E+00
    0.10552E+06        -0.30119E+05         0.00000E+00
    0.00000E+00         0.00000E+00        -0.25835E+03
 
    0.26153E+05         0.10710E+06         0.00000E+00
    0.10710E+06        -0.27731E+05         0.00000E+00
    0.00000E+00         0.00000E+00        -0.31568E+03
 
    0.23430E+05         0.10860E+06         0.00000E+00
    0.10860E+06        -0.25358E+05         0.00000E+00
    0.00000E+00         0.00000E+00        -0.38563E+03
 
    0.20657E+05         0.11003E+06         0.00000E+00
    0.11003E+06        -0.23011E+05         0.00000E+00
    0.00000E+00         0.00000E+00        -0.47080E+03
 
    0.17833E+05         0.11139E+06         0.00000E+00
    0.11139E+06        -0.20704E+05         0.00000E+00
    0.00000E+00         0.00000E+00        -0.57423E+03
 
    0.14954E+05         0.11268E+06         0.00000E+00
    0.11268E+06        -0.18451E+05         0.00000E+00
    0.00000E+00         0.00000E+00        -0.69947E+03
 
    0.12019E+05         0.11389E+06         0.00000E+00
    0.11389E+06        -0.16272E+05         0.00000E+00
    0.00000E+00         0.00000E+00        -0.85067E+03
 
    0.90232E+04         0.11504E+06         0.00000E+00
    0.11504E+06        -0.14186E+05         0.00000E+00
    0.00000E+00         0.00000E+00        -0.10326E+04
 
    0.59636E+04         0.11611E+06         0.00000E+00
    0.11611E+06        -0.12216E+05         0.00000E+00
    0.00000E+00         0.00000E+00        -0.12505E+04
 
    0.28354E+04         0.11711E+06         0.00000E+00
    0.11711E+06        -0.10388E+05         0.00000E+00
    0.00000E+00         0.00000E+00        -0.15106E+04
 
   -0.36663E+03         0.11804E+06         0.00000E+00
    0.11804E+06        -0.87301E+04         0.00000E+00
    0.00000E+00         0.00000E+00        -0.18193E+04
 
    0.10431E+06         0.17754E+04         0.00000E+00
    0.17754E+04        -0.10003E+06         0.00000E+00
    0.00000E+00         0.00000E+00         0.85582E+03
 
    0.10341E+06         0.52963E+04         0.00000E+00
    0.52963E+04        -0.99872E+05         0.00000E+00
    0.00000E+00         0.00000E+00         0.70705E+03
 
    0.10247E+06         0.88018E+04         0.00000E+00
    0.88018E+04        -0.99560E+05         0.00000E+00
    0.00000E+00         0.00000E+00         0.58178E+03
 
    0.10149E+06         0.12290E+05         0.00000E+00
    0.12290E+05        -0.99110E+05         0.00000E+00
    0.00000E+00         0.00000E+00         0.47683E+03
 
    0.10048E+06         0.15759E+05         0.00000E+00
    0.15759E+05        -0.98533E+05         0.00000E+00
    0.00000E+00         0.00000E+00         0.38929E+03
 
    0.99423E+05         0.19206E+05         0.00000E+00
    0.19206E+05        -0.97841E+05         0.00000E+00
    0.00000E+00         0.00000E+00         0.31655E+03
 
    0.98322E+05         0.22631E+05         0.00000E+00
    0.22631E+05        -0.97040E+05         0.00000E+00
    0.00000E+00         0.00000E+00         0.25631E+03
 
    0.97173E+05         0.26031E+05         0.00000E+00
    0.26031E+05        -0.96140E+05         0.00000E+00
    0.00000E+00         0.00000E+00         0.20657E+03
 
    0.95975E+05         0.29405E+05         0.00000E+00
    0.29405E+05        -0.95147E+05         0.00000E+00
    0.00000E+00         0.00000E+00         0.16561E+03
 
    0.94727E+05         0.32751E+05         0.00000E+00
    0.32751E+05        -0.94067E+05         0.00000E+00
    0.00000E+00         0.00000E+00         0.13197E+03
 
    0.93426E+05         0.36067E+05         0.00000E+00
    0.36067E+05        -0.92904E+05         0.00000E+00
    0.00000E+00         0.00000E+00         0.10438E+03
 
    0.92073E+05         0.39352E+05         0.00000E+00
    0.39352E+05        -0.91664E+05         0.00000E+00
    0.00000E+00         0.00000E+00         0.81805E+02
 
    0.90665E+05         0.42604E+05         0.00000E+00
    0.42604E+05        -0.90348E+05         0.00000E+00
    0.00000E+00         0.00000E+00         0.63350E+02
 
    0.89202E+05         0.45822E+05         0.00000E+00
    0.45822E+05        -0.88961E+05         0.00000E+00
    0.00000E+00         0.00000E+00         0.48276E+02
 
    0.87684E+05         0.49004E+05         0.00000E+00
    0.49004E+05        -0.87504E+05         0.00000E+00
    0.00000E+00         0.00000E+00         0.35961E+02
 
    0.86110E+05         0.52148E+05         0.00000E+00
    0.52148E+05        -0.85980E+05         0.00000E+00
    0.00000E+00         0.00000E+00         0.25888E+02
 
    0.84479E+05         0.55254E+05         0.00000E+00
    0.55254E+05        -0.84391E+05         0.00000E+00
    0.00000E+00         0.00000E+00         0.17623E+02
 
    0.82793E+05         0.58318E+05         0.00000E+00
    0.58318E+05        -0.82738E+05         0.00000E+00
    0.00000E+00         0.00000E+00         0.10803E+02
 
    0.81049E+05         0.61340E+05         0.00000E+00
    0.61340E+05        -0.81023E+05         0.00000E+00
    0.00000E+00         0.00000E+00         0.51229E+01
 
    0.79249E+05         0.64318E+05         0.00000E+00
    0.64318E+05        -0.79247E+05         0.00000E+00
    0.00000E+00         0.00000E+00         0.32064E+00
 
    0.77392E+05         0.67251E+05         0.00000E+00
    0.67251E+05        -0.77412E+05         0.00000E+00
    0.00000E+00         0.00000E+00        -0.38290E+01
 
    0.75479E+05         0.70136E+05         0.00000E+00
    0.70136E+05        -0.75517E+05         0.00000E+00
    0.00000E+00         0.00000E+00        -0.75256E+01
 
    0.73510E+05         0.72973E+05         0.00000E+00
    0.72973E+05        -0.73565E+05         0.00000E+00
    0.00000E+00         0.00000E+00        -0.10950E+02
 
    0.71485E+05         0.75759E+05         0.00000E+00
    0.75759E+05        -0.71556E+05         0.00000E+00
    0.00000E+00         0.00000E+00        -0.14274E+02
 
    0.69403E+05         0.78493E+05         0.00000E+00
    0.78493E+05        -0.69492E+05         0.00000E+00
    0.00000E+00         0.00000E+00        -0.17665E+02
 
    0.67267E+05         0.81173E+05         0.00000E+00
    0.81173E+05        -0.67373E+05         0.00000E+00
    0.00000E+00         0.00000E+00        -0.21294E+02
 
    0.65075E+05         0.83798E+05         0.00000E+00
    0.83798E+05        -0.65202E+05         0.00000E+00
    0.00000E+00         0.00000E+00        -0.25344E+02
 
    0.62829E+05         0.86367E+05         0.00000E+00
    0.86367E+05        -0.62979E+05         0.00000E+00
    0.00000E+00         0.00000E+00        -0.30018E+02
 
    0.60528E+05         0.88877E+05         0.00000E+00
    0.88877E+05        -0.60706E+05         0.00000E+00
    0.00000E+00         0.00000E+00        -0.35545E+02
 
    0.58173E+05         0.91327E+05         0.00000E+00
    0.91327E+05        -0.58384E+05         0.00000E+00
    0.00000E+00         0.00000E+00        -0.42194E+02
 
    0.55765E+05         0.93715E+05         0.00000E+00
    0.93715E+05        -0.56017E+05         0.00000E+00
    0.00000E+00         0.00000E+00        -0.50280E+02
 
    0.53304E+05         0.96040E+05         0.00000E+00
    0.96040E+05        -0.53605E+05         0.00000E+00
    0.00000E+00         0.00000E+00        -0.60180E+02
 
    0.50790E+05         0.98301E+05         0.00000E+00
    0.98301E+05        -0.51152E+05         0.00000E+00
    0.00000E+00         0.00000E+00        -0.72350E+02
 
    0.48223E+05         0.10050E+06         0.00000E+00
    0.10050E+06        -0.48660E+05         0.00000E+00
    0.00000E+00         0.00000E+00        -0.87337E+02
 
    0.45604E+05         0.10262E+06         0.00000E+00
    0.10262E+06        -0.46133E+05         0.00000E+00
    0.00000E+00         0.00000E+00        -0.10580E+03
 
    0.42933E+05         0.10468E+06         0.00000E+00
    0.10468E+06        -0.43576E+05         0.00000E+00
    0.00000E+00         0.00000E+00        -0.12855E+03
 
    0.40210E+05         0.10667E+06         0.00000E+00
    0.10667E+06        -0.40993E+05         0.00000E+00
    0.00000E+00         0.00000E+00        -0.15655E+03
 
    0.37435E+05         0.10858E+06         0.00000E+00
    0.10858E+06        -0.38390E+05         0.00000E+00
    0.00000E+00         0.00000E+00        -0.19097E+03
 
    0.34607E+05         0.11043E+06         0.00000E+00
    0.11043E+06        -0.35773E+05         0.00000E+00
    0.00000E+00         0.00000E+00        -0.23321E+03
 
    0.31726E+05         0.11219E+06         0.00000E+00
    0.11219E+06        -0.33151E+05         0.00000E+00
    0.00000E+00         0.00000E+00        -0.28498E+03
 
    0.28791E+05         0.11389E+06         0.00000E+00
    0.11389E+06        -0.30532E+05         0.00000E+00
    0.00000E+00         0.00000E+00        -0.34828E+03
 
    0.25801E+05         0.11551E+06         0.00000E+00
    0.11551E+06        -0.27928E+05         0.00000E+00
    0.00000E+00         0.00000E+00        -0.42553E+03
 
    0.22754E+05         0.11705E+06         0.00000E+00
    0.11705E+06        -0.25351E+05         0.00000E+00
    0.00000E+00         0.00000E+00        -0.51957E+03
 
    0.19648E+05         0.11851E+06         0.00000E+00
    0.11851E+06        -0.22817E+05         0.00000E+00
    0.00000E+00         0.00000E+00        -0.63377E+03
 
    0.16481E+05         0.11990E+06         0.00000E+00
    0.11990E+06        -0.20341E+05         0.00000E+00
    0.00000E+00         0.00000E+00        -0.77206E+03
 
    0.13250E+05         0.12121E+06         0.00000E+00
    0.12121E+06        -0.17945E+05         0.00000E+00
    0.00000E+00         0.00000E+00        -0.93901E+03
 
    0.99502E+04         0.12244E+06         0.00000E+00
    0.12244E+06        -0.15649E+05         0.00000E+00
    0.00000E+00         0.00000E+00        -0.11398E+04
 
    0.65780E+04         0.12360E+06         0.00000E+00
    0.12360E+06        -0.13481E+05         0.00000E+00
    0.00000E+00         0.00000E+00        -0.13805E+04
 
    0.31281E+04         0.12468E+06         0.00000E+00
    0.12468E+06        -0.11466E+05         0.00000E+00
    0.00000E+00         0.00000E+00        -0.16677E+04
 
   -0.40514E+03         0.12568E+06         0.00000E+00
    0.12568E+06        -0.96376E+04         0.00000E+00
    0.00000E+00         0.00000E+00        -0.20085E+04
 
    0.11351E+06         0.18717E+04         0.00000E+00
    0.18717E+04        -0.10895E+06         0.00000E+00
    0.00000E+00         0.00000E+00         0.91209E+03
 
    0.11255E+06         0.55878E+04         0.00000E+00
    0.55878E+04        -0.10878E+06         0.00000E+00
    0.00000E+00         0.00000E+00         0.75331E+03
 
    0.11155E+06         0.92896E+04         0.00000E+00
    0.92896E+04        -0.10845E+06         0.00000E+00
    0.00000E+00         0.00000E+00         0.61965E+03
 
    0.11050E+06         0.12975E+05         0.00000E+00
    0.12975E+05        -0.10797E+06         0.00000E+00
    0.00000E+00         0.00000E+00         0.50770E+03
 
    0.10942E+06         0.16642E+05         0.00000E+00
    0.16642E+05        -0.10735E+06         0.00000E+00
    0.00000E+00         0.00000E+00         0.41433E+03
 
    0.10829E+06         0.20289E+05         0.00000E+00
    0.20289E+05        -0.10661E+06         0.00000E+00
    0.00000E+00         0.00000E+00         0.33677E+03
 
    0.10711E+06         0.23914E+05         0.00000E+00
    0.23914E+05        -0.10575E+06         0.00000E+00
    0.00000E+00         0.00000E+00         0.27255E+03
 
    0.10588E+06         0.27515E+05         0.00000E+00
    0.27515E+05        -0.10478E+06         0.00000E+00
    0.00000E+00         0.00000E+00         0.21954E+03
 
    0.10460E+06         0.31090E+05         0.00000E+00
    0.31090E+05        -0.10372E+06         0.00000E+00
    0.00000E+00         0.00000E+00         0.17591E+03
 
    0.10326E+06         0.34637E+05         0.00000E+00
    0.34637E+05        -0.10256E+06         0.00000E+00
    0.00000E+00         0.00000E+00         0.14007E+03
 
    0.10186E+06         0.38155E+05         0.00000E+00
    0.38155E+05        -0.10131E+06         0.00000E+00
    0.00000E+00         0.00000E+00         0.11070E+03
 
    0.10041E+06         0.41643E+05         0.00000E+00
    0.41643E+05        -0.99973E+05         0.00000E+00
    0.00000E+00         0.00000E+00         0.86669E+02
 
    0.98892E+05         0.45097E+05         0.00000E+00
    0.45097E+05        -0.98556E+05         0.00000E+00
    0.00000E+00         0.00000E+00         0.67035E+02
 
    0.97317E+05         0.48516E+05         0.00000E+00
    0.48516E+05        -0.97062E+05         0.00000E+00
    0.00000E+00         0.00000E+00         0.51003E+02
 
    0.95681E+05         0.51900E+05         0.00000E+00
    0.51900E+05        -0.95491E+05         0.00000E+00
    0.00000E+00         0.00000E+00         0.37912E+02
 
    0.93984E+05         0.55245E+05         0.00000E+00
    0.55245E+05        -0.93848E+05         0.00000E+00
    0.00000E+00         0.00000E+00         0.27209E+02
 
    0.92224E+05         0.58550E+05         0.00000E+00
    0.58550E+05        -0.92132E+05         0.00000E+00
    0.00000E+00         0.00000E+00         0.18430E+02
 
    0.90403E+05         0.61813E+05         0.00000E+00
    0.61813E+05        -0.90347E+05         0.00000E+00
    0.00000E+00         0.00000E+00         0.11187E+02
 
    0.88519E+05         0.65034E+05         0.00000E+00
    0.65034E+05        -0.88493E+05         0.00000E+00
    0.00000E+00         0.00000E+00         0.51535E+01
 
    0.86572E+05         0.68208E+05         0.00000E+00
    0.68208E+05        -0.86572E+05         0.00000E+00
    0.00000E+00         0.00000E+00         0.49645E-01
 
    0.84563E+05         0.71336E+05         0.00000E+00
    0.71336E+05        -0.84585E+05         0.00000E+00
    0.00000E+00         0.00000E+00        -0.43666E+01
 
    0.82491E+05         0.74415E+05         0.00000E+00
    0.74415E+05        -0.82533E+05         0.00000E+00
    0.00000E+00         0.00000E+00        -0.83096E+01
 
    0.80357E+05         0.77444E+05         0.00000E+00
    0.77444E+05        -0.80417E+05         0.00000E+00
    0.00000E+00         0.00000E+00        -0.11975E+02
 
    0.78161E+05         0.80420E+05         0.00000E+00
    0.80420E+05        -0.78239E+05         0.00000E+00
    0.00000E+00         0.00000E+00        -0.15547E+02
 
    0.75904E+05         0.83342E+05         0.00000E+00
    0.83342E+05        -0.76000E+05         0.00000E+00
    0.00000E+00         0.00000E+00        -0.19208E+02
 
    0.73585E+05         0.86208E+05         0.00000E+00
    0.86208E+05        -0.73700E+05         0.00000E+00
    0.00000E+00         0.00000E+00        -0.23144E+02
 
    0.71204E+05         0.89017E+05         0.00000E+00
    0.89017E+05        -0.71342E+05         0.00000E+00
    0.00000E+00         0.00000E+00        -0.27556E+02
 
    0.68763E+05         0.91766E+05         0.00000E+00
    0.91766E+05        -0.68926E+05         0.00000E+00
    0.00000E+00         0.00000E+00        -0.32664E+02
 
    0.66262E+05         0.94454E+05         0.00000E+00
    0.94454E+05        -0.66455E+05         0.00000E+00
    0.00000E+00         0.00000E+00        -0.38721E+02
 
    0.63700E+05         0.97079E+05         0.00000E+00
    0.97079E+05        -0.63930E+05         0.00000E+00
    0.00000E+00         0.00000E+00        -0.46021E+02
 
    0.61079E+05         0.99640E+05         0.00000E+00
    0.99640E+05        -0.61353E+05         0.00000E+00
    0.00000E+00         0.00000E+00        -0.54911E+02
 
    0.58398E+05         0.10213E+06         0.00000E+00
    0.10213E+06        -0.58727E+05         0.00000E+00
    0.00000E+00         0.00000E+00        -0.65808E+02
 
    0.55659E+05         0.10456E+06         0.00000E+00
    0.10456E+06        -0.56055E+05         0.00000E+00
    0.00000E+00         0.00000E+00        -0.79209E+02
 
    0.52860E+05         0.10692E+06         0.00000E+00
    0.10692E+06        -0.53339E+05         0.00000E+00
    0.00000E+00         0.00000E+00        -0.95720E+02
 
    0.50003E+05         0.10920E+06         0.00000E+00
    0.10920E+06        -0.50584E+05         0.00000E+00
    0.00000E+00         0.00000E+00        -0.11607E+03
 
    0.47088E+05         0.11142E+06         0.00000E+00
    0.11142E+06        -0.47794E+05         0.00000E+00
    0.00000E+00         0.00000E+00        -0.14114E+03
 
    0.44114E+05         0.11355E+06         0.00000E+00
    0.11355E+06        -0.44974E+05         0.00000E+00
    0.00000E+00         0.00000E+00        -0.17200E+03
 
    0.41081E+05         0.11562E+06         0.00000E+00
    0.11562E+06        -0.42131E+05         0.00000E+00
    0.00000E+00         0.00000E+00        -0.20994E+03
 
    0.37989E+05         0.11760E+06         0.00000E+00
    0.11760E+06        -0.39272E+05         0.00000E+00
    0.00000E+00         0.00000E+00        -0.25651E+03
 
    0.34837E+05         0.11951E+06         0.00000E+00
    0.11951E+06        -0.36405E+05         0.00000E+00
    0.00000E+00         0.00000E+00        -0.31357E+03
 
    0.31624E+05         0.12134E+06         0.00000E+00
    0.12134E+06        -0.33541E+05         0.00000E+00
    0.00000E+00         0.00000E+00        -0.38334E+03
 
    0.28348E+05         0.12308E+06         0.00000E+00
    0.12308E+06        -0.30691E+05         0.00000E+00
    0.00000E+00         0.00000E+00        -0.46849E+03
 
    0.25008E+05         0.12475E+06         0.00000E+00
    0.12475E+06        -0.27869E+05         0.00000E+00
    0.00000E+00         0.00000E+00        -0.57215E+03
 
    0.21602E+05         0.12633E+06         0.00000E+00
    0.12633E+06        -0.25092E+05         0.00000E+00
    0.00000E+00         0.00000E+00        -0.69802E+03
 
    0.18126E+05         0.12783E+06         0.00000E+00
    0.12783E+06        -0.22378E+05         0.00000E+00
    0.00000E+00         0.00000E+00        -0.85045E+03
 
    0.14577E+05         0.12925E+06         0.00000E+00
    0.12925E+06        -0.19749E+05         0.00000E+00
    0.00000E+00         0.00000E+00        -0.10344E+04
 
    0.10950E+05         0.13059E+06         0.00000E+00
    0.13059E+06        -0.17229E+05         0.00000E+00
    0.00000E+00         0.00000E+00        -0.12558E+04
 
    0.72415E+04         0.13184E+06         0.00000E+00
    0.13184E+06        -0.14847E+05         0.00000E+00
    0.00000E+00         0.00000E+00        -0.15211E+04
 
    0.34445E+04         0.13301E+06         0.00000E+00
    0.13301E+06        -0.12632E+05         0.00000E+00
    0.00000E+00         0.00000E+00        -0.18375E+04
 
   -0.44682E+03         0.13410E+06         0.00000E+00
    0.13410E+06        -0.10619E+05         0.00000E+00
    0.00000E+00         0.00000E+00        -0.22132E+04
 
    0.12320E+06         0.19747E+04         0.00000E+00
    0.19747E+04        -0.11840E+06         0.00000E+00
    0.00000E+00         0.00000E+00         0.96062E+03
 
    0.12218E+06         0.59011E+04         0.00000E+00
    0.59011E+04        -0.11821E+06         0.00000E+00
    0.00000E+00         0.00000E+00         0.79308E+03
 
    0.12112E+06         0.98148E+04         0.00000E+00
    0.98148E+04        -0.11786E+06         0.00000E+00
    0.00000E+00         0.00000E+00         0.65209E+03
 
    0.12002E+06         0.13714E+05         0.00000E+00
    0.13714E+05        -0.11735E+06         0.00000E+00
    0.00000E+00         0.00000E+00         0.53402E+03
 
    0.11887E+06         0.17596E+05         0.00000E+00
    0.17596E+05        -0.11669E+06         0.00000E+00
    0.00000E+00         0.00000E+00         0.43559E+03
 
    0.11767E+06         0.21459E+05         0.00000E+00
    0.21459E+05        -0.11590E+06         0.00000E+00
    0.00000E+00         0.00000E+00         0.35383E+03
 
    0.11641E+06         0.25302E+05         0.00000E+00
    0.25302E+05        -0.11498E+06         0.00000E+00
    0.00000E+00         0.00000E+00         0.28617E+03
 
    0.11510E+06         0.29121E+05         0.00000E+00
    0.29121E+05        -0.11395E+06         0.00000E+00
    0.00000E+00         0.00000E+00         0.23034E+03
 
    0.11373E+06         0.32916E+05         0.00000E+00
    0.32916E+05        -0.11281E+06         0.00000E+00
    0.00000E+00         0.00000E+00         0.18440E+03
 
    0.11230E+06         0.36684E+05         0.00000E+00
    0.36684E+05        -0.11157E+06         0.00000E+00
    0.00000E+00         0.00000E+00         0.14668E+03
 
    0.11081E+06         0.40423E+05         0.00000E+00
    0.40423E+05        -0.11023E+06         0.00000E+00
    0.00000E+00         0.00000E+00         0.11579E+03
 
    0.10925E+06         0.44131E+05         0.00000E+00
    0.44131E+05        -0.10880E+06         0.00000E+00
    0.00000E+00         0.00000E+00         0.90525E+02
 
    0.10763E+06         0.47806E+05         0.00000E+00
    0.47806E+05        -0.10728E+06         0.00000E+00
    0.00000E+00         0.00000E+00         0.69895E+02
 
    0.10594E+06         0.51447E+05         0.00000E+00
    0.51447E+05        -0.10567E+06         0.00000E+00
    0.00000E+00         0.00000E+00         0.53061E+02
 
    0.10418E+06         0.55051E+05         0.00000E+00
    0.55051E+05        -0.10398E+06         0.00000E+00
    0.00000E+00         0.00000E+00         0.39325E+02
 
    0.10235E+06         0.58615E+05         0.00000E+00
    0.58615E+05        -0.10221E+06         0.00000E+00
    0.00000E+00         0.00000E+00         0.28101E+02
 
    0.10046E+06         0.62140E+05         0.00000E+00
    0.62140E+05        -0.10036E+06         0.00000E+00
    0.00000E+00         0.00000E+00         0.18902E+02
 
    0.98496E+05         0.65621E+05         0.00000E+00
    0.65621E+05        -0.98440E+05         0.00000E+00
    0.00000E+00         0.00000E+00         0.11316E+02
 
    0.96465E+05         0.69058E+05         0.00000E+00
    0.69058E+05        -0.96440E+05         0.00000E+00
    0.00000E+00         0.00000E+00         0.49961E+01
 
    0.94364E+05         0.72448E+05         0.00000E+00
    0.72448E+05        -0.94366E+05         0.00000E+00
    0.00000E+00         0.00000E+00        -0.35284E+00
 
    0.92195E+05         0.75790E+05         0.00000E+00
    0.75790E+05        -0.92220E+05         0.00000E+00
    0.00000E+00         0.00000E+00        -0.49884E+01
 
    0.89956E+05         0.79081E+05         0.00000E+00
    0.79081E+05        -0.90002E+05         0.00000E+00
    0.00000E+00         0.00000E+00        -0.91389E+01
 
    0.87649E+05         0.82320E+05         0.00000E+00
    0.82320E+05        -0.87714E+05         0.00000E+00
    0.00000E+00         0.00000E+00        -0.13014E+02
 
    0.85273E+05         0.85504E+05         0.00000E+00
    0.85504E+05        -0.85357E+05         0.00000E+00
    0.00000E+00         0.00000E+00        -0.16811E+02
 
    0.82828E+05         0.88632E+05         0.00000E+00
    0.88632E+05        -0.82932E+05         0.00000E+00
    0.00000E+00         0.00000E+00        -0.20726E+02
 
    0.80316E+05         0.91702E+05         0.00000E+00
    0.91702E+05        -0.80441E+05         0.00000E+00
    0.00000E+00         0.00000E+00        -0.24962E+02
 
    0.77736E+05         0.94711E+05         0.00000E+00
    0.94711E+05        -0.77885E+05         0.00000E+00
    0.00000E+00         0.00000E+00        -0.29737E+02
 
    0.75089E+05         0.97658E+05         0.00000E+00
    0.97658E+05        -0.75266E+05         0.00000E+00
    0.00000E+00         0.00000E+00        -0.35291E+02
 
    0.72375E+05         0.10054E+06         0.00000E+00
    0.10054E+06        -0.72584E+05         0.00000E+00
    0.00000E+00         0.00000E+00        -0.41900E+02
 
    0.69594E+05         0.10336E+06         0.00000E+00
    0.10336E+06        -0.69844E+05         0.00000E+00
    0.00000E+00         0.00000E+00        -0.49886E+02
 
    0.66747E+05         0.10611E+06         0.00000E+00
    0.10611E+06        -0.67045E+05         0.00000E+00
    0.00000E+00         0.00000E+00        -0.59630E+02
 
    0.63835E+05         0.10879E+06         0.00000E+00
    0.10879E+06        -0.64192E+05         0.00000E+00
    0.00000E+00         0.00000E+00        -0.71589E+02
 
    0.60856E+05         0.11140E+06         0.00000E+00
    0.11140E+06        -0.61288E+05         0.00000E+00
    0.00000E+00         0.00000E+00        -0.86311E+02
 
    0.57812E+05         0.11393E+06         0.00000E+00
    0.11393E+06        -0.58334E+05         0.00000E+00
    0.00000E+00         0.00000E+00        -0.10446E+03
 
    0.54703E+05         0.11639E+06         0.00000E+00
    0.11639E+06        -0.55337E+05         0.00000E+00
    0.00000E+00         0.00000E+00        -0.12684E+03
 
    0.51528E+05         0.11878E+06         0.00000E+00
    0.11878E+06        -0.52300E+05         0.00000E+00
    0.00000E+00         0.00000E+00        -0.15441E+03
 
    0.48288E+05         0.12108E+06         0.00000E+00
    0.12108E+06        -0.49230E+05         0.00000E+00
    0.00000E+00         0.00000E+00        -0.18836E+03
 
    0.44982E+05         0.12331E+06         0.00000E+00
    0.12331E+06        -0.46132E+05         0.00000E+00
    0.00000E+00         0.00000E+00        -0.23010E+03
 
    0.41609E+05         0.12545E+06         0.00000E+00
    0.12545E+06        -0.43016E+05         0.00000E+00
    0.00000E+00         0.00000E+00        -0.28134E+03
 
    0.38169E+05         0.12752E+06         0.00000E+00
    0.12752E+06        -0.39889E+05         0.00000E+00
    0.00000E+00         0.00000E+00        -0.34412E+03
 
    0.34660E+05         0.12949E+06         0.00000E+00
    0.12949E+06        -0.36764E+05         0.00000E+00
    0.00000E+00         0.00000E+00        -0.42089E+03
 
    0.31080E+05         0.13138E+06         0.00000E+00
    0.13138E+06        -0.33653E+05         0.00000E+00
    0.00000E+00         0.00000E+00        -0.51457E+03
 
    0.27428E+05         0.13319E+06         0.00000E+00
    0.13319E+06        -0.30571E+05         0.00000E+00
    0.00000E+00         0.00000E+00        -0.62862E+03
 
    0.23700E+05         0.13491E+06         0.00000E+00
    0.13491E+06        -0.27536E+05         0.00000E+00
    0.00000E+00         0.00000E+00        -0.76711E+03
 
    0.19894E+05         0.13654E+06         0.00000E+00
    0.13654E+06        -0.24568E+05         0.00000E+00
    0.00000E+00         0.00000E+00        -0.93480E+03
 
    0.16004E+05         0.13808E+06         0.00000E+00
    0.13808E+06        -0.21690E+05         0.00000E+00
    0.00000E+00         0.00000E+00        -0.11372E+04
 
    0.12027E+05         0.13953E+06         0.00000E+00
    0.13953E+06        -0.18931E+05         0.00000E+00
    0.00000E+00         0.00000E+00        -0.13808E+04
 
    0.79564E+04         0.14090E+06         0.00000E+00
    0.14090E+06        -0.16319E+05         0.00000E+00
    0.00000E+00         0.00000E+00        -0.16726E+04
 
    0.37858E+04         0.14218E+06         0.00000E+00
    0.14218E+06        -0.13890E+05         0.00000E+00
    0.00000E+00         0.00000E+00        -0.20208E+04
 
   -0.49174E+03         0.14337E+06         0.00000E+00
    0.14337E+06        -0.11679E+05         0.00000E+00
    0.00000E+00         0.00000E+00        -0.24341E+04
 
    0.13340E+06         0.20858E+04         0.00000E+00
    0.20858E+04        -0.12842E+06         0.00000E+00
    0.00000E+00         0.00000E+00         0.99770E+03
 
    0.13234E+06         0.62403E+04         0.00000E+00
    0.62403E+04        -0.12822E+06         0.00000E+00
    0.00000E+00         0.00000E+00         0.82327E+03
 
    0.13123E+06         0.10385E+05         0.00000E+00
    0.10385E+05        -0.12785E+06         0.00000E+00
    0.00000E+00         0.00000E+00         0.67652E+03
 
    0.13007E+06         0.14516E+05         0.00000E+00
    0.14516E+05        -0.12730E+06         0.00000E+00
    0.00000E+00         0.00000E+00         0.55368E+03
 
    0.12886E+06         0.18634E+05         0.00000E+00
    0.18634E+05        -0.12661E+06         0.00000E+00
    0.00000E+00         0.00000E+00         0.45130E+03
 
    0.12760E+06         0.22734E+05         0.00000E+00
    0.22734E+05        -0.12576E+06         0.00000E+00
    0.00000E+00         0.00000E+00         0.36630E+03
 
    0.12627E+06         0.26815E+05         0.00000E+00
    0.26815E+05        -0.12479E+06         0.00000E+00
    0.00000E+00         0.00000E+00         0.29598E+03
 
    0.12488E+06         0.30874E+05         0.00000E+00
    0.30874E+05        -0.12369E+06         0.00000E+00
    0.00000E+00         0.00000E+00         0.23798E+03
 
    0.12342E+06         0.34909E+05         0.00000E+00
    0.34909E+05        -0.12247E+06         0.00000E+00
    0.00000E+00         0.00000E+00         0.19028E+03
 
    0.12190E+06         0.38919E+05         0.00000E+00
    0.38919E+05        -0.12115E+06         0.00000E+00
    0.00000E+00         0.00000E+00         0.15115E+03
 
    0.12031E+06         0.42900E+05         0.00000E+00
    0.42900E+05        -0.11971E+06         0.00000E+00
    0.00000E+00         0.00000E+00         0.11911E+03
 
    0.11865E+06         0.46851E+05         0.00000E+00
    0.46851E+05        -0.11818E+06         0.00000E+00
    0.00000E+00         0.00000E+00         0.92939E+02
 
    0.11691E+06         0.50769E+05         0.00000E+00
    0.50769E+05        -0.11655E+06         0.00000E+00
    0.00000E+00         0.00000E+00         0.71583E+02
 
    0.11510E+06         0.54651E+05         0.00000E+00
    0.54651E+05        -0.11483E+06         0.00000E+00
    0.00000E+00         0.00000E+00         0.54174E+02
 
    0.11321E+06         0.58497E+05         0.00000E+00
    0.58497E+05        -0.11301E+06         0.00000E+00
    0.00000E+00         0.00000E+00         0.39982E+02
 
    0.11125E+06         0.62303E+05         0.00000E+00
    0.62303E+05        -0.11111E+06         0.00000E+00
    0.00000E+00         0.00000E+00         0.28399E+02
 
    0.10922E+06         0.66067E+05         0.00000E+00
    0.66067E+05        -0.10912E+06         0.00000E+00
    0.00000E+00         0.00000E+00         0.18915E+02
 
    0.10711E+06         0.69787E+05         0.00000E+00
    0.69787E+05        -0.10705E+06         0.00000E+00
    0.00000E+00         0.00000E+00         0.11101E+02
 
    0.10492E+06         0.73461E+05         0.00000E+00
    0.73461E+05        -0.10490E+06         0.00000E+00
    0.00000E+00         0.00000E+00         0.45933E+01
 
    0.10265E+06         0.77087E+05         0.00000E+00
    0.77087E+05        -0.10266E+06         0.00000E+00
    0.00000E+00         0.00000E+00        -0.91743E+00
 
    0.10031E+06         0.80662E+05         0.00000E+00
    0.80662E+05        -0.10034E+06         0.00000E+00
    0.00000E+00         0.00000E+00        -0.57019E+01
 
    0.97898E+05         0.84184E+05         0.00000E+00
    0.84184E+05        -0.97948E+05         0.00000E+00
    0.00000E+00         0.00000E+00        -0.10001E+02
 
    0.95406E+05         0.87652E+05         0.00000E+00
    0.87652E+05        -0.95476E+05         0.00000E+00
    0.00000E+00         0.00000E+00        -0.14037E+02
 
    0.92838E+05         0.91063E+05         0.00000E+00
    0.91063E+05        -0.92928E+05         0.00000E+00
    0.00000E+00         0.00000E+00        -0.18020E+02
 
    0.90195E+05         0.94414E+05         0.00000E+00
    0.94414E+05        -0.90306E+05         0.00000E+00
    0.00000E+00         0.00000E+00        -0.22161E+02
 
    0.87477E+05         0.97705E+05         0.00000E+00
    0.97705E+05        -0.87611E+05         0.00000E+00
    0.00000E+00         0.00000E+00        -0.26678E+02
 
    0.84685E+05         0.10093E+06         0.00000E+00
    0.10093E+06        -0.84844E+05         0.00000E+00
    0.00000E+00         0.00000E+00        -0.31806E+02
 
    0.81819E+05         0.10410E+06         0.00000E+00
    0.10410E+06        -0.82008E+05         0.00000E+00
    0.00000E+00         0.00000E+00        -0.37807E+02
 
    0.78878E+05         0.10719E+06         0.00000E+00
    0.10719E+06        -0.79103E+05         0.00000E+00
    0.00000E+00         0.00000E+00        -0.44982E+02
 
    0.75865E+05         0.11022E+06         0.00000E+00
    0.11022E+06        -0.76133E+05         0.00000E+00
    0.00000E+00         0.00000E+00        -0.53681E+02
 
    0.72778E+05         0.11317E+06         0.00000E+00
    0.11317E+06        -0.73100E+05         0.00000E+00
    0.00000E+00         0.00000E+00        -0.64324E+02
 
    0.69619E+05         0.11605E+06         0.00000E+00
    0.11605E+06        -0.70006E+05         0.00000E+00
    0.00000E+00         0.00000E+00        -0.77407E+02
 
    0.66387E+05         0.11886E+06         0.00000E+00
    0.11886E+06        -0.66854E+05         0.00000E+00
    0.00000E+00         0.00000E+00        -0.93534E+02
 
    0.63082E+05         0.12159E+06         0.00000E+00
    0.12159E+06        -0.63649E+05         0.00000E+00
    0.00000E+00         0.00000E+00        -0.11343E+03
 
    0.59705E+05         0.12424E+06         0.00000E+00
    0.12424E+06        -0.60395E+05         0.00000E+00
    0.00000E+00         0.00000E+00        -0.13798E+03
 
    0.56256E+05         0.12682E+06         0.00000E+00
    0.12682E+06        -0.57097E+05         0.00000E+00
    0.00000E+00         0.00000E+00        -0.16824E+03
 
    0.52734E+05         0.12930E+06         0.00000E+00
    0.12930E+06        -0.53761E+05         0.00000E+00
    0.00000E+00         0.00000E+00        -0.20550E+03
 
    0.49138E+05         0.13171E+06         0.00000E+00
    0.13171E+06        -0.50394E+05         0.00000E+00
    0.00000E+00         0.00000E+00        -0.25132E+03
 
    0.45467E+05         0.13403E+06         0.00000E+00
    0.13403E+06        -0.47005E+05         0.00000E+00
    0.00000E+00         0.00000E+00        -0.30757E+03
 
    0.41721E+05         0.13626E+06         0.00000E+00
    0.13626E+06        -0.43604E+05         0.00000E+00
    0.00000E+00         0.00000E+00        -0.37650E+03
 
    0.37898E+05         0.13840E+06         0.00000E+00
    0.13840E+06        -0.40202E+05         0.00000E+00
    0.00000E+00         0.00000E+00        -0.46079E+03
 
    0.33996E+05         0.14046E+06         0.00000E+00
    0.14046E+06        -0.36814E+05         0.00000E+00
    0.00000E+00         0.00000E+00        -0.56364E+03
 
    0.30012E+05         0.14242E+06         0.00000E+00
    0.14242E+06        -0.33456E+05         0.00000E+00
    0.00000E+00         0.00000E+00        -0.68886E+03
 
    0.25943E+05         0.14429E+06         0.00000E+00
    0.14429E+06        -0.30147E+05         0.00000E+00
    0.00000E+00         0.00000E+00        -0.84091E+03
 
    0.21784E+05         0.14607E+06         0.00000E+00
    0.14607E+06        -0.26910E+05         0.00000E+00
    0.00000E+00         0.00000E+00        -0.10250E+04
 
    0.17532E+05         0.14775E+06         0.00000E+00
    0.14775E+06        -0.23769E+05         0.00000E+00
    0.00000E+00         0.00000E+00        -0.12473E+04
 
    0.13181E+05         0.14934E+06         0.00000E+00
    0.14934E+06        -0.20754E+05         0.00000E+00
    0.00000E+00         0.00000E+00        -0.15147E+04
 
    0.87230E+04         0.15084E+06         0.00000E+00
    0.15084E+06        -0.17898E+05         0.00000E+00
    0.00000E+00         0.00000E+00        -0.18351E+04
 
    0.41523E+04         0.15224E+06         0.00000E+00
    0.15224E+06        -0.15239E+05         0.00000E+00
    0.00000E+00         0.00000E+00        -0.22174E+04
 
   -0.53983E+03         0.15355E+06         0.00000E+00
    0.15355E+06        -0.12816E+05         0.00000E+00
    0.00000E+00         0.00000E+00        -0.26712E+04
 
    0.14416E+06         0.22070E+04         0.00000E+00
    0.22070E+04        -0.13907E+06         0.00000E+00
    0.00000E+00         0.00000E+00         0.10190E+04
 
    0.14306E+06         0.66121E+04         0.00000E+00
    0.66121E+04        -0.13886E+06         0.00000E+00
    0.00000E+00         0.00000E+00         0.84031E+03
 
    0.14192E+06         0.11010E+05         0.00000E+00
    0.11010E+05        -0.13847E+06         0.00000E+00
    0.00000E+00         0.00000E+00         0.68999E+03
 
    0.14071E+06         0.15399E+05         0.00000E+00
    0.15399E+05        -0.13789E+06         0.00000E+00
    0.00000E+00         0.00000E+00         0.56422E+03
 
    0.13945E+06         0.19775E+05         0.00000E+00
    0.19775E+05        -0.13715E+06         0.00000E+00
    0.00000E+00         0.00000E+00         0.45944E+03
 
    0.13812E+06         0.24137E+05         0.00000E+00
    0.24137E+05        -0.13626E+06         0.00000E+00
    0.00000E+00         0.00000E+00         0.37249E+03
 
    0.13673E+06         0.28481E+05         0.00000E+00
    0.28481E+05        -0.13523E+06         0.00000E+00
    0.00000E+00         0.00000E+00         0.30060E+03
 
    0.13526E+06         0.32805E+05         0.00000E+00
    0.32805E+05        -0.13406E+06         0.00000E+00
    0.00000E+00         0.00000E+00         0.24134E+03
 
    0.13372E+06         0.37107E+05         0.00000E+00
    0.37107E+05        -0.13276E+06         0.00000E+00
    0.00000E+00         0.00000E+00         0.19264E+03
 
    0.13211E+06         0.41383E+05         0.00000E+00
    0.41383E+05        -0.13134E+06         0.00000E+00
    0.00000E+00         0.00000E+00         0.15272E+03
 
    0.13041E+06         0.45632E+05         0.00000E+00
    0.45632E+05        -0.12981E+06         0.00000E+00
    0.00000E+00         0.00000E+00         0.12007E+03
 
    0.12864E+06         0.49850E+05         0.00000E+00
    0.49850E+05        -0.12817E+06         0.00000E+00
    0.00000E+00         0.00000E+00         0.93417E+02
 
    0.12678E+06         0.54035E+05         0.00000E+00
    0.54035E+05        -0.12642E+06         0.00000E+00
    0.00000E+00         0.00000E+00         0.71701E+02
 
    0.12484E+06         0.58184E+05         0.00000E+00
    0.58184E+05        -0.12457E+06         0.00000E+00
    0.00000E+00         0.00000E+00         0.54024E+02
 
    0.12282E+06         0.62295E+05         0.00000E+00
    0.62295E+05        -0.12263E+06         0.00000E+00
    0.00000E+00         0.00000E+00         0.39636E+02
 
    0.12072E+06         0.66366E+05         0.00000E+00
    0.66366E+05        -0.12058E+06         0.00000E+00
    0.00000E+00         0.00000E+00         0.27913E+02
 
    0.11853E+06         0.70392E+05         0.00000E+00
    0.70392E+05        -0.11844E+06         0.00000E+00
    0.00000E+00         0.00000E+00         0.18329E+02
 
    0.11626E+06         0.74373E+05         0.00000E+00
    0.74373E+05        -0.11621E+06         0.00000E+00
    0.00000E+00         0.00000E+00         0.10444E+02
 
    0.11390E+06         0.78306E+05         0.00000E+00
    0.78306E+05        -0.11389E+06         0.00000E+00
    0.00000E+00         0.00000E+00         0.38834E+01
 
    0.11146E+06         0.82188E+05         0.00000E+00
    0.82188E+05        -0.11147E+06         0.00000E+00
    0.00000E+00         0.00000E+00        -0.16745E+01
 
    0.10894E+06         0.86017E+05         0.00000E+00
    0.86017E+05        -0.10897E+06         0.00000E+00
    0.00000E+00         0.00000E+00        -0.65102E+01
 
    0.10633E+06         0.89791E+05         0.00000E+00
    0.89791E+05        -0.10639E+06         0.00000E+00
    0.00000E+00         0.00000E+00        -0.10875E+02
 
    0.10364E+06         0.93507E+05         0.00000E+00
    0.93507E+05        -0.10372E+06         0.00000E+00
    0.00000E+00         0.00000E+00        -0.15002E+02
 
    0.10087E+06         0.97163E+05         0.00000E+00
    0.97163E+05        -0.10096E+06         0.00000E+00
    0.00000E+00         0.00000E+00        -0.19114E+02
 
    0.98012E+05         0.10076E+06         0.00000E+00
    0.10076E+06        -0.98129E+05         0.00000E+00
    0.00000E+00         0.00000E+00        -0.23434E+02
 
    0.95073E+05         0.10429E+06         0.00000E+00
    0.10429E+06        -0.95214E+05         0.00000E+00
    0.00000E+00         0.00000E+00        -0.28197E+02
 
    0.92053E+05         0.10775E+06         0.00000E+00
    0.10775E+06        -0.92221E+05         0.00000E+00
    0.00000E+00         0.00000E+00        -0.33655E+02
 
    0.88952E+05         0.11114E+06         0.00000E+00
    0.11114E+06        -0.89152E+05         0.00000E+00
    0.00000E+00         0.00000E+00        -0.40091E+02
 
    0.85769E+05         0.11447E+06         0.00000E+00
    0.11447E+06        -0.86009E+05         0.00000E+00
    0.00000E+00         0.00000E+00        -0.47832E+02
 
    0.82507E+05         0.11772E+06         0.00000E+00
    0.11772E+06        -0.82793E+05         0.00000E+00
    0.00000E+00         0.00000E+00        -0.57261E+02
 
    0.79165E+05         0.12089E+06         0.00000E+00
    0.12089E+06        -0.79509E+05         0.00000E+00
    0.00000E+00         0.00000E+00        -0.68833E+02
 
    0.75743E+05         0.12399E+06         0.00000E+00
    0.12399E+06        -0.76158E+05         0.00000E+00
    0.00000E+00         0.00000E+00        -0.83092E+02
 
    0.72241E+05         0.12701E+06         0.00000E+00
    0.12701E+06        -0.72745E+05         0.00000E+00
    0.00000E+00         0.00000E+00        -0.10069E+03
 
    0.68660E+05         0.12995E+06         0.00000E+00
    0.12995E+06        -0.69272E+05         0.00000E+00
    0.00000E+00         0.00000E+00        -0.12244E+03
 
    0.65000E+05         0.13281E+06         0.00000E+00
    0.13281E+06        -0.65746E+05         0.00000E+00
    0.00000E+00         0.00000E+00        -0.14928E+03
 
    0.61259E+05         0.13558E+06         0.00000E+00
    0.13558E+06        -0.62171E+05         0.00000E+00
    0.00000E+00         0.00000E+00        -0.18239E+03
 
    0.57438E+05         0.13827E+06         0.00000E+00
    0.13827E+06        -0.58554E+05         0.00000E+00
    0.00000E+00         0.00000E+00        -0.22318E+03
 
    0.53536E+05         0.14087E+06         0.00000E+00
    0.14087E+06        -0.54903E+05         0.00000E+00
    0.00000E+00         0.00000E+00        -0.27334E+03
 
    0.49551E+05         0.14338E+06         0.00000E+00
    0.14338E+06        -0.51226E+05         0.00000E+00
    0.00000E+00         0.00000E+00        -0.33493E+03
 
    0.45483E+05         0.14580E+06         0.00000E+00
    0.14580E+06        -0.47535E+05         0.00000E+00
    0.00000E+00         0.00000E+00        -0.41040E+03
 
    0.41329E+05         0.14812E+06         0.00000E+00
    0.14812E+06        -0.43842E+05         0.00000E+00
    0.00000E+00         0.00000E+00        -0.50270E+03
 
    0.37086E+05         0.15035E+06         0.00000E+00
    0.15035E+06        -0.40162E+05         0.00000E+00
    0.00000E+00         0.00000E+00        -0.61534E+03
 
    0.32751E+05         0.15249E+06         0.00000E+00
    0.15249E+06        -0.36514E+05         0.00000E+00
    0.00000E+00         0.00000E+00        -0.75247E+03
 
    0.28321E+05         0.15453E+06         0.00000E+00
    0.15453E+06        -0.32916E+05         0.00000E+00
    0.00000E+00         0.00000E+00        -0.91899E+03
 
    0.23791E+05         0.15647E+06         0.00000E+00
    0.15647E+06        -0.29394E+05         0.00000E+00
    0.00000E+00         0.00000E+00        -0.11206E+04
 
    0.19155E+05         0.15831E+06         0.00000E+00
    0.15831E+06        -0.25975E+05         0.00000E+00
    0.00000E+00         0.00000E+00        -0.13640E+04
 
    0.14407E+05         0.16006E+06         0.00000E+00
    0.16006E+06        -0.22691E+05         0.00000E+00
    0.00000E+00         0.00000E+00        -0.16569E+04
 
    0.95387E+04         0.16171E+06         0.00000E+00
    0.16171E+06        -0.19578E+05         0.00000E+00
    0.00000E+00         0.00000E+00        -0.20078E+04
 
    0.45427E+04         0.16326E+06         0.00000E+00
    0.16326E+06        -0.16675E+05         0.00000E+00
    0.00000E+00         0.00000E+00        -0.24265E+04
 
   -0.59077E+03         0.16471E+06         0.00000E+00
    0.16471E+06        -0.14027E+05         0.00000E+00
    0.00000E+00         0.00000E+00        -0.29235E+04
 
    0.15553E+06         0.23418E+04         0.00000E+00
    0.23418E+04        -0.15043E+06         0.00000E+00
    0.00000E+00         0.00000E+00         0.10199E+04
 
    0.15441E+06         0.70266E+04         0.00000E+00
    0.70266E+04        -0.15021E+06         0.00000E+00
    0.00000E+00         0.00000E+00         0.84028E+03
 
    0.15324E+06         0.11708E+05         0.00000E+00
    0.11708E+05        -0.14979E+06         0.00000E+00
    0.00000E+00         0.00000E+00         0.68926E+03
 
    0.15200E+06         0.16384E+05         0.00000E+00
    0.16384E+05        -0.14919E+06         0.00000E+00
    0.00000E+00         0.00000E+00         0.56296E+03
 
    0.15070E+06         0.21050E+05         0.00000E+00
    0.21050E+05        -0.14841E+06         0.00000E+00
    0.00000E+00         0.00000E+00         0.45780E+03
 
    0.14931E+06         0.25705E+05         0.00000E+00
    0.25705E+05        -0.14746E+06         0.00000E+00
    0.00000E+00         0.00000E+00         0.37059E+03
 
    0.14785E+06         0.30343E+05         0.00000E+00
    0.30343E+05        -0.14636E+06         0.00000E+00
    0.00000E+00         0.00000E+00         0.29853E+03
 
    0.14631E+06         0.34964E+05         0.00000E+00
    0.34964E+05        -0.14511E+06         0.00000E+00
    0.00000E+00         0.00000E+00         0.23919E+03
 
    0.14468E+06         0.39562E+05         0.00000E+00
    0.39562E+05        -0.14373E+06         0.00000E+00
    0.00000E+00         0.00000E+00         0.19046E+03
 
    0.14297E+06         0.44136E+05         0.00000E+00
    0.44136E+05        -0.14222E+06         0.00000E+00
    0.00000E+00         0.00000E+00         0.15056E+03
 
    0.14117E+06         0.48682E+05         0.00000E+00
    0.48682E+05        -0.14058E+06         0.00000E+00
    0.00000E+00         0.00000E+00         0.11798E+03
 
    0.13928E+06         0.53197E+05         0.00000E+00
    0.53197E+05        -0.13882E+06         0.00000E+00
    0.00000E+00         0.00000E+00         0.91419E+02
 
    0.13729E+06         0.57678E+05         0.00000E+00
    0.57678E+05        -0.13695E+06         0.00000E+00
    0.00000E+00         0.00000E+00         0.69817E+02
 
    0.13522E+06         0.62122E+05         0.00000E+00
    0.62122E+05        -0.13496E+06         0.00000E+00
    0.00000E+00         0.00000E+00         0.52269E+02
 
    0.13305E+06         0.66526E+05         0.00000E+00
    0.66526E+05        -0.13286E+06         0.00000E+00
    0.00000E+00         0.00000E+00         0.38020E+02
 
    0.13079E+06         0.70887E+05         0.00000E+00
    0.70887E+05        -0.13066E+06         0.00000E+00
    0.00000E+00         0.00000E+00         0.26439E+02
 
    0.12844E+06         0.75201E+05         0.00000E+00
    0.75201E+05        -0.12835E+06         0.00000E+00
    0.00000E+00         0.00000E+00         0.16997E+02
 
    0.12599E+06         0.79467E+05         0.00000E+00
    0.79467E+05        -0.12594E+06         0.00000E+00
    0.00000E+00         0.00000E+00         0.92449E+01
 
    0.12345E+06         0.83682E+05         0.00000E+00
    0.83682E+05        -0.12343E+06         0.00000E+00
    0.00000E+00         0.00000E+00         0.28050E+01
 
    0.12081E+06         0.87842E+05         0.00000E+00
    0.87842E+05        -0.12083E+06         0.00000E+00
    0.00000E+00         0.00000E+00        -0.26504E+01
 
    0.11809E+06         0.91946E+05         0.00000E+00
    0.91946E+05        -0.11813E+06         0.00000E+00
    0.00000E+00         0.00000E+00        -0.74087E+01
 
    0.11527E+06         0.95991E+05         0.00000E+00
    0.95991E+05        -0.11533E+06         0.00000E+00
    0.00000E+00         0.00000E+00        -0.11729E+02
 
    0.11236E+06         0.99974E+05         0.00000E+00
    0.99974E+05        -0.11244E+06         0.00000E+00
    0.00000E+00         0.00000E+00        -0.15852E+02
 
    0.10936E+06         0.10389E+06         0.00000E+00
    0.10389E+06        -0.10946E+06         0.00000E+00
    0.00000E+00         0.00000E+00        -0.20013E+02
 
    0.10627E+06         0.10775E+06         0.00000E+00
    0.10775E+06        -0.10640E+06         0.00000E+00
    0.00000E+00         0.00000E+00        -0.24445E+02
 
    0.10309E+06         0.11153E+06         0.00000E+00
    0.11153E+06        -0.10324E+06         0.00000E+00
    0.00000E+00         0.00000E+00        -0.29399E+02
 
    0.99828E+05         0.11524E+06         0.00000E+00
    0.11524E+06        -0.10000E+06         0.00000E+00
    0.00000E+00         0.00000E+00        -0.35144E+02
 
    0.96472E+05         0.11888E+06         0.00000E+00
    0.11888E+06        -0.96682E+05         0.00000E+00
    0.00000E+00         0.00000E+00        -0.41986E+02
 
    0.93029E+05         0.12245E+06         0.00000E+00
    0.12245E+06        -0.93281E+05         0.00000E+00
    0.00000E+00         0.00000E+00        -0.50277E+02
 
    0.89500E+05         0.12594E+06         0.00000E+00
    0.12594E+06        -0.89802E+05         0.00000E+00
    0.00000E+00         0.00000E+00        -0.60432E+02
 
    0.85883E+05         0.12935E+06         0.00000E+00
    0.12935E+06        -0.86248E+05         0.00000E+00
    0.00000E+00         0.00000E+00        -0.72946E+02
 
    0.82181E+05         0.13268E+06         0.00000E+00
    0.13268E+06        -0.82623E+05         0.00000E+00
    0.00000E+00         0.00000E+00        -0.88409E+02
 
    0.78392E+05         0.13592E+06         0.00000E+00
    0.13592E+06        -0.78929E+05         0.00000E+00
    0.00000E+00         0.00000E+00        -0.10754E+03
 
    0.74517E+05         0.13908E+06         0.00000E+00
    0.13908E+06        -0.75173E+05         0.00000E+00
    0.00000E+00         0.00000E+00        -0.13120E+03
 
    0.70555E+05         0.14216E+06         0.00000E+00
    0.14216E+06        -0.71358E+05         0.00000E+00
    0.00000E+00         0.00000E+00        -0.16044E+03
 
    0.66507E+05         0.14515E+06         0.00000E+00
    0.14515E+06        -0.67490E+05         0.00000E+00
    0.00000E+00         0.00000E+00        -0.19653E+03
 
    0.62371E+05         0.14804E+06         0.00000E+00
    0.14804E+06        -0.63576E+05         0.00000E+00
    0.00000E+00         0.00000E+00        -0.24101E+03
 
    0.58147E+05         0.15085E+06         0.00000E+00
    0.15085E+06        -0.59625E+05         0.00000E+00
    0.00000E+00         0.00000E+00        -0.29574E+03
 
    0.53832E+05         0.15356E+06         0.00000E+00
    0.15356E+06        -0.55647E+05         0.00000E+00
    0.00000E+00         0.00000E+00        -0.36293E+03
 
    0.49425E+05         0.15618E+06         0.00000E+00
    0.15618E+06        -0.51651E+05         0.00000E+00
    0.00000E+00         0.00000E+00        -0.44530E+03
 
    0.44923E+05         0.15870E+06         0.00000E+00
    0.15870E+06        -0.47654E+05         0.00000E+00
    0.00000E+00         0.00000E+00        -0.54603E+03
 
    0.40324E+05         0.16113E+06         0.00000E+00
    0.16113E+06        -0.43669E+05         0.00000E+00
    0.00000E+00         0.00000E+00        -0.66897E+03
 
    0.35623E+05         0.16345E+06         0.00000E+00
    0.16345E+06        -0.39716E+05         0.00000E+00
    0.00000E+00         0.00000E+00        -0.81864E+03
 
    0.30815E+05         0.16568E+06         0.00000E+00
    0.16568E+06        -0.35817E+05         0.00000E+00
    0.00000E+00         0.00000E+00        -0.10004E+04
 
    0.25896E+05         0.16780E+06         0.00000E+00
    0.16780E+06        -0.31999E+05         0.00000E+00
    0.00000E+00         0.00000E+00        -0.12205E+04
 
    0.20858E+05         0.16983E+06         0.00000E+00
    0.16983E+06        -0.28289E+05         0.00000E+00
    0.00000E+00         0.00000E+00        -0.14862E+04
 
    0.15695E+05         0.17175E+06         0.00000E+00
    0.17175E+06        -0.24724E+05         0.00000E+00
    0.00000E+00         0.00000E+00        -0.18059E+04
 
    0.10396E+05         0.17357E+06         0.00000E+00
    0.17357E+06        -0.21341E+05         0.00000E+00
    0.00000E+00         0.00000E+00        -0.21889E+04
 
    0.49538E+04         0.17529E+06         0.00000E+00
    0.17529E+06        -0.18184E+05         0.00000E+00
    0.00000E+00         0.00000E+00        -0.26460E+04
 
   -0.64388E+03         0.17690E+06         0.00000E+00
    0.17690E+06        -0.15299E+05         0.00000E+00
    0.00000E+00         0.00000E+00        -0.31886E+04
 
    0.16757E+06         0.24950E+04         0.00000E+00
    0.24950E+04        -0.16259E+06         0.00000E+00
    0.00000E+00         0.00000E+00         0.99563E+03
 
    0.16646E+06         0.74986E+04         0.00000E+00
    0.74986E+04        -0.16236E+06         0.00000E+00
    0.00000E+00         0.00000E+00         0.81925E+03
 
    0.16528E+06         0.12503E+05         0.00000E+00
    0.12503E+05        -0.16192E+06         0.00000E+00
    0.00000E+00         0.00000E+00         0.67107E+03
 
    0.16402E+06         0.17506E+05         0.00000E+00
    0.17506E+05        -0.16128E+06         0.00000E+00
    0.00000E+00         0.00000E+00         0.54721E+03
 
    0.16268E+06         0.22503E+05         0.00000E+00
    0.22503E+05        -0.16046E+06         0.00000E+00
    0.00000E+00         0.00000E+00         0.44416E+03
 
    0.16124E+06         0.27489E+05         0.00000E+00
    0.27489E+05        -0.15945E+06         0.00000E+00
    0.00000E+00         0.00000E+00         0.35877E+03
 
    0.15972E+06         0.32462E+05         0.00000E+00
    0.32462E+05        -0.15828E+06         0.00000E+00
    0.00000E+00         0.00000E+00         0.28828E+03
 
    0.15810E+06         0.37418E+05         0.00000E+00
    0.37418E+05        -0.15695E+06         0.00000E+00
    0.00000E+00         0.00000E+00         0.23029E+03
 
    0.15638E+06         0.42352E+05         0.00000E+00
    0.42352E+05        -0.15547E+06         0.00000E+00
    0.00000E+00         0.00000E+00         0.18274E+03
 
    0.15456E+06         0.47261E+05         0.00000E+00
    0.47261E+05        -0.15385E+06         0.00000E+00
    0.00000E+00         0.00000E+00         0.14387E+03
 
    0.15265E+06         0.52140E+05         0.00000E+00
    0.52140E+05        -0.15209E+06         0.00000E+00
    0.00000E+00         0.00000E+00         0.11218E+03
 
    0.15062E+06         0.56988E+05         0.00000E+00
    0.56988E+05        -0.15019E+06         0.00000E+00
    0.00000E+00         0.00000E+00         0.86407E+02
 
    0.14850E+06         0.61798E+05         0.00000E+00
    0.61798E+05        -0.14817E+06         0.00000E+00
    0.00000E+00         0.00000E+00         0.65501E+02
 
    0.14627E+06         0.66569E+05         0.00000E+00
    0.66569E+05        -0.14603E+06         0.00000E+00
    0.00000E+00         0.00000E+00         0.48571E+02
 
    0.14394E+06         0.71296E+05         0.00000E+00
    0.71296E+05        -0.14376E+06         0.00000E+00
    0.00000E+00         0.00000E+00         0.34872E+02
 
    0.14150E+06         0.75977E+05         0.00000E+00
    0.75977E+05        -0.14138E+06         0.00000E+00
    0.00000E+00         0.00000E+00         0.23780E+02
 
    0.13895E+06         0.80607E+05         0.00000E+00
    0.80607E+05        -0.13888E+06         0.00000E+00
    0.00000E+00         0.00000E+00         0.14773E+02
 
    0.13631E+06         0.85185E+05         0.00000E+00
    0.85185E+05        -0.13627E+06         0.00000E+00
    0.00000E+00         0.00000E+00         0.74072E+01
 
    0.13356E+06         0.89706E+05         0.00000E+00
    0.89706E+05        -0.13355E+06         0.00000E+00
    0.00000E+00         0.00000E+00         0.13047E+01
 
    0.13071E+06         0.94167E+05         0.00000E+00
    0.94167E+05        -0.13073E+06         0.00000E+00
    0.00000E+00         0.00000E+00        -0.38616E+01
 
    0.12776E+06         0.98567E+05         0.00000E+00
    0.98567E+05        -0.12780E+06         0.00000E+00
    0.00000E+00         0.00000E+00        -0.83810E+01
 
    0.12471E+06         0.10290E+06         0.00000E+00
    0.10290E+06        -0.12477E+06         0.00000E+00
    0.00000E+00         0.00000E+00        -0.12516E+02
 
    0.12156E+06         0.10717E+06         0.00000E+00
    0.10717E+06        -0.12164E+06         0.00000E+00
    0.00000E+00         0.00000E+00        -0.16514E+02
 
    0.11831E+06         0.11137E+06         0.00000E+00
    0.11137E+06        -0.11841E+06         0.00000E+00
    0.00000E+00         0.00000E+00        -0.20617E+02
 
    0.11496E+06         0.11550E+06         0.00000E+00
    0.11550E+06        -0.11508E+06         0.00000E+00
    0.00000E+00         0.00000E+00        -0.25070E+02
 
    0.11152E+06         0.11955E+06         0.00000E+00
    0.11955E+06        -0.11167E+06         0.00000E+00
    0.00000E+00         0.00000E+00        -0.30137E+02
 
    0.10798E+06         0.12352E+06         0.00000E+00
    0.12352E+06        -0.10816E+06         0.00000E+00
    0.00000E+00         0.00000E+00        -0.36103E+02
 
    0.10434E+06         0.12742E+06         0.00000E+00
    0.12742E+06        -0.10456E+06         0.00000E+00
    0.00000E+00         0.00000E+00        -0.43297E+02
 
    0.10062E+06         0.13124E+06         0.00000E+00
    0.13124E+06        -0.10088E+06         0.00000E+00
    0.00000E+00         0.00000E+00        -0.52097E+02
 
    0.96798E+05         0.13498E+06         0.00000E+00
    0.13498E+06        -0.97112E+05         0.00000E+00
    0.00000E+00         0.00000E+00        -0.62949E+02
 
    0.92886E+05         0.13863E+06         0.00000E+00
    0.13863E+06        -0.93268E+05         0.00000E+00
    0.00000E+00         0.00000E+00        -0.76388E+02
 
    0.88882E+05         0.14220E+06         0.00000E+00
    0.14220E+06        -0.89347E+05         0.00000E+00
    0.00000E+00         0.00000E+00        -0.93056E+02
 
    0.84786E+05         0.14568E+06         0.00000E+00
    0.14568E+06        -0.85354E+05         0.00000E+00
    0.00000E+00         0.00000E+00        -0.11373E+03
 
    0.80598E+05         0.14907E+06         0.00000E+00
    0.14907E+06        -0.81294E+05         0.00000E+00
    0.00000E+00         0.00000E+00        -0.13934E+03
 
    0.76318E+05         0.15237E+06         0.00000E+00
    0.15237E+06        -0.77173E+05         0.00000E+00
    0.00000E+00         0.00000E+00        -0.17103E+03
 
    0.71945E+05         0.15558E+06         0.00000E+00
    0.15558E+06        -0.72996E+05         0.00000E+00
    0.00000E+00         0.00000E+00        -0.21018E+03
 
    0.67478E+05         0.15869E+06         0.00000E+00
    0.15869E+06        -0.68770E+05         0.00000E+00
    0.00000E+00         0.00000E+00        -0.25846E+03
 
    0.62916E+05         0.16171E+06         0.00000E+00
    0.16171E+06        -0.64505E+05         0.00000E+00
    0.00000E+00         0.00000E+00        -0.31788E+03
 
    0.58256E+05         0.16464E+06         0.00000E+00
    0.16464E+06        -0.60211E+05         0.00000E+00
    0.00000E+00         0.00000E+00        -0.39086E+03
 
    0.53497E+05         0.16747E+06         0.00000E+00
    0.16747E+06        -0.55899E+05         0.00000E+00
    0.00000E+00         0.00000E+00        -0.48033E+03
 
    0.48635E+05         0.17020E+06         0.00000E+00
    0.17020E+06        -0.51584E+05         0.00000E+00
    0.00000E+00         0.00000E+00        -0.58978E+03
 
    0.43667E+05         0.17283E+06         0.00000E+00
    0.17283E+06        -0.47283E+05         0.00000E+00
    0.00000E+00         0.00000E+00        -0.72336E+03
 
    0.38587E+05         0.17535E+06         0.00000E+00
    0.17535E+06        -0.43017E+05         0.00000E+00
    0.00000E+00         0.00000E+00        -0.88601E+03
 
    0.33390E+05         0.17778E+06         0.00000E+00
    0.17778E+06        -0.38807E+05         0.00000E+00
    0.00000E+00         0.00000E+00        -0.10835E+04
 
    0.28069E+05         0.18011E+06         0.00000E+00
    0.18011E+06        -0.34683E+05         0.00000E+00
    0.00000E+00         0.00000E+00        -0.13227E+04
 
    0.22617E+05         0.18233E+06         0.00000E+00
    0.18233E+06        -0.30675E+05         0.00000E+00
    0.00000E+00         0.00000E+00        -0.16115E+04
 
    0.17026E+05         0.18444E+06         0.00000E+00
    0.18444E+06        -0.26820E+05         0.00000E+00
    0.00000E+00         0.00000E+00        -0.19590E+04
 
    0.11283E+05         0.18646E+06         0.00000E+00
    0.18646E+06        -0.23160E+05         0.00000E+00
    0.00000E+00         0.00000E+00        -0.23753E+04
 
    0.53797E+04         0.18837E+06         0.00000E+00
    0.18837E+06        -0.19741E+05         0.00000E+00
    0.00000E+00         0.00000E+00        -0.28722E+04
 
   -0.69801E+03         0.19017E+06         0.00000E+00
    0.19017E+06        -0.16612E+05         0.00000E+00
    0.00000E+00         0.00000E+00        -0.34621E+04
 
    0.18039E+06         0.26737E+04         0.00000E+00
    0.26737E+04        -0.17568E+06         0.00000E+00
    0.00000E+00         0.00000E+00         0.94191E+03
 
    0.17931E+06         0.80486E+04         0.00000E+00
    0.80486E+04        -0.17544E+06         0.00000E+00
    0.00000E+00         0.00000E+00         0.77373E+03
 
    0.17814E+06         0.13430E+05         0.00000E+00
    0.13430E+05        -0.17498E+06         0.00000E+00
    0.00000E+00         0.00000E+00         0.63252E+03
 
    0.17687E+06         0.18812E+05         0.00000E+00
    0.18812E+05        -0.17430E+06         0.00000E+00
    0.00000E+00         0.00000E+00         0.51460E+03
 
    0.17550E+06         0.24191E+05         0.00000E+00
    0.24191E+05        -0.17341E+06         0.00000E+00
    0.00000E+00         0.00000E+00         0.41657E+03
 
    0.17402E+06         0.29562E+05         0.00000E+00
    0.29562E+05        -0.17234E+06         0.00000E+00
    0.00000E+00         0.00000E+00         0.33542E+03
 
    0.17243E+06         0.34920E+05         0.00000E+00
    0.34920E+05        -0.17109E+06         0.00000E+00
    0.00000E+00         0.00000E+00         0.26853E+03
 
    0.17072E+06         0.40260E+05         0.00000E+00
    0.40260E+05        -0.16966E+06         0.00000E+00
    0.00000E+00         0.00000E+00         0.21358E+03
 
    0.16891E+06         0.45577E+05         0.00000E+00
    0.45577E+05        -0.16806E+06         0.00000E+00
    0.00000E+00         0.00000E+00         0.16860E+03
 
    0.16697E+06         0.50868E+05         0.00000E+00
    0.50868E+05        -0.16631E+06         0.00000E+00
    0.00000E+00         0.00000E+00         0.13192E+03
 
    0.16492E+06         0.56126E+05         0.00000E+00
    0.56126E+05        -0.16441E+06         0.00000E+00
    0.00000E+00         0.00000E+00         0.10209E+03
 
    0.16275E+06         0.61348E+05         0.00000E+00
    0.61348E+05        -0.16236E+06         0.00000E+00
    0.00000E+00         0.00000E+00         0.77917E+02
 
    0.16046E+06         0.66529E+05         0.00000E+00
    0.66529E+05        -0.16016E+06         0.00000E+00
    0.00000E+00         0.00000E+00         0.58382E+02
 
    0.15805E+06         0.71665E+05         0.00000E+00
    0.71665E+05        -0.15783E+06         0.00000E+00
    0.00000E+00         0.00000E+00         0.42637E+02
 
    0.15552E+06         0.76751E+05         0.00000E+00
    0.76751E+05        -0.15537E+06         0.00000E+00
    0.00000E+00         0.00000E+00         0.29965E+02
 
    0.15288E+06         0.81785E+05         0.00000E+00
    0.81785E+05        -0.15278E+06         0.00000E+00
    0.00000E+00         0.00000E+00         0.19769E+02
 
    0.15012E+06         0.86762E+05         0.00000E+00
    0.86762E+05        -0.15006E+06         0.00000E+00
    0.00000E+00         0.00000E+00         0.11543E+02
 
    0.14724E+06         0.91679E+05         0.00000E+00
    0.91679E+05        -0.14722E+06         0.00000E+00
    0.00000E+00         0.00000E+00         0.48589E+01
 
    0.14425E+06         0.96532E+05         0.00000E+00
    0.96532E+05        -0.14426E+06         0.00000E+00
    0.00000E+00         0.00000E+00        -0.65097E+00
 
    0.14115E+06         0.10132E+06         0.00000E+00
    0.10132E+06        -0.14118E+06         0.00000E+00
    0.00000E+00         0.00000E+00        -0.53066E+01
 
    0.13794E+06         0.10603E+06         0.00000E+00
    0.10603E+06        -0.13799E+06         0.00000E+00
    0.00000E+00         0.00000E+00        -0.93935E+01
 
    0.13462E+06         0.11068E+06         0.00000E+00
    0.11068E+06        -0.13469E+06         0.00000E+00
    0.00000E+00         0.00000E+00        -0.13174E+02
 
    0.13119E+06         0.11525E+06         0.00000E+00
    0.11525E+06        -0.13128E+06         0.00000E+00
    0.00000E+00         0.00000E+00        -0.16896E+02
 
    0.12766E+06         0.11974E+06         0.00000E+00
    0.11974E+06        -0.12777E+06         0.00000E+00
    0.00000E+00         0.00000E+00        -0.20808E+02
 
    0.12402E+06         0.12415E+06         0.00000E+00
    0.12415E+06        -0.12415E+06         0.00000E+00
    0.00000E+00         0.00000E+00        -0.25164E+02
 
    0.12028E+06         0.12848E+06         0.00000E+00
    0.12848E+06        -0.12044E+06         0.00000E+00
    0.00000E+00         0.00000E+00        -0.30238E+02
 
    0.11644E+06         0.13273E+06         0.00000E+00
    0.13273E+06        -0.11663E+06         0.00000E+00
    0.00000E+00         0.00000E+00        -0.36332E+02
 
    0.11250E+06         0.13689E+06         0.00000E+00
    0.13689E+06        -0.11272E+06         0.00000E+00
    0.00000E+00         0.00000E+00        -0.43795E+02
 
    0.10846E+06         0.14097E+06         0.00000E+00
    0.14097E+06        -0.10873E+06         0.00000E+00
    0.00000E+00         0.00000E+00        -0.53029E+02
 
    0.10433E+06         0.14495E+06         0.00000E+00
    0.14495E+06        -0.10465E+06         0.00000E+00
    0.00000E+00         0.00000E+00        -0.64514E+02
 
    0.10009E+06         0.14885E+06         0.00000E+00
    0.14885E+06        -0.10049E+06         0.00000E+00
    0.00000E+00         0.00000E+00        -0.78824E+02
 
    0.95764E+05         0.15266E+06         0.00000E+00
    0.15266E+06        -0.96247E+05         0.00000E+00
    0.00000E+00         0.00000E+00        -0.96647E+02
 
    0.91339E+05         0.15637E+06         0.00000E+00
    0.15637E+06        -0.91933E+05         0.00000E+00
    0.00000E+00         0.00000E+00        -0.11882E+03
 
    0.86817E+05         0.15999E+06         0.00000E+00
    0.15999E+06        -0.87549E+05         0.00000E+00
    0.00000E+00         0.00000E+00        -0.14635E+03
 
    0.82200E+05         0.16352E+06         0.00000E+00
    0.16352E+06        -0.83102E+05         0.00000E+00
    0.00000E+00         0.00000E+00        -0.18048E+03
 
    0.77485E+05         0.16695E+06         0.00000E+00
    0.16695E+06        -0.78598E+05         0.00000E+00
    0.00000E+00         0.00000E+00        -0.22267E+03
 
    0.72672E+05         0.17029E+06         0.00000E+00
    0.17029E+06        -0.74045E+05         0.00000E+00
    0.00000E+00         0.00000E+00        -0.27475E+03
 
    0.67758E+05         0.17353E+06         0.00000E+00
    0.17353E+06        -0.69453E+05         0.00000E+00
    0.00000E+00         0.00000E+00        -0.33887E+03
 
    0.62742E+05         0.17667E+06         0.00000E+00
    0.17667E+06        -0.64831E+05         0.00000E+00
    0.00000E+00         0.00000E+00        -0.41767E+03
 
    0.57621E+05         0.17971E+06         0.00000E+00
    0.17971E+06        -0.60192E+05         0.00000E+00
    0.00000E+00         0.00000E+00        -0.51429E+03
 
    0.52389E+05         0.18265E+06         0.00000E+00
    0.18265E+06        -0.55552E+05         0.00000E+00
    0.00000E+00         0.00000E+00        -0.63251E+03
 
    0.47044E+05         0.18549E+06         0.00000E+00
    0.18549E+06        -0.50928E+05         0.00000E+00
    0.00000E+00         0.00000E+00        -0.77681E+03
 
    0.41579E+05         0.18823E+06         0.00000E+00
    0.18823E+06        -0.46342E+05         0.00000E+00
    0.00000E+00         0.00000E+00        -0.95253E+03
 
    0.35988E+05         0.19087E+06         0.00000E+00
    0.19087E+06        -0.41817E+05         0.00000E+00
    0.00000E+00         0.00000E+00        -0.11660E+04
 
    0.30262E+05         0.19341E+06         0.00000E+00
    0.19341E+06        -0.37384E+05         0.00000E+00
    0.00000E+00         0.00000E+00        -0.14244E+04
 
    0.24392E+05         0.19584E+06         0.00000E+00
    0.19584E+06        -0.33075E+05         0.00000E+00
    0.00000E+00         0.00000E+00        -0.17365E+04
 
    0.18369E+05         0.19817E+06         0.00000E+00
    0.19817E+06        -0.28929E+05         0.00000E+00
    0.00000E+00         0.00000E+00        -0.21120E+04
 
    0.12179E+05         0.20040E+06         0.00000E+00
    0.20040E+06        -0.24989E+05         0.00000E+00
    0.00000E+00         0.00000E+00        -0.25621E+04
 
    0.58106E+04         0.20252E+06         0.00000E+00
    0.20252E+06        -0.21306E+05         0.00000E+00
    0.00000E+00         0.00000E+00        -0.30991E+04
 
   -0.75139E+03         0.20455E+06         0.00000E+00
    0.20455E+06        -0.17933E+05         0.00000E+00
    0.00000E+00         0.00000E+00        -0.37368E+04
 
    0.19414E+06         0.28876E+04         0.00000E+00
    0.28876E+04        -0.18986E+06         0.00000E+00
    0.00000E+00         0.00000E+00         0.85598E+03
 
    0.19311E+06         0.87050E+04         0.00000E+00
    0.87050E+04        -0.18961E+06         0.00000E+00
    0.00000E+00         0.00000E+00         0.70142E+03
 
    0.19197E+06         0.14533E+05         0.00000E+00
    0.14533E+05        -0.18911E+06         0.00000E+00
    0.00000E+00         0.00000E+00         0.57177E+03
 
    0.19070E+06         0.20365E+05         0.00000E+00
    0.20365E+05        -0.18838E+06         0.00000E+00
    0.00000E+00         0.00000E+00         0.46359E+03
 
    0.18930E+06         0.26195E+05         0.00000E+00
    0.26195E+05        -0.18743E+06         0.00000E+00
    0.00000E+00         0.00000E+00         0.37378E+03
 
    0.18777E+06         0.32018E+05         0.00000E+00
    0.32018E+05        -0.18627E+06         0.00000E+00
    0.00000E+00         0.00000E+00         0.29954E+03
 
    0.18611E+06         0.37826E+05         0.00000E+00
    0.37826E+05        -0.18492E+06         0.00000E+00
    0.00000E+00         0.00000E+00         0.23845E+03
 
    0.18431E+06         0.43614E+05         0.00000E+00
    0.43614E+05        -0.18337E+06         0.00000E+00
    0.00000E+00         0.00000E+00         0.18837E+03
 
    0.18237E+06         0.49376E+05         0.00000E+00
    0.49376E+05        -0.18163E+06         0.00000E+00
    0.00000E+00         0.00000E+00         0.14750E+03
 
    0.18029E+06         0.55105E+05         0.00000E+00
    0.55105E+05        -0.17972E+06         0.00000E+00
    0.00000E+00         0.00000E+00         0.11426E+03
 
    0.17808E+06         0.60797E+05         0.00000E+00
    0.60797E+05        -0.17764E+06         0.00000E+00
    0.00000E+00         0.00000E+00         0.87355E+02
 
    0.17573E+06         0.66445E+05         0.00000E+00
    0.66445E+05        -0.17540E+06         0.00000E+00
    0.00000E+00         0.00000E+00         0.65658E+02
 
    0.17324E+06         0.72045E+05         0.00000E+00
    0.72045E+05        -0.17300E+06         0.00000E+00
    0.00000E+00         0.00000E+00         0.48232E+02
 
    0.17062E+06         0.77591E+05         0.00000E+00
    0.77591E+05        -0.17044E+06         0.00000E+00
    0.00000E+00         0.00000E+00         0.34291E+02
 
    0.16786E+06         0.83079E+05         0.00000E+00
    0.83079E+05        -0.16774E+06         0.00000E+00
    0.00000E+00         0.00000E+00         0.23170E+02
 
    0.16497E+06         0.88504E+05         0.00000E+00
    0.88504E+05        -0.16490E+06         0.00000E+00
    0.00000E+00         0.00000E+00         0.14314E+02
 
    0.16195E+06         0.93861E+05         0.00000E+00
    0.93861E+05        -0.16191E+06         0.00000E+00
    0.00000E+00         0.00000E+00         0.72492E+01
 
    0.15880E+06         0.99148E+05         0.00000E+00
    0.99148E+05        -0.15879E+06         0.00000E+00
    0.00000E+00         0.00000E+00         0.15742E+01
 
    0.15553E+06         0.10436E+06         0.00000E+00
    0.10436E+06        -0.15554E+06         0.00000E+00
    0.00000E+00         0.00000E+00        -0.30585E+01
 
    0.15213E+06         0.10949E+06         0.00000E+00
    0.10949E+06        -0.15216E+06         0.00000E+00
    0.00000E+00         0.00000E+00        -0.69545E+01
 
    0.14861E+06         0.11455E+06         0.00000E+00
    0.11455E+06        -0.14866E+06         0.00000E+00
    0.00000E+00         0.00000E+00        -0.10389E+02
 
    0.14498E+06         0.11952E+06         0.00000E+00
    0.11952E+06        -0.14505E+06         0.00000E+00
    0.00000E+00         0.00000E+00        -0.13619E+02
 
    0.14123E+06         0.12440E+06         0.00000E+00
    0.12440E+06        -0.14132E+06         0.00000E+00
    0.00000E+00         0.00000E+00        -0.16890E+02
 
    0.13737E+06         0.12919E+06         0.00000E+00
    0.12919E+06        -0.13747E+06         0.00000E+00
    0.00000E+00         0.00000E+00        -0.20452E+02
 
    0.13340E+06         0.13390E+06         0.00000E+00
    0.13390E+06        -0.13352E+06         0.00000E+00
    0.00000E+00         0.00000E+00        -0.24565E+02
 
    0.12932E+06         0.13851E+06         0.00000E+00
    0.13851E+06        -0.12947E+06         0.00000E+00
    0.00000E+00         0.00000E+00        -0.29511E+02
 
    0.12514E+06         0.14303E+06         0.00000E+00
    0.14303E+06        -0.12532E+06         0.00000E+00
    0.00000E+00         0.00000E+00        -0.35608E+02
 
    0.12085E+06         0.14745E+06         0.00000E+00
    0.14745E+06        -0.12107E+06         0.00000E+00
    0.00000E+00         0.00000E+00        -0.43220E+02
 
    0.11647E+06         0.15178E+06         0.00000E+00
    0.15178E+06        -0.11673E+06         0.00000E+00
    0.00000E+00         0.00000E+00        -0.52775E+02
 
    0.11198E+06         0.15602E+06         0.00000E+00
    0.15602E+06        -0.11230E+06         0.00000E+00
    0.00000E+00         0.00000E+00        -0.64783E+02
 
    0.10739E+06         0.16015E+06         0.00000E+00
    0.16015E+06        -0.10779E+06         0.00000E+00
    0.00000E+00         0.00000E+00        -0.79854E+02
 
    0.10271E+06         0.16419E+06         0.00000E+00
    0.16419E+06        -0.10320E+06         0.00000E+00
    0.00000E+00         0.00000E+00        -0.98724E+02
 
    0.97928E+05         0.16813E+06         0.00000E+00
    0.16813E+06        -0.98540E+05         0.00000E+00
    0.00000E+00         0.00000E+00        -0.12229E+03
 
    0.93050E+05         0.17197E+06         0.00000E+00
    0.17197E+06        -0.93808E+05         0.00000E+00
    0.00000E+00         0.00000E+00        -0.15162E+03
 
    0.88075E+05         0.17571E+06         0.00000E+00
    0.17571E+06        -0.89015E+05         0.00000E+00
    0.00000E+00         0.00000E+00        -0.18805E+03
 
    0.83001E+05         0.17936E+06         0.00000E+00
    0.17936E+06        -0.84167E+05         0.00000E+00
    0.00000E+00         0.00000E+00        -0.23315E+03
 
    0.77827E+05         0.18291E+06         0.00000E+00
    0.18291E+06        -0.79272E+05         0.00000E+00
    0.00000E+00         0.00000E+00        -0.28887E+03
 
    0.72551E+05         0.18635E+06         0.00000E+00
    0.18635E+06        -0.74339E+05         0.00000E+00
    0.00000E+00         0.00000E+00        -0.35752E+03
 
    0.67171E+05         0.18970E+06         0.00000E+00
    0.18970E+06        -0.69380E+05         0.00000E+00
    0.00000E+00         0.00000E+00        -0.44193E+03
 
    0.61681E+05         0.19295E+06         0.00000E+00
    0.19295E+06        -0.64408E+05         0.00000E+00
    0.00000E+00         0.00000E+00        -0.54546E+03
 
    0.56078E+05         0.19610E+06         0.00000E+00
    0.19610E+06        -0.59439E+05         0.00000E+00
    0.00000E+00         0.00000E+00        -0.67217E+03
 
    0.50356E+05         0.19915E+06         0.00000E+00
    0.19915E+06        -0.54491E+05         0.00000E+00
    0.00000E+00         0.00000E+00        -0.82688E+03
 
    0.44509E+05         0.20211E+06         0.00000E+00
    0.20211E+06        -0.49585E+05         0.00000E+00
    0.00000E+00         0.00000E+00        -0.10153E+04
 
    0.38527E+05         0.20496E+06         0.00000E+00
    0.20496E+06        -0.44748E+05         0.00000E+00
    0.00000E+00         0.00000E+00        -0.12442E+04
 
    0.32402E+05         0.20771E+06         0.00000E+00
    0.20771E+06        -0.40009E+05         0.00000E+00
    0.00000E+00         0.00000E+00        -0.15214E+04
 
    0.26124E+05         0.21037E+06         0.00000E+00
    0.21037E+06        -0.35404E+05         0.00000E+00
    0.00000E+00         0.00000E+00        -0.18561E+04
 
    0.19678E+05         0.21293E+06         0.00000E+00
    0.21293E+06        -0.30973E+05         0.00000E+00
    0.00000E+00         0.00000E+00        -0.22590E+04
 
    0.13053E+05         0.21539E+06         0.00000E+00
    0.21539E+06        -0.26762E+05         0.00000E+00
    0.00000E+00         0.00000E+00        -0.27418E+04
 
    0.62320E+04         0.21775E+06         0.00000E+00
    0.21775E+06        -0.22822E+05         0.00000E+00
    0.00000E+00         0.00000E+00        -0.33181E+04
 
   -0.80150E+03         0.22002E+06         0.00000E+00
    0.22002E+06        -0.19211E+05         0.00000E+00
    0.00000E+00         0.00000E+00        -0.40024E+04
 
    0.20902E+06         0.31497E+04         0.00000E+00
    0.31497E+04        -0.20533E+06         0.00000E+00
    0.00000E+00         0.00000E+00         0.73779E+03
 
    0.20807E+06         0.95051E+04         0.00000E+00
    0.95051E+04        -0.20506E+06         0.00000E+00
    0.00000E+00         0.00000E+00         0.60235E+03
 
    0.20697E+06         0.15874E+05         0.00000E+00
    0.15874E+05        -0.20452E+06         0.00000E+00
    0.00000E+00         0.00000E+00         0.48886E+03
 
    0.20570E+06         0.22248E+05         0.00000E+00
    0.22248E+05        -0.20373E+06         0.00000E+00
    0.00000E+00         0.00000E+00         0.39428E+03
 
    0.20428E+06         0.28620E+05         0.00000E+00
    0.28620E+05        -0.20270E+06         0.00000E+00
    0.00000E+00         0.00000E+00         0.31587E+03
 
    0.20269E+06         0.34982E+05         0.00000E+00
    0.34982E+05        -0.20143E+06         0.00000E+00
    0.00000E+00         0.00000E+00         0.25120E+03
 
    0.20093E+06         0.41324E+05         0.00000E+00
    0.41324E+05        -0.19994E+06         0.00000E+00
    0.00000E+00         0.00000E+00         0.19811E+03
 
    0.19901E+06         0.47641E+05         0.00000E+00
    0.47641E+05        -0.19823E+06         0.00000E+00
    0.00000E+00         0.00000E+00         0.15474E+03
 
    0.19692E+06         0.53923E+05         0.00000E+00
    0.53923E+05        -0.19632E+06         0.00000E+00
    0.00000E+00         0.00000E+00         0.11948E+03
 
    0.19467E+06         0.60165E+05         0.00000E+00
    0.60165E+05        -0.19421E+06         0.00000E+00
    0.00000E+00         0.00000E+00         0.90959E+02
 
    0.19225E+06         0.66358E+05         0.00000E+00
    0.66358E+05        -0.19191E+06         0.00000E+00
    0.00000E+00         0.00000E+00         0.68019E+02
 
    0.18967E+06         0.72496E+05         0.00000E+00
    0.72496E+05        -0.18943E+06         0.00000E+00
    0.00000E+00         0.00000E+00         0.49673E+02
 
    0.18694E+06         0.78572E+05         0.00000E+00
    0.78572E+05        -0.18676E+06         0.00000E+00
    0.00000E+00         0.00000E+00         0.35090E+02
 
    0.18405E+06         0.84582E+05         0.00000E+00
    0.84582E+05        -0.18393E+06         0.00000E+00
    0.00000E+00         0.00000E+00         0.23571E+02
 
    0.18100E+06         0.90518E+05         0.00000E+00
    0.90518E+05        -0.18093E+06         0.00000E+00
    0.00000E+00         0.00000E+00         0.14526E+02
 
    0.17781E+06         0.96377E+05         0.00000E+00
    0.96377E+05        -0.17777E+06         0.00000E+00
    0.00000E+00         0.00000E+00         0.74566E+01
 
    0.17447E+06         0.10215E+06         0.00000E+00
    0.10215E+06        -0.17446E+06         0.00000E+00
    0.00000E+00         0.00000E+00         0.19388E+01
 
    0.17098E+06         0.10784E+06         0.00000E+00
    0.10784E+06        -0.17100E+06         0.00000E+00
    0.00000E+00         0.00000E+00        -0.23922E+01
 
    0.16736E+06         0.11344E+06         0.00000E+00
    0.11344E+06        -0.16739E+06         0.00000E+00
    0.00000E+00         0.00000E+00        -0.58542E+01
 
    0.16361E+06         0.11894E+06         0.00000E+00
    0.11894E+06        -0.16366E+06         0.00000E+00
    0.00000E+00         0.00000E+00        -0.87302E+01
 
    0.15973E+06         0.12435E+06         0.00000E+00
    0.12435E+06        -0.15979E+06         0.00000E+00
    0.00000E+00         0.00000E+00        -0.11279E+02
 
    0.15572E+06         0.12966E+06         0.00000E+00
    0.12966E+06        -0.15579E+06         0.00000E+00
    0.00000E+00         0.00000E+00        -0.13746E+02
 
    0.15159E+06         0.13486E+06         0.00000E+00
    0.13486E+06        -0.15168E+06         0.00000E+00
    0.00000E+00         0.00000E+00        -0.16372E+02
 
    0.14735E+06         0.13996E+06         0.00000E+00
    0.13996E+06        -0.14744E+06         0.00000E+00
    0.00000E+00         0.00000E+00        -0.19403E+02
 
    0.14299E+06         0.14496E+06         0.00000E+00
    0.14496E+06        -0.14310E+06         0.00000E+00
    0.00000E+00         0.00000E+00        -0.23102E+02
 
    0.13852E+06         0.14985E+06         0.00000E+00
    0.14985E+06        -0.13866E+06         0.00000E+00
    0.00000E+00         0.00000E+00        -0.27756E+02
 
    0.13394E+06         0.15463E+06         0.00000E+00
    0.15463E+06        -0.13411E+06         0.00000E+00
    0.00000E+00         0.00000E+00        -0.33695E+02
 
    0.12926E+06         0.15931E+06         0.00000E+00
    0.15931E+06        -0.12947E+06         0.00000E+00
    0.00000E+00         0.00000E+00        -0.41297E+02
 
    0.12448E+06         0.16388E+06         0.00000E+00
    0.16388E+06        -0.12474E+06         0.00000E+00
    0.00000E+00         0.00000E+00        -0.51012E+02
 
    0.11960E+06         0.16834E+06         0.00000E+00
    0.16834E+06        -0.11992E+06         0.00000E+00
    0.00000E+00         0.00000E+00        -0.63375E+02
 
    0.11462E+06         0.17269E+06         0.00000E+00
    0.17269E+06        -0.11502E+06         0.00000E+00
    0.00000E+00         0.00000E+00        -0.79029E+02
 
    0.10955E+06         0.17694E+06         0.00000E+00
    0.17694E+06        -0.11005E+06         0.00000E+00
    0.00000E+00         0.00000E+00        -0.98754E+02
 
    0.10439E+06         0.18109E+06         0.00000E+00
    0.18109E+06        -0.10500E+06         0.00000E+00
    0.00000E+00         0.00000E+00        -0.12349E+03
 
    0.99126E+05         0.18513E+06         0.00000E+00
    0.18513E+06        -0.99898E+05         0.00000E+00
    0.00000E+00         0.00000E+00        -0.15439E+03
 
    0.93771E+05         0.18906E+06         0.00000E+00
    0.18906E+06        -0.94735E+05         0.00000E+00
    0.00000E+00         0.00000E+00        -0.19285E+03
 
    0.88321E+05         0.19289E+06         0.00000E+00
    0.19289E+06        -0.89524E+05         0.00000E+00
    0.00000E+00         0.00000E+00        -0.24055E+03
 
    0.82774E+05         0.19663E+06         0.00000E+00
    0.19663E+06        -0.84272E+05         0.00000E+00
    0.00000E+00         0.00000E+00        -0.29953E+03
 
    0.77128E+05         0.20026E+06         0.00000E+00
    0.20026E+06        -0.78989E+05         0.00000E+00
    0.00000E+00         0.00000E+00        -0.37228E+03
 
    0.71379E+05         0.20379E+06         0.00000E+00
    0.20379E+06        -0.73688E+05         0.00000E+00
    0.00000E+00         0.00000E+00        -0.46178E+03
 
    0.65522E+05         0.20723E+06         0.00000E+00
    0.20723E+06        -0.68380E+05         0.00000E+00
    0.00000E+00         0.00000E+00        -0.57161E+03
 
    0.59553E+05         0.21057E+06         0.00000E+00
    0.21057E+06        -0.63084E+05         0.00000E+00
    0.00000E+00         0.00000E+00        -0.70608E+03
 
    0.53464E+05         0.21382E+06         0.00000E+00
    0.21382E+06        -0.57816E+05         0.00000E+00
    0.00000E+00         0.00000E+00        -0.87029E+03
 
    0.47248E+05         0.21697E+06         0.00000E+00
    0.21697E+06        -0.52600E+05         0.00000E+00
    0.00000E+00         0.00000E+00        -0.10703E+04
 
    0.40895E+05         0.22004E+06         0.00000E+00
    0.22004E+06        -0.47462E+05         0.00000E+00
    0.00000E+00         0.00000E+00        -0.13134E+04
 
    0.34393E+05         0.22301E+06         0.00000E+00
    0.22301E+06        -0.42432E+05         0.00000E+00
    0.00000E+00         0.00000E+00        -0.16078E+04
 
    0.27730E+05         0.22589E+06         0.00000E+00
    0.22589E+06        -0.37548E+05         0.00000E+00
    0.00000E+00         0.00000E+00        -0.19634E+04
 
    0.20892E+05         0.22868E+06         0.00000E+00
    0.22868E+06        -0.32850E+05         0.00000E+00
    0.00000E+00         0.00000E+00        -0.23914E+04
 
    0.13863E+05         0.23138E+06         0.00000E+00
    0.23138E+06        -0.28385E+05         0.00000E+00
    0.00000E+00         0.00000E+00        -0.29045E+04
 
    0.66235E+04         0.23400E+06         0.00000E+00
    0.23400E+06        -0.24208E+05         0.00000E+00
    0.00000E+00         0.00000E+00        -0.35170E+04
 
   -0.84486E+03         0.23652E+06         0.00000E+00
    0.23652E+06        -0.20377E+05         0.00000E+00
    0.00000E+00         0.00000E+00        -0.42444E+04
 
    0.22533E+06         0.34770E+04         0.00000E+00
    0.34770E+04        -0.22237E+06         0.00000E+00
    0.00000E+00         0.00000E+00         0.59184E+03
 
    0.22447E+06         0.10497E+05         0.00000E+00
    0.10497E+05        -0.22207E+06         0.00000E+00
    0.00000E+00         0.00000E+00         0.48034E+03
 
    0.22341E+06         0.17531E+05         0.00000E+00
    0.17531E+05        -0.22148E+06         0.00000E+00
    0.00000E+00         0.00000E+00         0.38700E+03
 
    0.22215E+06         0.24569E+05         0.00000E+00
    0.24569E+05        -0.22060E+06         0.00000E+00
    0.00000E+00         0.00000E+00         0.30935E+03
 
    0.22068E+06         0.31599E+05         0.00000E+00
    0.31599E+05        -0.21945E+06         0.00000E+00
    0.00000E+00         0.00000E+00         0.24512E+03
 
    0.21900E+06         0.38612E+05         0.00000E+00
    0.38612E+05        -0.21804E+06         0.00000E+00
    0.00000E+00         0.00000E+00         0.19229E+03
 
    0.21712E+06         0.45596E+05         0.00000E+00
    0.45596E+05        -0.21637E+06         0.00000E+00
    0.00000E+00         0.00000E+00         0.14909E+03
 
    0.21503E+06         0.52543E+05         0.00000E+00
    0.52543E+05        -0.21446E+06         0.00000E+00
    0.00000E+00         0.00000E+00         0.11397E+03
 
    0.21275E+06         0.59442E+05         0.00000E+00
    0.59442E+05        -0.21232E+06         0.00000E+00
    0.00000E+00         0.00000E+00         0.85617E+02
 
    0.21026E+06         0.66285E+05         0.00000E+00
    0.66285E+05        -0.20995E+06         0.00000E+00
    0.00000E+00         0.00000E+00         0.62881E+02
 
    0.20758E+06         0.73063E+05         0.00000E+00
    0.73063E+05        -0.20736E+06         0.00000E+00
    0.00000E+00         0.00000E+00         0.44797E+02
 
    0.20471E+06         0.79767E+05         0.00000E+00
    0.79767E+05        -0.20456E+06         0.00000E+00
    0.00000E+00         0.00000E+00         0.30545E+02
 
    0.20166E+06         0.86390E+05         0.00000E+00
    0.86390E+05        -0.20156E+06         0.00000E+00
    0.00000E+00         0.00000E+00         0.19430E+02
 
    0.19842E+06         0.92926E+05         0.00000E+00
    0.92926E+05        -0.19837E+06         0.00000E+00
    0.00000E+00         0.00000E+00         0.10863E+02
 
    0.19502E+06         0.99367E+05         0.00000E+00
    0.99367E+05        -0.19499E+06         0.00000E+00
    0.00000E+00         0.00000E+00         0.43468E+01
 
    0.19144E+06         0.10571E+06         0.00000E+00
    0.10571E+06        -0.19144E+06         0.00000E+00
    0.00000E+00         0.00000E+00        -0.54416E+00
 
    0.18770E+06         0.11194E+06         0.00000E+00
    0.11194E+06        -0.18772E+06         0.00000E+00
    0.00000E+00         0.00000E+00        -0.41743E+01
 
    0.18380E+06         0.11807E+06         0.00000E+00
    0.11807E+06        -0.18383E+06         0.00000E+00
    0.00000E+00         0.00000E+00        -0.68604E+01
 
    0.17975E+06         0.12408E+06         0.00000E+00
    0.12408E+06        -0.17980E+06         0.00000E+00
    0.00000E+00         0.00000E+00        -0.88828E+01
 
    0.17556E+06         0.12997E+06         0.00000E+00
    0.12997E+06        -0.17561E+06         0.00000E+00
    0.00000E+00         0.00000E+00        -0.10495E+02
 
    0.17123E+06         0.13575E+06         0.00000E+00
    0.13575E+06        -0.17129E+06         0.00000E+00
    0.00000E+00         0.00000E+00        -0.11935E+02
 
    0.16677E+06         0.14140E+06         0.00000E+00
    0.14140E+06        -0.16684E+06         0.00000E+00
    0.00000E+00         0.00000E+00        -0.13430E+02
 
    0.16218E+06         0.14693E+06         0.00000E+00
    0.14693E+06        -0.16226E+06         0.00000E+00
    0.00000E+00         0.00000E+00        -0.15212E+02
 
    0.15748E+06         0.15233E+06         0.00000E+00
    0.15233E+06        -0.15756E+06         0.00000E+00
    0.00000E+00         0.00000E+00        -0.17520E+02
 
    0.15265E+06         0.15761E+06         0.00000E+00
    0.15761E+06        -0.15276E+06         0.00000E+00
    0.00000E+00         0.00000E+00        -0.20615E+02
 
    0.14772E+06         0.16276E+06         0.00000E+00
    0.16276E+06        -0.14785E+06         0.00000E+00
    0.00000E+00         0.00000E+00        -0.24789E+02
 
    0.14269E+06         0.16779E+06         0.00000E+00
    0.16779E+06        -0.14284E+06         0.00000E+00
    0.00000E+00         0.00000E+00        -0.30375E+02
 
    0.13755E+06         0.17269E+06         0.00000E+00
    0.17269E+06        -0.13774E+06         0.00000E+00
    0.00000E+00         0.00000E+00        -0.37764E+02
 
    0.13232E+06         0.17747E+06         0.00000E+00
    0.17747E+06        -0.13256E+06         0.00000E+00
    0.00000E+00         0.00000E+00        -0.47421E+02
 
    0.12700E+06         0.18213E+06         0.00000E+00
    0.18213E+06        -0.12730E+06         0.00000E+00
    0.00000E+00         0.00000E+00        -0.59902E+02
 
    0.12158E+06         0.18667E+06         0.00000E+00
    0.18667E+06        -0.12196E+06         0.00000E+00
    0.00000E+00         0.00000E+00        -0.75877E+02
 
    0.11608E+06         0.19109E+06         0.00000E+00
    0.19109E+06        -0.11656E+06         0.00000E+00
    0.00000E+00         0.00000E+00        -0.96160E+02
 
    0.11049E+06         0.19540E+06         0.00000E+00
    0.19540E+06        -0.11110E+06         0.00000E+00
    0.00000E+00         0.00000E+00        -0.12174E+03
 
    0.10482E+06         0.19959E+06         0.00000E+00
    0.19959E+06        -0.10559E+06         0.00000E+00
    0.00000E+00         0.00000E+00        -0.15381E+03
 
    0.99063E+05         0.20368E+06         0.00000E+00
    0.20368E+06        -0.10003E+06         0.00000E+00
    0.00000E+00         0.00000E+00        -0.19383E+03
 
    0.93220E+05         0.20766E+06         0.00000E+00
    0.20766E+06        -0.94438E+05         0.00000E+00
    0.00000E+00         0.00000E+00        -0.24357E+03
 
    0.87289E+05         0.21153E+06         0.00000E+00
    0.21153E+06        -0.88815E+05         0.00000E+00
    0.00000E+00         0.00000E+00        -0.30518E+03
 
    0.81269E+05         0.21531E+06         0.00000E+00
    0.21531E+06        -0.83175E+05         0.00000E+00
    0.00000E+00         0.00000E+00        -0.38124E+03
 
    0.75154E+05         0.21899E+06         0.00000E+00
    0.21899E+06        -0.77528E+05         0.00000E+00
    0.00000E+00         0.00000E+00        -0.47489E+03
 
    0.68940E+05         0.22258E+06         0.00000E+00
    0.22258E+06        -0.71889E+05         0.00000E+00
    0.00000E+00         0.00000E+00        -0.58989E+03
 
    0.62620E+05         0.22607E+06         0.00000E+00
    0.22607E+06        -0.66274E+05         0.00000E+00
    0.00000E+00         0.00000E+00        -0.73074E+03
 
    0.56187E+05         0.22948E+06         0.00000E+00
    0.22948E+06        -0.60701E+05         0.00000E+00
    0.00000E+00         0.00000E+00        -0.90283E+03
 
    0.49631E+05         0.23281E+06         0.00000E+00
    0.23281E+06        -0.55194E+05         0.00000E+00
    0.00000E+00         0.00000E+00        -0.11125E+04
 
    0.42941E+05         0.23605E+06         0.00000E+00
    0.23605E+06        -0.49778E+05         0.00000E+00
    0.00000E+00         0.00000E+00        -0.13674E+04
 
    0.36104E+05         0.23922E+06         0.00000E+00
    0.23922E+06        -0.44485E+05         0.00000E+00
    0.00000E+00         0.00000E+00        -0.16762E+04
 
    0.29105E+05         0.24231E+06         0.00000E+00
    0.24231E+06        -0.39351E+05         0.00000E+00
    0.00000E+00         0.00000E+00        -0.20492E+04
 
    0.21927E+05         0.24533E+06         0.00000E+00
    0.24533E+06        -0.34419E+05         0.00000E+00
    0.00000E+00         0.00000E+00        -0.24983E+04
 
    0.14552E+05         0.24827E+06         0.00000E+00
    0.24827E+06        -0.29736E+05         0.00000E+00
    0.00000E+00         0.00000E+00        -0.30368E+04
 
    0.69580E+04         0.25114E+06         0.00000E+00
    0.25114E+06        -0.25356E+05         0.00000E+00
    0.00000E+00         0.00000E+00        -0.36797E+04
 
   -0.87689E+03         0.25395E+06         0.00000E+00
    0.25395E+06        -0.21340E+05         0.00000E+00
    0.00000E+00         0.00000E+00        -0.44434E+04
 
    0.24346E+06         0.38907E+04         0.00000E+00
    0.38907E+04        -0.24131E+06         0.00000E+00
    0.00000E+00         0.00000E+00         0.42963E+03
 
    0.24269E+06         0.11741E+05         0.00000E+00
    0.11741E+05        -0.24097E+06         0.00000E+00
    0.00000E+00         0.00000E+00         0.34504E+03
 
    0.24167E+06         0.19601E+05         0.00000E+00
    0.19601E+05        -0.24030E+06         0.00000E+00
    0.00000E+00         0.00000E+00         0.27430E+03
 
    0.24038E+06         0.27457E+05         0.00000E+00
    0.27457E+05        -0.23930E+06         0.00000E+00
    0.00000E+00         0.00000E+00         0.21557E+03
 
    0.23883E+06         0.35296E+05         0.00000E+00
    0.35296E+05        -0.23799E+06         0.00000E+00
    0.00000E+00         0.00000E+00         0.16713E+03
 
    0.23702E+06         0.43102E+05         0.00000E+00
    0.43102E+05        -0.23638E+06         0.00000E+00
    0.00000E+00         0.00000E+00         0.12746E+03
 
    0.23496E+06         0.50864E+05         0.00000E+00
    0.50864E+05        -0.23448E+06         0.00000E+00
    0.00000E+00         0.00000E+00         0.95223E+02
 
    0.23264E+06         0.58569E+05         0.00000E+00
    0.58569E+05        -0.23230E+06         0.00000E+00
    0.00000E+00         0.00000E+00         0.69245E+02
 
    0.23009E+06         0.66204E+05         0.00000E+00
    0.66204E+05        -0.22984E+06         0.00000E+00
    0.00000E+00         0.00000E+00         0.48512E+02
 
    0.22729E+06         0.73759E+05         0.00000E+00
    0.73759E+05        -0.22713E+06         0.00000E+00
    0.00000E+00         0.00000E+00         0.32153E+02
 
    0.22426E+06         0.81222E+05         0.00000E+00
    0.81222E+05        -0.22416E+06         0.00000E+00
    0.00000E+00         0.00000E+00         0.19422E+02
 
    0.22101E+06         0.88585E+05         0.00000E+00
    0.88585E+05        -0.22096E+06         0.00000E+00
    0.00000E+00         0.00000E+00         0.96824E+01
 
    0.21754E+06         0.95838E+05         0.00000E+00
    0.95838E+05        -0.21753E+06         0.00000E+00
    0.00000E+00         0.00000E+00         0.23910E+01
 
    0.21386E+06         0.10297E+06         0.00000E+00
    0.10297E+06        -0.21388E+06         0.00000E+00
    0.00000E+00         0.00000E+00        -0.29152E+01
 
    0.20999E+06         0.10998E+06         0.00000E+00
    0.10998E+06        -0.21002E+06         0.00000E+00
    0.00000E+00         0.00000E+00        -0.66329E+01
 
    0.20592E+06         0.11686E+06         0.00000E+00
    0.11686E+06        -0.20596E+06         0.00000E+00
    0.00000E+00         0.00000E+00        -0.91044E+01
 
    0.20167E+06         0.12360E+06         0.00000E+00
    0.12360E+06        -0.20172E+06         0.00000E+00
    0.00000E+00         0.00000E+00        -0.10628E+02
 
    0.19725E+06         0.13020E+06         0.00000E+00
    0.13020E+06        -0.19731E+06         0.00000E+00
    0.00000E+00         0.00000E+00        -0.11466E+02
 
    0.19266E+06         0.13665E+06         0.00000E+00
    0.13665E+06        -0.19272E+06         0.00000E+00
    0.00000E+00         0.00000E+00        -0.11858E+02
 
    0.18793E+06         0.14295E+06         0.00000E+00
    0.14295E+06        -0.18799E+06         0.00000E+00
    0.00000E+00         0.00000E+00        -0.12024E+02
 
    0.18304E+06         0.14910E+06         0.00000E+00
    0.14910E+06        -0.18311E+06         0.00000E+00
    0.00000E+00         0.00000E+00        -0.12176E+02
 
    0.17803E+06         0.15510E+06         0.00000E+00
    0.15510E+06        -0.17809E+06         0.00000E+00
    0.00000E+00         0.00000E+00        -0.12522E+02
 
    0.17288E+06         0.16095E+06         0.00000E+00
    0.16095E+06        -0.17295E+06         0.00000E+00
    0.00000E+00         0.00000E+00        -0.13281E+02
 
    0.16761E+06         0.16664E+06         0.00000E+00
    0.16664E+06        -0.16769E+06         0.00000E+00
    0.00000E+00         0.00000E+00        -0.14682E+02
 
    0.16224E+06         0.17217E+06         0.00000E+00
    0.17217E+06        -0.16232E+06         0.00000E+00
    0.00000E+00         0.00000E+00        -0.16980E+02
 
    0.15676E+06         0.17756E+06         0.00000E+00
    0.17756E+06        -0.15686E+06         0.00000E+00
    0.00000E+00         0.00000E+00        -0.20467E+02
 
    0.15118E+06         0.18279E+06         0.00000E+00
    0.18279E+06        -0.15130E+06         0.00000E+00
    0.00000E+00         0.00000E+00        -0.25477E+02
 
    0.14551E+06         0.18788E+06         0.00000E+00
    0.18788E+06        -0.14567E+06         0.00000E+00
    0.00000E+00         0.00000E+00        -0.32406E+02
 
    0.13975E+06         0.19283E+06         0.00000E+00
    0.19283E+06        -0.13996E+06         0.00000E+00
    0.00000E+00         0.00000E+00        -0.41728E+02
 
    0.13392E+06         0.19763E+06         0.00000E+00
    0.19763E+06        -0.13419E+06         0.00000E+00
    0.00000E+00         0.00000E+00        -0.54012E+02
 
    0.12801E+06         0.20230E+06         0.00000E+00
    0.20230E+06        -0.12836E+06         0.00000E+00
    0.00000E+00         0.00000E+00        -0.69945E+02
 
    0.12203E+06         0.20683E+06         0.00000E+00
    0.20683E+06        -0.12248E+06         0.00000E+00
    0.00000E+00         0.00000E+00        -0.90362E+02
 
    0.11598E+06         0.21124E+06         0.00000E+00
    0.21124E+06        -0.11656E+06         0.00000E+00
    0.00000E+00         0.00000E+00        -0.11628E+03
 
    0.10986E+06         0.21552E+06         0.00000E+00
    0.21552E+06        -0.11060E+06         0.00000E+00
    0.00000E+00         0.00000E+00        -0.14893E+03
 
    0.10367E+06         0.21969E+06         0.00000E+00
    0.21969E+06        -0.10462E+06         0.00000E+00
    0.00000E+00         0.00000E+00        -0.18981E+03
 
    0.97417E+05         0.22375E+06         0.00000E+00
    0.22375E+06        -0.98621E+05         0.00000E+00
    0.00000E+00         0.00000E+00        -0.24075E+03
 
    0.91094E+05         0.22770E+06         0.00000E+00
    0.22770E+06        -0.92614E+05         0.00000E+00
    0.00000E+00         0.00000E+00        -0.30396E+03
 
    0.84699E+05         0.23156E+06         0.00000E+00
    0.23156E+06        -0.86610E+05         0.00000E+00
    0.00000E+00         0.00000E+00        -0.38211E+03
 
    0.78228E+05         0.23532E+06         0.00000E+00
    0.23532E+06        -0.80621E+05         0.00000E+00
    0.00000E+00         0.00000E+00        -0.47843E+03
 
    0.71676E+05         0.23899E+06         0.00000E+00
    0.23899E+06        -0.74660E+05         0.00000E+00
    0.00000E+00         0.00000E+00        -0.59679E+03
 
    0.65034E+05         0.24258E+06         0.00000E+00
    0.24258E+06        -0.68743E+05         0.00000E+00
    0.00000E+00         0.00000E+00        -0.74187E+03
 
    0.58295E+05         0.24610E+06         0.00000E+00
    0.24610E+06        -0.62891E+05         0.00000E+00
    0.00000E+00         0.00000E+00        -0.91920E+03
 
    0.51446E+05         0.24954E+06         0.00000E+00
    0.24954E+06        -0.57123E+05         0.00000E+00
    0.00000E+00         0.00000E+00        -0.11354E+04
 
    0.44476E+05         0.25292E+06         0.00000E+00
    0.25292E+06        -0.51467E+05         0.00000E+00
    0.00000E+00         0.00000E+00        -0.13982E+04
 
    0.37369E+05         0.25624E+06         0.00000E+00
    0.25624E+06        -0.45953E+05         0.00000E+00
    0.00000E+00         0.00000E+00        -0.17168E+04
 
    0.30109E+05         0.25951E+06         0.00000E+00
    0.25951E+06        -0.40618E+05         0.00000E+00
    0.00000E+00         0.00000E+00        -0.21018E+04
 
    0.22676E+05         0.26272E+06         0.00000E+00
    0.26272E+06        -0.35502E+05         0.00000E+00
    0.00000E+00         0.00000E+00        -0.25654E+04
 
    0.15047E+05         0.26588E+06         0.00000E+00
    0.26588E+06        -0.30654E+05         0.00000E+00
    0.00000E+00         0.00000E+00        -0.31214E+04
 
    0.72002E+04         0.26901E+06         0.00000E+00
    0.26901E+06        -0.26127E+05         0.00000E+00
    0.00000E+00         0.00000E+00        -0.37854E+04
 
   -0.89181E+03         0.27209E+06         0.00000E+00
    0.27209E+06        -0.21980E+05         0.00000E+00
    0.00000E+00         0.00000E+00        -0.45744E+04
 
    0.26394E+06         0.44171E+04         0.00000E+00
    0.44171E+04        -0.26257E+06         0.00000E+00
    0.00000E+00         0.00000E+00         0.27273E+03
 
    0.26325E+06         0.13310E+05         0.00000E+00
    0.13310E+05        -0.26218E+06         0.00000E+00
    0.00000E+00         0.00000E+00         0.21453E+03
 
    0.26222E+06         0.22201E+05         0.00000E+00
    0.22201E+05        -0.26139E+06         0.00000E+00
    0.00000E+00         0.00000E+00         0.16586E+03
 
    0.26086E+06         0.31074E+05         0.00000E+00
    0.31074E+05        -0.26023E+06         0.00000E+00
    0.00000E+00         0.00000E+00         0.12550E+03
 
    0.25917E+06         0.39908E+05         0.00000E+00
    0.39908E+05        -0.25871E+06         0.00000E+00
    0.00000E+00         0.00000E+00         0.92336E+02
 
    0.25715E+06         0.48687E+05         0.00000E+00
    0.48687E+05        -0.25683E+06         0.00000E+00
    0.00000E+00         0.00000E+00         0.65349E+02
 
    0.25482E+06         0.57395E+05         0.00000E+00
    0.57395E+05        -0.25460E+06         0.00000E+00
    0.00000E+00         0.00000E+00         0.43640E+02
 
    0.25218E+06         0.66014E+05         0.00000E+00
    0.66014E+05        -0.25205E+06         0.00000E+00
    0.00000E+00         0.00000E+00         0.26413E+02
 
    0.24925E+06         0.74531E+05         0.00000E+00
    0.74531E+05        -0.24918E+06         0.00000E+00
    0.00000E+00         0.00000E+00         0.12970E+02
 
    0.24603E+06         0.82931E+05         0.00000E+00
    0.82931E+05        -0.24601E+06         0.00000E+00
    0.00000E+00         0.00000E+00         0.27054E+01
 
    0.24253E+06         0.91203E+05         0.00000E+00
    0.91203E+05        -0.24255E+06         0.00000E+00
    0.00000E+00         0.00000E+00        -0.49071E+01
 
    0.23876E+06         0.99333E+05         0.00000E+00
    0.99333E+05        -0.23882E+06         0.00000E+00
    0.00000E+00         0.00000E+00        -0.10323E+02
 
    0.23475E+06         0.10731E+06         0.00000E+00
    0.10731E+06        -0.23482E+06         0.00000E+00
    0.00000E+00         0.00000E+00        -0.13936E+02
 
    0.23049E+06         0.11513E+06         0.00000E+00
    0.11513E+06        -0.23057E+06         0.00000E+00
    0.00000E+00         0.00000E+00        -0.16090E+02
 
    0.22601E+06         0.12278E+06         0.00000E+00
    0.12278E+06        -0.22610E+06         0.00000E+00
    0.00000E+00         0.00000E+00        -0.17082E+02
 
    0.22132E+06         0.13026E+06         0.00000E+00
    0.13026E+06        -0.22140E+06         0.00000E+00
    0.00000E+00         0.00000E+00        -0.17175E+02
 
    0.21642E+06         0.13755E+06         0.00000E+00
    0.13755E+06        -0.21650E+06         0.00000E+00
    0.00000E+00         0.00000E+00        -0.16606E+02
 
    0.21133E+06         0.14466E+06         0.00000E+00
    0.14466E+06        -0.21141E+06         0.00000E+00
    0.00000E+00         0.00000E+00        -0.15585E+02
 
    0.20607E+06         0.15158E+06         0.00000E+00
    0.15158E+06        -0.20615E+06         0.00000E+00
    0.00000E+00         0.00000E+00        -0.14312E+02
 
    0.20065E+06         0.15830E+06         0.00000E+00
    0.15830E+06        -0.20072E+06         0.00000E+00
    0.00000E+00         0.00000E+00        -0.12974E+02
 
    0.19508E+06         0.16483E+06         0.00000E+00
    0.16483E+06        -0.19514E+06         0.00000E+00
    0.00000E+00         0.00000E+00        -0.11760E+02
 
    0.18937E+06         0.17117E+06         0.00000E+00
    0.17117E+06        -0.18943E+06         0.00000E+00
    0.00000E+00         0.00000E+00        -0.10858E+02
 
    0.18354E+06         0.17731E+06         0.00000E+00
    0.17731E+06        -0.18359E+06         0.00000E+00
    0.00000E+00         0.00000E+00        -0.10471E+02
 
    0.17759E+06         0.18326E+06         0.00000E+00
    0.18326E+06        -0.17765E+06         0.00000E+00
    0.00000E+00         0.00000E+00        -0.10819E+02
 
    0.17154E+06         0.18902E+06         0.00000E+00
    0.18902E+06        -0.17160E+06         0.00000E+00
    0.00000E+00         0.00000E+00        -0.12148E+02
 
    0.16540E+06         0.19459E+06         0.00000E+00
    0.19459E+06        -0.16547E+06         0.00000E+00
    0.00000E+00         0.00000E+00        -0.14743E+02
 
    0.15917E+06         0.19998E+06         0.00000E+00
    0.19998E+06        -0.15927E+06         0.00000E+00
    0.00000E+00         0.00000E+00        -0.18935E+02
 
    0.15287E+06         0.20519E+06         0.00000E+00
    0.20519E+06        -0.15300E+06         0.00000E+00
    0.00000E+00         0.00000E+00        -0.25121E+02
 
    0.14651E+06         0.21023E+06         0.00000E+00
    0.21023E+06        -0.14668E+06         0.00000E+00
    0.00000E+00         0.00000E+00        -0.33771E+02
 
    0.14008E+06         0.21510E+06         0.00000E+00
    0.21510E+06        -0.14031E+06         0.00000E+00
    0.00000E+00         0.00000E+00        -0.45457E+02
 
    0.13360E+06         0.21981E+06         0.00000E+00
    0.21981E+06        -0.13391E+06         0.00000E+00
    0.00000E+00         0.00000E+00        -0.60870E+02
 
    0.12708E+06         0.22438E+06         0.00000E+00
    0.22438E+06        -0.12748E+06         0.00000E+00
    0.00000E+00         0.00000E+00        -0.80850E+02
 
    0.12051E+06         0.22879E+06         0.00000E+00
    0.22879E+06        -0.12105E+06         0.00000E+00
    0.00000E+00         0.00000E+00        -0.10642E+03
 
    0.11391E+06         0.23308E+06         0.00000E+00
    0.23308E+06        -0.11460E+06         0.00000E+00
    0.00000E+00         0.00000E+00        -0.13882E+03
 
    0.10726E+06         0.23723E+06         0.00000E+00
    0.23723E+06        -0.10816E+06         0.00000E+00
    0.00000E+00         0.00000E+00        -0.17956E+03
 
    0.10058E+06         0.24127E+06         0.00000E+00
    0.24127E+06        -0.10173E+06         0.00000E+00
    0.00000E+00         0.00000E+00        -0.23049E+03
 
    0.93855E+05         0.24520E+06         0.00000E+00
    0.24520E+06        -0.95325E+05         0.00000E+00
    0.00000E+00         0.00000E+00        -0.29383E+03
 
    0.87092E+05         0.24904E+06         0.00000E+00
    0.24904E+06        -0.88953E+05         0.00000E+00
    0.00000E+00         0.00000E+00        -0.37229E+03
 
    0.80282E+05         0.25278E+06         0.00000E+00
    0.25278E+06        -0.82628E+05         0.00000E+00
    0.00000E+00         0.00000E+00        -0.46912E+03
 
    0.73421E+05         0.25644E+06         0.00000E+00
    0.25644E+06        -0.76362E+05         0.00000E+00
    0.00000E+00         0.00000E+00        -0.58824E+03
 
    0.66500E+05         0.26003E+06         0.00000E+00
    0.26003E+06        -0.70172E+05         0.00000E+00
    0.00000E+00         0.00000E+00        -0.73437E+03
 
    0.59509E+05         0.26357E+06         0.00000E+00
    0.26357E+06        -0.64075E+05         0.00000E+00
    0.00000E+00         0.00000E+00        -0.91312E+03
 
    0.52437E+05         0.26705E+06         0.00000E+00
    0.26705E+06        -0.58093E+05         0.00000E+00
    0.00000E+00         0.00000E+00        -0.11312E+04
 
    0.45269E+05         0.27048E+06         0.00000E+00
    0.27048E+06        -0.52251E+05         0.00000E+00
    0.00000E+00         0.00000E+00        -0.13964E+04
 
    0.37988E+05         0.27389E+06         0.00000E+00
    0.27389E+06        -0.46578E+05         0.00000E+00
    0.00000E+00         0.00000E+00        -0.17180E+04
 
    0.30574E+05         0.27726E+06         0.00000E+00
    0.27726E+06        -0.41109E+05         0.00000E+00
    0.00000E+00         0.00000E+00        -0.21069E+04
 
    0.23006E+05         0.28062E+06         0.00000E+00
    0.28062E+06        -0.35883E+05         0.00000E+00
    0.00000E+00         0.00000E+00        -0.25752E+04
 
    0.15260E+05         0.28396E+06         0.00000E+00
    0.28396E+06        -0.30946E+05         0.00000E+00
    0.00000E+00         0.00000E+00        -0.31373E+04
 
    0.73064E+04         0.28729E+06         0.00000E+00
    0.28729E+06        -0.26350E+05         0.00000E+00
    0.00000E+00         0.00000E+00        -0.38087E+04
 
   -0.88253E+03         0.29063E+06         0.00000E+00
    0.29063E+06        -0.22152E+05         0.00000E+00
    0.00000E+00         0.00000E+00        -0.46068E+04
 
    0.28746E+06         0.50873E+04         0.00000E+00
    0.50873E+04        -0.28668E+06         0.00000E+00
    0.00000E+00         0.00000E+00         0.15675E+03
 
    0.28680E+06         0.15289E+05         0.00000E+00
    0.15289E+05        -0.28620E+06         0.00000E+00
    0.00000E+00         0.00000E+00         0.11861E+03
 
    0.28570E+06         0.25469E+05         0.00000E+00
    0.25469E+05        -0.28526E+06         0.00000E+00
    0.00000E+00         0.00000E+00         0.86504E+02
 
    0.28417E+06         0.35602E+05         0.00000E+00
    0.35602E+05        -0.28388E+06         0.00000E+00
    0.00000E+00         0.00000E+00         0.59793E+02
 
    0.28224E+06         0.45665E+05         0.00000E+00
    0.45665E+05        -0.28205E+06         0.00000E+00
    0.00000E+00         0.00000E+00         0.37850E+02
 
    0.27990E+06         0.55635E+05         0.00000E+00
    0.55635E+05        -0.27980E+06         0.00000E+00
    0.00000E+00         0.00000E+00         0.20096E+02
 
    0.27717E+06         0.65492E+05         0.00000E+00
    0.65492E+05        -0.27714E+06         0.00000E+00
    0.00000E+00         0.00000E+00         0.59949E+01
 
    0.27407E+06         0.75216E+05         0.00000E+00
    0.75216E+05        -0.27410E+06         0.00000E+00
    0.00000E+00         0.00000E+00        -0.49428E+01
 
    0.27061E+06         0.84789E+05         0.00000E+00
    0.84789E+05        -0.27068E+06         0.00000E+00
    0.00000E+00         0.00000E+00        -0.13159E+02
 
    0.26681E+06         0.94195E+05         0.00000E+00
    0.94195E+05        -0.26690E+06         0.00000E+00
    0.00000E+00         0.00000E+00        -0.19051E+02
 
    0.26268E+06         0.10342E+06         0.00000E+00
    0.10342E+06        -0.26279E+06         0.00000E+00
    0.00000E+00         0.00000E+00        -0.22974E+02
 
    0.25824E+06         0.11245E+06         0.00000E+00
    0.11245E+06        -0.25836E+06         0.00000E+00
    0.00000E+00         0.00000E+00        -0.25246E+02
 
    0.25350E+06         0.12126E+06         0.00000E+00
    0.12126E+06        -0.25364E+06         0.00000E+00
    0.00000E+00         0.00000E+00        -0.26150E+02
 
    0.24850E+06         0.12986E+06         0.00000E+00
    0.12986E+06        -0.24863E+06         0.00000E+00
    0.00000E+00         0.00000E+00        -0.25940E+02
 
    0.24323E+06         0.13824E+06         0.00000E+00
    0.13824E+06        -0.24336E+06         0.00000E+00
    0.00000E+00         0.00000E+00        -0.24845E+02
 
    0.23773E+06         0.14638E+06         0.00000E+00
    0.14638E+06        -0.23784E+06         0.00000E+00
    0.00000E+00         0.00000E+00        -0.23072E+02
 
    0.23200E+06         0.15427E+06         0.00000E+00
    0.15427E+06        -0.23211E+06         0.00000E+00
    0.00000E+00         0.00000E+00        -0.20811E+02
 
    0.22608E+06         0.16193E+06         0.00000E+00
    0.16193E+06        -0.22617E+06         0.00000E+00
    0.00000E+00         0.00000E+00        -0.18241E+02
 
    0.21996E+06         0.16933E+06         0.00000E+00
    0.16933E+06        -0.22004E+06         0.00000E+00
    0.00000E+00         0.00000E+00        -0.15533E+02
 
    0.21368E+06         0.17649E+06         0.00000E+00
    0.17649E+06        -0.21375E+06         0.00000E+00
    0.00000E+00         0.00000E+00        -0.12853E+02
 
    0.20725E+06         0.18339E+06         0.00000E+00
    0.18339E+06        -0.20731E+06         0.00000E+00
    0.00000E+00         0.00000E+00        -0.10372E+02
 
    0.20069E+06         0.19005E+06         0.00000E+00
    0.19005E+06        -0.20073E+06         0.00000E+00
    0.00000E+00         0.00000E+00        -0.82646E+01
 
    0.19401E+06         0.19645E+06         0.00000E+00
    0.19645E+06        -0.19404E+06         0.00000E+00
    0.00000E+00         0.00000E+00        -0.67217E+01
 
    0.18723E+06         0.20262E+06         0.00000E+00
    0.20262E+06        -0.18726E+06         0.00000E+00
    0.00000E+00         0.00000E+00        -0.59527E+01
 
    0.18036E+06         0.20855E+06         0.00000E+00
    0.20855E+06        -0.18039E+06         0.00000E+00
    0.00000E+00         0.00000E+00        -0.61953E+01
 
    0.17341E+06         0.21424E+06         0.00000E+00
    0.21424E+06        -0.17345E+06         0.00000E+00
    0.00000E+00         0.00000E+00        -0.77246E+01
 
    0.16641E+06         0.21971E+06         0.00000E+00
    0.21971E+06        -0.16647E+06         0.00000E+00
    0.00000E+00         0.00000E+00        -0.10864E+02
 
    0.15936E+06         0.22496E+06         0.00000E+00
    0.22496E+06        -0.15944E+06         0.00000E+00
    0.00000E+00         0.00000E+00        -0.15998E+02
 
    0.15227E+06         0.22999E+06         0.00000E+00
    0.22999E+06        -0.15239E+06         0.00000E+00
    0.00000E+00         0.00000E+00        -0.23588E+02
 
    0.14516E+06         0.23483E+06         0.00000E+00
    0.23483E+06        -0.14533E+06         0.00000E+00
    0.00000E+00         0.00000E+00        -0.34192E+02
 
    0.13803E+06         0.23949E+06         0.00000E+00
    0.23949E+06        -0.13827E+06         0.00000E+00
    0.00000E+00         0.00000E+00        -0.48486E+02
 
    0.13089E+06         0.24396E+06         0.00000E+00
    0.24396E+06        -0.13122E+06         0.00000E+00
    0.00000E+00         0.00000E+00        -0.67291E+02
 
    0.12374E+06         0.24827E+06         0.00000E+00
    0.24827E+06        -0.12420E+06         0.00000E+00
    0.00000E+00         0.00000E+00        -0.91609E+02
 
    0.11660E+06         0.25242E+06         0.00000E+00
    0.25242E+06        -0.11721E+06         0.00000E+00
    0.00000E+00         0.00000E+00        -0.12266E+03
 
    0.10946E+06         0.25643E+06         0.00000E+00
    0.25643E+06        -0.11026E+06         0.00000E+00
    0.00000E+00         0.00000E+00        -0.16192E+03
 
    0.10232E+06         0.26032E+06         0.00000E+00
    0.26032E+06        -0.10338E+06         0.00000E+00
    0.00000E+00         0.00000E+00        -0.21119E+03
 
    0.95194E+05         0.26409E+06         0.00000E+00
    0.26409E+06        -0.96557E+05         0.00000E+00
    0.00000E+00         0.00000E+00        -0.27267E+03
 
    0.88070E+05         0.26777E+06         0.00000E+00
    0.26777E+06        -0.89815E+05         0.00000E+00
    0.00000E+00         0.00000E+00        -0.34900E+03
 
    0.80947E+05         0.27136E+06         0.00000E+00
    0.27136E+06        -0.83164E+05         0.00000E+00
    0.00000E+00         0.00000E+00        -0.44338E+03
 
    0.73818E+05         0.27487E+06         0.00000E+00
    0.27487E+06        -0.76617E+05         0.00000E+00
    0.00000E+00         0.00000E+00        -0.55967E+03
 
    0.66676E+05         0.27834E+06         0.00000E+00
    0.27834E+06        -0.70189E+05         0.00000E+00
    0.00000E+00         0.00000E+00        -0.70248E+03
 
    0.59510E+05         0.28176E+06         0.00000E+00
    0.28176E+06        -0.63897E+05         0.00000E+00
    0.00000E+00         0.00000E+00        -0.87735E+03
 
    0.52306E+05         0.28515E+06         0.00000E+00
    0.28515E+06        -0.57761E+05         0.00000E+00
    0.00000E+00         0.00000E+00        -0.10908E+04
 
    0.45050E+05         0.28853E+06         0.00000E+00
    0.28853E+06        -0.51804E+05         0.00000E+00
    0.00000E+00         0.00000E+00        -0.13507E+04
 
    0.37722E+05         0.29190E+06         0.00000E+00
    0.29190E+06        -0.46053E+05         0.00000E+00
    0.00000E+00         0.00000E+00        -0.16661E+04
 
    0.30302E+05         0.29528E+06         0.00000E+00
    0.29528E+06        -0.40540E+05         0.00000E+00
    0.00000E+00         0.00000E+00        -0.20476E+04
 
    0.22764E+05         0.29869E+06         0.00000E+00
    0.29869E+06        -0.35301E+05         0.00000E+00
    0.00000E+00         0.00000E+00        -0.25074E+04
 
    0.15082E+05         0.30212E+06         0.00000E+00
    0.30212E+06        -0.30379E+05         0.00000E+00
    0.00000E+00         0.00000E+00        -0.30594E+04
 
    0.72246E+04         0.30560E+06         0.00000E+00
    0.30560E+06        -0.25821E+05         0.00000E+00
    0.00000E+00         0.00000E+00        -0.37192E+04
 
   -0.84077E+03         0.30912E+06         0.00000E+00
    0.30912E+06        -0.21679E+05         0.00000E+00
    0.00000E+00         0.00000E+00        -0.45040E+04
 
    0.31493E+06         0.59366E+04         0.00000E+00
    0.59366E+04        -0.31425E+06         0.00000E+00
    0.00000E+00         0.00000E+00         0.13595E+03
 
    0.31418E+06         0.17776E+05         0.00000E+00
    0.17776E+05        -0.31367E+06         0.00000E+00
    0.00000E+00         0.00000E+00         0.10261E+03
 
    0.31288E+06         0.29557E+05         0.00000E+00
    0.29557E+05        -0.31251E+06         0.00000E+00
    0.00000E+00         0.00000E+00         0.74008E+02
 
    0.31105E+06         0.41247E+05         0.00000E+00
    0.41247E+05        -0.31081E+06         0.00000E+00
    0.00000E+00         0.00000E+00         0.49808E+02
 
    0.30872E+06         0.52818E+05         0.00000E+00
    0.52818E+05        -0.30857E+06         0.00000E+00
    0.00000E+00         0.00000E+00         0.29649E+02
 
    0.30589E+06         0.64241E+05         0.00000E+00
    0.64241E+05        -0.30582E+06         0.00000E+00
    0.00000E+00         0.00000E+00         0.13158E+02
 
    0.30259E+06         0.75491E+05         0.00000E+00
    0.75491E+05        -0.30259E+06         0.00000E+00
    0.00000E+00         0.00000E+00        -0.36631E-01
 
    0.29883E+06         0.86544E+05         0.00000E+00
    0.86544E+05        -0.29889E+06         0.00000E+00
    0.00000E+00         0.00000E+00        -0.10299E+02
 
    0.29465E+06         0.97379E+05         0.00000E+00
    0.97379E+05        -0.29474E+06         0.00000E+00
    0.00000E+00         0.00000E+00        -0.17978E+02
 
    0.29006E+06         0.10798E+06         0.00000E+00
    0.10798E+06        -0.29018E+06         0.00000E+00
    0.00000E+00         0.00000E+00        -0.23402E+02
 
    0.28508E+06         0.11832E+06         0.00000E+00
    0.11832E+06        -0.28522E+06         0.00000E+00
    0.00000E+00         0.00000E+00        -0.26878E+02
 
    0.27975E+06         0.12839E+06         0.00000E+00
    0.12839E+06        -0.27989E+06         0.00000E+00
    0.00000E+00         0.00000E+00        -0.28691E+02
 
    0.27408E+06         0.13817E+06         0.00000E+00
    0.13817E+06        -0.27422E+06         0.00000E+00
    0.00000E+00         0.00000E+00        -0.29104E+02
 
    0.26809E+06         0.14766E+06         0.00000E+00
    0.14766E+06        -0.26823E+06         0.00000E+00
    0.00000E+00         0.00000E+00        -0.28359E+02
 
    0.26182E+06         0.15685E+06         0.00000E+00
    0.15685E+06        -0.26195E+06         0.00000E+00
    0.00000E+00         0.00000E+00        -0.26676E+02
 
    0.25528E+06         0.16572E+06         0.00000E+00
    0.16572E+06        -0.25540E+06         0.00000E+00
    0.00000E+00         0.00000E+00        -0.24262E+02
 
    0.24851E+06         0.17428E+06         0.00000E+00
    0.17428E+06        -0.24861E+06         0.00000E+00
    0.00000E+00         0.00000E+00        -0.21309E+02
 
    0.24152E+06         0.18251E+06         0.00000E+00
    0.18251E+06        -0.24161E+06         0.00000E+00
    0.00000E+00         0.00000E+00        -0.17995E+02
 
    0.23434E+06         0.19042E+06         0.00000E+00
    0.19042E+06        -0.23441E+06         0.00000E+00
    0.00000E+00         0.00000E+00        -0.14494E+02
 
    0.22699E+06         0.19800E+06         0.00000E+00
    0.19800E+06        -0.22704E+06         0.00000E+00
    0.00000E+00         0.00000E+00        -0.10975E+02
 
    0.21949E+06         0.20527E+06         0.00000E+00
    0.20527E+06        -0.21953E+06         0.00000E+00
    0.00000E+00         0.00000E+00        -0.76086E+01
 
    0.21187E+06         0.21221E+06         0.00000E+00
    0.21221E+06        -0.21189E+06         0.00000E+00
    0.00000E+00         0.00000E+00        -0.45706E+01
 
    0.20415E+06         0.21884E+06         0.00000E+00
    0.21884E+06        -0.20416E+06         0.00000E+00
    0.00000E+00         0.00000E+00        -0.20483E+01
 
    0.19635E+06         0.22516E+06         0.00000E+00
    0.22516E+06        -0.19635E+06         0.00000E+00
    0.00000E+00         0.00000E+00        -0.24697E+00
 
    0.18848E+06         0.23118E+06         0.00000E+00
    0.23118E+06        -0.18848E+06         0.00000E+00
    0.00000E+00         0.00000E+00         0.60295E+00
 
    0.18057E+06         0.23691E+06         0.00000E+00
    0.23691E+06        -0.18057E+06         0.00000E+00
    0.00000E+00         0.00000E+00         0.23699E+00
 
    0.17263E+06         0.24235E+06         0.00000E+00
    0.24235E+06        -0.17264E+06         0.00000E+00
    0.00000E+00         0.00000E+00        -0.16538E+01
 
    0.16468E+06         0.24753E+06         0.00000E+00
    0.24753E+06        -0.16471E+06         0.00000E+00
    0.00000E+00         0.00000E+00        -0.54351E+01
 
    0.15674E+06         0.25245E+06         0.00000E+00
    0.25245E+06        -0.15680E+06         0.00000E+00
    0.00000E+00         0.00000E+00        -0.11544E+02
 
    0.14882E+06         0.25712E+06         0.00000E+00
    0.25712E+06        -0.14892E+06         0.00000E+00
    0.00000E+00         0.00000E+00        -0.20509E+02
 
    0.14092E+06         0.26157E+06         0.00000E+00
    0.26157E+06        -0.14109E+06         0.00000E+00
    0.00000E+00         0.00000E+00        -0.32966E+02
 
    0.13307E+06         0.26580E+06         0.00000E+00
    0.26580E+06        -0.13332E+06         0.00000E+00
    0.00000E+00         0.00000E+00        -0.49691E+02
 
    0.12527E+06         0.26984E+06         0.00000E+00
    0.26984E+06        -0.12563E+06         0.00000E+00
    0.00000E+00         0.00000E+00        -0.71627E+02
 
    0.11753E+06         0.27370E+06         0.00000E+00
    0.27370E+06        -0.11803E+06         0.00000E+00
    0.00000E+00         0.00000E+00        -0.99920E+02
 
    0.10985E+06         0.27740E+06         0.00000E+00
    0.27740E+06        -0.11053E+06         0.00000E+00
    0.00000E+00         0.00000E+00        -0.13597E+03
 
    0.10224E+06         0.28096E+06         0.00000E+00
    0.28096E+06        -0.10315E+06         0.00000E+00
    0.00000E+00         0.00000E+00        -0.18147E+03
 
    0.94702E+05         0.28440E+06         0.00000E+00
    0.28440E+06        -0.95894E+05         0.00000E+00
    0.00000E+00         0.00000E+00        -0.23848E+03
 
    0.87230E+05         0.28774E+06         0.00000E+00
    0.28774E+06        -0.88778E+05         0.00000E+00
    0.00000E+00         0.00000E+00        -0.30951E+03
 
    0.79825E+05         0.29099E+06         0.00000E+00
    0.29099E+06        -0.81813E+05         0.00000E+00
    0.00000E+00         0.00000E+00        -0.39757E+03
 
    0.72481E+05         0.29419E+06         0.00000E+00
    0.29419E+06        -0.75012E+05         0.00000E+00
    0.00000E+00         0.00000E+00        -0.50629E+03
 
    0.65190E+05         0.29734E+06         0.00000E+00
    0.29734E+06        -0.68390E+05         0.00000E+00
    0.00000E+00         0.00000E+00        -0.64006E+03
 
    0.57942E+05         0.30047E+06         0.00000E+00
    0.30047E+06        -0.61963E+05         0.00000E+00
    0.00000E+00         0.00000E+00        -0.80410E+03
 
    0.50724E+05         0.30360E+06         0.00000E+00
    0.30360E+06        -0.55747E+05         0.00000E+00
    0.00000E+00         0.00000E+00        -0.10046E+04
 
    0.43519E+05         0.30675E+06         0.00000E+00
    0.30675E+06        -0.49764E+05         0.00000E+00
    0.00000E+00         0.00000E+00        -0.12490E+04
 
    0.36308E+05         0.30993E+06         0.00000E+00
    0.30993E+06        -0.44037E+05         0.00000E+00
    0.00000E+00         0.00000E+00        -0.15458E+04
 
    0.29069E+05         0.31317E+06         0.00000E+00
    0.31317E+06        -0.38594E+05         0.00000E+00
    0.00000E+00         0.00000E+00        -0.19051E+04
 
    0.21773E+05         0.31648E+06         0.00000E+00
    0.31648E+06        -0.33467E+05         0.00000E+00
    0.00000E+00         0.00000E+00        -0.23387E+04
 
    0.14393E+05         0.31988E+06         0.00000E+00
    0.31988E+06        -0.28691E+05         0.00000E+00
    0.00000E+00         0.00000E+00        -0.28595E+04
 
    0.68951E+04         0.32337E+06         0.00000E+00
    0.32337E+06        -0.24308E+05         0.00000E+00
    0.00000E+00         0.00000E+00        -0.34826E+04
 
   -0.75726E+03         0.32699E+06         0.00000E+00
    0.32699E+06        -0.20364E+05         0.00000E+00
    0.00000E+00         0.00000E+00        -0.42242E+04
 
    0.34746E+06         0.70032E+04         0.00000E+00
    0.70032E+04        -0.34602E+06         0.00000E+00
    0.00000E+00         0.00000E+00         0.28865E+03
 
    0.34643E+06         0.20872E+05         0.00000E+00
    0.20872E+05        -0.34527E+06         0.00000E+00
    0.00000E+00         0.00000E+00         0.23192E+03
 
    0.34474E+06         0.34625E+05         0.00000E+00
    0.34625E+05        -0.34383E+06         0.00000E+00
    0.00000E+00         0.00000E+00         0.18278E+03
 
    0.34240E+06         0.48224E+05         0.00000E+00
    0.48224E+05        -0.34170E+06         0.00000E+00
    0.00000E+00         0.00000E+00         0.14069E+03
 
    0.33944E+06         0.61630E+05         0.00000E+00
    0.61630E+05        -0.33891E+06         0.00000E+00
    0.00000E+00         0.00000E+00         0.10510E+03
 
    0.33588E+06         0.74811E+05         0.00000E+00
    0.74811E+05        -0.33550E+06         0.00000E+00
    0.00000E+00         0.00000E+00         0.75379E+02
 
    0.33176E+06         0.87736E+05         0.00000E+00
    0.87736E+05        -0.33150E+06         0.00000E+00
    0.00000E+00         0.00000E+00         0.50943E+02
 
    0.32709E+06         0.10038E+06         0.00000E+00
    0.10038E+06        -0.32694E+06         0.00000E+00
    0.00000E+00         0.00000E+00         0.31201E+02
 
    0.32193E+06         0.11270E+06         0.00000E+00
    0.11270E+06        -0.32185E+06         0.00000E+00
    0.00000E+00         0.00000E+00         0.15594E+02
 
    0.31628E+06         0.12470E+06         0.00000E+00
    0.12470E+06        -0.31626E+06         0.00000E+00
    0.00000E+00         0.00000E+00         0.35954E+01
 
    0.31019E+06         0.13635E+06         0.00000E+00
    0.13635E+06        -0.31022E+06         0.00000E+00
    0.00000E+00         0.00000E+00        -0.52818E+01
 
    0.30368E+06         0.14762E+06         0.00000E+00
    0.14762E+06        -0.30374E+06         0.00000E+00
    0.00000E+00         0.00000E+00        -0.11485E+02
 
    0.29680E+06         0.15851E+06         0.00000E+00
    0.15851E+06        -0.29688E+06         0.00000E+00
    0.00000E+00         0.00000E+00        -0.15420E+02
 
    0.28956E+06         0.16901E+06         0.00000E+00
    0.16901E+06        -0.28965E+06         0.00000E+00
    0.00000E+00         0.00000E+00        -0.17457E+02
 
    0.28201E+06         0.17910E+06         0.00000E+00
    0.17910E+06        -0.28210E+06         0.00000E+00
    0.00000E+00         0.00000E+00        -0.17927E+02
 
    0.27417E+06         0.18878E+06         0.00000E+00
    0.18878E+06        -0.27425E+06         0.00000E+00
    0.00000E+00         0.00000E+00        -0.17133E+02
 
    0.26607E+06         0.19805E+06         0.00000E+00
    0.19805E+06        -0.26615E+06         0.00000E+00
    0.00000E+00         0.00000E+00        -0.15345E+02
 
    0.25775E+06         0.20689E+06         0.00000E+00
    0.20689E+06        -0.25782E+06         0.00000E+00
    0.00000E+00         0.00000E+00        -0.12812E+02
 
    0.24924E+06         0.21532E+06         0.00000E+00
    0.21532E+06        -0.24929E+06         0.00000E+00
    0.00000E+00         0.00000E+00        -0.97633E+01
 
    0.24057E+06         0.22333E+06         0.00000E+00
    0.22333E+06        -0.24060E+06         0.00000E+00
    0.00000E+00         0.00000E+00        -0.64120E+01
 
    0.23176E+06         0.23093E+06         0.00000E+00
    0.23093E+06        -0.23177E+06         0.00000E+00
    0.00000E+00         0.00000E+00        -0.29637E+01
 
    0.22284E+06         0.23811E+06         0.00000E+00
    0.23811E+06        -0.22284E+06         0.00000E+00
    0.00000E+00         0.00000E+00         0.38019E+00
 
    0.21385E+06         0.24490E+06         0.00000E+00
    0.24490E+06        -0.21383E+06         0.00000E+00
    0.00000E+00         0.00000E+00         0.34156E+01
 
    0.20481E+06         0.25130E+06         0.00000E+00
    0.25130E+06        -0.20478E+06         0.00000E+00
    0.00000E+00         0.00000E+00         0.59291E+01
 
    0.19573E+06         0.25732E+06         0.00000E+00
    0.25732E+06        -0.19569E+06         0.00000E+00
    0.00000E+00         0.00000E+00         0.76908E+01
 
    0.18666E+06         0.26297E+06         0.00000E+00
    0.26297E+06        -0.18661E+06         0.00000E+00
    0.00000E+00         0.00000E+00         0.84449E+01
 
    0.17760E+06         0.26827E+06         0.00000E+00
    0.26827E+06        -0.17756E+06         0.00000E+00
    0.00000E+00         0.00000E+00         0.79006E+01
 
    0.16858E+06         0.27324E+06         0.00000E+00
    0.27324E+06        -0.16856E+06         0.00000E+00
    0.00000E+00         0.00000E+00         0.57200E+01
 
    0.15963E+06         0.27789E+06         0.00000E+00
    0.27789E+06        -0.15962E+06         0.00000E+00
    0.00000E+00         0.00000E+00         0.15043E+01
 
    0.15075E+06         0.28224E+06         0.00000E+00
    0.28224E+06        -0.15078E+06         0.00000E+00
    0.00000E+00         0.00000E+00        -0.52220E+01
 
    0.14197E+06         0.28630E+06         0.00000E+00
    0.28630E+06        -0.14205E+06         0.00000E+00
    0.00000E+00         0.00000E+00        -0.15031E+02
 
    0.13330E+06         0.29012E+06         0.00000E+00
    0.29012E+06        -0.13344E+06         0.00000E+00
    0.00000E+00         0.00000E+00        -0.28615E+02
 
    0.12475E+06         0.29369E+06         0.00000E+00
    0.29369E+06        -0.12499E+06         0.00000E+00
    0.00000E+00         0.00000E+00        -0.46813E+02
 
    0.11634E+06         0.29706E+06         0.00000E+00
    0.29706E+06        -0.11669E+06         0.00000E+00
    0.00000E+00         0.00000E+00        -0.70646E+02
 
    0.10807E+06         0.30023E+06         0.00000E+00
    0.30023E+06        -0.10858E+06         0.00000E+00
    0.00000E+00         0.00000E+00        -0.10135E+03
 
    0.99948E+05         0.30325E+06         0.00000E+00
    0.30325E+06        -0.10065E+06         0.00000E+00
    0.00000E+00         0.00000E+00        -0.14045E+03
 
    0.91983E+05         0.30613E+06         0.00000E+00
    0.30613E+06        -0.92931E+05         0.00000E+00
    0.00000E+00         0.00000E+00        -0.18976E+03
 
    0.84173E+05         0.30890E+06         0.00000E+00
    0.30890E+06        -0.85431E+05         0.00000E+00
    0.00000E+00         0.00000E+00        -0.25151E+03
 
    0.76520E+05         0.31159E+06         0.00000E+00
    0.31159E+06        -0.78162E+05         0.00000E+00
    0.00000E+00         0.00000E+00        -0.32838E+03
 
    0.69019E+05         0.31422E+06         0.00000E+00
    0.31422E+06        -0.71137E+05         0.00000E+00
    0.00000E+00         0.00000E+00        -0.42363E+03
 
    0.61664E+05         0.31683E+06         0.00000E+00
    0.31683E+06        -0.64370E+05         0.00000E+00
    0.00000E+00         0.00000E+00        -0.54113E+03
 
    0.54446E+05         0.31944E+06         0.00000E+00
    0.31944E+06        -0.57874E+05         0.00000E+00
    0.00000E+00         0.00000E+00        -0.68556E+03
 
    0.47353E+05         0.32207E+06         0.00000E+00
    0.32207E+06        -0.51665E+05         0.00000E+00
    0.00000E+00         0.00000E+00        -0.86247E+03
 
    0.40368E+05         0.32476E+06         0.00000E+00
    0.32476E+06        -0.45760E+05         0.00000E+00
    0.00000E+00         0.00000E+00        -0.10784E+04
 
    0.33471E+05         0.32753E+06         0.00000E+00
    0.32753E+06        -0.40177E+05         0.00000E+00
    0.00000E+00         0.00000E+00        -0.13412E+04
 
    0.26641E+05         0.33041E+06         0.00000E+00
    0.33041E+06        -0.34940E+05         0.00000E+00
    0.00000E+00         0.00000E+00        -0.16598E+04
 
    0.19849E+05         0.33342E+06         0.00000E+00
    0.33342E+06        -0.30072E+05         0.00000E+00
    0.00000E+00         0.00000E+00        -0.20446E+04
 
    0.13065E+05         0.33658E+06         0.00000E+00
    0.33658E+06        -0.25603E+05         0.00000E+00
    0.00000E+00         0.00000E+00        -0.25076E+04
 
    0.62540E+04         0.33992E+06         0.00000E+00
    0.33992E+06        -0.21565E+05         0.00000E+00
    0.00000E+00         0.00000E+00        -0.30622E+04
 
   -0.62230E+03         0.34345E+06         0.00000E+00
    0.34345E+06        -0.17992E+05         0.00000E+00
    0.00000E+00         0.00000E+00        -0.37229E+04
 
    0.38640E+06         0.83256E+04         0.00000E+00
    0.83256E+04        -0.38279E+06         0.00000E+00
    0.00000E+00         0.00000E+00         0.72298E+03
 
    0.38482E+06         0.24677E+05         0.00000E+00
    0.24677E+05        -0.38184E+06         0.00000E+00
    0.00000E+00         0.00000E+00         0.59673E+03
 
    0.38243E+06         0.40830E+05         0.00000E+00
    0.40830E+05        -0.37999E+06         0.00000E+00
    0.00000E+00         0.00000E+00         0.48781E+03
 
    0.37927E+06         0.56736E+05         0.00000E+00
    0.56736E+05        -0.37730E+06         0.00000E+00
    0.00000E+00         0.00000E+00         0.39465E+03
 
    0.37537E+06         0.72350E+05         0.00000E+00
    0.72350E+05        -0.37379E+06         0.00000E+00
    0.00000E+00         0.00000E+00         0.31563E+03
 
    0.37076E+06         0.87632E+05         0.00000E+00
    0.87632E+05        -0.36952E+06         0.00000E+00
    0.00000E+00         0.00000E+00         0.24920E+03
 
    0.36549E+06         0.10254E+06         0.00000E+00
    0.10254E+06        -0.36452E+06         0.00000E+00
    0.00000E+00         0.00000E+00         0.19387E+03
 
    0.35959E+06         0.11706E+06         0.00000E+00
    0.11706E+06        -0.35885E+06         0.00000E+00
    0.00000E+00         0.00000E+00         0.14825E+03
 
    0.35311E+06         0.13114E+06         0.00000E+00
    0.13114E+06        -0.35255E+06         0.00000E+00
    0.00000E+00         0.00000E+00         0.11105E+03
 
    0.34607E+06         0.14476E+06         0.00000E+00
    0.14476E+06        -0.34566E+06         0.00000E+00
    0.00000E+00         0.00000E+00         0.81114E+02
 
    0.33853E+06         0.15791E+06         0.00000E+00
    0.15791E+06        -0.33824E+06         0.00000E+00
    0.00000E+00         0.00000E+00         0.57406E+02
 
    0.33052E+06         0.17057E+06         0.00000E+00
    0.17057E+06        -0.33032E+06         0.00000E+00
    0.00000E+00         0.00000E+00         0.38993E+02
 
    0.32208E+06         0.18271E+06         0.00000E+00
    0.18271E+06        -0.32196E+06         0.00000E+00
    0.00000E+00         0.00000E+00         0.25054E+02
 
    0.31326E+06         0.19434E+06         0.00000E+00
    0.19434E+06        -0.31319E+06         0.00000E+00
    0.00000E+00         0.00000E+00         0.14865E+02
 
    0.30410E+06         0.20543E+06         0.00000E+00
    0.20543E+06        -0.30406E+06         0.00000E+00
    0.00000E+00         0.00000E+00         0.77929E+01
 
    0.29463E+06         0.21599E+06         0.00000E+00
    0.21599E+06        -0.29462E+06         0.00000E+00
    0.00000E+00         0.00000E+00         0.32845E+01
 
    0.28490E+06         0.22601E+06         0.00000E+00
    0.22601E+06        -0.28490E+06         0.00000E+00
    0.00000E+00         0.00000E+00         0.85585E+00
 
    0.27495E+06         0.23550E+06         0.00000E+00
    0.23550E+06        -0.27495E+06         0.00000E+00
    0.00000E+00         0.00000E+00         0.84221E-01
 
    0.26480E+06         0.24445E+06         0.00000E+00
    0.24445E+06        -0.26480E+06         0.00000E+00
    0.00000E+00         0.00000E+00         0.59799E+00
 
    0.25451E+06         0.25286E+06         0.00000E+00
    0.25286E+06        -0.25450E+06         0.00000E+00
    0.00000E+00         0.00000E+00         0.20680E+01
 
    0.24410E+06         0.26075E+06         0.00000E+00
    0.26075E+06        -0.24408E+06         0.00000E+00
    0.00000E+00         0.00000E+00         0.41988E+01
 
    0.23362E+06         0.26813E+06         0.00000E+00
    0.26813E+06        -0.23359E+06         0.00000E+00
    0.00000E+00         0.00000E+00         0.67204E+01
 
    0.22309E+06         0.27500E+06         0.00000E+00
    0.27500E+06        -0.22304E+06         0.00000E+00
    0.00000E+00         0.00000E+00         0.93797E+01
 
    0.21255E+06         0.28139E+06         0.00000E+00
    0.28139E+06        -0.21249E+06         0.00000E+00
    0.00000E+00         0.00000E+00         0.11932E+02
 
    0.20203E+06         0.28729E+06         0.00000E+00
    0.28729E+06        -0.20196E+06         0.00000E+00
    0.00000E+00         0.00000E+00         0.14134E+02
 
    0.19156E+06         0.29274E+06         0.00000E+00
    0.29274E+06        -0.19149E+06         0.00000E+00
    0.00000E+00         0.00000E+00         0.15731E+02
 
    0.18117E+06         0.29776E+06         0.00000E+00
    0.29776E+06        -0.18109E+06         0.00000E+00
    0.00000E+00         0.00000E+00         0.16451E+02
 
    0.17089E+06         0.30235E+06         0.00000E+00
    0.30235E+06        -0.17081E+06         0.00000E+00
    0.00000E+00         0.00000E+00         0.15992E+02
 
    0.16074E+06         0.30655E+06         0.00000E+00
    0.30655E+06        -0.16067E+06         0.00000E+00
    0.00000E+00         0.00000E+00         0.14009E+02
 
    0.15074E+06         0.31038E+06         0.00000E+00
    0.31038E+06        -0.15069E+06         0.00000E+00
    0.00000E+00         0.00000E+00         0.10101E+02
 
    0.14093E+06         0.31387E+06         0.00000E+00
    0.31387E+06        -0.14091E+06         0.00000E+00
    0.00000E+00         0.00000E+00         0.37942E+01
 
    0.13130E+06         0.31704E+06         0.00000E+00
    0.31704E+06        -0.13133E+06         0.00000E+00
    0.00000E+00         0.00000E+00        -0.54793E+01
 
    0.12190E+06         0.31993E+06         0.00000E+00
    0.31993E+06        -0.12199E+06         0.00000E+00
    0.00000E+00         0.00000E+00        -0.18402E+02
 
    0.11272E+06         0.32256E+06         0.00000E+00
    0.32256E+06        -0.11290E+06         0.00000E+00
    0.00000E+00         0.00000E+00        -0.35802E+02
 
    0.10379E+06         0.32496E+06         0.00000E+00
    0.32496E+06        -0.10409E+06         0.00000E+00
    0.00000E+00         0.00000E+00        -0.58680E+02
 
    0.95116E+05         0.32717E+06         0.00000E+00
    0.32717E+06        -0.95557E+05         0.00000E+00
    0.00000E+00         0.00000E+00        -0.88255E+02
 
    0.86704E+05         0.32922E+06         0.00000E+00
    0.32922E+06        -0.87334E+05         0.00000E+00
    0.00000E+00         0.00000E+00        -0.12601E+03
 
    0.78561E+05         0.33115E+06         0.00000E+00
    0.33115E+06        -0.79430E+05         0.00000E+00
    0.00000E+00         0.00000E+00        -0.17373E+03
 
    0.70691E+05         0.33299E+06         0.00000E+00
    0.33299E+06        -0.71859E+05         0.00000E+00
    0.00000E+00         0.00000E+00        -0.23359E+03
 
    0.63093E+05         0.33477E+06         0.00000E+00
    0.33477E+06        -0.64634E+05         0.00000E+00
    0.00000E+00         0.00000E+00        -0.30821E+03
 
    0.55764E+05         0.33654E+06         0.00000E+00
    0.33654E+06        -0.57768E+05         0.00000E+00
    0.00000E+00         0.00000E+00        -0.40076E+03
 
    0.48697E+05         0.33833E+06         0.00000E+00
    0.33833E+06        -0.51272E+05         0.00000E+00
    0.00000E+00         0.00000E+00        -0.51500E+03
 
    0.41883E+05         0.34017E+06         0.00000E+00
    0.34017E+06        -0.45160E+05         0.00000E+00
    0.00000E+00         0.00000E+00        -0.65547E+03
 
    0.35307E+05         0.34211E+06         0.00000E+00
    0.34211E+06        -0.39445E+05         0.00000E+00
    0.00000E+00         0.00000E+00        -0.82752E+03
 
    0.28952E+05         0.34417E+06         0.00000E+00
    0.34417E+06        -0.34139E+05         0.00000E+00
    0.00000E+00         0.00000E+00        -0.10375E+04
 
    0.22795E+05         0.34640E+06         0.00000E+00
    0.34640E+06        -0.29259E+05         0.00000E+00
    0.00000E+00         0.00000E+00        -0.12927E+04
 
    0.16812E+05         0.34882E+06         0.00000E+00
    0.34882E+06        -0.24821E+05         0.00000E+00
    0.00000E+00         0.00000E+00        -0.16018E+04
 
    0.10970E+05         0.35148E+06         0.00000E+00
    0.35148E+06        -0.20843E+05         0.00000E+00
    0.00000E+00         0.00000E+00        -0.19745E+04
 
    0.52373E+04         0.35439E+06         0.00000E+00
    0.35439E+06        -0.17347E+05         0.00000E+00
    0.00000E+00         0.00000E+00        -0.24219E+04
 
   -0.42674E+03         0.35758E+06         0.00000E+00
    0.35758E+06        -0.14354E+05         0.00000E+00
    0.00000E+00         0.00000E+00        -0.29561E+04
 
    0.43335E+06         0.99382E+04         0.00000E+00
    0.99382E+04        -0.42544E+06         0.00000E+00
    0.00000E+00         0.00000E+00         0.15826E+04
 
    0.43080E+06         0.29278E+05         0.00000E+00
    0.29278E+05        -0.42422E+06         0.00000E+00
    0.00000E+00         0.00000E+00         0.13168E+04
 
    0.42730E+06         0.48302E+05         0.00000E+00
    0.48302E+05        -0.42186E+06         0.00000E+00
    0.00000E+00         0.00000E+00         0.10886E+04
 
    0.42290E+06         0.66953E+05         0.00000E+00
    0.66953E+05        -0.41843E+06         0.00000E+00
    0.00000E+00         0.00000E+00         0.89413E+03
 
    0.41764E+06         0.85177E+05         0.00000E+00
    0.85177E+05        -0.41399E+06         0.00000E+00
    0.00000E+00         0.00000E+00         0.72943E+03
 
    0.41156E+06         0.10293E+06         0.00000E+00
    0.10293E+06        -0.40861E+06         0.00000E+00
    0.00000E+00         0.00000E+00         0.59086E+03
 
    0.40472E+06         0.12016E+06         0.00000E+00
    0.12016E+06        -0.40234E+06         0.00000E+00
    0.00000E+00         0.00000E+00         0.47502E+03
 
    0.39716E+06         0.13684E+06         0.00000E+00
    0.13684E+06        -0.39527E+06         0.00000E+00
    0.00000E+00         0.00000E+00         0.37881E+03
 
    0.38894E+06         0.15294E+06         0.00000E+00
    0.15294E+06        -0.38745E+06         0.00000E+00
    0.00000E+00         0.00000E+00         0.29948E+03
 
    0.38011E+06         0.16843E+06         0.00000E+00
    0.16843E+06        -0.37894E+06         0.00000E+00
    0.00000E+00         0.00000E+00         0.23454E+03
 
    0.37071E+06         0.18329E+06         0.00000E+00
    0.18329E+06        -0.36980E+06         0.00000E+00
    0.00000E+00         0.00000E+00         0.18184E+03
 
    0.36080E+06         0.19750E+06         0.00000E+00
    0.19750E+06        -0.36010E+06         0.00000E+00
    0.00000E+00         0.00000E+00         0.13946E+03
 
    0.35042E+06         0.21104E+06         0.00000E+00
    0.21104E+06        -0.34990E+06         0.00000E+00
    0.00000E+00         0.00000E+00         0.10578E+03
 
    0.33964E+06         0.22391E+06         0.00000E+00
    0.22391E+06        -0.33924E+06         0.00000E+00
    0.00000E+00         0.00000E+00         0.79356E+02
 
    0.32849E+06         0.23610E+06         0.00000E+00
    0.23610E+06        -0.32820E+06         0.00000E+00
    0.00000E+00         0.00000E+00         0.58976E+02
 
    0.31703E+06         0.24761E+06         0.00000E+00
    0.24761E+06        -0.31681E+06         0.00000E+00
    0.00000E+00         0.00000E+00         0.43594E+02
 
    0.30531E+06         0.25843E+06         0.00000E+00
    0.25843E+06        -0.30515E+06         0.00000E+00
    0.00000E+00         0.00000E+00         0.32318E+02
 
    0.29337E+06         0.26857E+06         0.00000E+00
    0.26857E+06        -0.29325E+06         0.00000E+00
    0.00000E+00         0.00000E+00         0.24388E+02
 
    0.28126E+06         0.27804E+06         0.00000E+00
    0.27804E+06        -0.28116E+06         0.00000E+00
    0.00000E+00         0.00000E+00         0.19160E+02
 
    0.26902E+06         0.28683E+06         0.00000E+00
    0.28683E+06        -0.26894E+06         0.00000E+00
    0.00000E+00         0.00000E+00         0.16082E+02
 
    0.25670E+06         0.29497E+06         0.00000E+00
    0.29497E+06        -0.25663E+06         0.00000E+00
    0.00000E+00         0.00000E+00         0.14686E+02
 
    0.24434E+06         0.30247E+06         0.00000E+00
    0.30247E+06        -0.24427E+06         0.00000E+00
    0.00000E+00         0.00000E+00         0.14565E+02
 
    0.23199E+06         0.30934E+06         0.00000E+00
    0.30934E+06        -0.23191E+06         0.00000E+00
    0.00000E+00         0.00000E+00         0.15367E+02
 
    0.21968E+06         0.31560E+06         0.00000E+00
    0.31560E+06        -0.21959E+06         0.00000E+00
    0.00000E+00         0.00000E+00         0.16781E+02
 
    0.20745E+06         0.32127E+06         0.00000E+00
    0.32127E+06        -0.20736E+06         0.00000E+00
    0.00000E+00         0.00000E+00         0.18521E+02
 
    0.19534E+06         0.32638E+06         0.00000E+00
    0.32638E+06        -0.19524E+06         0.00000E+00
    0.00000E+00         0.00000E+00         0.20322E+02
 
    0.18338E+06         0.33094E+06         0.00000E+00
    0.33094E+06        -0.18327E+06         0.00000E+00
    0.00000E+00         0.00000E+00         0.21926E+02
 
    0.17161E+06         0.33499E+06         0.00000E+00
    0.33499E+06        -0.17149E+06         0.00000E+00
    0.00000E+00         0.00000E+00         0.23071E+02
 
    0.16006E+06         0.33855E+06         0.00000E+00
    0.33855E+06        -0.15994E+06         0.00000E+00
    0.00000E+00         0.00000E+00         0.23480E+02
 
    0.14875E+06         0.34166E+06         0.00000E+00
    0.34166E+06        -0.14864E+06         0.00000E+00
    0.00000E+00         0.00000E+00         0.22852E+02
 
    0.13773E+06         0.34434E+06         0.00000E+00
    0.34434E+06        -0.13762E+06         0.00000E+00
    0.00000E+00         0.00000E+00         0.20843E+02
 
    0.12700E+06         0.34664E+06         0.00000E+00
    0.34664E+06        -0.12692E+06         0.00000E+00
    0.00000E+00         0.00000E+00         0.17060E+02
 
    0.11661E+06         0.34857E+06         0.00000E+00
    0.34857E+06        -0.11655E+06         0.00000E+00
    0.00000E+00         0.00000E+00         0.11034E+02
 
    0.10656E+06         0.35020E+06         0.00000E+00
    0.35020E+06        -0.10655E+06         0.00000E+00
    0.00000E+00         0.00000E+00         0.22091E+01
 
    0.96880E+05         0.35154E+06         0.00000E+00
    0.35154E+06        -0.96930E+05         0.00000E+00
    0.00000E+00         0.00000E+00        -0.10085E+02
 
    0.87585E+05         0.35265E+06         0.00000E+00
    0.35265E+06        -0.87718E+05         0.00000E+00
    0.00000E+00         0.00000E+00        -0.26660E+02
 
    0.78688E+05         0.35356E+06         0.00000E+00
    0.35356E+06        -0.78930E+05         0.00000E+00
    0.00000E+00         0.00000E+00        -0.48497E+02
 
    0.70201E+05         0.35433E+06         0.00000E+00
    0.35433E+06        -0.70585E+05         0.00000E+00
    0.00000E+00         0.00000E+00        -0.76789E+02
 
    0.62132E+05         0.35498E+06         0.00000E+00
    0.35498E+06        -0.62697E+05         0.00000E+00
    0.00000E+00         0.00000E+00        -0.11298E+03
 
    0.54487E+05         0.35557E+06         0.00000E+00
    0.35557E+06        -0.55281E+05         0.00000E+00
    0.00000E+00         0.00000E+00        -0.15882E+03
 
    0.47267E+05         0.35615E+06         0.00000E+00
    0.35615E+06        -0.48349E+05         0.00000E+00
    0.00000E+00         0.00000E+00        -0.21643E+03
 
    0.40471E+05         0.35676E+06         0.00000E+00
    0.35676E+06        -0.41912E+05         0.00000E+00
    0.00000E+00         0.00000E+00        -0.28833E+03
 
    0.34093E+05         0.35744E+06         0.00000E+00
    0.35744E+06        -0.35981E+05         0.00000E+00
    0.00000E+00         0.00000E+00        -0.37758E+03
 
    0.28124E+05         0.35825E+06         0.00000E+00
    0.35825E+06        -0.30563E+05         0.00000E+00
    0.00000E+00         0.00000E+00        -0.48781E+03
 
    0.22551E+05         0.35923E+06         0.00000E+00
    0.35923E+06        -0.25667E+05         0.00000E+00
    0.00000E+00         0.00000E+00        -0.62331E+03
 
    0.17355E+05         0.36043E+06         0.00000E+00
    0.36043E+06        -0.21301E+05         0.00000E+00
    0.00000E+00         0.00000E+00        -0.78913E+03
 
    0.12515E+05         0.36189E+06         0.00000E+00
    0.36189E+06        -0.17471E+05         0.00000E+00
    0.00000E+00         0.00000E+00        -0.99116E+03
 
    0.80042E+04         0.36366E+06         0.00000E+00
    0.36366E+06        -0.14185E+05         0.00000E+00
    0.00000E+00         0.00000E+00        -0.12362E+04
 
    0.37900E+04         0.36577E+06         0.00000E+00
    0.36577E+06        -0.11449E+05         0.00000E+00
    0.00000E+00         0.00000E+00        -0.15318E+04
 
   -0.16351E+03         0.36827E+06         0.00000E+00
    0.36827E+06        -0.92696E+04         0.00000E+00
    0.00000E+00         0.00000E+00        -0.18866E+04
 
    0.49012E+06         0.11865E+05         0.00000E+00
    0.11865E+05        -0.47486E+06         0.00000E+00
    0.00000E+00         0.00000E+00         0.30515E+04
 
    0.48601E+06         0.34726E+05         0.00000E+00
    0.34726E+05        -0.47329E+06         0.00000E+00
    0.00000E+00         0.00000E+00         0.25453E+04
 
    0.48083E+06         0.57114E+05         0.00000E+00
    0.57114E+05        -0.47027E+06         0.00000E+00
    0.00000E+00         0.00000E+00         0.21125E+04
 
    0.47463E+06         0.78960E+05         0.00000E+00
    0.78960E+05        -0.46590E+06         0.00000E+00
    0.00000E+00         0.00000E+00         0.17446E+04
 
    0.46745E+06         0.10020E+06         0.00000E+00
    0.10020E+06        -0.46029E+06         0.00000E+00
    0.00000E+00         0.00000E+00         0.14336E+04
 
    0.45937E+06         0.12079E+06         0.00000E+00
    0.12079E+06        -0.45351E+06         0.00000E+00
    0.00000E+00         0.00000E+00         0.11722E+04
 
    0.45044E+06         0.14068E+06         0.00000E+00
    0.14068E+06        -0.44567E+06         0.00000E+00
    0.00000E+00         0.00000E+00         0.95346E+03
 
    0.44072E+06         0.15983E+06         0.00000E+00
    0.15983E+06        -0.43686E+06         0.00000E+00
    0.00000E+00         0.00000E+00         0.77141E+03
 
    0.43027E+06         0.17821E+06         0.00000E+00
    0.17821E+06        -0.42716E+06         0.00000E+00
    0.00000E+00         0.00000E+00         0.62061E+03
 
    0.41915E+06         0.19579E+06         0.00000E+00
    0.19579E+06        -0.41667E+06         0.00000E+00
    0.00000E+00         0.00000E+00         0.49632E+03
 
    0.40742E+06         0.21254E+06         0.00000E+00
    0.21254E+06        -0.40545E+06         0.00000E+00
    0.00000E+00         0.00000E+00         0.39442E+03
 
    0.39515E+06         0.22846E+06         0.00000E+00
    0.22846E+06        -0.39360E+06         0.00000E+00
    0.00000E+00         0.00000E+00         0.31134E+03
 
    0.38240E+06         0.24354E+06         0.00000E+00
    0.24354E+06        -0.38118E+06         0.00000E+00
    0.00000E+00         0.00000E+00         0.24402E+03
 
    0.36922E+06         0.25776E+06         0.00000E+00
    0.25776E+06        -0.36827E+06         0.00000E+00
    0.00000E+00         0.00000E+00         0.18983E+03
 
    0.35568E+06         0.27112E+06         0.00000E+00
    0.27112E+06        -0.35495E+06         0.00000E+00
    0.00000E+00         0.00000E+00         0.14656E+03
 
    0.34183E+06         0.28362E+06         0.00000E+00
    0.28362E+06        -0.34127E+06         0.00000E+00
    0.00000E+00         0.00000E+00         0.11233E+03
 
    0.32773E+06         0.29526E+06         0.00000E+00
    0.29526E+06        -0.32730E+06         0.00000E+00
    0.00000E+00         0.00000E+00         0.85549E+02
 
    0.31343E+06         0.30607E+06         0.00000E+00
    0.30607E+06        -0.31311E+06         0.00000E+00
    0.00000E+00         0.00000E+00         0.64902E+02
 
    0.29899E+06         0.31603E+06         0.00000E+00
    0.31603E+06        -0.29875E+06         0.00000E+00
    0.00000E+00         0.00000E+00         0.49276E+02
 
    0.28447E+06         0.32517E+06         0.00000E+00
    0.32517E+06        -0.28428E+06         0.00000E+00
    0.00000E+00         0.00000E+00         0.37748E+02
 
    0.26991E+06         0.33350E+06         0.00000E+00
    0.33350E+06        -0.26977E+06         0.00000E+00
    0.00000E+00         0.00000E+00         0.29550E+02
 
    0.25537E+06         0.34104E+06         0.00000E+00
    0.34104E+06        -0.25525E+06         0.00000E+00
    0.00000E+00         0.00000E+00         0.24048E+02
 
    0.24089E+06         0.34782E+06         0.00000E+00
    0.34782E+06        -0.24079E+06         0.00000E+00
    0.00000E+00         0.00000E+00         0.20714E+02
 
    0.22652E+06         0.35385E+06         0.00000E+00
    0.35385E+06        -0.22642E+06         0.00000E+00
    0.00000E+00         0.00000E+00         0.19112E+02
 
    0.21230E+06         0.35916E+06         0.00000E+00
    0.35916E+06        -0.21221E+06         0.00000E+00
    0.00000E+00         0.00000E+00         0.18880E+02
 
    0.19829E+06         0.36377E+06         0.00000E+00
    0.36377E+06        -0.19819E+06         0.00000E+00
    0.00000E+00         0.00000E+00         0.19714E+02
 
    0.18451E+06         0.36773E+06         0.00000E+00
    0.36773E+06        -0.18441E+06         0.00000E+00
    0.00000E+00         0.00000E+00         0.21356E+02
 
    0.17102E+06         0.37105E+06         0.00000E+00
    0.37105E+06        -0.17090E+06         0.00000E+00
    0.00000E+00         0.00000E+00         0.23585E+02
 
    0.15785E+06         0.37378E+06         0.00000E+00
    0.37378E+06        -0.15772E+06         0.00000E+00
    0.00000E+00         0.00000E+00         0.26205E+02
 
    0.14504E+06         0.37595E+06         0.00000E+00
    0.37595E+06        -0.14489E+06         0.00000E+00
    0.00000E+00         0.00000E+00         0.29033E+02
 
    0.13262E+06         0.37760E+06         0.00000E+00
    0.37760E+06        -0.13246E+06         0.00000E+00
    0.00000E+00         0.00000E+00         0.31896E+02
 
    0.12062E+06         0.37877E+06         0.00000E+00
    0.37877E+06        -0.12045E+06         0.00000E+00
    0.00000E+00         0.00000E+00         0.34617E+02
 
    0.10908E+06         0.37950E+06         0.00000E+00
    0.37950E+06        -0.10890E+06         0.00000E+00
    0.00000E+00         0.00000E+00         0.37011E+02
 
    0.98028E+05         0.37983E+06         0.00000E+00
    0.37983E+06        -0.97833E+05         0.00000E+00
    0.00000E+00         0.00000E+00         0.38870E+02
 
    0.87487E+05         0.37982E+06         0.00000E+00
    0.37982E+06        -0.87287E+05         0.00000E+00
    0.00000E+00         0.00000E+00         0.39958E+02
 
    0.77482E+05         0.37951E+06         0.00000E+00
    0.37951E+06        -0.77282E+05         0.00000E+00
    0.00000E+00         0.00000E+00         0.39997E+02
 
    0.68036E+05         0.37895E+06         0.00000E+00
    0.37895E+06        -0.67843E+05         0.00000E+00
    0.00000E+00         0.00000E+00         0.38652E+02
 
    0.59167E+05         0.37819E+06         0.00000E+00
    0.37819E+06        -0.58989E+05         0.00000E+00
    0.00000E+00         0.00000E+00         0.35522E+02
 
    0.50892E+05         0.37729E+06         0.00000E+00
    0.37729E+06        -0.50741E+05         0.00000E+00
    0.00000E+00         0.00000E+00         0.30114E+02
 
    0.43223E+05         0.37630E+06         0.00000E+00
    0.37630E+06        -0.43113E+05         0.00000E+00
    0.00000E+00         0.00000E+00         0.21827E+02
 
    0.36170E+05         0.37528E+06         0.00000E+00
    0.37528E+06        -0.36121E+05         0.00000E+00
    0.00000E+00         0.00000E+00         0.99256E+01
 
    0.29741E+05         0.37429E+06         0.00000E+00
    0.37429E+06        -0.29773E+05         0.00000E+00
    0.00000E+00         0.00000E+00        -0.64903E+01
 
    0.23937E+05         0.37338E+06         0.00000E+00
    0.37338E+06        -0.24079E+05         0.00000E+00
    0.00000E+00         0.00000E+00        -0.28520E+02
 
    0.18757E+05         0.37261E+06         0.00000E+00
    0.37261E+06        -0.19045E+05         0.00000E+00
    0.00000E+00         0.00000E+00        -0.57498E+02
 
    0.14197E+05         0.37204E+06         0.00000E+00
    0.37204E+06        -0.14672E+05         0.00000E+00
    0.00000E+00         0.00000E+00        -0.95042E+02
 
    0.10246E+05         0.37174E+06         0.00000E+00
    0.37174E+06        -0.10961E+05         0.00000E+00
    0.00000E+00         0.00000E+00        -0.14310E+03
 
    0.68895E+04         0.37176E+06         0.00000E+00
    0.37176E+06        -0.79094E+04         0.00000E+00
    0.00000E+00         0.00000E+00        -0.20398E+03
 
    0.41086E+04         0.37215E+06         0.00000E+00
    0.37215E+06        -0.55107E+04         0.00000E+00
    0.00000E+00         0.00000E+00        -0.28043E+03
 
    0.18787E+04         0.37298E+06         0.00000E+00
    0.37298E+06        -0.37568E+04         0.00000E+00
    0.00000E+00         0.00000E+00        -0.37563E+03
 
    0.16994E+03         0.37430E+06         0.00000E+00
    0.37430E+06        -0.26362E+04         0.00000E+00
    0.00000E+00         0.00000E+00        -0.49325E+03
 
    0.55865E+06         0.14111E+05         0.00000E+00
    0.14111E+05        -0.53187E+06         0.00000E+00
    0.00000E+00         0.00000E+00         0.53570E+04
 
    0.55221E+06         0.41016E+05         0.00000E+00
    0.41016E+05        -0.52986E+06         0.00000E+00
    0.00000E+00         0.00000E+00         0.44714E+04
 
    0.54459E+06         0.67241E+05         0.00000E+00
    0.67241E+05        -0.52601E+06         0.00000E+00
    0.00000E+00         0.00000E+00         0.37162E+04
 
    0.53586E+06         0.92710E+05         0.00000E+00
    0.92710E+05        -0.52048E+06         0.00000E+00
    0.00000E+00         0.00000E+00         0.30757E+04
 
    0.52609E+06         0.11736E+06         0.00000E+00
    0.11736E+06        -0.51341E+06         0.00000E+00
    0.00000E+00         0.00000E+00         0.25354E+04
 
    0.51533E+06         0.14112E+06         0.00000E+00
    0.14112E+06        -0.50493E+06         0.00000E+00
    0.00000E+00         0.00000E+00         0.20815E+04
 
    0.50367E+06         0.16396E+06         0.00000E+00
    0.16396E+06        -0.49517E+06         0.00000E+00
    0.00000E+00         0.00000E+00         0.17019E+04
 
    0.49118E+06         0.18583E+06         0.00000E+00
    0.18583E+06        -0.48425E+06         0.00000E+00
    0.00000E+00         0.00000E+00         0.13857E+04
 
    0.47792E+06         0.20670E+06         0.00000E+00
    0.20670E+06        -0.47230E+06         0.00000E+00
    0.00000E+00         0.00000E+00         0.11234E+04
 
    0.46397E+06         0.22655E+06         0.00000E+00
    0.22655E+06        -0.45944E+06         0.00000E+00
    0.00000E+00         0.00000E+00         0.90646E+03
 
    0.44939E+06         0.24536E+06         0.00000E+00
    0.24536E+06        -0.44575E+06         0.00000E+00
    0.00000E+00         0.00000E+00         0.72778E+03
 
    0.43427E+06         0.26311E+06         0.00000E+00
    0.26311E+06        -0.43136E+06         0.00000E+00
    0.00000E+00         0.00000E+00         0.58112E+03
 
    0.41866E+06         0.27980E+06         0.00000E+00
    0.27980E+06        -0.41635E+06         0.00000E+00
    0.00000E+00         0.00000E+00         0.46118E+03
 
    0.40264E+06         0.29544E+06         0.00000E+00
    0.29544E+06        -0.40082E+06         0.00000E+00
    0.00000E+00         0.00000E+00         0.36348E+03
 
    0.38627E+06         0.31001E+06         0.00000E+00
    0.31001E+06        -0.38485E+06         0.00000E+00
    0.00000E+00         0.00000E+00         0.28421E+03
 
    0.36962E+06         0.32353E+06         0.00000E+00
    0.32353E+06        -0.36852E+06         0.00000E+00
    0.00000E+00         0.00000E+00         0.22020E+03
 
    0.35276E+06         0.33601E+06         0.00000E+00
    0.33601E+06        -0.35191E+06         0.00000E+00
    0.00000E+00         0.00000E+00         0.16879E+03
 
    0.33574E+06         0.34745E+06         0.00000E+00
    0.34745E+06        -0.33510E+06         0.00000E+00
    0.00000E+00         0.00000E+00         0.12776E+03
 
    0.31863E+06         0.35788E+06         0.00000E+00
    0.35788E+06        -0.31815E+06         0.00000E+00
    0.00000E+00         0.00000E+00         0.95278E+02
 
    0.30149E+06         0.36732E+06         0.00000E+00
    0.36732E+06        -0.30114E+06         0.00000E+00
    0.00000E+00         0.00000E+00         0.69845E+02
 
    0.28438E+06         0.37578E+06         0.00000E+00
    0.37578E+06        -0.28413E+06         0.00000E+00
    0.00000E+00         0.00000E+00         0.50226E+02
 
    0.26735E+06         0.38330E+06         0.00000E+00
    0.38330E+06        -0.26717E+06         0.00000E+00
    0.00000E+00         0.00000E+00         0.35420E+02
 
    0.25045E+06         0.38989E+06         0.00000E+00
    0.38989E+06        -0.25033E+06         0.00000E+00
    0.00000E+00         0.00000E+00         0.24624E+02
 
    0.23375E+06         0.39558E+06         0.00000E+00
    0.39558E+06        -0.23366E+06         0.00000E+00
    0.00000E+00         0.00000E+00         0.17197E+02
 
    0.21729E+06         0.40041E+06         0.00000E+00
    0.40041E+06        -0.21723E+06         0.00000E+00
    0.00000E+00         0.00000E+00         0.12641E+02
 
    0.20112E+06         0.40441E+06         0.00000E+00
    0.40441E+06        -0.20107E+06         0.00000E+00
    0.00000E+00         0.00000E+00         0.10572E+02
 
    0.18529E+06         0.40761E+06         0.00000E+00
    0.40761E+06        -0.18524E+06         0.00000E+00
    0.00000E+00         0.00000E+00         0.10713E+02
 
    0.16985E+06         0.41006E+06         0.00000E+00
    0.41006E+06        -0.16979E+06         0.00000E+00
    0.00000E+00         0.00000E+00         0.12872E+02
 
    0.15484E+06         0.41178E+06         0.00000E+00
    0.41178E+06        -0.15476E+06         0.00000E+00
    0.00000E+00         0.00000E+00         0.16936E+02
 
    0.14031E+06         0.41283E+06         0.00000E+00
    0.41283E+06        -0.14020E+06         0.00000E+00
    0.00000E+00         0.00000E+00         0.22863E+02
 
    0.12630E+06         0.41324E+06         0.00000E+00
    0.41324E+06        -0.12615E+06         0.00000E+00
    0.00000E+00         0.00000E+00         0.30678E+02
 
    0.11285E+06         0.41306E+06         0.00000E+00
    0.41306E+06        -0.11265E+06         0.00000E+00
    0.00000E+00         0.00000E+00         0.40469E+02
 
    0.10000E+06         0.41233E+06         0.00000E+00
    0.41233E+06        -0.99739E+05         0.00000E+00
    0.00000E+00         0.00000E+00         0.52391E+02
 
    0.87786E+05         0.41112E+06         0.00000E+00
    0.41112E+06        -0.87452E+05         0.00000E+00
    0.00000E+00         0.00000E+00         0.66667E+02
 
    0.76243E+05         0.40947E+06         0.00000E+00
    0.40947E+06        -0.75825E+05         0.00000E+00
    0.00000E+00         0.00000E+00         0.83592E+02
 
    0.65406E+05         0.40743E+06         0.00000E+00
    0.40743E+06        -0.64888E+05         0.00000E+00
    0.00000E+00         0.00000E+00         0.10354E+03
 
    0.55307E+05         0.40506E+06         0.00000E+00
    0.40506E+06        -0.54672E+05         0.00000E+00
    0.00000E+00         0.00000E+00         0.12699E+03
 
    0.45975E+05         0.40243E+06         0.00000E+00
    0.40243E+06        -0.45202E+05         0.00000E+00
    0.00000E+00         0.00000E+00         0.15450E+03
 
    0.37437E+05         0.39959E+06         0.00000E+00
    0.39959E+06        -0.36503E+05         0.00000E+00
    0.00000E+00         0.00000E+00         0.18676E+03
 
    0.29717E+05         0.39661E+06         0.00000E+00
    0.39661E+06        -0.28594E+05         0.00000E+00
    0.00000E+00         0.00000E+00         0.22460E+03
 
    0.22838E+05         0.39355E+06         0.00000E+00
    0.39355E+06        -0.21493E+05         0.00000E+00
    0.00000E+00         0.00000E+00         0.26898E+03
 
    0.16817E+05         0.39049E+06         0.00000E+00
    0.39049E+06        -0.15212E+05         0.00000E+00
    0.00000E+00         0.00000E+00         0.32105E+03
 
    0.11670E+05         0.38749E+06         0.00000E+00
    0.38749E+06        -0.97598E+04         0.00000E+00
    0.00000E+00         0.00000E+00         0.38212E+03
 
    0.74096E+04         0.38462E+06         0.00000E+00
    0.38462E+06        -0.51411E+04         0.00000E+00
    0.00000E+00         0.00000E+00         0.45371E+03
 
    0.40424E+04         0.38196E+06         0.00000E+00
    0.38196E+06        -0.13546E+04         0.00000E+00
    0.00000E+00         0.00000E+00         0.53757E+03
 
    0.15724E+04         0.37959E+06         0.00000E+00
    0.37959E+06         0.16057E+04         0.00000E+00
    0.00000E+00         0.00000E+00         0.63561E+03
 
   -0.14581E+01         0.37757E+06         0.00000E+00
    0.37757E+06         0.37515E+04         0.00000E+00
    0.00000E+00         0.00000E+00         0.75000E+03
 
   -0.68504E+03         0.37599E+06         0.00000E+00
    0.37599E+06         0.51003E+04         0.00000E+00
    0.00000E+00         0.00000E+00         0.88305E+03
 
   -0.48956E+03         0.37490E+06         0.00000E+00
    0.37490E+06         0.56755E+04         0.00000E+00
    0.00000E+00         0.00000E+00         0.10372E+04
 
    0.56807E+03         0.37440E+06         0.00000E+00
    0.37440E+06         0.55063E+04         0.00000E+00
    0.00000E+00         0.00000E+00         0.12149E+04
 
    0.64093E+06         0.16649E+05         0.00000E+00
    0.16649E+05        -0.59708E+06         0.00000E+00
    0.00000E+00         0.00000E+00         0.87681E+04
 
    0.63113E+06         0.48049E+05         0.00000E+00
    0.48049E+05        -0.59453E+06         0.00000E+00
    0.00000E+00         0.00000E+00         0.73189E+04
 
    0.62011E+06         0.78508E+05         0.00000E+00
    0.78508E+05        -0.58968E+06         0.00000E+00
    0.00000E+00         0.00000E+00         0.60855E+04
 
    0.60795E+06         0.10794E+06         0.00000E+00
    0.10794E+06        -0.58274E+06         0.00000E+00
    0.00000E+00         0.00000E+00         0.50413E+04
 
    0.59472E+06         0.13629E+06         0.00000E+00
    0.13629E+06        -0.57391E+06         0.00000E+00
    0.00000E+00         0.00000E+00         0.41615E+04
 
    0.58050E+06         0.16348E+06         0.00000E+00
    0.16348E+06        -0.56339E+06         0.00000E+00
    0.00000E+00         0.00000E+00         0.34233E+04
 
    0.56537E+06         0.18947E+06         0.00000E+00
    0.18947E+06        -0.55134E+06         0.00000E+00
    0.00000E+00         0.00000E+00         0.28063E+04
 
    0.54941E+06         0.21423E+06         0.00000E+00
    0.21423E+06        -0.53795E+06         0.00000E+00
    0.00000E+00         0.00000E+00         0.22924E+04
 
    0.53270E+06         0.23773E+06         0.00000E+00
    0.23773E+06        -0.52337E+06         0.00000E+00
    0.00000E+00         0.00000E+00         0.18657E+04
 
    0.51531E+06         0.25995E+06         0.00000E+00
    0.25995E+06        -0.50775E+06         0.00000E+00
    0.00000E+00         0.00000E+00         0.15124E+04
 
    0.49733E+06         0.28088E+06         0.00000E+00
    0.28088E+06        -0.49123E+06         0.00000E+00
    0.00000E+00         0.00000E+00         0.12207E+04
 
    0.47883E+06         0.30051E+06         0.00000E+00
    0.30051E+06        -0.47393E+06         0.00000E+00
    0.00000E+00         0.00000E+00         0.98044E+03
 
    0.45989E+06         0.31885E+06         0.00000E+00
    0.31885E+06        -0.45598E+06         0.00000E+00
    0.00000E+00         0.00000E+00         0.78298E+03
 
    0.44058E+06         0.33590E+06         0.00000E+00
    0.33590E+06        -0.43748E+06         0.00000E+00
    0.00000E+00         0.00000E+00         0.62106E+03
 
    0.42098E+06         0.35168E+06         0.00000E+00
    0.35168E+06        -0.41854E+06         0.00000E+00
    0.00000E+00         0.00000E+00         0.48856E+03
 
    0.40116E+06         0.36619E+06         0.00000E+00
    0.36619E+06        -0.39926E+06         0.00000E+00
    0.00000E+00         0.00000E+00         0.38038E+03
 
    0.38118E+06         0.37946E+06         0.00000E+00
    0.37946E+06        -0.37972E+06         0.00000E+00
    0.00000E+00         0.00000E+00         0.29226E+03
 
    0.36112E+06         0.39151E+06         0.00000E+00
    0.39151E+06        -0.36002E+06         0.00000E+00
    0.00000E+00         0.00000E+00         0.22068E+03
 
    0.34104E+06         0.40236E+06         0.00000E+00
    0.40236E+06        -0.34023E+06         0.00000E+00
    0.00000E+00         0.00000E+00         0.16273E+03
 
    0.32101E+06         0.41203E+06         0.00000E+00
    0.41203E+06        -0.32043E+06         0.00000E+00
    0.00000E+00         0.00000E+00         0.11607E+03
 
    0.30108E+06         0.42056E+06         0.00000E+00
    0.42056E+06        -0.30069E+06         0.00000E+00
    0.00000E+00         0.00000E+00         0.78749E+02
 
    0.28132E+06         0.42797E+06         0.00000E+00
    0.42797E+06        -0.28107E+06         0.00000E+00
    0.00000E+00         0.00000E+00         0.49241E+02
 
    0.26178E+06         0.43431E+06         0.00000E+00
    0.43431E+06        -0.26165E+06         0.00000E+00
    0.00000E+00         0.00000E+00         0.26321E+02
 
    0.24253E+06         0.43959E+06         0.00000E+00
    0.43959E+06        -0.24249E+06         0.00000E+00
    0.00000E+00         0.00000E+00         0.90362E+01
 
    0.22362E+06         0.44386E+06         0.00000E+00
    0.44386E+06        -0.22363E+06         0.00000E+00
    0.00000E+00         0.00000E+00        -0.33310E+01
 
    0.20509E+06         0.44715E+06         0.00000E+00
    0.44715E+06        -0.20515E+06         0.00000E+00
    0.00000E+00         0.00000E+00        -0.11298E+02
 
    0.18702E+06         0.44951E+06         0.00000E+00
    0.44951E+06        -0.18709E+06         0.00000E+00
    0.00000E+00         0.00000E+00        -0.15206E+02
 
    0.16944E+06         0.45097E+06         0.00000E+00
    0.45097E+06        -0.16951E+06         0.00000E+00
    0.00000E+00         0.00000E+00        -0.15236E+02
 
    0.15241E+06         0.45158E+06         0.00000E+00
    0.45158E+06        -0.15247E+06         0.00000E+00
    0.00000E+00         0.00000E+00        -0.11426E+02
 
    0.13598E+06         0.45137E+06         0.00000E+00
    0.45137E+06        -0.13600E+06         0.00000E+00
    0.00000E+00         0.00000E+00        -0.36699E+01
 
    0.12019E+06         0.45040E+06         0.00000E+00
    0.45040E+06        -0.12015E+06         0.00000E+00
    0.00000E+00         0.00000E+00         0.82759E+01
 
    0.10511E+06         0.44872E+06         0.00000E+00
    0.44872E+06        -0.10498E+06         0.00000E+00
    0.00000E+00         0.00000E+00         0.24800E+02
 
    0.90763E+05         0.44637E+06         0.00000E+00
    0.44637E+06        -0.90531E+05         0.00000E+00
    0.00000E+00         0.00000E+00         0.46447E+02
 
    0.77210E+05         0.44341E+06         0.00000E+00
    0.44341E+06        -0.76841E+05         0.00000E+00
    0.00000E+00         0.00000E+00         0.73933E+02
 
    0.64495E+05         0.43989E+06         0.00000E+00
    0.43989E+06        -0.63954E+05         0.00000E+00
    0.00000E+00         0.00000E+00         0.10817E+03
 
    0.52661E+05         0.43587E+06         0.00000E+00
    0.43587E+06        -0.51909E+05         0.00000E+00
    0.00000E+00         0.00000E+00         0.15029E+03
 
    0.41752E+05         0.43142E+06         0.00000E+00
    0.43142E+06        -0.40744E+05         0.00000E+00
    0.00000E+00         0.00000E+00         0.20169E+03
 
    0.31812E+05         0.42659E+06         0.00000E+00
    0.42659E+06        -0.30492E+05         0.00000E+00
    0.00000E+00         0.00000E+00         0.26408E+03
 
    0.22882E+05         0.42146E+06         0.00000E+00
    0.42146E+06        -0.21184E+05         0.00000E+00
    0.00000E+00         0.00000E+00         0.33951E+03
 
    0.15001E+05         0.41609E+06         0.00000E+00
    0.41609E+06        -0.12849E+05         0.00000E+00
    0.00000E+00         0.00000E+00         0.43046E+03
 
    0.82086E+04         0.41057E+06         0.00000E+00
    0.41057E+06        -0.55092E+04         0.00000E+00
    0.00000E+00         0.00000E+00         0.53990E+03
 
    0.25398E+04         0.40496E+06         0.00000E+00
    0.40496E+06         0.81686E+03         0.00000E+00
    0.00000E+00         0.00000E+00         0.67133E+03
 
   -0.19715E+04         0.39936E+06         0.00000E+00
    0.39936E+06         0.61161E+04         0.00000E+00
    0.00000E+00         0.00000E+00         0.82892E+03
 
   -0.52942E+04         0.39383E+06         0.00000E+00
    0.39383E+06         0.10382E+05         0.00000E+00
    0.00000E+00         0.00000E+00         0.10175E+04
 
   -0.74006E+04         0.38847E+06         0.00000E+00
    0.38847E+06         0.13615E+05         0.00000E+00
    0.00000E+00         0.00000E+00         0.12428E+04
 
   -0.82662E+04         0.38338E+06         0.00000E+00
    0.38338E+06         0.15823E+05         0.00000E+00
    0.00000E+00         0.00000E+00         0.15113E+04
 
   -0.78708E+04         0.37863E+06         0.00000E+00
    0.37863E+06         0.17023E+05         0.00000E+00
    0.00000E+00         0.00000E+00         0.18305E+04
 
   -0.61986E+04         0.37432E+06         0.00000E+00
    0.37432E+06         0.17241E+05         0.00000E+00
    0.00000E+00         0.00000E+00         0.22085E+04
 
   -0.32392E+04         0.37055E+06         0.00000E+00
    0.37055E+06         0.16512E+05         0.00000E+00
    0.00000E+00         0.00000E+00         0.26545E+04
 
    0.10120E+04         0.36741E+06         0.00000E+00
    0.36741E+06         0.14879E+05         0.00000E+00
    0.00000E+00         0.00000E+00         0.31782E+04
 
    0.73871E+06         0.19408E+05         0.00000E+00
    0.19408E+05        -0.67077E+06         0.00000E+00
    0.00000E+00         0.00000E+00         0.13590E+05
 
    0.72427E+06         0.55597E+05         0.00000E+00
    0.55597E+05        -0.66757E+06         0.00000E+00
    0.00000E+00         0.00000E+00         0.11341E+05
 
    0.70867E+06         0.90528E+05         0.00000E+00
    0.90528E+05        -0.66152E+06         0.00000E+00
    0.00000E+00         0.00000E+00         0.94299E+04
 
    0.69198E+06         0.12411E+06         0.00000E+00
    0.12411E+06        -0.65291E+06         0.00000E+00
    0.00000E+00         0.00000E+00         0.78145E+04
 
    0.67430E+06         0.15629E+06         0.00000E+00
    0.15629E+06        -0.64202E+06         0.00000E+00
    0.00000E+00         0.00000E+00         0.64551E+04
 
    0.65570E+06         0.18699E+06         0.00000E+00
    0.18699E+06        -0.62912E+06         0.00000E+00
    0.00000E+00         0.00000E+00         0.53156E+04
 
    0.63626E+06         0.21619E+06         0.00000E+00
    0.21619E+06        -0.61445E+06         0.00000E+00
    0.00000E+00         0.00000E+00         0.43639E+04
 
    0.61608E+06         0.24385E+06         0.00000E+00
    0.24385E+06        -0.59822E+06         0.00000E+00
    0.00000E+00         0.00000E+00         0.35714E+04
 
    0.59522E+06         0.26996E+06         0.00000E+00
    0.26996E+06        -0.58066E+06         0.00000E+00
    0.00000E+00         0.00000E+00         0.29134E+04
 
    0.57378E+06         0.29451E+06         0.00000E+00
    0.29451E+06        -0.56194E+06         0.00000E+00
    0.00000E+00         0.00000E+00         0.23683E+04
 
    0.55184E+06         0.31750E+06         0.00000E+00
    0.31750E+06        -0.54225E+06         0.00000E+00
    0.00000E+00         0.00000E+00         0.19176E+04
 
    0.52947E+06         0.33894E+06         0.00000E+00
    0.33894E+06        -0.52174E+06         0.00000E+00
    0.00000E+00         0.00000E+00         0.15457E+04
 
    0.50676E+06         0.35883E+06         0.00000E+00
    0.35883E+06        -0.50057E+06         0.00000E+00
    0.00000E+00         0.00000E+00         0.12391E+04
 
    0.48378E+06         0.37721E+06         0.00000E+00
    0.37721E+06        -0.47885E+06         0.00000E+00
    0.00000E+00         0.00000E+00         0.98680E+03
 
    0.46061E+06         0.39409E+06         0.00000E+00
    0.39409E+06        -0.45672E+06         0.00000E+00
    0.00000E+00         0.00000E+00         0.77923E+03
 
    0.43732E+06         0.40950E+06         0.00000E+00
    0.40950E+06        -0.43428E+06         0.00000E+00
    0.00000E+00         0.00000E+00         0.60860E+03
 
    0.41398E+06         0.42346E+06         0.00000E+00
    0.42346E+06        -0.41164E+06         0.00000E+00
    0.00000E+00         0.00000E+00         0.46840E+03
 
    0.39066E+06         0.43602E+06         0.00000E+00
    0.43602E+06        -0.38890E+06         0.00000E+00
    0.00000E+00         0.00000E+00         0.35326E+03
 
    0.36742E+06         0.44720E+06         0.00000E+00
    0.44720E+06        -0.36613E+06         0.00000E+00
    0.00000E+00         0.00000E+00         0.25876E+03
 
    0.34433E+06         0.45703E+06         0.00000E+00
    0.45703E+06        -0.34343E+06         0.00000E+00
    0.00000E+00         0.00000E+00         0.18134E+03
 
    0.32145E+06         0.46556E+06         0.00000E+00
    0.46556E+06        -0.32086E+06         0.00000E+00
    0.00000E+00         0.00000E+00         0.11808E+03
 
    0.29884E+06         0.47283E+06         0.00000E+00
    0.47283E+06        -0.29851E+06         0.00000E+00
    0.00000E+00         0.00000E+00         0.66684E+02
 
    0.27655E+06         0.47886E+06         0.00000E+00
    0.47886E+06        -0.27643E+06         0.00000E+00
    0.00000E+00         0.00000E+00         0.25314E+02
 
    0.25465E+06         0.48370E+06         0.00000E+00
    0.48370E+06        -0.25469E+06         0.00000E+00
    0.00000E+00         0.00000E+00        -0.74283E+01
 
    0.23318E+06         0.48739E+06         0.00000E+00
    0.48739E+06        -0.23335E+06         0.00000E+00
    0.00000E+00         0.00000E+00        -0.32589E+02
 
    0.21221E+06         0.48997E+06         0.00000E+00
    0.48997E+06        -0.21247E+06         0.00000E+00
    0.00000E+00         0.00000E+00        -0.50903E+02
 
    0.19179E+06         0.49147E+06         0.00000E+00
    0.49147E+06        -0.19210E+06         0.00000E+00
    0.00000E+00         0.00000E+00        -0.62832E+02
 
    0.17197E+06         0.49194E+06         0.00000E+00
    0.49194E+06        -0.17231E+06         0.00000E+00
    0.00000E+00         0.00000E+00        -0.68590E+02
 
    0.15280E+06         0.49143E+06         0.00000E+00
    0.49143E+06        -0.15314E+06         0.00000E+00
    0.00000E+00         0.00000E+00        -0.68159E+02
 
    0.13435E+06         0.48997E+06         0.00000E+00
    0.48997E+06        -0.13465E+06         0.00000E+00
    0.00000E+00         0.00000E+00        -0.61300E+02
 
    0.11665E+06         0.48761E+06         0.00000E+00
    0.48761E+06        -0.11689E+06         0.00000E+00
    0.00000E+00         0.00000E+00        -0.47548E+02
 
    0.99776E+05         0.48440E+06         0.00000E+00
    0.48440E+06        -0.99907E+05         0.00000E+00
    0.00000E+00         0.00000E+00        -0.26203E+02
 
    0.83774E+05         0.48038E+06         0.00000E+00
    0.48038E+06        -0.83755E+05         0.00000E+00
    0.00000E+00         0.00000E+00         0.36911E+01
 
    0.68701E+05         0.47561E+06         0.00000E+00
    0.47561E+06        -0.68484E+05         0.00000E+00
    0.00000E+00         0.00000E+00         0.43376E+02
 
    0.54614E+05         0.47014E+06         0.00000E+00
    0.47014E+06        -0.54142E+05         0.00000E+00
    0.00000E+00         0.00000E+00         0.94422E+02
 
    0.41572E+05         0.46402E+06         0.00000E+00
    0.46402E+06        -0.40778E+05         0.00000E+00
    0.00000E+00         0.00000E+00         0.15878E+03
 
    0.29631E+05         0.45732E+06         0.00000E+00
    0.45732E+06        -0.28437E+05         0.00000E+00
    0.00000E+00         0.00000E+00         0.23884E+03
 
    0.18851E+05         0.45010E+06         0.00000E+00
    0.45010E+06        -0.17164E+05         0.00000E+00
    0.00000E+00         0.00000E+00         0.33753E+03
 
    0.92928E+04         0.44243E+06         0.00000E+00
    0.44243E+06        -0.70009E+04         0.00000E+00
    0.00000E+00         0.00000E+00         0.45838E+03
 
    0.10152E+04         0.43438E+06         0.00000E+00
    0.43438E+06         0.20131E+04         0.00000E+00
    0.00000E+00         0.00000E+00         0.60566E+03
 
   -0.59213E+04         0.42603E+06         0.00000E+00
    0.42603E+06         0.98438E+04         0.00000E+00
    0.00000E+00         0.00000E+00         0.78449E+03
 
   -0.11457E+05         0.41746E+06         0.00000E+00
    0.41746E+06         0.16462E+05         0.00000E+00
    0.00000E+00         0.00000E+00         0.10010E+04
 
   -0.15532E+05         0.40875E+06         0.00000E+00
    0.40875E+06         0.21844E+05         0.00000E+00
    0.00000E+00         0.00000E+00         0.12623E+04
 
   -0.18089E+05         0.40001E+06         0.00000E+00
    0.40001E+06         0.25974E+05         0.00000E+00
    0.00000E+00         0.00000E+00         0.15771E+04
 
   -0.19069E+05         0.39132E+06         0.00000E+00
    0.39132E+06         0.28846E+05         0.00000E+00
    0.00000E+00         0.00000E+00         0.19552E+04
 
   -0.18420E+05         0.38280E+06         0.00000E+00
    0.38280E+06         0.30461E+05         0.00000E+00
    0.00000E+00         0.00000E+00         0.24083E+04
 
   -0.16088E+05         0.37454E+06         0.00000E+00
    0.37454E+06         0.30835E+05         0.00000E+00
    0.00000E+00         0.00000E+00         0.29494E+04
 
   -0.12025E+05         0.36666E+06         0.00000E+00
    0.36666E+06         0.29992E+05         0.00000E+00
    0.00000E+00         0.00000E+00         0.35934E+04
 
   -0.61879E+04         0.35928E+06         0.00000E+00
    0.35928E+06         0.27972E+05         0.00000E+00
    0.00000E+00         0.00000E+00         0.43568E+04
 
    0.14618E+04         0.35251E+06         0.00000E+00
    0.35251E+06         0.24825E+05         0.00000E+00
    0.00000E+00         0.00000E+00         0.52574E+04
 
    0.85333E+06         0.22257E+05         0.00000E+00
    0.22257E+05        -0.75259E+06         0.00000E+00
    0.00000E+00         0.00000E+00         0.20147E+05
 
    0.83268E+06         0.63261E+05         0.00000E+00
    0.63261E+05        -0.74864E+06         0.00000E+00
    0.00000E+00         0.00000E+00         0.16808E+05
 
    0.81107E+06         0.10263E+06         0.00000E+00
    0.10263E+06        -0.74120E+06         0.00000E+00
    0.00000E+00         0.00000E+00         0.13974E+05
 
    0.78859E+06         0.14029E+06         0.00000E+00
    0.14029E+06        -0.73068E+06         0.00000E+00
    0.00000E+00         0.00000E+00         0.11581E+05
 
    0.76530E+06         0.17616E+06         0.00000E+00
    0.17616E+06        -0.71746E+06         0.00000E+00
    0.00000E+00         0.00000E+00         0.95691E+04
 
    0.74129E+06         0.21021E+06         0.00000E+00
    0.21021E+06        -0.70187E+06         0.00000E+00
    0.00000E+00         0.00000E+00         0.78846E+04
 
    0.71664E+06         0.24241E+06         0.00000E+00
    0.24241E+06        -0.68425E+06         0.00000E+00
    0.00000E+00         0.00000E+00         0.64787E+04
 
    0.69143E+06         0.27275E+06         0.00000E+00
    0.27275E+06        -0.66489E+06         0.00000E+00
    0.00000E+00         0.00000E+00         0.53087E+04
 
    0.66575E+06         0.30123E+06         0.00000E+00
    0.30123E+06        -0.64406E+06         0.00000E+00
    0.00000E+00         0.00000E+00         0.43374E+04
 
    0.63966E+06         0.32785E+06         0.00000E+00
    0.32785E+06        -0.62200E+06         0.00000E+00
    0.00000E+00         0.00000E+00         0.35326E+04
 
    0.61325E+06         0.35263E+06         0.00000E+00
    0.35263E+06        -0.59892E+06         0.00000E+00
    0.00000E+00         0.00000E+00         0.28669E+04
 
    0.58660E+06         0.37560E+06         0.00000E+00
    0.37560E+06        -0.57502E+06         0.00000E+00
    0.00000E+00         0.00000E+00         0.23169E+04
 
    0.55979E+06         0.39679E+06         0.00000E+00
    0.39679E+06        -0.55047E+06         0.00000E+00
    0.00000E+00         0.00000E+00         0.18628E+04
 
    0.53288E+06         0.41623E+06         0.00000E+00
    0.41623E+06        -0.52544E+06         0.00000E+00
    0.00000E+00         0.00000E+00         0.14881E+04
 
    0.50594E+06         0.43398E+06         0.00000E+00
    0.43398E+06        -0.50005E+06         0.00000E+00
    0.00000E+00         0.00000E+00         0.11787E+04
 
    0.47905E+06         0.45006E+06         0.00000E+00
    0.45006E+06        -0.47444E+06         0.00000E+00
    0.00000E+00         0.00000E+00         0.92325E+03
 
    0.45227E+06         0.46453E+06         0.00000E+00
    0.46453E+06        -0.44871E+06         0.00000E+00
    0.00000E+00         0.00000E+00         0.71205E+03
 
    0.42566E+06         0.47742E+06         0.00000E+00
    0.47742E+06        -0.42297E+06         0.00000E+00
    0.00000E+00         0.00000E+00         0.53725E+03
 
    0.39927E+06         0.48880E+06         0.00000E+00
    0.48880E+06        -0.39731E+06         0.00000E+00
    0.00000E+00         0.00000E+00         0.39240E+03
 
    0.37317E+06         0.49869E+06         0.00000E+00
    0.49869E+06        -0.37181E+06         0.00000E+00
    0.00000E+00         0.00000E+00         0.27223E+03
 
    0.34740E+06         0.50716E+06         0.00000E+00
    0.50716E+06        -0.34654E+06         0.00000E+00
    0.00000E+00         0.00000E+00         0.17253E+03
 
    0.32203E+06         0.51423E+06         0.00000E+00
    0.51423E+06        -0.32158E+06         0.00000E+00
    0.00000E+00         0.00000E+00         0.89921E+02
 
    0.29709E+06         0.51997E+06         0.00000E+00
    0.51997E+06        -0.29698E+06         0.00000E+00
    0.00000E+00         0.00000E+00         0.21752E+02
 
    0.27264E+06         0.52441E+06         0.00000E+00
    0.52441E+06        -0.27281E+06         0.00000E+00
    0.00000E+00         0.00000E+00        -0.34013E+02
 
    0.24874E+06         0.52758E+06         0.00000E+00
    0.52758E+06        -0.24913E+06         0.00000E+00
    0.00000E+00         0.00000E+00        -0.78888E+02
 
    0.22541E+06         0.52954E+06         0.00000E+00
    0.52954E+06        -0.22598E+06         0.00000E+00
    0.00000E+00         0.00000E+00        -0.11394E+03
 
    0.20272E+06         0.53033E+06         0.00000E+00
    0.53033E+06        -0.20342E+06         0.00000E+00
    0.00000E+00         0.00000E+00        -0.13983E+03
 
    0.18072E+06         0.52997E+06         0.00000E+00
    0.52997E+06        -0.18150E+06         0.00000E+00
    0.00000E+00         0.00000E+00        -0.15687E+03
 
    0.15945E+06         0.52851E+06         0.00000E+00
    0.52851E+06        -0.16028E+06         0.00000E+00
    0.00000E+00         0.00000E+00        -0.16504E+03
 
    0.13897E+06         0.52599E+06         0.00000E+00
    0.52599E+06        -0.13979E+06         0.00000E+00
    0.00000E+00         0.00000E+00        -0.16402E+03
 
    0.11933E+06         0.52244E+06         0.00000E+00
    0.52244E+06        -0.12010E+06         0.00000E+00
    0.00000E+00         0.00000E+00        -0.15315E+03
 
    0.10059E+06         0.51789E+06         0.00000E+00
    0.51789E+06        -0.10125E+06         0.00000E+00
    0.00000E+00         0.00000E+00        -0.13144E+03
 
    0.82813E+05         0.51240E+06         0.00000E+00
    0.51240E+06        -0.83301E+05         0.00000E+00
    0.00000E+00         0.00000E+00        -0.97559E+02
 
    0.66057E+05         0.50600E+06         0.00000E+00
    0.50600E+06        -0.66306E+05         0.00000E+00
    0.00000E+00         0.00000E+00        -0.49767E+02
 
    0.50390E+05         0.49873E+06         0.00000E+00
    0.49873E+06        -0.50320E+05         0.00000E+00
    0.00000E+00         0.00000E+00         0.14134E+02
 
    0.35884E+05         0.49064E+06         0.00000E+00
    0.49064E+06        -0.35400E+05         0.00000E+00
    0.00000E+00         0.00000E+00         0.96872E+02
 
    0.22612E+05         0.48177E+06         0.00000E+00
    0.48177E+06        -0.21603E+05         0.00000E+00
    0.00000E+00         0.00000E+00         0.20180E+03
 
    0.10651E+05         0.47219E+06         0.00000E+00
    0.47219E+06        -0.89861E+04         0.00000E+00
    0.00000E+00         0.00000E+00         0.33301E+03
 
    0.83919E+02         0.46195E+06         0.00000E+00
    0.46195E+06         0.23935E+04         0.00000E+00
    0.00000E+00         0.00000E+00         0.49548E+03
 
   -0.90051E+04         0.45111E+06         0.00000E+00
    0.45111E+06         0.12481E+05         0.00000E+00
    0.00000E+00         0.00000E+00         0.69518E+03
 
   -0.16528E+05         0.43976E+06         0.00000E+00
    0.43976E+06         0.21224E+05         0.00000E+00
    0.00000E+00         0.00000E+00         0.93934E+03
 
   -0.22392E+05         0.42795E+06         0.00000E+00
    0.42795E+06         0.28575E+05         0.00000E+00
    0.00000E+00         0.00000E+00         0.12366E+04
 
   -0.26506E+05         0.41579E+06         0.00000E+00
    0.41579E+06         0.34491E+05         0.00000E+00
    0.00000E+00         0.00000E+00         0.15971E+04
 
   -0.28771E+05         0.40336E+06         0.00000E+00
    0.40336E+06         0.38937E+05         0.00000E+00
    0.00000E+00         0.00000E+00         0.20331E+04
 
   -0.29092E+05         0.39077E+06         0.00000E+00
    0.39077E+06         0.41886E+05         0.00000E+00
    0.00000E+00         0.00000E+00         0.25586E+04
 
   -0.27371E+05         0.37813E+06         0.00000E+00
    0.37813E+06         0.43323E+05         0.00000E+00
    0.00000E+00         0.00000E+00         0.31903E+04
 
   -0.23511E+05         0.36556E+06         0.00000E+00
    0.36556E+06         0.43246E+05         0.00000E+00
    0.00000E+00         0.00000E+00         0.39470E+04
 
   -0.17415E+05         0.35318E+06         0.00000E+00
    0.35318E+06         0.41665E+05         0.00000E+00
    0.00000E+00         0.00000E+00         0.48501E+04
 
   -0.89917E+04         0.34115E+06         0.00000E+00
    0.34115E+06         0.38609E+05         0.00000E+00
    0.00000E+00         0.00000E+00         0.59235E+04
 
    0.18464E+04         0.32960E+06         0.00000E+00
    0.32960E+06         0.34117E+05         0.00000E+00
    0.00000E+00         0.00000E+00         0.71928E+04
 
    0.98524E+06         0.24989E+05         0.00000E+00
    0.24989E+05        -0.84141E+06         0.00000E+00
    0.00000E+00         0.00000E+00         0.28765E+05
 
    0.95655E+06         0.70433E+05         0.00000E+00
    0.70433E+05        -0.83661E+06         0.00000E+00
    0.00000E+00         0.00000E+00         0.23988E+05
 
    0.92731E+06         0.11381E+06         0.00000E+00
    0.11381E+06        -0.82762E+06         0.00000E+00
    0.00000E+00         0.00000E+00         0.19939E+05
 
    0.89758E+06         0.15506E+06         0.00000E+00
    0.15506E+06        -0.81496E+06         0.00000E+00
    0.00000E+00         0.00000E+00         0.16524E+05
 
    0.86742E+06         0.19413E+06         0.00000E+00
    0.19413E+06        -0.79914E+06         0.00000E+00
    0.00000E+00         0.00000E+00         0.13656E+05
 
    0.83691E+06         0.23099E+06         0.00000E+00
    0.23099E+06        -0.78062E+06         0.00000E+00
    0.00000E+00         0.00000E+00         0.11257E+05
 
    0.80610E+06         0.26563E+06         0.00000E+00
    0.26563E+06        -0.75982E+06         0.00000E+00
    0.00000E+00         0.00000E+00         0.92556E+04
 
    0.77508E+06         0.29807E+06         0.00000E+00
    0.29807E+06        -0.73712E+06         0.00000E+00
    0.00000E+00         0.00000E+00         0.75912E+04
 
    0.74391E+06         0.32832E+06         0.00000E+00
    0.32832E+06        -0.71286E+06         0.00000E+00
    0.00000E+00         0.00000E+00         0.62100E+04
 
    0.71266E+06         0.35643E+06         0.00000E+00
    0.35643E+06        -0.68733E+06         0.00000E+00
    0.00000E+00         0.00000E+00         0.50657E+04
 
    0.68141E+06         0.38244E+06         0.00000E+00
    0.38244E+06        -0.66081E+06         0.00000E+00
    0.00000E+00         0.00000E+00         0.41190E+04
 
    0.65021E+06         0.40639E+06         0.00000E+00
    0.40639E+06        -0.63353E+06         0.00000E+00
    0.00000E+00         0.00000E+00         0.33363E+04
 
    0.61913E+06         0.42834E+06         0.00000E+00
    0.42834E+06        -0.60568E+06         0.00000E+00
    0.00000E+00         0.00000E+00         0.26894E+04
 
    0.58824E+06         0.44837E+06         0.00000E+00
    0.44837E+06        -0.57746E+06         0.00000E+00
    0.00000E+00         0.00000E+00         0.21546E+04
 
    0.55758E+06         0.46652E+06         0.00000E+00
    0.46652E+06        -0.54902E+06         0.00000E+00
    0.00000E+00         0.00000E+00         0.17120E+04
 
    0.52721E+06         0.48287E+06         0.00000E+00
    0.48287E+06        -0.52049E+06         0.00000E+00
    0.00000E+00         0.00000E+00         0.13451E+04
 
    0.49719E+06         0.49749E+06         0.00000E+00
    0.49749E+06        -0.49198E+06         0.00000E+00
    0.00000E+00         0.00000E+00         0.10404E+04
 
    0.46755E+06         0.51043E+06         0.00000E+00
    0.51043E+06        -0.46361E+06         0.00000E+00
    0.00000E+00         0.00000E+00         0.78665E+03
 
    0.43833E+06         0.52177E+06         0.00000E+00
    0.52177E+06        -0.43546E+06         0.00000E+00
    0.00000E+00         0.00000E+00         0.57470E+03
 
    0.40959E+06         0.53156E+06         0.00000E+00
    0.53156E+06        -0.40760E+06         0.00000E+00
    0.00000E+00         0.00000E+00         0.39713E+03
 
    0.38134E+06         0.53987E+06         0.00000E+00
    0.53987E+06        -0.38010E+06         0.00000E+00
    0.00000E+00         0.00000E+00         0.24793E+03
 
    0.35363E+06         0.54674E+06         0.00000E+00
    0.54674E+06        -0.35302E+06         0.00000E+00
    0.00000E+00         0.00000E+00         0.12235E+03
 
    0.32648E+06         0.55223E+06         0.00000E+00
    0.55223E+06        -0.32640E+06         0.00000E+00
    0.00000E+00         0.00000E+00         0.16627E+02
 
    0.29993E+06         0.55639E+06         0.00000E+00
    0.55639E+06        -0.30029E+06         0.00000E+00
    0.00000E+00         0.00000E+00        -0.72128E+02
 
    0.27401E+06         0.55925E+06         0.00000E+00
    0.55925E+06        -0.27474E+06         0.00000E+00
    0.00000E+00         0.00000E+00        -0.14608E+03
 
    0.24875E+06         0.56086E+06         0.00000E+00
    0.56086E+06        -0.24978E+06         0.00000E+00
    0.00000E+00         0.00000E+00        -0.20676E+03
 
    0.22417E+06         0.56125E+06         0.00000E+00
    0.56125E+06        -0.22545E+06         0.00000E+00
    0.00000E+00         0.00000E+00        -0.25516E+03
 
    0.20033E+06         0.56045E+06         0.00000E+00
    0.56045E+06        -0.20179E+06         0.00000E+00
    0.00000E+00         0.00000E+00        -0.29181E+03
 
    0.17724E+06         0.55849E+06         0.00000E+00
    0.55849E+06        -0.17883E+06         0.00000E+00
    0.00000E+00         0.00000E+00        -0.31678E+03
 
    0.15497E+06         0.55538E+06         0.00000E+00
    0.55538E+06        -0.15661E+06         0.00000E+00
    0.00000E+00         0.00000E+00        -0.32973E+03
 
    0.13354E+06         0.55116E+06         0.00000E+00
    0.55116E+06        -0.13519E+06         0.00000E+00
    0.00000E+00         0.00000E+00        -0.32992E+03
 
    0.11302E+06         0.54583E+06         0.00000E+00
    0.54583E+06        -0.11460E+06         0.00000E+00
    0.00000E+00         0.00000E+00        -0.31618E+03
 
    0.93463E+05         0.53942E+06         0.00000E+00
    0.53942E+06        -0.94897E+05         0.00000E+00
    0.00000E+00         0.00000E+00        -0.28690E+03
 
    0.74933E+05         0.53195E+06         0.00000E+00
    0.53195E+06        -0.76133E+05         0.00000E+00
    0.00000E+00         0.00000E+00        -0.23998E+03
 
    0.57504E+05         0.52343E+06         0.00000E+00
    0.52343E+06        -0.58368E+05         0.00000E+00
    0.00000E+00         0.00000E+00        -0.17276E+03
 
    0.41256E+05         0.51388E+06         0.00000E+00
    0.51388E+06        -0.41666E+05         0.00000E+00
    0.00000E+00         0.00000E+00        -0.81919E+02
 
    0.26278E+05         0.50333E+06         0.00000E+00
    0.50333E+06        -0.26095E+05         0.00000E+00
    0.00000E+00         0.00000E+00         0.36634E+02
 
    0.12666E+05         0.49181E+06         0.00000E+00
    0.49181E+06        -0.11727E+05         0.00000E+00
    0.00000E+00         0.00000E+00         0.18789E+03
 
    0.52701E+03         0.47936E+06         0.00000E+00
    0.47936E+06         0.13625E+04         0.00000E+00
    0.00000E+00         0.00000E+00         0.37790E+03
 
   -0.10026E+05         0.46600E+06         0.00000E+00
    0.46600E+06         0.13096E+05         0.00000E+00
    0.00000E+00         0.00000E+00         0.61403E+03
 
   -0.18870E+05         0.45180E+06         0.00000E+00
    0.45180E+06         0.23396E+05         0.00000E+00
    0.00000E+00         0.00000E+00         0.90510E+03
 
   -0.25875E+05         0.43681E+06         0.00000E+00
    0.43681E+06         0.32184E+05         0.00000E+00
    0.00000E+00         0.00000E+00         0.12617E+04
 
   -0.30903E+05         0.42111E+06         0.00000E+00
    0.42111E+06         0.39386E+05         0.00000E+00
    0.00000E+00         0.00000E+00         0.16965E+04
 
   -0.33808E+05         0.40477E+06         0.00000E+00
    0.40477E+06         0.44931E+05         0.00000E+00
    0.00000E+00         0.00000E+00         0.22245E+04
 
   -0.34440E+05         0.38790E+06         0.00000E+00
    0.38790E+06         0.48757E+05         0.00000E+00
    0.00000E+00         0.00000E+00         0.28633E+04
 
   -0.32643E+05         0.37059E+06         0.00000E+00
    0.37059E+06         0.50810E+05         0.00000E+00
    0.00000E+00         0.00000E+00         0.36334E+04
 
   -0.28256E+05         0.35299E+06         0.00000E+00
    0.35299E+06         0.51049E+05         0.00000E+00
    0.00000E+00         0.00000E+00         0.45585E+04
 
   -0.21119E+05         0.33521E+06         0.00000E+00
    0.33521E+06         0.49447E+05         0.00000E+00
    0.00000E+00         0.00000E+00         0.56655E+04
 
   -0.11071E+05         0.31744E+06         0.00000E+00
    0.31744E+06         0.45992E+05         0.00000E+00
    0.00000E+00         0.00000E+00         0.69843E+04
 
    0.20479E+04         0.29982E+06         0.00000E+00
    0.29982E+06         0.40689E+05         0.00000E+00
    0.00000E+00         0.00000E+00         0.85473E+04
 
    0.11336E+07         0.27319E+05         0.00000E+00
    0.27319E+05        -0.93495E+06         0.00000E+00
    0.00000E+00         0.00000E+00         0.39738E+05
 
    0.10949E+07         0.76277E+05         0.00000E+00
    0.76277E+05        -0.92921E+06         0.00000E+00
    0.00000E+00         0.00000E+00         0.33128E+05
 
    0.10562E+07         0.12270E+06         0.00000E+00
    0.12270E+06        -0.91851E+06         0.00000E+00
    0.00000E+00         0.00000E+00         0.27531E+05
 
    0.10176E+07         0.16654E+06         0.00000E+00
    0.16654E+06        -0.90353E+06         0.00000E+00
    0.00000E+00         0.00000E+00         0.22815E+05
 
    0.97922E+06         0.20777E+06         0.00000E+00
    0.20777E+06        -0.88493E+06         0.00000E+00
    0.00000E+00         0.00000E+00         0.18858E+05
 
    0.94106E+06         0.24638E+06         0.00000E+00
    0.24638E+06        -0.86331E+06         0.00000E+00
    0.00000E+00         0.00000E+00         0.15550E+05
 
    0.90317E+06         0.28241E+06         0.00000E+00
    0.28241E+06        -0.83920E+06         0.00000E+00
    0.00000E+00         0.00000E+00         0.12793E+05
 
    0.86560E+06         0.31589E+06         0.00000E+00
    0.31589E+06        -0.81309E+06         0.00000E+00
    0.00000E+00         0.00000E+00         0.10502E+05
 
    0.82840E+06         0.34687E+06         0.00000E+00
    0.34687E+06        -0.78539E+06         0.00000E+00
    0.00000E+00         0.00000E+00         0.86008E+04
 
    0.79162E+06         0.37544E+06         0.00000E+00
    0.37544E+06        -0.75649E+06         0.00000E+00
    0.00000E+00         0.00000E+00         0.70265E+04
 
    0.75531E+06         0.40166E+06         0.00000E+00
    0.40166E+06        -0.72669E+06         0.00000E+00
    0.00000E+00         0.00000E+00         0.57239E+04
 
    0.71952E+06         0.42563E+06         0.00000E+00
    0.42563E+06        -0.69629E+06         0.00000E+00
    0.00000E+00         0.00000E+00         0.46466E+04
 
    0.68429E+06         0.44744E+06         0.00000E+00
    0.44744E+06        -0.66552E+06         0.00000E+00
    0.00000E+00         0.00000E+00         0.37553E+04
 
    0.64966E+06         0.46720E+06         0.00000E+00
    0.46720E+06        -0.63457E+06         0.00000E+00
    0.00000E+00         0.00000E+00         0.30173E+04
 
    0.61566E+06         0.48499E+06         0.00000E+00
    0.48499E+06        -0.60363E+06         0.00000E+00
    0.00000E+00         0.00000E+00         0.24053E+04
 
    0.58232E+06         0.50091E+06         0.00000E+00
    0.50091E+06        -0.57283E+06         0.00000E+00
    0.00000E+00         0.00000E+00         0.18965E+04
 
    0.54965E+06         0.51508E+06         0.00000E+00
    0.51508E+06        -0.54229E+06         0.00000E+00
    0.00000E+00         0.00000E+00         0.14721E+04
 
    0.51769E+06         0.52757E+06         0.00000E+00
    0.52757E+06        -0.51210E+06         0.00000E+00
    0.00000E+00         0.00000E+00         0.11168E+04
 
    0.48643E+06         0.53848E+06         0.00000E+00
    0.53848E+06        -0.48234E+06         0.00000E+00
    0.00000E+00         0.00000E+00         0.81801E+03
 
    0.45588E+06         0.54789E+06         0.00000E+00
    0.54789E+06        -0.45306E+06         0.00000E+00
    0.00000E+00         0.00000E+00         0.56544E+03
 
    0.42605E+06         0.55588E+06         0.00000E+00
    0.55588E+06        -0.42430E+06         0.00000E+00
    0.00000E+00         0.00000E+00         0.35091E+03
 
    0.39694E+06         0.56251E+06         0.00000E+00
    0.56251E+06        -0.39610E+06         0.00000E+00
    0.00000E+00         0.00000E+00         0.16784E+03
 
    0.36853E+06         0.56785E+06         0.00000E+00
    0.56785E+06        -0.36848E+06         0.00000E+00
    0.00000E+00         0.00000E+00         0.11059E+02
 
    0.34083E+06         0.57195E+06         0.00000E+00
    0.57195E+06        -0.34145E+06         0.00000E+00
    0.00000E+00         0.00000E+00        -0.12346E+03
 
    0.31383E+06         0.57484E+06         0.00000E+00
    0.57484E+06        -0.31502E+06         0.00000E+00
    0.00000E+00         0.00000E+00        -0.23875E+03
 
    0.28753E+06         0.57657E+06         0.00000E+00
    0.57657E+06        -0.28922E+06         0.00000E+00
    0.00000E+00         0.00000E+00        -0.33702E+03
 
    0.26193E+06         0.57716E+06         0.00000E+00
    0.57716E+06        -0.26402E+06         0.00000E+00
    0.00000E+00         0.00000E+00        -0.41977E+03
 
    0.23702E+06         0.57662E+06         0.00000E+00
    0.57662E+06        -0.23946E+06         0.00000E+00
    0.00000E+00         0.00000E+00        -0.48791E+03
 
    0.21283E+06         0.57495E+06         0.00000E+00
    0.57495E+06        -0.21554E+06         0.00000E+00
    0.00000E+00         0.00000E+00        -0.54175E+03
 
    0.18936E+06         0.57217E+06         0.00000E+00
    0.57217E+06        -0.19227E+06         0.00000E+00
    0.00000E+00         0.00000E+00        -0.58115E+03
 
    0.16664E+06         0.56825E+06         0.00000E+00
    0.56825E+06        -0.16967E+06         0.00000E+00
    0.00000E+00         0.00000E+00        -0.60546E+03
 
    0.14470E+06         0.56318E+06         0.00000E+00
    0.56318E+06        -0.14777E+06         0.00000E+00
    0.00000E+00         0.00000E+00        -0.61356E+03
 
    0.12359E+06         0.55696E+06         0.00000E+00
    0.55696E+06        -0.12661E+06         0.00000E+00
    0.00000E+00         0.00000E+00        -0.60383E+03
 
    0.10336E+06         0.54954E+06         0.00000E+00
    0.54954E+06        -0.10623E+06         0.00000E+00
    0.00000E+00         0.00000E+00        -0.57410E+03
 
    0.84086E+05         0.54091E+06         0.00000E+00
    0.54091E+06        -0.86694E+05         0.00000E+00
    0.00000E+00         0.00000E+00        -0.52161E+03
 
    0.65844E+05         0.53105E+06         0.00000E+00
    0.53105E+06        -0.68058E+05         0.00000E+00
    0.00000E+00         0.00000E+00        -0.44288E+03
 
    0.48734E+05         0.51992E+06         0.00000E+00
    0.51992E+06        -0.50402E+05         0.00000E+00
    0.00000E+00         0.00000E+00        -0.33362E+03
 
    0.32870E+05         0.50752E+06         0.00000E+00
    0.50752E+06        -0.33813E+05         0.00000E+00
    0.00000E+00         0.00000E+00        -0.18859E+03
 
    0.18381E+05         0.49383E+06         0.00000E+00
    0.49383E+06        -0.18388E+05         0.00000E+00
    0.00000E+00         0.00000E+00        -0.13556E+01
 
    0.54109E+04         0.47883E+06         0.00000E+00
    0.47883E+06        -0.42317E+04         0.00000E+00
    0.00000E+00         0.00000E+00         0.23585E+03
 
   -0.58785E+04         0.46255E+06         0.00000E+00
    0.46255E+06         0.85406E+04         0.00000E+00
    0.00000E+00         0.00000E+00         0.53243E+03
 
   -0.15310E+05         0.44499E+06         0.00000E+00
    0.44499E+06         0.19809E+05         0.00000E+00
    0.00000E+00         0.00000E+00         0.89971E+03
 
   -0.22693E+05         0.42618E+06         0.00000E+00
    0.42618E+06         0.29449E+05         0.00000E+00
    0.00000E+00         0.00000E+00         0.13512E+04
 
   -0.27819E+05         0.40617E+06         0.00000E+00
    0.40617E+06         0.37335E+05         0.00000E+00
    0.00000E+00         0.00000E+00         0.19032E+04
 
   -0.30468E+05         0.38504E+06         0.00000E+00
    0.38504E+06         0.43341E+05         0.00000E+00
    0.00000E+00         0.00000E+00         0.25746E+04
 
   -0.30408E+05         0.36286E+06         0.00000E+00
    0.36286E+06         0.47346E+05         0.00000E+00
    0.00000E+00         0.00000E+00         0.33878E+04
 
   -0.27395E+05         0.33976E+06         0.00000E+00
    0.33976E+06         0.49238E+05         0.00000E+00
    0.00000E+00         0.00000E+00         0.43686E+04
 
   -0.21180E+05         0.31587E+06         0.00000E+00
    0.31587E+06         0.48913E+05         0.00000E+00
    0.00000E+00         0.00000E+00         0.55464E+04
 
   -0.11507E+05         0.29135E+06         0.00000E+00
    0.29135E+06         0.46279E+05         0.00000E+00
    0.00000E+00         0.00000E+00         0.69543E+04
 
    0.18811E+04         0.26639E+06         0.00000E+00
    0.26639E+06         0.41260E+05         0.00000E+00
    0.00000E+00         0.00000E+00         0.86282E+04
 
    0.12960E+07         0.28888E+05         0.00000E+00
    0.28888E+05        -0.10295E+07         0.00000E+00
    0.00000E+00         0.00000E+00         0.53310E+05
 
    0.12449E+07         0.79750E+05         0.00000E+00
    0.79750E+05        -0.10227E+07         0.00000E+00
    0.00000E+00         0.00000E+00         0.44433E+05
 
    0.11948E+07         0.12757E+06         0.00000E+00
    0.12757E+06        -0.10102E+07         0.00000E+00
    0.00000E+00         0.00000E+00         0.36922E+05
 
    0.11457E+07         0.17233E+06         0.00000E+00
    0.17233E+06        -0.99275E+06         0.00000E+00
    0.00000E+00         0.00000E+00         0.30598E+05
 
    0.10977E+07         0.21403E+06         0.00000E+00
    0.21403E+06        -0.97124E+06         0.00000E+00
    0.00000E+00         0.00000E+00         0.25297E+05
 
    0.10508E+07         0.25270E+06         0.00000E+00
    0.25270E+06        -0.94643E+06         0.00000E+00
    0.00000E+00         0.00000E+00         0.20869E+05
 
    0.10049E+07         0.28840E+06         0.00000E+00
    0.28840E+06        -0.91900E+06         0.00000E+00
    0.00000E+00         0.00000E+00         0.17180E+05
 
    0.96013E+06         0.32122E+06         0.00000E+00
    0.32122E+06        -0.88955E+06         0.00000E+00
    0.00000E+00         0.00000E+00         0.14116E+05
 
    0.91648E+06         0.35125E+06         0.00000E+00
    0.35125E+06        -0.85861E+06         0.00000E+00
    0.00000E+00         0.00000E+00         0.11575E+05
 
    0.87399E+06         0.37863E+06         0.00000E+00
    0.37863E+06        -0.82664E+06         0.00000E+00
    0.00000E+00         0.00000E+00         0.94710E+04
 
    0.83268E+06         0.40346E+06         0.00000E+00
    0.40346E+06        -0.79403E+06         0.00000E+00
    0.00000E+00         0.00000E+00         0.77296E+04
 
    0.79255E+06         0.42591E+06         0.00000E+00
    0.42591E+06        -0.76111E+06         0.00000E+00
    0.00000E+00         0.00000E+00         0.62886E+04
 
    0.75363E+06         0.44612E+06         0.00000E+00
    0.44612E+06        -0.72816E+06         0.00000E+00
    0.00000E+00         0.00000E+00         0.50954E+04
 
    0.71593E+06         0.46423E+06         0.00000E+00
    0.46423E+06        -0.69540E+06         0.00000E+00
    0.00000E+00         0.00000E+00         0.41059E+04
 
    0.67943E+06         0.48039E+06         0.00000E+00
    0.48039E+06        -0.66301E+06         0.00000E+00
    0.00000E+00         0.00000E+00         0.32835E+04
 
    0.64412E+06         0.49476E+06         0.00000E+00
    0.49476E+06        -0.63113E+06         0.00000E+00
    0.00000E+00         0.00000E+00         0.25978E+04
 
    0.60999E+06         0.50748E+06         0.00000E+00
    0.50748E+06        -0.59987E+06         0.00000E+00
    0.00000E+00         0.00000E+00         0.20237E+04
 
    0.57700E+06         0.51868E+06         0.00000E+00
    0.51868E+06        -0.56930E+06         0.00000E+00
    0.00000E+00         0.00000E+00         0.15406E+04
 
    0.54512E+06         0.52850E+06         0.00000E+00
    0.52850E+06        -0.53947E+06         0.00000E+00
    0.00000E+00         0.00000E+00         0.11317E+04
 
    0.51430E+06         0.53704E+06         0.00000E+00
    0.53704E+06        -0.51039E+06         0.00000E+00
    0.00000E+00         0.00000E+00         0.78343E+03
 
    0.48449E+06         0.54441E+06         0.00000E+00
    0.54441E+06        -0.48207E+06         0.00000E+00
    0.00000E+00         0.00000E+00         0.48467E+03
 
    0.45563E+06         0.55070E+06         0.00000E+00
    0.55070E+06        -0.45450E+06         0.00000E+00
    0.00000E+00         0.00000E+00         0.22666E+03
 
    0.42765E+06         0.55599E+06         0.00000E+00
    0.55599E+06        -0.42764E+06         0.00000E+00
    0.00000E+00         0.00000E+00         0.23911E+01
 
    0.40049E+06         0.56033E+06         0.00000E+00
    0.56033E+06        -0.40146E+06         0.00000E+00
    0.00000E+00         0.00000E+00        -0.19360E+03
 
    0.37409E+06         0.56378E+06         0.00000E+00
    0.56378E+06        -0.37592E+06         0.00000E+00
    0.00000E+00         0.00000E+00        -0.36556E+03
 
    0.34839E+06         0.56634E+06         0.00000E+00
    0.56634E+06        -0.35097E+06         0.00000E+00
    0.00000E+00         0.00000E+00        -0.51664E+03
 
    0.32331E+06         0.56804E+06         0.00000E+00
    0.56804E+06        -0.32656E+06         0.00000E+00
    0.00000E+00         0.00000E+00        -0.64916E+03
 
    0.29882E+06         0.56886E+06         0.00000E+00
    0.56886E+06        -0.30264E+06         0.00000E+00
    0.00000E+00         0.00000E+00        -0.76467E+03
 
    0.27486E+06         0.56878E+06         0.00000E+00
    0.56878E+06        -0.27918E+06         0.00000E+00
    0.00000E+00         0.00000E+00        -0.86408E+03
 
    0.25140E+06         0.56777E+06         0.00000E+00
    0.56777E+06        -0.25614E+06         0.00000E+00
    0.00000E+00         0.00000E+00        -0.94775E+03
 
    0.22841E+06         0.56576E+06         0.00000E+00
    0.56576E+06        -0.23349E+06         0.00000E+00
    0.00000E+00         0.00000E+00        -0.10155E+04
 
    0.20589E+06         0.56270E+06         0.00000E+00
    0.56270E+06        -0.21123E+06         0.00000E+00
    0.00000E+00         0.00000E+00        -0.10667E+04
 
    0.18385E+06         0.55850E+06         0.00000E+00
    0.55850E+06        -0.18935E+06         0.00000E+00
    0.00000E+00         0.00000E+00        -0.11002E+04
 
    0.16231E+06         0.55308E+06         0.00000E+00
    0.55308E+06        -0.16788E+06         0.00000E+00
    0.00000E+00         0.00000E+00        -0.11144E+04
 
    0.14132E+06         0.54635E+06         0.00000E+00
    0.54635E+06        -0.14685E+06         0.00000E+00
    0.00000E+00         0.00000E+00        -0.11070E+04
 
    0.12095E+06         0.53820E+06         0.00000E+00
    0.53820E+06        -0.12632E+06         0.00000E+00
    0.00000E+00         0.00000E+00        -0.10754E+04
 
    0.10129E+06         0.52854E+06         0.00000E+00
    0.52854E+06        -0.10637E+06         0.00000E+00
    0.00000E+00         0.00000E+00        -0.10159E+04
 
    0.82468E+05         0.51726E+06         0.00000E+00
    0.51726E+06        -0.87090E+05         0.00000E+00
    0.00000E+00         0.00000E+00        -0.92424E+03
 
    0.64626E+05         0.50427E+06         0.00000E+00
    0.50427E+06        -0.68601E+05         0.00000E+00
    0.00000E+00         0.00000E+00        -0.79509E+03
 
    0.47934E+05         0.48948E+06         0.00000E+00
    0.48948E+06        -0.51043E+05         0.00000E+00
    0.00000E+00         0.00000E+00        -0.62190E+03
 
    0.32592E+05         0.47280E+06         0.00000E+00
    0.47280E+06        -0.34576E+05         0.00000E+00
    0.00000E+00         0.00000E+00        -0.39669E+03
 
    0.18828E+05         0.45419E+06         0.00000E+00
    0.45419E+06        -0.19377E+05         0.00000E+00
    0.00000E+00         0.00000E+00        -0.10979E+03
 
    0.68955E+04         0.43359E+06         0.00000E+00
    0.43359E+06        -0.56432E+04         0.00000E+00
    0.00000E+00         0.00000E+00         0.25047E+03
 
   -0.29259E+04         0.41097E+06         0.00000E+00
    0.41097E+06         0.64166E+04         0.00000E+00
    0.00000E+00         0.00000E+00         0.69813E+03
 
   -0.10331E+05         0.38636E+06         0.00000E+00
    0.38636E+06         0.16580E+05         0.00000E+00
    0.00000E+00         0.00000E+00         0.12499E+04
 
   -0.14990E+05         0.35977E+06         0.00000E+00
    0.35977E+06         0.24618E+05         0.00000E+00
    0.00000E+00         0.00000E+00         0.19256E+04
 
   -0.16554E+05         0.33128E+06         0.00000E+00
    0.33128E+06         0.30296E+05         0.00000E+00
    0.00000E+00         0.00000E+00         0.27482E+04
 
   -0.14656E+05         0.30099E+06         0.00000E+00
    0.30099E+06         0.33378E+05         0.00000E+00
    0.00000E+00         0.00000E+00         0.37443E+04
 
   -0.89138E+04         0.26906E+06         0.00000E+00
    0.26906E+06         0.33633E+05         0.00000E+00
    0.00000E+00         0.00000E+00         0.49438E+04
 
    0.10636E+04         0.23568E+06         0.00000E+00
    0.23568E+06         0.30833E+05         0.00000E+00
    0.00000E+00         0.00000E+00         0.63793E+04
 
    0.14680E+07         0.29300E+05         0.00000E+00
    0.29300E+05        -0.11196E+07         0.00000E+00
    0.00000E+00         0.00000E+00         0.69692E+05
 
    0.14021E+07         0.79687E+05         0.00000E+00
    0.79687E+05        -0.11117E+07         0.00000E+00
    0.00000E+00         0.00000E+00         0.58085E+05
 
    0.13385E+07         0.12650E+06         0.00000E+00
    0.12650E+06        -0.10972E+07         0.00000E+00
    0.00000E+00         0.00000E+00         0.48271E+05
 
    0.12772E+07         0.16973E+06         0.00000E+00
    0.16973E+06        -0.10771E+07         0.00000E+00
    0.00000E+00         0.00000E+00         0.40014E+05
 
    0.12181E+07         0.20941E+06         0.00000E+00
    0.20941E+06        -0.10526E+07         0.00000E+00
    0.00000E+00         0.00000E+00         0.33095E+05
 
    0.11611E+07         0.24562E+06         0.00000E+00
    0.24562E+06        -0.10245E+07         0.00000E+00
    0.00000E+00         0.00000E+00         0.27318E+05
 
    0.11064E+07         0.27847E+06         0.00000E+00
    0.27847E+06        -0.99385E+06         0.00000E+00
    0.00000E+00         0.00000E+00         0.22508E+05
 
    0.10538E+07         0.30808E+06         0.00000E+00
    0.30808E+06        -0.96128E+06         0.00000E+00
    0.00000E+00         0.00000E+00         0.18513E+05
 
    0.10035E+07         0.33464E+06         0.00000E+00
    0.33464E+06        -0.92748E+06         0.00000E+00
    0.00000E+00         0.00000E+00         0.15199E+05
 
    0.95531E+06         0.35832E+06         0.00000E+00
    0.35832E+06        -0.89303E+06         0.00000E+00
    0.00000E+00         0.00000E+00         0.12455E+05
 
    0.90931E+06         0.37934E+06         0.00000E+00
    0.37934E+06        -0.85840E+06         0.00000E+00
    0.00000E+00         0.00000E+00         0.10182E+05
 
    0.86547E+06         0.39791E+06         0.00000E+00
    0.39791E+06        -0.82398E+06         0.00000E+00
    0.00000E+00         0.00000E+00         0.82993E+04
 
    0.82378E+06         0.41425E+06         0.00000E+00
    0.41425E+06        -0.79008E+06         0.00000E+00
    0.00000E+00         0.00000E+00         0.67383E+04
 
    0.78418E+06         0.42860E+06         0.00000E+00
    0.42860E+06        -0.75697E+06         0.00000E+00
    0.00000E+00         0.00000E+00         0.54412E+04
 
    0.74663E+06         0.44118E+06         0.00000E+00
    0.44118E+06        -0.72482E+06         0.00000E+00
    0.00000E+00         0.00000E+00         0.43605E+04
 
    0.71105E+06         0.45221E+06         0.00000E+00
    0.45221E+06        -0.69377E+06         0.00000E+00
    0.00000E+00         0.00000E+00         0.34566E+04
 
    0.67738E+06         0.46191E+06         0.00000E+00
    0.46191E+06        -0.66389E+06         0.00000E+00
    0.00000E+00         0.00000E+00         0.26969E+04
 
    0.64550E+06         0.47047E+06         0.00000E+00
    0.47047E+06        -0.63522E+06         0.00000E+00
    0.00000E+00         0.00000E+00         0.20547E+04
 
    0.61530E+06         0.47809E+06         0.00000E+00
    0.47809E+06        -0.60776E+06         0.00000E+00
    0.00000E+00         0.00000E+00         0.15082E+04
 
    0.58666E+06         0.48494E+06         0.00000E+00
    0.48494E+06        -0.58146E+06         0.00000E+00
    0.00000E+00         0.00000E+00         0.10395E+04
 
    0.55943E+06         0.49115E+06         0.00000E+00
    0.49115E+06        -0.55626E+06         0.00000E+00
    0.00000E+00         0.00000E+00         0.63443E+03
 
    0.53348E+06         0.49685E+06         0.00000E+00
    0.49685E+06        -0.53207E+06         0.00000E+00
    0.00000E+00         0.00000E+00         0.28126E+03
 
    0.50864E+06         0.50214E+06         0.00000E+00
    0.50214E+06        -0.50879E+06         0.00000E+00
    0.00000E+00         0.00000E+00        -0.29287E+02
 
    0.48476E+06         0.50710E+06         0.00000E+00
    0.50710E+06        -0.48628E+06         0.00000E+00
    0.00000E+00         0.00000E+00        -0.30464E+03
 
    0.46167E+06         0.51176E+06         0.00000E+00
    0.51176E+06        -0.46443E+06         0.00000E+00
    0.00000E+00         0.00000E+00        -0.55069E+03
 
    0.43922E+06         0.51615E+06         0.00000E+00
    0.51615E+06        -0.44308E+06         0.00000E+00
    0.00000E+00         0.00000E+00        -0.77208E+03
 
    0.41724E+06         0.52026E+06         0.00000E+00
    0.52026E+06        -0.42210E+06         0.00000E+00
    0.00000E+00         0.00000E+00        -0.97241E+03
 
    0.39560E+06         0.52404E+06         0.00000E+00
    0.52404E+06        -0.40137E+06         0.00000E+00
    0.00000E+00         0.00000E+00        -0.11545E+04
 
    0.37414E+06         0.52744E+06         0.00000E+00
    0.52744E+06        -0.38074E+06         0.00000E+00
    0.00000E+00         0.00000E+00        -0.13203E+04
 
    0.35276E+06         0.53036E+06         0.00000E+00
    0.53036E+06        -0.36012E+06         0.00000E+00
    0.00000E+00         0.00000E+00        -0.14714E+04
 
    0.33134E+06         0.53269E+06         0.00000E+00
    0.53269E+06        -0.33938E+06         0.00000E+00
    0.00000E+00         0.00000E+00        -0.16089E+04
 
    0.30979E+06         0.53428E+06         0.00000E+00
    0.53428E+06        -0.31846E+06         0.00000E+00
    0.00000E+00         0.00000E+00        -0.17333E+04
 
    0.28807E+06         0.53497E+06         0.00000E+00
    0.53497E+06        -0.29729E+06         0.00000E+00
    0.00000E+00         0.00000E+00        -0.18448E+04
 
    0.26612E+06         0.53459E+06         0.00000E+00
    0.53459E+06        -0.27584E+06         0.00000E+00
    0.00000E+00         0.00000E+00        -0.19435E+04
 
    0.24396E+06         0.53292E+06         0.00000E+00
    0.53292E+06        -0.25410E+06         0.00000E+00
    0.00000E+00         0.00000E+00        -0.20290E+04
 
    0.22160E+06         0.52977E+06         0.00000E+00
    0.52977E+06        -0.23210E+06         0.00000E+00
    0.00000E+00         0.00000E+00        -0.21004E+04
 
    0.19912E+06         0.52492E+06         0.00000E+00
    0.52492E+06        -0.20990E+06         0.00000E+00
    0.00000E+00         0.00000E+00        -0.21568E+04
 
    0.17661E+06         0.51812E+06         0.00000E+00
    0.51812E+06        -0.18759E+06         0.00000E+00
    0.00000E+00         0.00000E+00        -0.21966E+04
 
    0.15422E+06         0.50917E+06         0.00000E+00
    0.50917E+06        -0.16531E+06         0.00000E+00
    0.00000E+00         0.00000E+00        -0.22181E+04
 
    0.13213E+06         0.49783E+06         0.00000E+00
    0.49783E+06        -0.14322E+06         0.00000E+00
    0.00000E+00         0.00000E+00        -0.22186E+04
 
    0.11057E+06         0.48389E+06         0.00000E+00
    0.48389E+06        -0.12154E+06         0.00000E+00
    0.00000E+00         0.00000E+00        -0.21951E+04
 
    0.89808E+05         0.46715E+06         0.00000E+00
    0.46715E+06        -0.10053E+06         0.00000E+00
    0.00000E+00         0.00000E+00        -0.21434E+04
 
    0.70167E+05         0.44744E+06         0.00000E+00
    0.44744E+06        -0.80459E+05         0.00000E+00
    0.00000E+00         0.00000E+00        -0.20584E+04
 
    0.52001E+05         0.42461E+06         0.00000E+00
    0.42461E+06        -0.61669E+05         0.00000E+00
    0.00000E+00         0.00000E+00        -0.19337E+04
 
    0.35713E+05         0.39854E+06         0.00000E+00
    0.39854E+06        -0.44519E+05         0.00000E+00
    0.00000E+00         0.00000E+00        -0.17613E+04
 
    0.21745E+05         0.36915E+06         0.00000E+00
    0.36915E+06        -0.29402E+05         0.00000E+00
    0.00000E+00         0.00000E+00        -0.15313E+04
 
    0.10578E+05         0.33643E+06         0.00000E+00
    0.33643E+06        -0.16738E+05         0.00000E+00
    0.00000E+00         0.00000E+00        -0.12320E+04
 
    0.27263E+04         0.30040E+06         0.00000E+00
    0.30040E+06        -0.69717E+04         0.00000E+00
    0.00000E+00         0.00000E+00        -0.84909E+03
 
   -0.12658E+04         0.26115E+06         0.00000E+00
    0.26115E+06        -0.56729E+03         0.00000E+00
    0.00000E+00         0.00000E+00        -0.36662E+03
 
   -0.83065E+03         0.21883E+06         0.00000E+00
    0.21883E+06         0.20001E+04         0.00000E+00
    0.00000E+00         0.00000E+00         0.23388E+03
 
    0.16435E+07         0.28204E+05         0.00000E+00
    0.28204E+05        -0.11976E+07         0.00000E+00
    0.00000E+00         0.00000E+00         0.89177E+05
 
    0.15602E+07         0.74978E+05         0.00000E+00
    0.74978E+05        -0.11885E+07         0.00000E+00
    0.00000E+00         0.00000E+00         0.74349E+05
 
    0.14808E+07         0.11756E+06         0.00000E+00
    0.11756E+06        -0.11717E+07         0.00000E+00
    0.00000E+00         0.00000E+00         0.61815E+05
 
    0.14051E+07         0.15594E+06         0.00000E+00
    0.15594E+06        -0.11488E+07         0.00000E+00
    0.00000E+00         0.00000E+00         0.51269E+05
 
    0.13332E+07         0.19019E+06         0.00000E+00
    0.19019E+06        -0.11210E+07         0.00000E+00
    0.00000E+00         0.00000E+00         0.42432E+05
 
    0.12649E+07         0.22043E+06         0.00000E+00
    0.22043E+06        -0.10897E+07         0.00000E+00
    0.00000E+00         0.00000E+00         0.35053E+05
 
    0.12003E+07         0.24683E+06         0.00000E+00
    0.24683E+06        -0.10558E+07         0.00000E+00
    0.00000E+00         0.00000E+00         0.28906E+05
 
    0.11394E+07         0.26961E+06         0.00000E+00
    0.26961E+06        -0.10204E+07         0.00000E+00
    0.00000E+00         0.00000E+00         0.23797E+05
 
    0.10821E+07         0.28903E+06         0.00000E+00
    0.28903E+06        -0.98433E+06         0.00000E+00
    0.00000E+00         0.00000E+00         0.19556E+05
 
    0.10285E+07         0.30538E+06         0.00000E+00
    0.30538E+06        -0.94827E+06         0.00000E+00
    0.00000E+00         0.00000E+00         0.16038E+05
 
    0.97842E+06         0.31898E+06         0.00000E+00
    0.31898E+06        -0.91282E+06         0.00000E+00
    0.00000E+00         0.00000E+00         0.13120E+05
 
    0.93193E+06         0.33018E+06         0.00000E+00
    0.33018E+06        -0.87844E+06         0.00000E+00
    0.00000E+00         0.00000E+00         0.10698E+05
 
    0.88892E+06         0.33930E+06         0.00000E+00
    0.33930E+06        -0.84549E+06         0.00000E+00
    0.00000E+00         0.00000E+00         0.86849E+04
 
    0.84930E+06         0.34672E+06         0.00000E+00
    0.34672E+06        -0.81426E+06         0.00000E+00
    0.00000E+00         0.00000E+00         0.70074E+04
 
    0.81294E+06         0.35276E+06         0.00000E+00
    0.35276E+06        -0.78492E+06         0.00000E+00
    0.00000E+00         0.00000E+00         0.56054E+04
 
    0.77971E+06         0.35778E+06         0.00000E+00
    0.35778E+06        -0.75756E+06         0.00000E+00
    0.00000E+00         0.00000E+00         0.44290E+04
 
    0.74941E+06         0.36208E+06         0.00000E+00
    0.36208E+06        -0.73223E+06         0.00000E+00
    0.00000E+00         0.00000E+00         0.34369E+04
 
    0.72185E+06         0.36598E+06         0.00000E+00
    0.36598E+06        -0.70887E+06         0.00000E+00
    0.00000E+00         0.00000E+00         0.25955E+04
 
    0.69680E+06         0.36974E+06         0.00000E+00
    0.36974E+06        -0.68742E+06         0.00000E+00
    0.00000E+00         0.00000E+00         0.18770E+04
 
    0.67402E+06         0.37360E+06         0.00000E+00
    0.37360E+06        -0.66773E+06         0.00000E+00
    0.00000E+00         0.00000E+00         0.12588E+04
 
    0.65323E+06         0.37777E+06         0.00000E+00
    0.37777E+06        -0.64962E+06         0.00000E+00
    0.00000E+00         0.00000E+00         0.72240E+03
 
    0.63416E+06         0.38243E+06         0.00000E+00
    0.38243E+06        -0.63290E+06         0.00000E+00
    0.00000E+00         0.00000E+00         0.25267E+03
 
    0.61651E+06         0.38771E+06         0.00000E+00
    0.38771E+06        -0.61732E+06         0.00000E+00
    0.00000E+00         0.00000E+00        -0.16281E+03
 
    0.59998E+06         0.39371E+06         0.00000E+00
    0.39371E+06        -0.60265E+06         0.00000E+00
    0.00000E+00         0.00000E+00        -0.53427E+03
 
    0.58426E+06         0.40046E+06         0.00000E+00
    0.40046E+06        -0.58861E+06         0.00000E+00
    0.00000E+00         0.00000E+00        -0.87014E+03
 
    0.56905E+06         0.40799E+06         0.00000E+00
    0.40799E+06        -0.57493E+06         0.00000E+00
    0.00000E+00         0.00000E+00        -0.11775E+04
 
    0.55404E+06         0.41626E+06         0.00000E+00
    0.41626E+06        -0.56136E+06         0.00000E+00
    0.00000E+00         0.00000E+00        -0.14622E+04
 
    0.53896E+06         0.42520E+06         0.00000E+00
    0.42520E+06        -0.54761E+06         0.00000E+00
    0.00000E+00         0.00000E+00        -0.17293E+04
 
    0.52352E+06         0.43468E+06         0.00000E+00
    0.43468E+06        -0.53343E+06         0.00000E+00
    0.00000E+00         0.00000E+00        -0.19833E+04
 
    0.50745E+06         0.44454E+06         0.00000E+00
    0.44454E+06        -0.51859E+06         0.00000E+00
    0.00000E+00         0.00000E+00        -0.22279E+04
 
    0.49053E+06         0.45460E+06         0.00000E+00
    0.45460E+06        -0.50286E+06         0.00000E+00
    0.00000E+00         0.00000E+00        -0.24667E+04
 
    0.47253E+06         0.46460E+06         0.00000E+00
    0.46460E+06        -0.48605E+06         0.00000E+00
    0.00000E+00         0.00000E+00        -0.27031E+04
 
    0.45329E+06         0.47428E+06         0.00000E+00
    0.47428E+06        -0.46799E+06         0.00000E+00
    0.00000E+00         0.00000E+00        -0.29402E+04
 
    0.43266E+06         0.48332E+06         0.00000E+00
    0.48332E+06        -0.44856E+06         0.00000E+00
    0.00000E+00         0.00000E+00        -0.31813E+04
 
    0.41052E+06         0.49140E+06         0.00000E+00
    0.49140E+06        -0.42767E+06         0.00000E+00
    0.00000E+00         0.00000E+00        -0.34298E+04
 
    0.38683E+06         0.49813E+06         0.00000E+00
    0.49813E+06        -0.40528E+06         0.00000E+00
    0.00000E+00         0.00000E+00        -0.36894E+04
 
    0.36157E+06         0.50314E+06         0.00000E+00
    0.50314E+06        -0.38139E+06         0.00000E+00
    0.00000E+00         0.00000E+00        -0.39641E+04
 
    0.33479E+06         0.50601E+06         0.00000E+00
    0.50601E+06        -0.35608E+06         0.00000E+00
    0.00000E+00         0.00000E+00        -0.42585E+04
 
    0.30658E+06         0.50634E+06         0.00000E+00
    0.50634E+06        -0.32947E+06         0.00000E+00
    0.00000E+00         0.00000E+00        -0.45778E+04
 
    0.27711E+06         0.50368E+06         0.00000E+00
    0.50368E+06        -0.30175E+06         0.00000E+00
    0.00000E+00         0.00000E+00        -0.49278E+04
 
    0.24661E+06         0.49764E+06         0.00000E+00
    0.49764E+06        -0.27318E+06         0.00000E+00
    0.00000E+00         0.00000E+00        -0.53154E+04
 
    0.21535E+06         0.48778E+06         0.00000E+00
    0.48778E+06        -0.24409E+06         0.00000E+00
    0.00000E+00         0.00000E+00        -0.57483E+04
 
    0.18371E+06         0.47372E+06         0.00000E+00
    0.47372E+06        -0.21488E+06         0.00000E+00
    0.00000E+00         0.00000E+00        -0.62353E+04
 
    0.15210E+06         0.45511E+06         0.00000E+00
    0.45511E+06        -0.18603E+06         0.00000E+00
    0.00000E+00         0.00000E+00        -0.67860E+04
 
    0.12103E+06         0.43161E+06         0.00000E+00
    0.43161E+06        -0.15808E+06         0.00000E+00
    0.00000E+00         0.00000E+00        -0.74112E+04
 
    0.91053E+05         0.40296E+06         0.00000E+00
    0.40296E+06        -0.13167E+06         0.00000E+00
    0.00000E+00         0.00000E+00        -0.81226E+04
 
    0.62801E+05         0.36895E+06         0.00000E+00
    0.36895E+06        -0.10747E+06         0.00000E+00
    0.00000E+00         0.00000E+00        -0.89332E+04
 
    0.36962E+05         0.32945E+06         0.00000E+00
    0.32945E+06        -0.86244E+05         0.00000E+00
    0.00000E+00         0.00000E+00        -0.98566E+04
 
    0.14280E+05         0.28441E+06         0.00000E+00
    0.28441E+06        -0.68809E+05         0.00000E+00
    0.00000E+00         0.00000E+00        -0.10906E+05
 
   -0.44532E+04         0.23388E+06         0.00000E+00
    0.23388E+06        -0.56034E+05         0.00000E+00
    0.00000E+00         0.00000E+00        -0.12097E+05
 
    0.18158E+07         0.25436E+05         0.00000E+00
    0.25436E+05        -0.12533E+07         0.00000E+00
    0.00000E+00         0.00000E+00         0.11250E+06
 
    0.17119E+07         0.64836E+05         0.00000E+00
    0.64836E+05        -0.12426E+07         0.00000E+00
    0.00000E+00         0.00000E+00         0.93870E+05
 
    0.16136E+07         0.99161E+05         0.00000E+00
    0.99161E+05        -0.12231E+07         0.00000E+00
    0.00000E+00         0.00000E+00         0.78108E+05
 
    0.15209E+07         0.12841E+06         0.00000E+00
    0.12841E+06        -0.11967E+07         0.00000E+00
    0.00000E+00         0.00000E+00         0.64837E+05
 
    0.14338E+07         0.15267E+06         0.00000E+00
    0.15267E+06        -0.11653E+07         0.00000E+00
    0.00000E+00         0.00000E+00         0.53702E+05
 
    0.13523E+07         0.17213E+06         0.00000E+00
    0.17213E+06        -0.11303E+07         0.00000E+00
    0.00000E+00         0.00000E+00         0.44388E+05
 
    0.12764E+07         0.18706E+06         0.00000E+00
    0.18706E+06        -0.10933E+07         0.00000E+00
    0.00000E+00         0.00000E+00         0.36615E+05
 
    0.12062E+07         0.19783E+06         0.00000E+00
    0.19783E+06        -0.10556E+07         0.00000E+00
    0.00000E+00         0.00000E+00         0.30138E+05
 
    0.11418E+07         0.20486E+06         0.00000E+00
    0.20486E+06        -0.10181E+07         0.00000E+00
    0.00000E+00         0.00000E+00         0.24747E+05
 
    0.10831E+07         0.20862E+06         0.00000E+00
    0.20862E+06        -0.98177E+06         0.00000E+00
    0.00000E+00         0.00000E+00         0.20260E+05
 
    0.10300E+07         0.20962E+06         0.00000E+00
    0.20962E+06        -0.94737E+06         0.00000E+00
    0.00000E+00         0.00000E+00         0.16524E+05
 
    0.98249E+06         0.20839E+06         0.00000E+00
    0.20839E+06        -0.91543E+06         0.00000E+00
    0.00000E+00         0.00000E+00         0.13412E+05
 
    0.94043E+06         0.20549E+06         0.00000E+00
    0.20549E+06        -0.88636E+06         0.00000E+00
    0.00000E+00         0.00000E+00         0.10814E+05
 
    0.90363E+06         0.20146E+06         0.00000E+00
    0.20146E+06        -0.86042E+06         0.00000E+00
    0.00000E+00         0.00000E+00         0.86419E+04
 
    0.87186E+06         0.19683E+06         0.00000E+00
    0.19683E+06        -0.83775E+06         0.00000E+00
    0.00000E+00         0.00000E+00         0.68206E+04
 
    0.84482E+06         0.19210E+06         0.00000E+00
    0.19210E+06        -0.81838E+06         0.00000E+00
    0.00000E+00         0.00000E+00         0.52888E+04
 
    0.82221E+06         0.18776E+06         0.00000E+00
    0.18776E+06        -0.80223E+06         0.00000E+00
    0.00000E+00         0.00000E+00         0.39955E+04
 
    0.80364E+06         0.18422E+06         0.00000E+00
    0.18422E+06        -0.78915E+06         0.00000E+00
    0.00000E+00         0.00000E+00         0.28989E+04
 
    0.78873E+06         0.18189E+06         0.00000E+00
    0.18189E+06        -0.77891E+06         0.00000E+00
    0.00000E+00         0.00000E+00         0.19644E+04
 
    0.77704E+06         0.18111E+06         0.00000E+00
    0.18111E+06        -0.77122E+06         0.00000E+00
    0.00000E+00         0.00000E+00         0.11630E+04
 
    0.76810E+06         0.18214E+06         0.00000E+00
    0.18214E+06        -0.76575E+06         0.00000E+00
    0.00000E+00         0.00000E+00         0.47087E+03
 
    0.76145E+06         0.18523E+06         0.00000E+00
    0.18523E+06        -0.76211E+06         0.00000E+00
    0.00000E+00         0.00000E+00        -0.13224E+03
 
    0.75659E+06         0.19054E+06         0.00000E+00
    0.19054E+06        -0.75991E+06         0.00000E+00
    0.00000E+00         0.00000E+00        -0.66344E+03
 
    0.75303E+06         0.19819E+06         0.00000E+00
    0.19819E+06        -0.75871E+06         0.00000E+00
    0.00000E+00         0.00000E+00        -0.11374E+04
 
    0.75025E+06         0.20822E+06         0.00000E+00
    0.20822E+06        -0.75809E+06         0.00000E+00
    0.00000E+00         0.00000E+00        -0.15670E+04
 
    0.74776E+06         0.22064E+06         0.00000E+00
    0.22064E+06        -0.75758E+06         0.00000E+00
    0.00000E+00         0.00000E+00        -0.19636E+04
 
    0.74506E+06         0.23537E+06         0.00000E+00
    0.23537E+06        -0.75675E+06         0.00000E+00
    0.00000E+00         0.00000E+00        -0.23372E+04
 
    0.74167E+06         0.25230E+06         0.00000E+00
    0.25230E+06        -0.75516E+06         0.00000E+00
    0.00000E+00         0.00000E+00        -0.26973E+04
 
    0.73712E+06         0.27125E+06         0.00000E+00
    0.27125E+06        -0.75238E+06         0.00000E+00
    0.00000E+00         0.00000E+00        -0.30526E+04
 
    0.73095E+06         0.29197E+06         0.00000E+00
    0.29197E+06        -0.74801E+06         0.00000E+00
    0.00000E+00         0.00000E+00        -0.34117E+04
 
    0.72275E+06         0.31418E+06         0.00000E+00
    0.31418E+06        -0.74167E+06         0.00000E+00
    0.00000E+00         0.00000E+00        -0.37830E+04
 
    0.71211E+06         0.33753E+06         0.00000E+00
    0.33753E+06        -0.73299E+06         0.00000E+00
    0.00000E+00         0.00000E+00        -0.41748E+04
 
    0.69868E+06         0.36161E+06         0.00000E+00
    0.36161E+06        -0.72166E+06         0.00000E+00
    0.00000E+00         0.00000E+00        -0.45961E+04
 
    0.68214E+06         0.38597E+06         0.00000E+00
    0.38597E+06        -0.70742E+06         0.00000E+00
    0.00000E+00         0.00000E+00        -0.50563E+04
 
    0.66221E+06         0.41009E+06         0.00000E+00
    0.41009E+06        -0.69004E+06         0.00000E+00
    0.00000E+00         0.00000E+00        -0.55661E+04
 
    0.63867E+06         0.43343E+06         0.00000E+00
    0.43343E+06        -0.66935E+06         0.00000E+00
    0.00000E+00         0.00000E+00        -0.61369E+04
 
    0.61136E+06         0.45539E+06         0.00000E+00
    0.45539E+06        -0.64527E+06         0.00000E+00
    0.00000E+00         0.00000E+00        -0.67821E+04
 
    0.58019E+06         0.47532E+06         0.00000E+00
    0.47532E+06        -0.61777E+06         0.00000E+00
    0.00000E+00         0.00000E+00        -0.75172E+04
 
    0.54513E+06         0.49255E+06         0.00000E+00
    0.49255E+06        -0.58693E+06         0.00000E+00
    0.00000E+00         0.00000E+00        -0.83599E+04
 
    0.50626E+06         0.50638E+06         0.00000E+00
    0.50638E+06        -0.55291E+06         0.00000E+00
    0.00000E+00         0.00000E+00        -0.93312E+04
 
    0.46371E+06         0.51610E+06         0.00000E+00
    0.51610E+06        -0.51599E+06         0.00000E+00
    0.00000E+00         0.00000E+00        -0.10455E+05
 
    0.41773E+06         0.52098E+06         0.00000E+00
    0.52098E+06        -0.47653E+06         0.00000E+00
    0.00000E+00         0.00000E+00        -0.11761E+05
 
    0.36865E+06         0.52031E+06         0.00000E+00
    0.52031E+06        -0.43506E+06         0.00000E+00
    0.00000E+00         0.00000E+00        -0.13281E+05
 
    0.31692E+06         0.51340E+06         0.00000E+00
    0.51340E+06        -0.39220E+06         0.00000E+00
    0.00000E+00         0.00000E+00        -0.15056E+05
 
    0.26310E+06         0.49957E+06         0.00000E+00
    0.49957E+06        -0.34874E+06         0.00000E+00
    0.00000E+00         0.00000E+00        -0.17128E+05
 
    0.20783E+06         0.47823E+06         0.00000E+00
    0.47823E+06        -0.30557E+06         0.00000E+00
    0.00000E+00         0.00000E+00        -0.19549E+05
 
    0.15187E+06         0.44884E+06         0.00000E+00
    0.44884E+06        -0.26375E+06         0.00000E+00
    0.00000E+00         0.00000E+00        -0.22375E+05
 
    0.96117E+05         0.41097E+06         0.00000E+00
    0.41097E+06        -0.22447E+06         0.00000E+00
    0.00000E+00         0.00000E+00        -0.25671E+05
 
    0.41517E+05         0.36429E+06         0.00000E+00
    0.36429E+06        -0.18906E+06         0.00000E+00
    0.00000E+00         0.00000E+00        -0.29508E+05
 
   -0.10856E+05         0.30862E+06         0.00000E+00
    0.30862E+06        -0.15894E+06         0.00000E+00
    0.00000E+00         0.00000E+00        -0.33958E+05
 
    0.19803E+07         0.21258E+05         0.00000E+00
    0.21258E+05        -0.12721E+07         0.00000E+00
    0.00000E+00         0.00000E+00         0.14163E+06
 
    0.18506E+07         0.49063E+05         0.00000E+00
    0.49063E+05        -0.12591E+07         0.00000E+00
    0.00000E+00         0.00000E+00         0.11830E+06
 
    0.17285E+07         0.70234E+05         0.00000E+00
    0.70234E+05        -0.12359E+07         0.00000E+00
    0.00000E+00         0.00000E+00         0.98514E+05
 
    0.16142E+07         0.84707E+05         0.00000E+00
    0.84707E+05        -0.12052E+07         0.00000E+00
    0.00000E+00         0.00000E+00         0.81793E+05
 
    0.15079E+07         0.92692E+05         0.00000E+00
    0.92692E+05        -0.11693E+07         0.00000E+00
    0.00000E+00         0.00000E+00         0.67717E+05
 
    0.14099E+07         0.94542E+05         0.00000E+00
    0.94542E+05        -0.11304E+07         0.00000E+00
    0.00000E+00         0.00000E+00         0.55893E+05
 
    0.13205E+07         0.90762E+05         0.00000E+00
    0.90762E+05        -0.10906E+07         0.00000E+00
    0.00000E+00         0.00000E+00         0.45977E+05
 
    0.12397E+07         0.81996E+05         0.00000E+00
    0.81996E+05        -0.10514E+07         0.00000E+00
    0.00000E+00         0.00000E+00         0.37668E+05
 
    0.11678E+07         0.68999E+05         0.00000E+00
    0.68999E+05        -0.10143E+07         0.00000E+00
    0.00000E+00         0.00000E+00         0.30709E+05
 
    0.11048E+07         0.52595E+05         0.00000E+00
    0.52595E+05        -0.98039E+06         0.00000E+00
    0.00000E+00         0.00000E+00         0.24883E+05
 
    0.10505E+07         0.33651E+05         0.00000E+00
    0.33651E+05        -0.95050E+06         0.00000E+00
    0.00000E+00         0.00000E+00         0.20004E+05
 
    0.10048E+07         0.13049E+05         0.00000E+00
    0.13049E+05        -0.92523E+06         0.00000E+00
    0.00000E+00         0.00000E+00         0.15916E+05
 
    0.96741E+06        -0.83391E+04         0.00000E+00
   -0.83391E+04        -0.90497E+06         0.00000E+00
    0.00000E+00         0.00000E+00         0.12489E+05
 
    0.93795E+06        -0.29672E+05         0.00000E+00
   -0.29672E+05        -0.88987E+06         0.00000E+00
    0.00000E+00         0.00000E+00         0.96147E+04
 
    0.91596E+06        -0.50156E+05         0.00000E+00
   -0.50156E+05        -0.87994E+06         0.00000E+00
    0.00000E+00         0.00000E+00         0.72030E+04
 
    0.90092E+06        -0.69061E+05         0.00000E+00
   -0.69061E+05        -0.87502E+06         0.00000E+00
    0.00000E+00         0.00000E+00         0.51786E+04
 
    0.89223E+06        -0.85727E+05         0.00000E+00
   -0.85727E+05        -0.87484E+06         0.00000E+00
    0.00000E+00         0.00000E+00         0.34785E+04
 
    0.88926E+06        -0.99575E+05         0.00000E+00
   -0.99575E+05        -0.87901E+06         0.00000E+00
    0.00000E+00         0.00000E+00         0.20500E+04
 
    0.89132E+06        -0.11011E+06         0.00000E+00
   -0.11011E+06        -0.88708E+06         0.00000E+00
    0.00000E+00         0.00000E+00         0.84807E+03
 
    0.89769E+06        -0.11692E+06         0.00000E+00
   -0.11692E+06        -0.89852E+06         0.00000E+00
    0.00000E+00         0.00000E+00        -0.16546E+03
 
    0.90765E+06        -0.11967E+06         0.00000E+00
   -0.11967E+06        -0.91277E+06         0.00000E+00
    0.00000E+00         0.00000E+00        -0.10237E+04
 
    0.92045E+06        -0.11811E+06         0.00000E+00
   -0.11811E+06        -0.92923E+06         0.00000E+00
    0.00000E+00         0.00000E+00        -0.17554E+04
 
    0.93536E+06        -0.11209E+06         0.00000E+00
   -0.11209E+06        -0.94729E+06         0.00000E+00
    0.00000E+00         0.00000E+00        -0.23861E+04
 
    0.95162E+06        -0.10149E+06         0.00000E+00
   -0.10149E+06        -0.96631E+06         0.00000E+00
    0.00000E+00         0.00000E+00        -0.29385E+04
 
    0.96850E+06        -0.86297E+05         0.00000E+00
   -0.86297E+05        -0.98566E+06         0.00000E+00
    0.00000E+00         0.00000E+00        -0.34332E+04
 
    0.98527E+06        -0.66556E+05         0.00000E+00
   -0.66556E+05        -0.10047E+07         0.00000E+00
    0.00000E+00         0.00000E+00        -0.38892E+04
 
    0.10012E+07        -0.42375E+05         0.00000E+00
   -0.42375E+05        -0.10228E+07         0.00000E+00
    0.00000E+00         0.00000E+00        -0.43241E+04
 
    0.10156E+07        -0.13930E+05         0.00000E+00
   -0.13930E+05        -0.10394E+07         0.00000E+00
    0.00000E+00         0.00000E+00        -0.47552E+04
 
    0.10279E+07         0.18538E+05         0.00000E+00
    0.18538E+05        -0.10539E+07         0.00000E+00
    0.00000E+00         0.00000E+00        -0.51990E+04
 
    0.10372E+07         0.54724E+05         0.00000E+00
    0.54724E+05        -0.10655E+07         0.00000E+00
    0.00000E+00         0.00000E+00        -0.56721E+04
 
    0.10430E+07         0.94255E+05         0.00000E+00
    0.94255E+05        -0.10739E+07         0.00000E+00
    0.00000E+00         0.00000E+00        -0.61914E+04
 
    0.10446E+07         0.13669E+06         0.00000E+00
    0.13669E+06        -0.10785E+07         0.00000E+00
    0.00000E+00         0.00000E+00        -0.67749E+04
 
    0.10415E+07         0.18153E+06         0.00000E+00
    0.18153E+06        -0.10787E+07         0.00000E+00
    0.00000E+00         0.00000E+00        -0.74412E+04
 
    0.10330E+07         0.22817E+06         0.00000E+00
    0.22817E+06        -0.10741E+07         0.00000E+00
    0.00000E+00         0.00000E+00        -0.82111E+04
 
    0.10187E+07         0.27597E+06         0.00000E+00
    0.27597E+06        -0.10642E+07         0.00000E+00
    0.00000E+00         0.00000E+00        -0.91072E+04
 
    0.99802E+06         0.32420E+06         0.00000E+00
    0.32420E+06        -0.10488E+07         0.00000E+00
    0.00000E+00         0.00000E+00        -0.10155E+05
 
    0.97055E+06         0.37203E+06         0.00000E+00
    0.37203E+06        -0.10275E+07         0.00000E+00
    0.00000E+00         0.00000E+00        -0.11384E+05
 
    0.93594E+06         0.41857E+06         0.00000E+00
    0.41857E+06        -0.10001E+07         0.00000E+00
    0.00000E+00         0.00000E+00        -0.12828E+05
 
    0.89390E+06         0.46288E+06         0.00000E+00
    0.46288E+06        -0.96652E+06         0.00000E+00
    0.00000E+00         0.00000E+00        -0.14525E+05
 
    0.84423E+06         0.50391E+06         0.00000E+00
    0.50391E+06        -0.92684E+06         0.00000E+00
    0.00000E+00         0.00000E+00        -0.16521E+05
 
    0.78686E+06         0.54057E+06         0.00000E+00
    0.54057E+06        -0.88121E+06         0.00000E+00
    0.00000E+00         0.00000E+00        -0.18871E+05
 
    0.72180E+06         0.57172E+06         0.00000E+00
    0.57172E+06        -0.82997E+06         0.00000E+00
    0.00000E+00         0.00000E+00        -0.21635E+05
 
    0.64922E+06         0.59619E+06         0.00000E+00
    0.59619E+06        -0.77367E+06         0.00000E+00
    0.00000E+00         0.00000E+00        -0.24889E+05
 
    0.56945E+06         0.61277E+06         0.00000E+00
    0.61277E+06        -0.71302E+06         0.00000E+00
    0.00000E+00         0.00000E+00        -0.28715E+05
 
    0.48294E+06         0.62027E+06         0.00000E+00
    0.62027E+06        -0.64902E+06         0.00000E+00
    0.00000E+00         0.00000E+00        -0.33215E+05
 
    0.39035E+06         0.61756E+06         0.00000E+00
    0.61756E+06        -0.58285E+06         0.00000E+00
    0.00000E+00         0.00000E+00        -0.38501E+05
 
    0.29248E+06         0.60353E+06         0.00000E+00
    0.60353E+06        -0.51601E+06         0.00000E+00
    0.00000E+00         0.00000E+00        -0.44707E+05
 
    0.19032E+06         0.57718E+06         0.00000E+00
    0.57718E+06        -0.45021E+06         0.00000E+00
    0.00000E+00         0.00000E+00        -0.51978E+05
 
    0.85070E+05         0.53764E+06         0.00000E+00
    0.53764E+06        -0.38739E+06         0.00000E+00
    0.00000E+00         0.00000E+00        -0.60465E+05
 
   -0.21931E+05         0.48424E+06         0.00000E+00
    0.48424E+06        -0.32990E+06         0.00000E+00
    0.00000E+00         0.00000E+00        -0.70366E+05
 
    0.21383E+07         0.16666E+05         0.00000E+00
    0.16666E+05        -0.12330E+07         0.00000E+00
    0.00000E+00         0.00000E+00         0.18106E+06
 
    0.19722E+07         0.27937E+05         0.00000E+00
    0.27937E+05        -0.12163E+07         0.00000E+00
    0.00000E+00         0.00000E+00         0.15117E+06
 
    0.18161E+07         0.29110E+05         0.00000E+00
    0.29110E+05        -0.11880E+07         0.00000E+00
    0.00000E+00         0.00000E+00         0.12562E+06
 
    0.16712E+07         0.20498E+05         0.00000E+00
    0.20498E+05        -0.11516E+07         0.00000E+00
    0.00000E+00         0.00000E+00         0.10392E+06
 
    0.15383E+07         0.25149E+04         0.00000E+00
    0.25149E+04        -0.11108E+07         0.00000E+00
    0.00000E+00         0.00000E+00         0.85498E+05
 
    0.14181E+07        -0.23965E+05         0.00000E+00
   -0.23965E+05        -0.10687E+07         0.00000E+00
    0.00000E+00         0.00000E+00         0.69877E+05
 
    0.13114E+07        -0.57754E+05         0.00000E+00
   -0.57754E+05        -0.10282E+07         0.00000E+00
    0.00000E+00         0.00000E+00         0.56657E+05
 
    0.12186E+07        -0.97486E+05         0.00000E+00
   -0.97486E+05        -0.99117E+06         0.00000E+00
    0.00000E+00         0.00000E+00         0.45484E+05
 
    0.11397E+07        -0.14169E+06         0.00000E+00
   -0.14169E+06        -0.95948E+06         0.00000E+00
    0.00000E+00         0.00000E+00         0.36052E+05
 
    0.10748E+07        -0.18884E+06         0.00000E+00
   -0.18884E+06        -0.93430E+06         0.00000E+00
    0.00000E+00         0.00000E+00         0.28095E+05
 
    0.10234E+07        -0.23743E+06         0.00000E+00
   -0.23743E+06        -0.91644E+06         0.00000E+00
    0.00000E+00         0.00000E+00         0.21393E+05
 
    0.98510E+06        -0.28601E+06         0.00000E+00
   -0.28601E+06        -0.90631E+06         0.00000E+00
    0.00000E+00         0.00000E+00         0.15758E+05
 
    0.95917E+06        -0.33322E+06         0.00000E+00
   -0.33322E+06        -0.90401E+06         0.00000E+00
    0.00000E+00         0.00000E+00         0.11033E+05
 
    0.94477E+06        -0.37783E+06         0.00000E+00
   -0.37783E+06        -0.90934E+06         0.00000E+00
    0.00000E+00         0.00000E+00         0.70859E+04
 
    0.94094E+06        -0.41876E+06         0.00000E+00
   -0.41876E+06        -0.92193E+06         0.00000E+00
    0.00000E+00         0.00000E+00         0.38025E+04
 
    0.94663E+06        -0.45510E+06         0.00000E+00
   -0.45510E+06        -0.94120E+06         0.00000E+00
    0.00000E+00         0.00000E+00         0.10847E+04
 
    0.96073E+06        -0.48609E+06         0.00000E+00
   -0.48609E+06        -0.96650E+06         0.00000E+00
    0.00000E+00         0.00000E+00        -0.11529E+04
 
    0.98214E+06        -0.51112E+06         0.00000E+00
   -0.51112E+06        -0.99707E+06         0.00000E+00
    0.00000E+00         0.00000E+00        -0.29850E+04
 
    0.10097E+07        -0.52972E+06         0.00000E+00
   -0.52972E+06        -0.10321E+07         0.00000E+00
    0.00000E+00         0.00000E+00        -0.44772E+04
 
    0.10424E+07        -0.54156E+06         0.00000E+00
   -0.54156E+06        -0.10708E+07         0.00000E+00
    0.00000E+00         0.00000E+00        -0.56874E+04
 
    0.10791E+07        -0.54640E+06         0.00000E+00
   -0.54640E+06        -0.11124E+07         0.00000E+00
    0.00000E+00         0.00000E+00        -0.66667E+04
 
    0.11187E+07        -0.54413E+06         0.00000E+00
   -0.54413E+06        -0.11560E+07         0.00000E+00
    0.00000E+00         0.00000E+00        -0.74607E+04
 
    0.11603E+07        -0.53467E+06         0.00000E+00
   -0.53467E+06        -0.12008E+07         0.00000E+00
    0.00000E+00         0.00000E+00        -0.81098E+04
 
    0.12029E+07        -0.51807E+06         0.00000E+00
   -0.51807E+06        -0.12461E+07         0.00000E+00
    0.00000E+00         0.00000E+00        -0.86508E+04
 
    0.12456E+07        -0.49439E+06         0.00000E+00
   -0.49439E+06        -0.12912E+07         0.00000E+00
    0.00000E+00         0.00000E+00        -0.91170E+04
 
    0.12874E+07        -0.46377E+06         0.00000E+00
   -0.46377E+06        -0.13351E+07         0.00000E+00
    0.00000E+00         0.00000E+00        -0.95395E+04
 
    0.13276E+07        -0.42638E+06         0.00000E+00
   -0.42638E+06        -0.13773E+07         0.00000E+00
    0.00000E+00         0.00000E+00        -0.99477E+04
 
    0.13652E+07        -0.38247E+06         0.00000E+00
   -0.38247E+06        -0.14171E+07         0.00000E+00
    0.00000E+00         0.00000E+00        -0.10370E+05
 
    0.13995E+07        -0.33229E+06         0.00000E+00
   -0.33229E+06        -0.14536E+07         0.00000E+00
    0.00000E+00         0.00000E+00        -0.10835E+05
 
    0.14295E+07        -0.27617E+06         0.00000E+00
   -0.27617E+06        -0.14863E+07         0.00000E+00
    0.00000E+00         0.00000E+00        -0.11372E+05
 
    0.14544E+07        -0.21448E+06         0.00000E+00
   -0.21448E+06        -0.15144E+07         0.00000E+00
    0.00000E+00         0.00000E+00        -0.12012E+05
 
    0.14734E+07        -0.14765E+06         0.00000E+00
   -0.14765E+06        -0.15373E+07         0.00000E+00
    0.00000E+00         0.00000E+00        -0.12786E+05
 
    0.14855E+07        -0.76192E+05         0.00000E+00
   -0.76192E+05        -0.15542E+07         0.00000E+00
    0.00000E+00         0.00000E+00        -0.13731E+05
 
    0.14900E+07        -0.69122E+03         0.00000E+00
   -0.69122E+03        -0.15644E+07         0.00000E+00
    0.00000E+00         0.00000E+00        -0.14885E+05
 
    0.14859E+07         0.78173E+05         0.00000E+00
    0.78173E+05        -0.15674E+07         0.00000E+00
    0.00000E+00         0.00000E+00        -0.16294E+05
 
    0.14724E+07         0.15961E+06         0.00000E+00
    0.15961E+06        -0.15624E+07         0.00000E+00
    0.00000E+00         0.00000E+00        -0.18006E+05
 
    0.14486E+07         0.24272E+06         0.00000E+00
    0.24272E+06        -0.15490E+07         0.00000E+00
    0.00000E+00         0.00000E+00        -0.20077E+05
 
    0.14136E+07         0.32646E+06         0.00000E+00
    0.32646E+06        -0.15265E+07         0.00000E+00
    0.00000E+00         0.00000E+00        -0.22573E+05
 
    0.13667E+07         0.40965E+06         0.00000E+00
    0.40965E+06        -0.14945E+07         0.00000E+00
    0.00000E+00         0.00000E+00        -0.25567E+05
 
    0.13070E+07         0.49096E+06         0.00000E+00
    0.49096E+06        -0.14528E+07         0.00000E+00
    0.00000E+00         0.00000E+00        -0.29144E+05
 
    0.12341E+07         0.56893E+06         0.00000E+00
    0.56893E+06        -0.14011E+07         0.00000E+00
    0.00000E+00         0.00000E+00        -0.33406E+05
 
    0.11473E+07         0.64192E+06         0.00000E+00
    0.64192E+06        -0.13396E+07         0.00000E+00
    0.00000E+00         0.00000E+00        -0.38467E+05
 
    0.10463E+07         0.70818E+06         0.00000E+00
    0.70818E+06        -0.12686E+07         0.00000E+00
    0.00000E+00         0.00000E+00        -0.44466E+05
 
    0.93089E+06         0.76585E+06         0.00000E+00
    0.76585E+06        -0.11887E+07         0.00000E+00
    0.00000E+00         0.00000E+00        -0.51559E+05
 
    0.80115E+06         0.81295E+06         0.00000E+00
    0.81295E+06        -0.11008E+07         0.00000E+00
    0.00000E+00         0.00000E+00        -0.59929E+05
 
    0.65738E+06         0.84744E+06         0.00000E+00
    0.84744E+06        -0.10063E+07         0.00000E+00
    0.00000E+00         0.00000E+00        -0.69782E+05
 
    0.50017E+06         0.86728E+06         0.00000E+00
    0.86728E+06        -0.90693E+06         0.00000E+00
    0.00000E+00         0.00000E+00        -0.81353E+05
 
    0.33042E+06         0.87049E+06         0.00000E+00
    0.87049E+06        -0.80503E+06         0.00000E+00
    0.00000E+00         0.00000E+00        -0.94922E+05
 
    0.14928E+06         0.85525E+06         0.00000E+00
    0.85525E+06        -0.70339E+06         0.00000E+00
    0.00000E+00         0.00000E+00        -0.11082E+06
 
   -0.41597E+05         0.81966E+06         0.00000E+00
    0.81966E+06        -0.60493E+06         0.00000E+00
    0.00000E+00         0.00000E+00        -0.12930E+06
 
    0.22963E+07         0.13476E+05         0.00000E+00
    0.13476E+05        -0.11049E+07         0.00000E+00
    0.00000E+00         0.00000E+00         0.23828E+06
 
    0.20685E+07        -0.33458E+03         0.00000E+00
   -0.33458E+03        -0.10833E+07         0.00000E+00
    0.00000E+00         0.00000E+00         0.19704E+06
 
    0.18564E+07        -0.31344E+05         0.00000E+00
   -0.31344E+05        -0.10483E+07         0.00000E+00
    0.00000E+00         0.00000E+00         0.16162E+06
 
    0.16624E+07        -0.79041E+05         0.00000E+00
   -0.79041E+05        -0.10074E+07         0.00000E+00
    0.00000E+00         0.00000E+00         0.13100E+06
 
    0.14892E+07        -0.14099E+06         0.00000E+00
   -0.14099E+06        -0.96571E+06         0.00000E+00
    0.00000E+00         0.00000E+00         0.10470E+06
 
    0.13383E+07        -0.21449E+06         0.00000E+00
   -0.21449E+06        -0.92729E+06         0.00000E+00
    0.00000E+00         0.00000E+00         0.82202E+05
 
    0.12106E+07        -0.29672E+06         0.00000E+00
   -0.29672E+06        -0.89560E+06         0.00000E+00
    0.00000E+00         0.00000E+00         0.63002E+05
 
    0.11063E+07        -0.38472E+06         0.00000E+00
   -0.38472E+06        -0.87311E+06         0.00000E+00
    0.00000E+00         0.00000E+00         0.46646E+05
 
    0.10252E+07        -0.47554E+06         0.00000E+00
   -0.47554E+06        -0.86137E+06         0.00000E+00
    0.00000E+00         0.00000E+00         0.32760E+05
 
    0.96628E+06        -0.56635E+06         0.00000E+00
   -0.56635E+06        -0.86110E+06         0.00000E+00
    0.00000E+00         0.00000E+00         0.21035E+05
 
    0.92835E+06        -0.65460E+06         0.00000E+00
   -0.65460E+06        -0.87234E+06         0.00000E+00
    0.00000E+00         0.00000E+00         0.11202E+05
 
    0.90972E+06        -0.73810E+06         0.00000E+00
   -0.73810E+06        -0.89461E+06         0.00000E+00
    0.00000E+00         0.00000E+00         0.30229E+04
 
    0.90847E+06        -0.81505E+06         0.00000E+00
   -0.81505E+06        -0.92707E+06         0.00000E+00
    0.00000E+00         0.00000E+00        -0.37185E+04
 
    0.92257E+06        -0.88406E+06         0.00000E+00
   -0.88406E+06        -0.96866E+06         0.00000E+00
    0.00000E+00         0.00000E+00        -0.92193E+04
 
    0.94993E+06        -0.94412E+06         0.00000E+00
   -0.94412E+06        -0.10182E+07         0.00000E+00
    0.00000E+00         0.00000E+00        -0.13659E+05
 
    0.98852E+06        -0.99451E+06         0.00000E+00
   -0.99451E+06        -0.10745E+07         0.00000E+00
    0.00000E+00         0.00000E+00        -0.17201E+05
 
    0.10364E+07        -0.10348E+07         0.00000E+00
   -0.10348E+07        -0.11364E+07         0.00000E+00
    0.00000E+00         0.00000E+00        -0.19989E+05
 
    0.10918E+07        -0.10649E+07         0.00000E+00
   -0.10649E+07        -0.12026E+07         0.00000E+00
    0.00000E+00         0.00000E+00        -0.22152E+05
 
    0.11531E+07        -0.10846E+07         0.00000E+00
   -0.10846E+07        -0.12721E+07         0.00000E+00
    0.00000E+00         0.00000E+00        -0.23803E+05
 
    0.12188E+07        -0.10942E+07         0.00000E+00
   -0.10942E+07        -0.13440E+07         0.00000E+00
    0.00000E+00         0.00000E+00        -0.25039E+05
 
    0.12875E+07        -0.10938E+07         0.00000E+00
   -0.10938E+07        -0.14172E+07         0.00000E+00
    0.00000E+00         0.00000E+00        -0.25947E+05
 
    0.13580E+07        -0.10836E+07         0.00000E+00
   -0.10836E+07        -0.14910E+07         0.00000E+00
    0.00000E+00         0.00000E+00        -0.26599E+05
 
    0.14293E+07        -0.10639E+07         0.00000E+00
   -0.10639E+07        -0.15646E+07         0.00000E+00
    0.00000E+00         0.00000E+00        -0.27060E+05
 
    0.15004E+07        -0.10350E+07         0.00000E+00
   -0.10350E+07        -0.16373E+07         0.00000E+00
    0.00000E+00         0.00000E+00        -0.27384E+05
 
    0.15704E+07        -0.99725E+06         0.00000E+00
   -0.99725E+06        -0.17085E+07         0.00000E+00
    0.00000E+00         0.00000E+00        -0.27622E+05
 
    0.16384E+07        -0.95086E+06         0.00000E+00
   -0.95086E+06        -0.17775E+07         0.00000E+00
    0.00000E+00         0.00000E+00        -0.27819E+05
 
    0.17036E+07        -0.89611E+06         0.00000E+00
   -0.89611E+06        -0.18437E+07         0.00000E+00
    0.00000E+00         0.00000E+00        -0.28017E+05
 
    0.17654E+07        -0.83323E+06         0.00000E+00
   -0.83323E+06        -0.19066E+07         0.00000E+00
    0.00000E+00         0.00000E+00        -0.28257E+05
 
    0.18227E+07        -0.76242E+06         0.00000E+00
   -0.76242E+06        -0.19656E+07         0.00000E+00
    0.00000E+00         0.00000E+00        -0.28582E+05
 
    0.18749E+07        -0.68391E+06         0.00000E+00
   -0.68391E+06        -0.20201E+07         0.00000E+00
    0.00000E+00         0.00000E+00        -0.29034E+05
 
    0.19211E+07        -0.59789E+06         0.00000E+00
   -0.59789E+06        -0.20694E+07         0.00000E+00
    0.00000E+00         0.00000E+00        -0.29661E+05
 
    0.19602E+07        -0.50459E+06         0.00000E+00
   -0.50459E+06        -0.21128E+07         0.00000E+00
    0.00000E+00         0.00000E+00        -0.30516E+05
 
    0.19913E+07        -0.40425E+06         0.00000E+00
   -0.40425E+06        -0.21496E+07         0.00000E+00
    0.00000E+00         0.00000E+00        -0.31659E+05
 
    0.20132E+07        -0.29717E+06         0.00000E+00
   -0.29717E+06        -0.21790E+07         0.00000E+00
    0.00000E+00         0.00000E+00        -0.33158E+05
 
    0.20247E+07        -0.18374E+06         0.00000E+00
   -0.18374E+06        -0.22002E+07         0.00000E+00
    0.00000E+00         0.00000E+00        -0.35091E+05
 
    0.20244E+07        -0.64444E+05         0.00000E+00
   -0.64444E+05        -0.22121E+07         0.00000E+00
    0.00000E+00         0.00000E+00        -0.37549E+05
 
    0.20107E+07         0.60075E+05         0.00000E+00
    0.60075E+05        -0.22139E+07         0.00000E+00
    0.00000E+00         0.00000E+00        -0.40637E+05
 
    0.19822E+07         0.18899E+06         0.00000E+00
    0.18899E+06        -0.22046E+07         0.00000E+00
    0.00000E+00         0.00000E+00        -0.44474E+05
 
    0.19371E+07         0.32126E+06         0.00000E+00
    0.32126E+06        -0.21831E+07         0.00000E+00
    0.00000E+00         0.00000E+00        -0.49197E+05
 
    0.18737E+07         0.45557E+06         0.00000E+00
    0.45557E+06        -0.21484E+07         0.00000E+00
    0.00000E+00         0.00000E+00        -0.54960E+05
 
    0.17901E+07         0.59031E+06         0.00000E+00
    0.59031E+06        -0.20998E+07         0.00000E+00
    0.00000E+00         0.00000E+00        -0.61940E+05
 
    0.16849E+07         0.72353E+06         0.00000E+00
    0.72353E+06        -0.20365E+07         0.00000E+00
    0.00000E+00         0.00000E+00        -0.70338E+05
 
    0.15562E+07         0.85295E+06         0.00000E+00
    0.85295E+06        -0.19581E+07         0.00000E+00
    0.00000E+00         0.00000E+00        -0.80384E+05
 
    0.14027E+07         0.97596E+06         0.00000E+00
    0.97596E+06        -0.18644E+07         0.00000E+00
    0.00000E+00         0.00000E+00        -0.92346E+05
 
    0.12231E+07         0.10896E+07         0.00000E+00
    0.10896E+07        -0.17558E+07         0.00000E+00
    0.00000E+00         0.00000E+00        -0.10654E+06
 
    0.10167E+07         0.11907E+07         0.00000E+00
    0.11907E+07        -0.16333E+07         0.00000E+00
    0.00000E+00         0.00000E+00        -0.12332E+06
 
    0.78275E+06         0.12756E+07         0.00000E+00
    0.12756E+07        -0.14982E+07         0.00000E+00
    0.00000E+00         0.00000E+00        -0.14310E+06
 
    0.52150E+06         0.13405E+07         0.00000E+00
    0.13405E+07        -0.13529E+07         0.00000E+00
    0.00000E+00         0.00000E+00        -0.16628E+06
 
    0.23386E+06         0.13814E+07         0.00000E+00
    0.13814E+07        -0.12002E+07         0.00000E+00
    0.00000E+00         0.00000E+00        -0.19327E+06
 
   -0.79212E+05         0.13952E+07         0.00000E+00
    0.13952E+07        -0.10453E+07         0.00000E+00
    0.00000E+00         0.00000E+00        -0.22491E+06
 
    0.24247E+07         0.12396E+05         0.00000E+00
    0.12396E+05        -0.86151E+06         0.00000E+00
    0.00000E+00         0.00000E+00         0.31264E+06
 
    0.20762E+07        -0.49630E+05         0.00000E+00
   -0.49630E+05        -0.83376E+06         0.00000E+00
    0.00000E+00         0.00000E+00         0.24849E+06
 
    0.17609E+07        -0.14599E+06         0.00000E+00
   -0.14599E+06        -0.80200E+06         0.00000E+00
    0.00000E+00         0.00000E+00         0.19178E+06
 
    0.14860E+07        -0.26752E+06         0.00000E+00
   -0.26752E+06        -0.77113E+06         0.00000E+00
    0.00000E+00         0.00000E+00         0.14298E+06
 
    0.12537E+07        -0.40833E+06         0.00000E+00
   -0.40833E+06        -0.74918E+06         0.00000E+00
    0.00000E+00         0.00000E+00         0.10091E+06
 
    0.10653E+07        -0.56182E+06         0.00000E+00
   -0.56182E+06        -0.74191E+06         0.00000E+00
    0.00000E+00         0.00000E+00         0.64678E+05
 
    0.92070E+06        -0.72093E+06         0.00000E+00
   -0.72093E+06        -0.75216E+06         0.00000E+00
    0.00000E+00         0.00000E+00         0.33708E+05
 
    0.81818E+06        -0.87904E+06         0.00000E+00
   -0.87904E+06        -0.78042E+06         0.00000E+00
    0.00000E+00         0.00000E+00         0.75512E+04
 
    0.75446E+06        -0.10305E+07         0.00000E+00
   -0.10305E+07        -0.82562E+06         0.00000E+00
    0.00000E+00         0.00000E+00        -0.14231E+05
 
    0.72526E+06        -0.11711E+07         0.00000E+00
   -0.11711E+07        -0.88578E+06         0.00000E+00
    0.00000E+00         0.00000E+00        -0.32105E+05
 
    0.72577E+06        -0.12977E+07         0.00000E+00
   -0.12977E+07        -0.95854E+06         0.00000E+00
    0.00000E+00         0.00000E+00        -0.46554E+05
 
    0.75113E+06        -0.14085E+07         0.00000E+00
   -0.14085E+07        -0.10414E+07         0.00000E+00
    0.00000E+00         0.00000E+00        -0.58058E+05
 
    0.79669E+06        -0.15025E+07         0.00000E+00
   -0.15025E+07        -0.11321E+07         0.00000E+00
    0.00000E+00         0.00000E+00        -0.67074E+05
 
    0.85822E+06        -0.15796E+07         0.00000E+00
   -0.15796E+07        -0.12283E+07         0.00000E+00
    0.00000E+00         0.00000E+00        -0.74020E+05
 
    0.93198E+06        -0.16399E+07         0.00000E+00
   -0.16399E+07        -0.13283E+07         0.00000E+00
    0.00000E+00         0.00000E+00        -0.79267E+05
 
    0.10148E+07        -0.16842E+07         0.00000E+00
   -0.16842E+07        -0.14305E+07         0.00000E+00
    0.00000E+00         0.00000E+00        -0.83139E+05
 
    0.11039E+07        -0.17134E+07         0.00000E+00
   -0.17134E+07        -0.15335E+07         0.00000E+00
    0.00000E+00         0.00000E+00        -0.85911E+05
 
    0.11971E+07        -0.17283E+07         0.00000E+00
   -0.17283E+07        -0.16362E+07         0.00000E+00
    0.00000E+00         0.00000E+00        -0.87812E+05
 
    0.12927E+07        -0.17301E+07         0.00000E+00
   -0.17301E+07        -0.17379E+07         0.00000E+00
    0.00000E+00         0.00000E+00        -0.89034E+05
 
    0.13891E+07        -0.17198E+07         0.00000E+00
   -0.17198E+07        -0.18378E+07         0.00000E+00
    0.00000E+00         0.00000E+00        -0.89734E+05
 
    0.14852E+07        -0.16982E+07         0.00000E+00
   -0.16982E+07        -0.19354E+07         0.00000E+00
    0.00000E+00         0.00000E+00        -0.90041E+05
 
    0.15802E+07        -0.16663E+07         0.00000E+00
   -0.16663E+07        -0.20305E+07         0.00000E+00
    0.00000E+00         0.00000E+00        -0.90059E+05
 
    0.16733E+07        -0.16248E+07         0.00000E+00
   -0.16248E+07        -0.21227E+07         0.00000E+00
    0.00000E+00         0.00000E+00        -0.89873E+05
 
    0.17640E+07        -0.15743E+07         0.00000E+00
   -0.15743E+07        -0.22118E+07         0.00000E+00
    0.00000E+00         0.00000E+00        -0.89556E+05
 
    0.18519E+07        -0.15153E+07         0.00000E+00
   -0.15153E+07        -0.22977E+07         0.00000E+00
    0.00000E+00         0.00000E+00        -0.89166E+05
 
    0.19365E+07        -0.14482E+07         0.00000E+00
   -0.14482E+07        -0.23803E+07         0.00000E+00
    0.00000E+00         0.00000E+00        -0.88757E+05
 
    0.20175E+07        -0.13732E+07         0.00000E+00
   -0.13732E+07        -0.24594E+07         0.00000E+00
    0.00000E+00         0.00000E+00        -0.88377E+05
 
    0.20945E+07        -0.12905E+07         0.00000E+00
   -0.12905E+07        -0.25349E+07         0.00000E+00
    0.00000E+00         0.00000E+00        -0.88071E+05
 
    0.21672E+07        -0.12000E+07         0.00000E+00
   -0.12000E+07        -0.26066E+07         0.00000E+00
    0.00000E+00         0.00000E+00        -0.87889E+05
 
    0.22350E+07        -0.11017E+07         0.00000E+00
   -0.11017E+07        -0.26744E+07         0.00000E+00
    0.00000E+00         0.00000E+00        -0.87883E+05
 
    0.22973E+07        -0.99539E+06         0.00000E+00
   -0.99539E+06        -0.27379E+07         0.00000E+00
    0.00000E+00         0.00000E+00        -0.88111E+05
 
    0.23535E+07        -0.88076E+06         0.00000E+00
   -0.88076E+06        -0.27967E+07         0.00000E+00
    0.00000E+00         0.00000E+00        -0.88645E+05
 
    0.24025E+07        -0.75748E+06         0.00000E+00
   -0.75748E+06        -0.28503E+07         0.00000E+00
    0.00000E+00         0.00000E+00        -0.89568E+05
 
    0.24432E+07        -0.62516E+06         0.00000E+00
   -0.62516E+06        -0.28981E+07         0.00000E+00
    0.00000E+00         0.00000E+00        -0.90981E+05
 
    0.24742E+07        -0.48338E+06         0.00000E+00
   -0.48338E+06        -0.29392E+07         0.00000E+00
    0.00000E+00         0.00000E+00        -0.93008E+05
 
    0.24938E+07        -0.33177E+06         0.00000E+00
   -0.33177E+06        -0.29728E+07         0.00000E+00
    0.00000E+00         0.00000E+00        -0.95796E+05
 
    0.24999E+07        -0.17003E+06         0.00000E+00
   -0.17003E+06        -0.29975E+07         0.00000E+00
    0.00000E+00         0.00000E+00        -0.99524E+05
 
    0.24901E+07         0.20083E+04         0.00000E+00
    0.20083E+04        -0.30121E+07         0.00000E+00
    0.00000E+00         0.00000E+00        -0.10440E+06
 
    0.24615E+07         0.18429E+06         0.00000E+00
    0.18429E+06        -0.30149E+07         0.00000E+00
    0.00000E+00         0.00000E+00        -0.11069E+06
 
    0.24108E+07         0.37645E+06         0.00000E+00
    0.37645E+06        -0.30041E+07         0.00000E+00
    0.00000E+00         0.00000E+00        -0.11866E+06
 
    0.23345E+07         0.57767E+06         0.00000E+00
    0.57767E+06        -0.29778E+07         0.00000E+00
    0.00000E+00         0.00000E+00        -0.12865E+06
 
    0.22285E+07         0.78657E+06         0.00000E+00
    0.78657E+06        -0.29337E+07         0.00000E+00
    0.00000E+00         0.00000E+00        -0.14103E+06
 
    0.20887E+07         0.10011E+07         0.00000E+00
    0.10011E+07        -0.28697E+07         0.00000E+00
    0.00000E+00         0.00000E+00        -0.15620E+06
 
    0.19108E+07         0.12183E+07         0.00000E+00
    0.12183E+07        -0.27837E+07         0.00000E+00
    0.00000E+00         0.00000E+00        -0.17459E+06
 
    0.16906E+07         0.14344E+07         0.00000E+00
    0.14344E+07        -0.26739E+07         0.00000E+00
    0.00000E+00         0.00000E+00        -0.19666E+06
 
    0.14244E+07         0.16448E+07         0.00000E+00
    0.16448E+07        -0.25392E+07         0.00000E+00
    0.00000E+00         0.00000E+00        -0.22296E+06
 
    0.11089E+07         0.18441E+07         0.00000E+00
    0.18441E+07        -0.23796E+07         0.00000E+00
    0.00000E+00         0.00000E+00        -0.25413E+06
 
    0.74094E+06         0.20264E+07         0.00000E+00
    0.20264E+07        -0.21960E+07         0.00000E+00
    0.00000E+00         0.00000E+00        -0.29102E+06
 
    0.31780E+06         0.21848E+07         0.00000E+00
    0.21848E+07        -0.19905E+07         0.00000E+00
    0.00000E+00         0.00000E+00        -0.33454E+06
 
   -0.15931E+06         0.23089E+07         0.00000E+00
    0.23089E+07        -0.17628E+07         0.00000E+00
    0.00000E+00         0.00000E+00        -0.38442E+06
 
    0.22234E+07        -0.23624E+04         0.00000E+00
   -0.23624E+04        -0.59689E+06         0.00000E+00
    0.00000E+00         0.00000E+00         0.32530E+06
 
    0.16364E+07        -0.19464E+06         0.00000E+00
   -0.19464E+06        -0.59390E+06         0.00000E+00
    0.00000E+00         0.00000E+00         0.20851E+06
 
    0.11477E+07        -0.43216E+06         0.00000E+00
   -0.43216E+06        -0.59832E+06         0.00000E+00
    0.00000E+00         0.00000E+00         0.10988E+06
 
    0.75565E+06        -0.70503E+06         0.00000E+00
   -0.70503E+06        -0.63772E+06         0.00000E+00
    0.00000E+00         0.00000E+00         0.23586E+05
 
    0.46367E+06        -0.99061E+06         0.00000E+00
   -0.99061E+06        -0.71558E+06         0.00000E+00
    0.00000E+00         0.00000E+00        -0.50384E+05
 
    0.26680E+06        -0.12684E+07         0.00000E+00
   -0.12684E+07        -0.82625E+06         0.00000E+00
    0.00000E+00         0.00000E+00        -0.11189E+06
 
    0.15342E+06        -0.15237E+07         0.00000E+00
   -0.15237E+07        -0.96142E+06         0.00000E+00
    0.00000E+00         0.00000E+00        -0.16160E+06
 
    0.10889E+06        -0.17482E+07         0.00000E+00
   -0.17482E+07        -0.11129E+07         0.00000E+00
    0.00000E+00         0.00000E+00        -0.20079E+06
 
    0.11842E+06        -0.19378E+07         0.00000E+00
   -0.19378E+07        -0.12735E+07         0.00000E+00
    0.00000E+00         0.00000E+00        -0.23101E+06
 
    0.16855E+06        -0.20919E+07         0.00000E+00
   -0.20919E+07        -0.14376E+07         0.00000E+00
    0.00000E+00         0.00000E+00        -0.25381E+06
 
    0.24783E+06        -0.22118E+07         0.00000E+00
   -0.22118E+07        -0.16009E+07         0.00000E+00
    0.00000E+00         0.00000E+00        -0.27062E+06
 
    0.34692E+06        -0.23002E+07         0.00000E+00
   -0.23002E+07        -0.17604E+07         0.00000E+00
    0.00000E+00         0.00000E+00        -0.28269E+06
 
    0.45848E+06        -0.23603E+07         0.00000E+00
   -0.23603E+07        -0.19138E+07         0.00000E+00
    0.00000E+00         0.00000E+00        -0.29106E+06
 
    0.57691E+06        -0.23955E+07         0.00000E+00
   -0.23955E+07        -0.20598E+07         0.00000E+00
    0.00000E+00         0.00000E+00        -0.29658E+06
 
    0.69803E+06        -0.24091E+07         0.00000E+00
   -0.24091E+07        -0.21977E+07         0.00000E+00
    0.00000E+00         0.00000E+00        -0.29994E+06
 
    0.81886E+06        -0.24042E+07         0.00000E+00
   -0.24042E+07        -0.23272E+07         0.00000E+00
    0.00000E+00         0.00000E+00        -0.30167E+06
 
    0.93730E+06        -0.23836E+07         0.00000E+00
   -0.23836E+07        -0.24484E+07         0.00000E+00
    0.00000E+00         0.00000E+00        -0.30221E+06
 
    0.10520E+07        -0.23498E+07         0.00000E+00
   -0.23498E+07        -0.25614E+07         0.00000E+00
    0.00000E+00         0.00000E+00        -0.30188E+06
 
    0.11621E+07        -0.23049E+07         0.00000E+00
   -0.23049E+07        -0.26667E+07         0.00000E+00
    0.00000E+00         0.00000E+00        -0.30092E+06
 
    0.12672E+07        -0.22508E+07         0.00000E+00
   -0.22508E+07        -0.27649E+07         0.00000E+00
    0.00000E+00         0.00000E+00        -0.29953E+06
 
    0.13673E+07        -0.21888E+07         0.00000E+00
   -0.21888E+07        -0.28565E+07         0.00000E+00
    0.00000E+00         0.00000E+00        -0.29785E+06
 
    0.14623E+07        -0.21202E+07         0.00000E+00
   -0.21202E+07        -0.29423E+07         0.00000E+00
    0.00000E+00         0.00000E+00        -0.29599E+06
 
    0.15526E+07        -0.20460E+07         0.00000E+00
   -0.20460E+07        -0.30228E+07         0.00000E+00
    0.00000E+00         0.00000E+00        -0.29403E+06
 
    0.16385E+07        -0.19666E+07         0.00000E+00
   -0.19666E+07        -0.30986E+07         0.00000E+00
    0.00000E+00         0.00000E+00        -0.29203E+06
 
    0.17203E+07        -0.18827E+07         0.00000E+00
   -0.18827E+07        -0.31705E+07         0.00000E+00
    0.00000E+00         0.00000E+00        -0.29003E+06
 
    0.17985E+07        -0.17944E+07         0.00000E+00
   -0.17944E+07        -0.32389E+07         0.00000E+00
    0.00000E+00         0.00000E+00        -0.28807E+06
 
    0.18735E+07        -0.17018E+07         0.00000E+00
   -0.17018E+07        -0.33044E+07         0.00000E+00
    0.00000E+00         0.00000E+00        -0.28619E+06
 
    0.19455E+07        -0.16046E+07         0.00000E+00
   -0.16046E+07        -0.33675E+07         0.00000E+00
    0.00000E+00         0.00000E+00        -0.28441E+06
 
    0.20148E+07        -0.15025E+07         0.00000E+00
   -0.15025E+07        -0.34286E+07         0.00000E+00
    0.00000E+00         0.00000E+00        -0.28277E+06
 
    0.20816E+07        -0.13950E+07         0.00000E+00
   -0.13950E+07        -0.34881E+07         0.00000E+00
    0.00000E+00         0.00000E+00        -0.28131E+06
 
    0.21459E+07        -0.12813E+07         0.00000E+00
   -0.12813E+07        -0.35462E+07         0.00000E+00
    0.00000E+00         0.00000E+00        -0.28007E+06
 
    0.22075E+07        -0.11605E+07         0.00000E+00
   -0.11605E+07        -0.36031E+07         0.00000E+00
    0.00000E+00         0.00000E+00        -0.27912E+06
 
    0.22661E+07        -0.10316E+07         0.00000E+00
   -0.10316E+07        -0.36588E+07         0.00000E+00
    0.00000E+00         0.00000E+00        -0.27854E+06
 
    0.23211E+07        -0.89305E+06         0.00000E+00
   -0.89305E+06        -0.37132E+07         0.00000E+00
    0.00000E+00         0.00000E+00        -0.27843E+06
 
    0.23713E+07        -0.74354E+06         0.00000E+00
   -0.74354E+06        -0.37661E+07         0.00000E+00
    0.00000E+00         0.00000E+00        -0.27895E+06
 
    0.24155E+07        -0.58131E+06         0.00000E+00
   -0.58131E+06        -0.38169E+07         0.00000E+00
    0.00000E+00         0.00000E+00        -0.28028E+06
 
    0.24517E+07        -0.40451E+06         0.00000E+00
   -0.40451E+06        -0.38649E+07         0.00000E+00
    0.00000E+00         0.00000E+00        -0.28264E+06
 
    0.24773E+07        -0.21113E+06         0.00000E+00
   -0.21113E+06        -0.39090E+07         0.00000E+00
    0.00000E+00         0.00000E+00        -0.28635E+06
 
    0.24889E+07         0.96283E+03         0.00000E+00
    0.96283E+03        -0.39478E+07         0.00000E+00
    0.00000E+00         0.00000E+00        -0.29178E+06
 
    0.24822E+07         0.23387E+06         0.00000E+00
    0.23387E+06        -0.39793E+07         0.00000E+00
    0.00000E+00         0.00000E+00        -0.29941E+06
 
    0.24518E+07         0.48956E+06         0.00000E+00
    0.48956E+06        -0.40010E+07         0.00000E+00
    0.00000E+00         0.00000E+00        -0.30983E+06
 
    0.23909E+07         0.76968E+06         0.00000E+00
    0.76968E+06        -0.40096E+07         0.00000E+00
    0.00000E+00         0.00000E+00        -0.32373E+06
 
    0.22914E+07         0.10751E+07         0.00000E+00
    0.10751E+07        -0.40011E+07         0.00000E+00
    0.00000E+00         0.00000E+00        -0.34194E+06
 
    0.21437E+07         0.14058E+07         0.00000E+00
    0.14058E+07        -0.39705E+07         0.00000E+00
    0.00000E+00         0.00000E+00        -0.36538E+06
 
    0.19370E+07         0.17598E+07         0.00000E+00
    0.17598E+07        -0.39119E+07         0.00000E+00
    0.00000E+00         0.00000E+00        -0.39498E+06
 
    0.16602E+07         0.21328E+07         0.00000E+00
    0.21328E+07        -0.38183E+07         0.00000E+00
    0.00000E+00         0.00000E+00        -0.43163E+06
 
    0.13023E+07         0.25175E+07         0.00000E+00
    0.25175E+07        -0.36825E+07         0.00000E+00
    0.00000E+00         0.00000E+00        -0.47603E+06
 
    0.85449E+06         0.29037E+07         0.00000E+00
    0.29037E+07        -0.34979E+07         0.00000E+00
    0.00000E+00         0.00000E+00        -0.52867E+06
 
    0.30921E+06         0.32799E+07         0.00000E+00
    0.32799E+07        -0.32619E+07         0.00000E+00
    0.00000E+00         0.00000E+00        -0.59053E+06
 
   -0.34874E+06         0.36411E+07         0.00000E+00
    0.36411E+07        -0.29831E+07         0.00000E+00
    0.00000E+00         0.00000E+00        -0.66637E+06
 
    0.16647E+06        -0.13308E+06         0.00000E+00
   -0.13308E+06        -0.11311E+07         0.00000E+00
    0.00000E+00         0.00000E+00        -0.19293E+06
 
   -0.76872E+06        -0.66909E+06         0.00000E+00
   -0.66909E+06        -0.12074E+07         0.00000E+00
    0.00000E+00         0.00000E+00        -0.39522E+06
 
   -0.14290E+07        -0.12570E+07         0.00000E+00
   -0.12570E+07        -0.14443E+07         0.00000E+00
    0.00000E+00         0.00000E+00        -0.57465E+06
 
   -0.18160E+07        -0.17921E+07         0.00000E+00
   -0.17921E+07        -0.17560E+07         0.00000E+00
    0.00000E+00         0.00000E+00        -0.71440E+06
 
   -0.19904E+07        -0.22342E+07         0.00000E+00
   -0.22342E+07        -0.20922E+07         0.00000E+00
    0.00000E+00         0.00000E+00        -0.81652E+06
 
   -0.20164E+07        -0.25756E+07         0.00000E+00
   -0.25756E+07        -0.24236E+07         0.00000E+00
    0.00000E+00         0.00000E+00        -0.88801E+06
 
   -0.19462E+07        -0.28229E+07         0.00000E+00
   -0.28229E+07        -0.27343E+07         0.00000E+00
    0.00000E+00         0.00000E+00        -0.93610E+06
 
   -0.18184E+07        -0.29890E+07         0.00000E+00
   -0.29890E+07        -0.30161E+07         0.00000E+00
    0.00000E+00         0.00000E+00        -0.96690E+06
 
   -0.16599E+07        -0.30877E+07         0.00000E+00
   -0.30877E+07        -0.32660E+07         0.00000E+00
    0.00000E+00         0.00000E+00        -0.98519E+06
 
   -0.14888E+07        -0.31324E+07         0.00000E+00
   -0.31324E+07        -0.34841E+07         0.00000E+00
    0.00000E+00         0.00000E+00        -0.99457E+06
 
   -0.13167E+07        -0.31347E+07         0.00000E+00
   -0.31347E+07        -0.36719E+07         0.00000E+00
    0.00000E+00         0.00000E+00        -0.99772E+06
 
   -0.11509E+07        -0.31045E+07         0.00000E+00
   -0.31045E+07        -0.38320E+07         0.00000E+00
    0.00000E+00         0.00000E+00        -0.99659E+06
 
   -0.99564E+06        -0.30497E+07         0.00000E+00
   -0.30497E+07        -0.39673E+07         0.00000E+00
    0.00000E+00         0.00000E+00        -0.99260E+06
 
   -0.85289E+06        -0.29770E+07         0.00000E+00
   -0.29770E+07        -0.40808E+07         0.00000E+00
    0.00000E+00         0.00000E+00        -0.98675E+06
 
   -0.72341E+06        -0.28914E+07         0.00000E+00
   -0.28914E+07        -0.41754E+07         0.00000E+00
    0.00000E+00         0.00000E+00        -0.97976E+06
 
   -0.60704E+06        -0.27970E+07         0.00000E+00
   -0.27970E+07        -0.42537E+07         0.00000E+00
    0.00000E+00         0.00000E+00        -0.97216E+06
 
   -0.50308E+06        -0.26969E+07         0.00000E+00
   -0.26969E+07        -0.43183E+07         0.00000E+00
    0.00000E+00         0.00000E+00        -0.96427E+06
 
   -0.41047E+06        -0.25935E+07         0.00000E+00
   -0.25935E+07        -0.43713E+07         0.00000E+00
    0.00000E+00         0.00000E+00        -0.95635E+06
 
   -0.32801E+06        -0.24886E+07         0.00000E+00
   -0.24886E+07        -0.44146E+07         0.00000E+00
    0.00000E+00         0.00000E+00        -0.94853E+06
 
   -0.25441E+06        -0.23834E+07         0.00000E+00
   -0.23834E+07        -0.44502E+07         0.00000E+00
    0.00000E+00         0.00000E+00        -0.94092E+06
 
   -0.18837E+06        -0.22788E+07         0.00000E+00
   -0.22788E+07        -0.44794E+07         0.00000E+00
    0.00000E+00         0.00000E+00        -0.93356E+06
 
   -0.12861E+06        -0.21754E+07         0.00000E+00
   -0.21754E+07        -0.45038E+07         0.00000E+00
    0.00000E+00         0.00000E+00        -0.92648E+06
 
   -0.73906E+05        -0.20735E+07         0.00000E+00
   -0.20735E+07        -0.45245E+07         0.00000E+00
    0.00000E+00         0.00000E+00        -0.91967E+06
 
   -0.23086E+05        -0.19732E+07         0.00000E+00
   -0.19732E+07        -0.45425E+07         0.00000E+00
    0.00000E+00         0.00000E+00        -0.91312E+06
 
    0.24950E+05        -0.18745E+07         0.00000E+00
   -0.18745E+07        -0.45590E+07         0.00000E+00
    0.00000E+00         0.00000E+00        -0.90681E+06
 
    0.71243E+05        -0.17769E+07         0.00000E+00
   -0.17769E+07        -0.45748E+07         0.00000E+00
    0.00000E+00         0.00000E+00        -0.90071E+06
 
    0.11676E+06        -0.16802E+07         0.00000E+00
   -0.16802E+07        -0.45907E+07         0.00000E+00
    0.00000E+00         0.00000E+00        -0.89479E+06
 
    0.16243E+06        -0.15836E+07         0.00000E+00
   -0.15836E+07        -0.46075E+07         0.00000E+00
    0.00000E+00         0.00000E+00        -0.88902E+06
 
    0.20908E+06        -0.14866E+07         0.00000E+00
   -0.14866E+07        -0.46259E+07         0.00000E+00
    0.00000E+00         0.00000E+00        -0.88337E+06
 
    0.25752E+06        -0.13881E+07         0.00000E+00
   -0.13881E+07        -0.46466E+07         0.00000E+00
    0.00000E+00         0.00000E+00        -0.87782E+06
 
    0.30845E+06        -0.12872E+07         0.00000E+00
   -0.12872E+07        -0.46702E+07         0.00000E+00
    0.00000E+00         0.00000E+00        -0.87236E+06
 
    0.36251E+06        -0.11823E+07         0.00000E+00
   -0.11823E+07        -0.46974E+07         0.00000E+00
    0.00000E+00         0.00000E+00        -0.86697E+06
 
    0.42025E+06        -0.10721E+07         0.00000E+00
   -0.10721E+07        -0.47286E+07         0.00000E+00
    0.00000E+00         0.00000E+00        -0.86167E+06
 
    0.48204E+06        -0.95469E+06         0.00000E+00
   -0.95469E+06        -0.47645E+07         0.00000E+00
    0.00000E+00         0.00000E+00        -0.85650E+06
 
    0.54813E+06        -0.82782E+06         0.00000E+00
   -0.82782E+06        -0.48056E+07         0.00000E+00
    0.00000E+00         0.00000E+00        -0.85150E+06
 
    0.61846E+06        -0.68893E+06         0.00000E+00
   -0.68893E+06        -0.48524E+07         0.00000E+00
    0.00000E+00         0.00000E+00        -0.84679E+06
 
    0.69267E+06        -0.53492E+06         0.00000E+00
   -0.53492E+06        -0.49051E+07         0.00000E+00
    0.00000E+00         0.00000E+00        -0.84249E+06
 
    0.76985E+06        -0.36212E+06         0.00000E+00
   -0.36212E+06        -0.49641E+07         0.00000E+00
    0.00000E+00         0.00000E+00        -0.83885E+06
 
    0.84844E+06        -0.16620E+06         0.00000E+00
   -0.16620E+06        -0.50293E+07         0.00000E+00
    0.00000E+00         0.00000E+00        -0.83617E+06
 
    0.92587E+06         0.57946E+05         0.00000E+00
    0.57946E+05        -0.51004E+07         0.00000E+00
    0.00000E+00         0.00000E+00        -0.83490E+06
 
    0.99819E+06         0.31633E+06         0.00000E+00
    0.31633E+06        -0.51766E+07         0.00000E+00
    0.00000E+00         0.00000E+00        -0.83568E+06
 
    0.10595E+07         0.61589E+06         0.00000E+00
    0.61589E+06        -0.52564E+07         0.00000E+00
    0.00000E+00         0.00000E+00        -0.83938E+06
 
    0.11014E+07         0.96452E+06         0.00000E+00
    0.96452E+06        -0.53373E+07         0.00000E+00
    0.00000E+00         0.00000E+00        -0.84718E+06
 
    0.11114E+07         0.13709E+07         0.00000E+00
    0.13709E+07        -0.54150E+07         0.00000E+00
    0.00000E+00         0.00000E+00        -0.86070E+06
 
    0.10727E+07         0.18440E+07         0.00000E+00
    0.18440E+07        -0.54830E+07         0.00000E+00
    0.00000E+00         0.00000E+00        -0.88208E+06
 
    0.96162E+06         0.23921E+07         0.00000E+00
    0.23921E+07        -0.55316E+07         0.00000E+00
    0.00000E+00         0.00000E+00        -0.91399E+06
 
    0.74779E+06         0.30205E+07         0.00000E+00
    0.30205E+07        -0.55455E+07         0.00000E+00
    0.00000E+00         0.00000E+00        -0.95955E+06
 
    0.39467E+06         0.37269E+07         0.00000E+00
    0.37269E+07        -0.55022E+07         0.00000E+00
    0.00000E+00         0.00000E+00        -0.10215E+07
 
   -0.13167E+06         0.44935E+07         0.00000E+00
    0.44935E+07        -0.53668E+07         0.00000E+00
    0.00000E+00         0.00000E+00        -0.10997E+07
 
   -0.83330E+06         0.52711E+07         0.00000E+00
    0.52711E+07        -0.50850E+07         0.00000E+00
    0.00000E+00         0.00000E+00        -0.11837E+07
 
   -0.90824E+07        -0.84415E+06         0.00000E+00
   -0.84415E+06        -0.58242E+07         0.00000E+00
    0.00000E+00         0.00000E+00        -0.29813E+07
 
   -0.96190E+07        -0.21983E+07         0.00000E+00
   -0.21983E+07        -0.64795E+07         0.00000E+00
    0.00000E+00         0.00000E+00        -0.32197E+07
 
   -0.95074E+07        -0.30273E+07         0.00000E+00
   -0.30273E+07        -0.70163E+07         0.00000E+00
    0.00000E+00         0.00000E+00        -0.33048E+07
 
   -0.91374E+07        -0.34939E+07         0.00000E+00
   -0.34939E+07        -0.74318E+07         0.00000E+00
    0.00000E+00         0.00000E+00        -0.33139E+07
 
   -0.86894E+07        -0.37168E+07         0.00000E+00
   -0.37168E+07        -0.77368E+07         0.00000E+00
    0.00000E+00         0.00000E+00        -0.32852E+07
 
   -0.82456E+07        -0.37794E+07         0.00000E+00
   -0.37794E+07        -0.79471E+07         0.00000E+00
    0.00000E+00         0.00000E+00        -0.32386E+07
 
   -0.78411E+07        -0.37389E+07         0.00000E+00
   -0.37389E+07        -0.80800E+07         0.00000E+00
    0.00000E+00         0.00000E+00        -0.31842E+07
 
   -0.74882E+07        -0.36340E+07         0.00000E+00
   -0.36340E+07        -0.81513E+07         0.00000E+00
    0.00000E+00         0.00000E+00        -0.31279E+07
 
   -0.71884E+07        -0.34908E+07         0.00000E+00
   -0.34908E+07        -0.81745E+07         0.00000E+00
    0.00000E+00         0.00000E+00        -0.30726E+07
 
   -0.69382E+07        -0.33268E+07         0.00000E+00
   -0.33268E+07        -0.81613E+07         0.00000E+00
    0.00000E+00         0.00000E+00        -0.30199E+07
 
   -0.67323E+07        -0.31535E+07         0.00000E+00
   -0.31535E+07        -0.81207E+07         0.00000E+00
    0.00000E+00         0.00000E+00        -0.29706E+07
 
   -0.65645E+07        -0.29783E+07         0.00000E+00
   -0.29783E+07        -0.80603E+07         0.00000E+00
    0.00000E+00         0.00000E+00        -0.29250E+07
 
   -0.64292E+07        -0.28061E+07         0.00000E+00
   -0.28061E+07        -0.79857E+07         0.00000E+00
    0.00000E+00         0.00000E+00        -0.28830E+07
 
   -0.63211E+07        -0.26399E+07         0.00000E+00
   -0.26399E+07        -0.79017E+07         0.00000E+00
    0.00000E+00         0.00000E+00        -0.28445E+07
 
   -0.62354E+07        -0.24814E+07         0.00000E+00
   -0.24814E+07        -0.78115E+07         0.00000E+00
    0.00000E+00         0.00000E+00        -0.28094E+07
 
   -0.61680E+07        -0.23314E+07         0.00000E+00
   -0.23314E+07        -0.77181E+07         0.00000E+00
    0.00000E+00         0.00000E+00        -0.27772E+07
 
   -0.61155E+07        -0.21904E+07         0.00000E+00
   -0.21904E+07        -0.76234E+07         0.00000E+00
    0.00000E+00         0.00000E+00        -0.27478E+07
 
   -0.60747E+07        -0.20582E+07         0.00000E+00
   -0.20582E+07        -0.75290E+07         0.00000E+00
    0.00000E+00         0.00000E+00        -0.27207E+07
 
   -0.60431E+07        -0.19346E+07         0.00000E+00
   -0.19346E+07        -0.74362E+07         0.00000E+00
    0.00000E+00         0.00000E+00        -0.26959E+07
 
   -0.60184E+07        -0.18192E+07         0.00000E+00
   -0.18192E+07        -0.73458E+07         0.00000E+00
    0.00000E+00         0.00000E+00        -0.26728E+07
 
   -0.59988E+07        -0.17115E+07         0.00000E+00
   -0.17115E+07        -0.72586E+07         0.00000E+00
    0.00000E+00         0.00000E+00        -0.26515E+07
 
   -0.59823E+07        -0.16107E+07         0.00000E+00
   -0.16107E+07        -0.71752E+07         0.00000E+00
    0.00000E+00         0.00000E+00        -0.26315E+07
 
   -0.59676E+07        -0.15164E+07         0.00000E+00
   -0.15164E+07        -0.70959E+07         0.00000E+00
    0.00000E+00         0.00000E+00        -0.26127E+07
 
   -0.59534E+07        -0.14279E+07         0.00000E+00
   -0.14279E+07        -0.70212E+07         0.00000E+00
    0.00000E+00         0.00000E+00        -0.25949E+07
 
   -0.59382E+07        -0.13446E+07         0.00000E+00
   -0.13446E+07        -0.69514E+07         0.00000E+00
    0.00000E+00         0.00000E+00        -0.25779E+07
 
   -0.59211E+07        -0.12656E+07         0.00000E+00
   -0.12656E+07        -0.68867E+07         0.00000E+00
    0.00000E+00         0.00000E+00        -0.25616E+07
 
   -0.59008E+07        -0.11904E+07         0.00000E+00
   -0.11904E+07        -0.68275E+07         0.00000E+00
    0.00000E+00         0.00000E+00        -0.25456E+07
 
   -0.58762E+07        -0.11182E+07         0.00000E+00
   -0.11182E+07        -0.67740E+07         0.00000E+00
    0.00000E+00         0.00000E+00        -0.25300E+07
 
   -0.58463E+07        -0.10481E+07         0.00000E+00
   -0.10481E+07        -0.67266E+07         0.00000E+00
    0.00000E+00         0.00000E+00        -0.25146E+07
 
   -0.58098E+07        -0.97930E+06         0.00000E+00
   -0.97930E+06        -0.66856E+07         0.00000E+00
    0.00000E+00         0.00000E+00        -0.24991E+07
 
   -0.57655E+07        -0.91083E+06         0.00000E+00
   -0.91083E+06        -0.66516E+07         0.00000E+00
    0.00000E+00         0.00000E+00        -0.24834E+07
 
   -0.57120E+07        -0.84157E+06         0.00000E+00
   -0.84157E+06        -0.66249E+07         0.00000E+00
    0.00000E+00         0.00000E+00        -0.24674E+07
 
   -0.56480E+07        -0.77023E+06         0.00000E+00
   -0.77023E+06        -0.66063E+07         0.00000E+00
    0.00000E+00         0.00000E+00        -0.24509E+07
 
   -0.55717E+07        -0.69527E+06         0.00000E+00
   -0.69527E+06        -0.65966E+07         0.00000E+00
    0.00000E+00         0.00000E+00        -0.24337E+07
 
   -0.54814E+07        -0.61489E+06         0.00000E+00
   -0.61489E+06        -0.65965E+07         0.00000E+00
    0.00000E+00         0.00000E+00        -0.24156E+07
 
   -0.53750E+07        -0.52684E+06         0.00000E+00
   -0.52684E+06        -0.66071E+07         0.00000E+00
    0.00000E+00         0.00000E+00        -0.23964E+07
 
   -0.52502E+07        -0.42839E+06         0.00000E+00
   -0.42839E+06        -0.66297E+07         0.00000E+00
    0.00000E+00         0.00000E+00        -0.23760E+07
 
   -0.51045E+07        -0.31612E+06         0.00000E+00
   -0.31612E+06        -0.66658E+07         0.00000E+00
    0.00000E+00         0.00000E+00        -0.23541E+07
 
   -0.49351E+07        -0.18569E+06         0.00000E+00
   -0.18569E+06        -0.67170E+07         0.00000E+00
    0.00000E+00         0.00000E+00        -0.23304E+07
 
   -0.47389E+07        -0.31613E+05         0.00000E+00
   -0.31613E+05        -0.67854E+07         0.00000E+00
    0.00000E+00         0.00000E+00        -0.23049E+07
 
   -0.45129E+07         0.15321E+06         0.00000E+00
    0.15321E+06        -0.68732E+07         0.00000E+00
    0.00000E+00         0.00000E+00        -0.22772E+07
 
   -0.42539E+07         0.37799E+06         0.00000E+00
    0.37799E+06        -0.69829E+07         0.00000E+00
    0.00000E+00         0.00000E+00        -0.22474E+07
 
   -0.39597E+07         0.65481E+06         0.00000E+00
    0.65481E+06        -0.71171E+07         0.00000E+00
    0.00000E+00         0.00000E+00        -0.22154E+07
 
   -0.36291E+07         0.99964E+06         0.00000E+00
    0.99964E+06        -0.72786E+07         0.00000E+00
    0.00000E+00         0.00000E+00        -0.21815E+07
 
   -0.32643E+07         0.14338E+07         0.00000E+00
    0.14338E+07        -0.74694E+07         0.00000E+00
    0.00000E+00         0.00000E+00        -0.21467E+07
 
   -0.28737E+07         0.19861E+07         0.00000E+00
    0.19861E+07        -0.76909E+07         0.00000E+00
    0.00000E+00         0.00000E+00        -0.21129E+07
 
   -0.24785E+07         0.26952E+07         0.00000E+00
    0.26952E+07        -0.79421E+07         0.00000E+00
    0.00000E+00         0.00000E+00        -0.20841E+07
 
   -0.21248E+07         0.36138E+07         0.00000E+00
    0.36138E+07        -0.82176E+07         0.00000E+00
    0.00000E+00         0.00000E+00        -0.20685E+07
 
   -0.19103E+07         0.48123E+07         0.00000E+00
    0.48123E+07        -0.85045E+07         0.00000E+00
    0.00000E+00         0.00000E+00        -0.20830E+07
 
   -0.20403E+07         0.63820E+07         0.00000E+00
    0.63820E+07        -0.87768E+07         0.00000E+00
    0.00000E+00         0.00000E+00        -0.21634E+07
 
   -0.31299E+08        -0.25305E+07         0.00000E+00
   -0.25305E+07        -0.20418E+08         0.00000E+00
    0.00000E+00         0.00000E+00        -0.10343E+08
 
   -0.27884E+08        -0.28376E+07         0.00000E+00
   -0.28376E+07        -0.19742E+08         0.00000E+00
    0.00000E+00         0.00000E+00        -0.95252E+07
 
   -0.25534E+08        -0.28154E+07         0.00000E+00
   -0.28154E+07        -0.19022E+08         0.00000E+00
    0.00000E+00         0.00000E+00        -0.89113E+07
 
   -0.23871E+08        -0.26543E+07         0.00000E+00
   -0.26543E+07        -0.18301E+08         0.00000E+00
    0.00000E+00         0.00000E+00        -0.84344E+07
 
   -0.22667E+08        -0.24432E+07         0.00000E+00
   -0.24432E+07        -0.17604E+08         0.00000E+00
    0.00000E+00         0.00000E+00        -0.80541E+07
 
   -0.21779E+08        -0.22235E+07         0.00000E+00
   -0.22235E+07        -0.16943E+08         0.00000E+00
    0.00000E+00         0.00000E+00        -0.77443E+07
 
   -0.21114E+08        -0.20136E+07         0.00000E+00
   -0.20136E+07        -0.16325E+08         0.00000E+00
    0.00000E+00         0.00000E+00        -0.74879E+07
 
   -0.20611E+08        -0.18208E+07         0.00000E+00
   -0.18208E+07        -0.15752E+08         0.00000E+00
    0.00000E+00         0.00000E+00        -0.72726E+07
 
   -0.20226E+08        -0.16473E+07         0.00000E+00
   -0.16473E+07        -0.15222E+08         0.00000E+00
    0.00000E+00         0.00000E+00        -0.70897E+07
 
   -0.19929E+08        -0.14926E+07         0.00000E+00
   -0.14926E+07        -0.14735E+08         0.00000E+00
    0.00000E+00         0.00000E+00        -0.69328E+07
 
   -0.19698E+08        -0.13553E+07         0.00000E+00
   -0.13553E+07        -0.14287E+08         0.00000E+00
    0.00000E+00         0.00000E+00        -0.67969E+07
 
   -0.19517E+08        -0.12336E+07         0.00000E+00
   -0.12336E+07        -0.13875E+08         0.00000E+00
    0.00000E+00         0.00000E+00        -0.66784E+07
 
   -0.19375E+08        -0.11257E+07         0.00000E+00
   -0.11257E+07        -0.13496E+08         0.00000E+00
    0.00000E+00         0.00000E+00        -0.65741E+07
 
   -0.19261E+08        -0.10298E+07         0.00000E+00
   -0.10298E+07        -0.13148E+08         0.00000E+00
    0.00000E+00         0.00000E+00        -0.64818E+07
 
   -0.19170E+08        -0.94448E+06         0.00000E+00
   -0.94448E+06        -0.12827E+08         0.00000E+00
    0.00000E+00         0.00000E+00        -0.63994E+07
 
   -0.19096E+08        -0.86832E+06         0.00000E+00
   -0.86832E+06        -0.12532E+08         0.00000E+00
    0.00000E+00         0.00000E+00        -0.63255E+07
 
   -0.19034E+08        -0.80015E+06         0.00000E+00
   -0.80015E+06        -0.12259E+08         0.00000E+00
    0.00000E+00         0.00000E+00        -0.62587E+07
 
   -0.18983E+08        -0.73895E+06         0.00000E+00
   -0.73895E+06        -0.12007E+08         0.00000E+00
    0.00000E+00         0.00000E+00        -0.61980E+07
 
   -0.18937E+08        -0.68383E+06         0.00000E+00
   -0.68383E+06        -0.11775E+08         0.00000E+00
    0.00000E+00         0.00000E+00        -0.61424E+07
 
   -0.18897E+08        -0.63401E+06         0.00000E+00
   -0.63401E+06        -0.11559E+08         0.00000E+00
    0.00000E+00         0.00000E+00        -0.60912E+07
 
   -0.18859E+08        -0.58884E+06         0.00000E+00
   -0.58884E+06        -0.11359E+08         0.00000E+00
    0.00000E+00         0.00000E+00        -0.60437E+07
 
   -0.18822E+08        -0.54772E+06         0.00000E+00
   -0.54772E+06        -0.11174E+08         0.00000E+00
    0.00000E+00         0.00000E+00        -0.59993E+07
 
   -0.18785E+08        -0.51013E+06         0.00000E+00
   -0.51013E+06        -0.11002E+08         0.00000E+00
    0.00000E+00         0.00000E+00        -0.59575E+07
 
   -0.18747E+08        -0.47560E+06         0.00000E+00
   -0.47560E+06        -0.10843E+08         0.00000E+00
    0.00000E+00         0.00000E+00        -0.59179E+07
 
   -0.18705E+08        -0.44371E+06         0.00000E+00
   -0.44371E+06        -0.10695E+08         0.00000E+00
    0.00000E+00         0.00000E+00        -0.58800E+07
 
   -0.18660E+08        -0.41407E+06         0.00000E+00
   -0.41407E+06        -0.10558E+08         0.00000E+00
    0.00000E+00         0.00000E+00        -0.58435E+07
 
   -0.18609E+08        -0.38631E+06         0.00000E+00
   -0.38631E+06        -0.10431E+08         0.00000E+00
    0.00000E+00         0.00000E+00        -0.58081E+07
 
   -0.18552E+08        -0.36008E+06         0.00000E+00
   -0.36008E+06        -0.10314E+08         0.00000E+00
    0.00000E+00         0.00000E+00        -0.57732E+07
 
   -0.18487E+08        -0.33503E+06         0.00000E+00
   -0.33503E+06        -0.10206E+08         0.00000E+00
    0.00000E+00         0.00000E+00        -0.57387E+07
 
   -0.18413E+08        -0.31079E+06         0.00000E+00
   -0.31079E+06        -0.10108E+08         0.00000E+00
    0.00000E+00         0.00000E+00        -0.57042E+07
 
   -0.18328E+08        -0.28699E+06         0.00000E+00
   -0.28699E+06        -0.10018E+08         0.00000E+00
    0.00000E+00         0.00000E+00        -0.56694E+07
 
   -0.18231E+08        -0.26320E+06         0.00000E+00
   -0.26320E+06        -0.99383E+07         0.00000E+00
    0.00000E+00         0.00000E+00        -0.56338E+07
 
   -0.18118E+08        -0.23896E+06         0.00000E+00
   -0.23896E+06        -0.98675E+07         0.00000E+00
    0.00000E+00         0.00000E+00        -0.55970E+07
 
   -0.17987E+08        -0.21371E+06         0.00000E+00
   -0.21371E+06        -0.98067E+07         0.00000E+00
    0.00000E+00         0.00000E+00        -0.55588E+07
 
   -0.17836E+08        -0.18679E+06         0.00000E+00
   -0.18679E+06        -0.97563E+07         0.00000E+00
    0.00000E+00         0.00000E+00        -0.55184E+07
 
   -0.17660E+08        -0.15741E+06         0.00000E+00
   -0.15741E+06        -0.97174E+07         0.00000E+00
    0.00000E+00         0.00000E+00        -0.54755E+07
 
   -0.17455E+08        -0.12454E+06         0.00000E+00
   -0.12454E+06        -0.96912E+07         0.00000E+00
    0.00000E+00         0.00000E+00        -0.54293E+07
 
   -0.17216E+08        -0.86895E+05         0.00000E+00
   -0.86895E+05        -0.96794E+07         0.00000E+00
    0.00000E+00         0.00000E+00        -0.53790E+07
 
   -0.16935E+08        -0.42796E+05         0.00000E+00
   -0.42796E+05        -0.96842E+07         0.00000E+00
    0.00000E+00         0.00000E+00        -0.53238E+07
 
   -0.16604E+08         0.99941E+04         0.00000E+00
    0.99941E+04        -0.97084E+07         0.00000E+00
    0.00000E+00         0.00000E+00        -0.52625E+07
 
   -0.16213E+08         0.74491E+05         0.00000E+00
    0.74491E+05        -0.97560E+07         0.00000E+00
    0.00000E+00         0.00000E+00        -0.51937E+07
 
   -0.15746E+08         0.15485E+06         0.00000E+00
    0.15485E+06        -0.98318E+07         0.00000E+00
    0.00000E+00         0.00000E+00        -0.51156E+07
 
   -0.15188E+08         0.25691E+06         0.00000E+00
    0.25691E+06        -0.99424E+07         0.00000E+00
    0.00000E+00         0.00000E+00        -0.50260E+07
 
   -0.14513E+08         0.38906E+06         0.00000E+00
    0.38906E+06        -0.10096E+08         0.00000E+00
    0.00000E+00         0.00000E+00        -0.49219E+07
 
   -0.13691E+08         0.56368E+06         0.00000E+00
    0.56368E+06        -0.10306E+08         0.00000E+00
    0.00000E+00         0.00000E+00        -0.47993E+07
 
   -0.12678E+08         0.79950E+06         0.00000E+00
    0.79950E+06        -0.10586E+08         0.00000E+00
    0.00000E+00         0.00000E+00        -0.46528E+07
 
   -0.11414E+08         0.11259E+07         0.00000E+00
    0.11259E+07        -0.10958E+08         0.00000E+00
    0.00000E+00         0.00000E+00        -0.44745E+07
 
   -0.98103E+07         0.15906E+07         0.00000E+00
    0.15906E+07        -0.11454E+08         0.00000E+00
    0.00000E+00         0.00000E+00        -0.42528E+07
 
   -0.77323E+07         0.22747E+07         0.00000E+00
    0.22747E+07        -0.12116E+08         0.00000E+00
    0.00000E+00         0.00000E+00        -0.39696E+07
 
   -0.49670E+07         0.33231E+07         0.00000E+00
    0.33231E+07        -0.13006E+08         0.00000E+00
    0.00000E+00         0.00000E+00        -0.35946E+07
 
TENSORS stresstot double 
   -0.43765E+08        -0.13393E+07         0.00000E+00
   -0.13393E+07        -0.49653E+08         0.00000E+00
    0.00000E+00         0.00000E+00        -0.55018E+08
 
   -0.44948E+08        -0.16976E+07         0.00000E+00
   -0.16976E+07        -0.50106E+08         0.00000E+00
    0.00000E+00         0.00000E+00        -0.56355E+08
 
   -0.46201E+08        -0.18585E+07         0.00000E+00
   -0.18585E+07        -0.50640E+08         0.00000E+00
    0.00000E+00         0.00000E+00        -0.57292E+08
 
   -0.47363E+08        -0.18212E+07         0.00000E+00
   -0.18212E+07        -0.51189E+08         0.00000E+00
    0.00000E+00         0.00000E+00        -0.57818E+08
 
   -0.48308E+08        -0.16873E+07         0.00000E+00
   -0.16873E+07        -0.51722E+08         0.00000E+00
    0.00000E+00         0.00000E+00        -0.58151E+08
 
   -0.49013E+08        -0.15384E+07         0.00000E+00
   -0.15384E+07        -0.52233E+08         0.00000E+00
    0.00000E+00         0.00000E+00        -0.58432E+08
 
   -0.49550E+08        -0.13926E+07         0.00000E+00
   -0.13926E+07        -0.52716E+08         0.00000E+00
    0.00000E+00         0.00000E+00        -0.58672E+08
 
   -0.49966E+08        -0.12575E+07         0.00000E+00
   -0.12575E+07        -0.53166E+08         0.00000E+00
    0.00000E+00         0.00000E+00        -0.58881E+08
 
   -0.50294E+08        -0.11355E+07         0.00000E+00
   -0.11355E+07        -0.53584E+08         0.00000E+00
    0.00000E+00         0.00000E+00        -0.59064E+08
 
   -0.50556E+08        -0.10268E+07         0.00000E+00
   -0.10268E+07        -0.53971E+08         0.00000E+00
    0.00000E+00         0.00000E+00        -0.59226E+08
 
   -0.50769E+08        -0.93052E+06         0.00000E+00
   -0.93052E+06        -0.54329E+08         0.00000E+00
    0.00000E+00         0.00000E+00        -0.59370E+08
 
   -0.50943E+08        -0.84535E+06         0.00000E+00
   -0.84535E+06        -0.54659E+08         0.00000E+00
    0.00000E+00         0.00000E+00        -0.59501E+08
 
   -0.51089E+08        -0.77002E+06         0.00000E+00
   -0.77002E+06        -0.54964E+08         0.00000E+00
    0.00000E+00         0.00000E+00        -0.59619E+08
 
   -0.51212E+08        -0.70328E+06         0.00000E+00
   -0.70328E+06        -0.55246E+08         0.00000E+00
    0.00000E+00         0.00000E+00        -0.59726E+08
 
   -0.51317E+08        -0.64403E+06         0.00000E+00
   -0.64403E+06        -0.55506E+08         0.00000E+00
    0.00000E+00         0.00000E+00        -0.59825E+08
 
   -0.51408E+08        -0.59127E+06         0.00000E+00
   -0.59127E+06        -0.55747E+08         0.00000E+00
    0.00000E+00         0.00000E+00        -0.59915E+08
 
   -0.51489E+08        -0.54415E+06         0.00000E+00
   -0.54415E+06        -0.55971E+08         0.00000E+00
    0.00000E+00         0.00000E+00        -0.60000E+08
 
   -0.51561E+08        -0.50195E+06         0.00000E+00
   -0.50195E+06        -0.56179E+08         0.00000E+00
    0.00000E+00         0.00000E+00        -0.60078E+08
 
   -0.51627E+08        -0.46401E+06         0.00000E+00
   -0.46401E+06        -0.56372E+08         0.00000E+00
    0.00000E+00         0.00000E+00        -0.60151E+08
 
   -0.51688E+08        -0.42978E+06         0.00000E+00
   -0.42978E+06        -0.56552E+08         0.00000E+00
    0.00000E+00         0.00000E+00        -0.60219E+08
 
   -0.51746E+08        -0.39881E+06         0.00000E+00
   -0.39881E+06        -0.56720E+08         0.00000E+00
    0.00000E+00         0.00000E+00        -0.60284E+08
 
   -0.51803E+08        -0.37065E+06         0.00000E+00
   -0.37065E+06        -0.56877E+08         0.00000E+00
    0.00000E+00         0.00000E+00        -0.60346E+08
 
   -0.51858E+08        -0.34495E+06         0.00000E+00
   -0.34495E+06        -0.57023E+08         0.00000E+00
    0.00000E+00         0.00000E+00        -0.60404E+08
 
   -0.51913E+08        -0.32138E+06         0.00000E+00
   -0.32138E+06        -0.57161E+08         0.00000E+00
    0.00000E+00         0.00000E+00        -0.60460E+08
 
   -0.51969E+08        -0.29964E+06         0.00000E+00
   -0.29964E+06        -0.57289E+08         0.00000E+00
    0.00000E+00         0.00000E+00        -0.60514E+08
 
   -0.52027E+08        -0.27947E+06         0.00000E+00
   -0.27947E+06        -0.57409E+08         0.00000E+00
    0.00000E+00         0.00000E+00        -0.60567E+08
 
   -0.52088E+08        -0.26061E+06         0.00000E+00
   -0.26061E+06        -0.57522E+08         0.00000E+00
    0.00000E+00         0.00000E+00        -0.60618E+08
 
   -0.52152E+08        -0.24280E+06         0.00000E+00
   -0.24280E+06        -0.57627E+08         0.00000E+00
    0.00000E+00         0.00000E+00        -0.60668E+08
 
   -0.52222E+08        -0.22583E+06         0.00000E+00
   -0.22583E+06        -0.57726E+08         0.00000E+00
    0.00000E+00         0.00000E+00        -0.60717E+08
 
   -0.52297E+08        -0.20943E+06         0.00000E+00
   -0.20943E+06        -0.57818E+08         0.00000E+00
    0.00000E+00         0.00000E+00        -0.60766E+08
 
   -0.52379E+08        -0.19334E+06         0.00000E+00
   -0.19334E+06        -0.57904E+08         0.00000E+00
    0.00000E+00         0.00000E+00        -0.60815E+08
 
   -0.52470E+08        -0.17730E+06         0.00000E+00
   -0.17730E+06        -0.57984E+08         0.00000E+00
    0.00000E+00         0.00000E+00        -0.60864E+08
 
   -0.52570E+08        -0.16097E+06         0.00000E+00
   -0.16097E+06        -0.58057E+08         0.00000E+00
    0.00000E+00         0.00000E+00        -0.60914E+08
 
   -0.52682E+08        -0.14399E+06         0.00000E+00
   -0.14399E+06        -0.58123E+08         0.00000E+00
    0.00000E+00         0.00000E+00        -0.60965E+08
 
   -0.52809E+08        -0.12592E+06         0.00000E+00
   -0.12592E+06        -0.58183E+08         0.00000E+00
    0.00000E+00         0.00000E+00        -0.61017E+08
 
   -0.52952E+08        -0.10622E+06         0.00000E+00
   -0.10622E+06        -0.58235E+08         0.00000E+00
    0.00000E+00         0.00000E+00        -0.61072E+08
 
   -0.53114E+08        -0.84210E+05         0.00000E+00
   -0.84210E+05        -0.58279E+08         0.00000E+00
    0.00000E+00         0.00000E+00        -0.61129E+08
 
   -0.53300E+08        -0.59031E+05         0.00000E+00
   -0.59031E+05        -0.58314E+08         0.00000E+00
    0.00000E+00         0.00000E+00        -0.61189E+08
 
   -0.53514E+08        -0.29558E+05         0.00000E+00
   -0.29558E+05        -0.58338E+08         0.00000E+00
    0.00000E+00         0.00000E+00        -0.61253E+08
 
   -0.53761E+08         0.56984E+04         0.00000E+00
    0.56984E+04        -0.58349E+08         0.00000E+00
    0.00000E+00         0.00000E+00        -0.61321E+08
 
   -0.54050E+08         0.48752E+05         0.00000E+00
    0.48752E+05        -0.58346E+08         0.00000E+00
    0.00000E+00         0.00000E+00        -0.61394E+08
 
   -0.54389E+08         0.10237E+06         0.00000E+00
    0.10237E+06        -0.58324E+08         0.00000E+00
    0.00000E+00         0.00000E+00        -0.61475E+08
 
   -0.54789E+08         0.17046E+06         0.00000E+00
    0.17046E+06        -0.58279E+08         0.00000E+00
    0.00000E+00         0.00000E+00        -0.61563E+08
 
   -0.55267E+08         0.25861E+06         0.00000E+00
    0.25861E+06        -0.58205E+08         0.00000E+00
    0.00000E+00         0.00000E+00        -0.61661E+08
 
   -0.55843E+08         0.37507E+06         0.00000E+00
    0.37507E+06        -0.58094E+08         0.00000E+00
    0.00000E+00         0.00000E+00        -0.61771E+08
 
   -0.56545E+08         0.53234E+06         0.00000E+00
    0.53234E+06        -0.57934E+08         0.00000E+00
    0.00000E+00         0.00000E+00        -0.61895E+08
 
   -0.57413E+08         0.75002E+06         0.00000E+00
    0.75002E+06        -0.57712E+08         0.00000E+00
    0.00000E+00         0.00000E+00        -0.62040E+08
 
   -0.58505E+08         0.10600E+07         0.00000E+00
    0.10600E+07        -0.57404E+08         0.00000E+00
    0.00000E+00         0.00000E+00        -0.62210E+08
 
   -0.59907E+08         0.15163E+07         0.00000E+00
    0.15163E+07        -0.56980E+08         0.00000E+00
    0.00000E+00         0.00000E+00        -0.62416E+08
 
   -0.61761E+08         0.22156E+07         0.00000E+00
    0.22156E+07        -0.56397E+08         0.00000E+00
    0.00000E+00         0.00000E+00        -0.62676E+08
 
   -0.48376E+08        -0.44028E+06         0.00000E+00
   -0.44028E+06        -0.50312E+08         0.00000E+00
    0.00000E+00         0.00000E+00        -0.52152E+08
 
   -0.47903E+08        -0.12947E+07         0.00000E+00
   -0.12947E+07        -0.49917E+08         0.00000E+00
    0.00000E+00         0.00000E+00        -0.52000E+08
 
   -0.47882E+08        -0.18811E+07         0.00000E+00
   -0.18811E+07        -0.49576E+08         0.00000E+00
    0.00000E+00         0.00000E+00        -0.51963E+08
 
   -0.48105E+08        -0.22499E+07         0.00000E+00
   -0.22499E+07        -0.49331E+08         0.00000E+00
    0.00000E+00         0.00000E+00        -0.52001E+08
 
   -0.48440E+08        -0.24427E+07         0.00000E+00
   -0.24427E+07        -0.49181E+08         0.00000E+00
    0.00000E+00         0.00000E+00        -0.52085E+08
 
   -0.48803E+08        -0.25128E+07         0.00000E+00
   -0.25128E+07        -0.49102E+08         0.00000E+00
    0.00000E+00         0.00000E+00        -0.52190E+08
 
   -0.49154E+08        -0.25032E+07         0.00000E+00
   -0.25032E+07        -0.49080E+08         0.00000E+00
    0.00000E+00         0.00000E+00        -0.52306E+08
 
   -0.49477E+08        -0.24435E+07         0.00000E+00
   -0.24435E+07        -0.49104E+08         0.00000E+00
    0.00000E+00         0.00000E+00        -0.52425E+08
 
   -0.49767E+08        -0.23535E+07         0.00000E+00
   -0.23535E+07        -0.49163E+08         0.00000E+00
    0.00000E+00         0.00000E+00        -0.52545E+08
 
   -0.50023E+08        -0.22466E+07         0.00000E+00
   -0.22466E+07        -0.49248E+08         0.00000E+00
    0.00000E+00         0.00000E+00        -0.52663E+08
 
   -0.50248E+08        -0.21316E+07         0.00000E+00
   -0.21316E+07        -0.49352E+08         0.00000E+00
    0.00000E+00         0.00000E+00        -0.52777E+08
 
   -0.50446E+08        -0.20142E+07         0.00000E+00
   -0.20142E+07        -0.49469E+08         0.00000E+00
    0.00000E+00         0.00000E+00        -0.52889E+08
 
   -0.50620E+08        -0.18982E+07         0.00000E+00
   -0.18982E+07        -0.49595E+08         0.00000E+00
    0.00000E+00         0.00000E+00        -0.52996E+08
 
   -0.50774E+08        -0.17857E+07         0.00000E+00
   -0.17857E+07        -0.49726E+08         0.00000E+00
    0.00000E+00         0.00000E+00        -0.53100E+08
 
   -0.50910E+08        -0.16782E+07         0.00000E+00
   -0.16782E+07        -0.49860E+08         0.00000E+00
    0.00000E+00         0.00000E+00        -0.53199E+08
 
   -0.51031E+08        -0.15764E+07         0.00000E+00
   -0.15764E+07        -0.49996E+08         0.00000E+00
    0.00000E+00         0.00000E+00        -0.53295E+08
 
   -0.51140E+08        -0.14805E+07         0.00000E+00
   -0.14805E+07        -0.50130E+08         0.00000E+00
    0.00000E+00         0.00000E+00        -0.53387E+08
 
   -0.51239E+08        -0.13907E+07         0.00000E+00
   -0.13907E+07        -0.50263E+08         0.00000E+00
    0.00000E+00         0.00000E+00        -0.53475E+08
 
   -0.51330E+08        -0.13067E+07         0.00000E+00
   -0.13067E+07        -0.50392E+08         0.00000E+00
    0.00000E+00         0.00000E+00        -0.53560E+08
 
   -0.51414E+08        -0.12282E+07         0.00000E+00
   -0.12282E+07        -0.50519E+08         0.00000E+00
    0.00000E+00         0.00000E+00        -0.53642E+08
 
   -0.51493E+08        -0.11550E+07         0.00000E+00
   -0.11550E+07        -0.50641E+08         0.00000E+00
    0.00000E+00         0.00000E+00        -0.53721E+08
 
   -0.51567E+08        -0.10866E+07         0.00000E+00
   -0.10866E+07        -0.50760E+08         0.00000E+00
    0.00000E+00         0.00000E+00        -0.53797E+08
 
   -0.51639E+08        -0.10225E+07         0.00000E+00
   -0.10225E+07        -0.50874E+08         0.00000E+00
    0.00000E+00         0.00000E+00        -0.53871E+08
 
   -0.51709E+08        -0.96249E+06         0.00000E+00
   -0.96249E+06        -0.50984E+08         0.00000E+00
    0.00000E+00         0.00000E+00        -0.53943E+08
 
   -0.51777E+08        -0.90595E+06         0.00000E+00
   -0.90595E+06        -0.51089E+08         0.00000E+00
    0.00000E+00         0.00000E+00        -0.54013E+08
 
   -0.51846E+08        -0.85246E+06         0.00000E+00
   -0.85246E+06        -0.51189E+08         0.00000E+00
    0.00000E+00         0.00000E+00        -0.54081E+08
 
   -0.51916E+08        -0.80153E+06         0.00000E+00
   -0.80153E+06        -0.51285E+08         0.00000E+00
    0.00000E+00         0.00000E+00        -0.54147E+08
 
   -0.51987E+08        -0.75266E+06         0.00000E+00
   -0.75266E+06        -0.51375E+08         0.00000E+00
    0.00000E+00         0.00000E+00        -0.54213E+08
 
   -0.52061E+08        -0.70531E+06         0.00000E+00
   -0.70531E+06        -0.51461E+08         0.00000E+00
    0.00000E+00         0.00000E+00        -0.54277E+08
 
   -0.52139E+08        -0.65887E+06         0.00000E+00
   -0.65887E+06        -0.51542E+08         0.00000E+00
    0.00000E+00         0.00000E+00        -0.54341E+08
 
   -0.52221E+08        -0.61271E+06         0.00000E+00
   -0.61271E+06        -0.51617E+08         0.00000E+00
    0.00000E+00         0.00000E+00        -0.54404E+08
 
   -0.52309E+08        -0.56607E+06         0.00000E+00
   -0.56607E+06        -0.51687E+08         0.00000E+00
    0.00000E+00         0.00000E+00        -0.54467E+08
 
   -0.52403E+08        -0.51808E+06         0.00000E+00
   -0.51808E+06        -0.51752E+08         0.00000E+00
    0.00000E+00         0.00000E+00        -0.54529E+08
 
   -0.52505E+08        -0.46773E+06         0.00000E+00
   -0.46773E+06        -0.51810E+08         0.00000E+00
    0.00000E+00         0.00000E+00        -0.54592E+08
 
   -0.52616E+08        -0.41380E+06         0.00000E+00
   -0.41380E+06        -0.51861E+08         0.00000E+00
    0.00000E+00         0.00000E+00        -0.54655E+08
 
   -0.52738E+08        -0.35480E+06         0.00000E+00
   -0.35480E+06        -0.51905E+08         0.00000E+00
    0.00000E+00         0.00000E+00        -0.54719E+08
 
   -0.52873E+08        -0.28890E+06         0.00000E+00
   -0.28890E+06        -0.51942E+08         0.00000E+00
    0.00000E+00         0.00000E+00        -0.54784E+08
 
   -0.53021E+08        -0.21380E+06         0.00000E+00
   -0.21380E+06        -0.51969E+08         0.00000E+00
    0.00000E+00         0.00000E+00        -0.54850E+08
 
   -0.53185E+08        -0.12664E+06         0.00000E+00
   -0.12664E+06        -0.51986E+08         0.00000E+00
    0.00000E+00         0.00000E+00        -0.54917E+08
 
   -0.53366E+08        -0.23729E+05         0.00000E+00
   -0.23729E+05        -0.51992E+08         0.00000E+00
    0.00000E+00         0.00000E+00        -0.54985E+08
 
   -0.53568E+08         0.99656E+05         0.00000E+00
    0.99656E+05        -0.51984E+08         0.00000E+00
    0.00000E+00         0.00000E+00        -0.55054E+08
 
   -0.53791E+08         0.24966E+06         0.00000E+00
    0.24966E+06        -0.51962E+08         0.00000E+00
    0.00000E+00         0.00000E+00        -0.55125E+08
 
   -0.54038E+08         0.43434E+06         0.00000E+00
    0.43434E+06        -0.51924E+08         0.00000E+00
    0.00000E+00         0.00000E+00        -0.55197E+08
 
   -0.54308E+08         0.66435E+06         0.00000E+00
    0.66435E+06        -0.51866E+08         0.00000E+00
    0.00000E+00         0.00000E+00        -0.55269E+08
 
   -0.54599E+08         0.95393E+06         0.00000E+00
    0.95393E+06        -0.51787E+08         0.00000E+00
    0.00000E+00         0.00000E+00        -0.55341E+08
 
   -0.54905E+08         0.13222E+07         0.00000E+00
    0.13222E+07        -0.51686E+08         0.00000E+00
    0.00000E+00         0.00000E+00        -0.55409E+08
 
   -0.55211E+08         0.17951E+07         0.00000E+00
    0.17951E+07        -0.51561E+08         0.00000E+00
    0.00000E+00         0.00000E+00        -0.55471E+08
 
   -0.55484E+08         0.24077E+07         0.00000E+00
    0.24077E+07        -0.51416E+08         0.00000E+00
    0.00000E+00         0.00000E+00        -0.55519E+08
 
   -0.55656E+08         0.32070E+07         0.00000E+00
    0.32070E+07        -0.51254E+08         0.00000E+00
    0.00000E+00         0.00000E+00        -0.55539E+08
 
   -0.55586E+08         0.42538E+07         0.00000E+00
    0.42538E+07        -0.51091E+08         0.00000E+00
    0.00000E+00         0.00000E+00        -0.55504E+08
 
   -0.51033E+08        -0.95266E+05         0.00000E+00
   -0.95266E+05        -0.50009E+08         0.00000E+00
    0.00000E+00         0.00000E+00        -0.50719E+08
 
   -0.50416E+08        -0.41774E+06         0.00000E+00
   -0.41774E+06        -0.49979E+08         0.00000E+00
    0.00000E+00         0.00000E+00        -0.50584E+08
 
   -0.49956E+08        -0.78213E+06         0.00000E+00
   -0.78213E+06        -0.49849E+08         0.00000E+00
    0.00000E+00         0.00000E+00        -0.50459E+08
 
   -0.49661E+08        -0.11278E+07         0.00000E+00
   -0.11278E+07        -0.49658E+08         0.00000E+00
    0.00000E+00         0.00000E+00        -0.50354E+08
 
   -0.49508E+08        -0.14259E+07         0.00000E+00
   -0.14259E+07        -0.49439E+08         0.00000E+00
    0.00000E+00         0.00000E+00        -0.50274E+08
 
   -0.49464E+08        -0.16635E+07         0.00000E+00
   -0.16635E+07        -0.49221E+08         0.00000E+00
    0.00000E+00         0.00000E+00        -0.50219E+08
 
   -0.49496E+08        -0.18403E+07         0.00000E+00
   -0.18403E+07        -0.49017E+08         0.00000E+00
    0.00000E+00         0.00000E+00        -0.50185E+08
 
   -0.49579E+08        -0.19624E+07         0.00000E+00
   -0.19624E+07        -0.48836E+08         0.00000E+00
    0.00000E+00         0.00000E+00        -0.50170E+08
 
   -0.49693E+08        -0.20381E+07         0.00000E+00
   -0.20381E+07        -0.48681E+08         0.00000E+00
    0.00000E+00         0.00000E+00        -0.50170E+08
 
   -0.49824E+08        -0.20761E+07         0.00000E+00
   -0.20761E+07        -0.48551E+08         0.00000E+00
    0.00000E+00         0.00000E+00        -0.50181E+08
 
   -0.49963E+08        -0.20842E+07         0.00000E+00
   -0.20842E+07        -0.48447E+08         0.00000E+00
    0.00000E+00         0.00000E+00        -0.50202E+08
 
   -0.50103E+08        -0.20691E+07         0.00000E+00
   -0.20691E+07        -0.48365E+08         0.00000E+00
    0.00000E+00         0.00000E+00        -0.50231E+08
 
   -0.50241E+08        -0.20364E+07         0.00000E+00
   -0.20364E+07        -0.48304E+08         0.00000E+00
    0.00000E+00         0.00000E+00        -0.50266E+08
 
   -0.50375E+08        -0.19907E+07         0.00000E+00
   -0.19907E+07        -0.48262E+08         0.00000E+00
    0.00000E+00         0.00000E+00        -0.50306E+08
 
   -0.50502E+08        -0.19356E+07         0.00000E+00
   -0.19356E+07        -0.48235E+08         0.00000E+00
    0.00000E+00         0.00000E+00        -0.50350E+08
 
   -0.50624E+08        -0.18740E+07         0.00000E+00
   -0.18740E+07        -0.48221E+08         0.00000E+00
    0.00000E+00         0.00000E+00        -0.50396E+08
 
   -0.50738E+08        -0.18081E+07         0.00000E+00
   -0.18081E+07        -0.48219E+08         0.00000E+00
    0.00000E+00         0.00000E+00        -0.50444E+08
 
   -0.50847E+08        -0.17396E+07         0.00000E+00
   -0.17396E+07        -0.48227E+08         0.00000E+00
    0.00000E+00         0.00000E+00        -0.50494E+08
 
   -0.50949E+08        -0.16698E+07         0.00000E+00
   -0.16698E+07        -0.48242E+08         0.00000E+00
    0.00000E+00         0.00000E+00        -0.50545E+08
 
   -0.51046E+08        -0.15996E+07         0.00000E+00
   -0.15996E+07        -0.48263E+08         0.00000E+00
    0.00000E+00         0.00000E+00        -0.50596E+08
 
   -0.51139E+08        -0.15297E+07         0.00000E+00
   -0.15297E+07        -0.48289E+08         0.00000E+00
    0.00000E+00         0.00000E+00        -0.50648E+08
 
   -0.51227E+08        -0.14605E+07         0.00000E+00
   -0.14605E+07        -0.48318E+08         0.00000E+00
    0.00000E+00         0.00000E+00        -0.50700E+08
 
   -0.51311E+08        -0.13922E+07         0.00000E+00
   -0.13922E+07        -0.48350E+08         0.00000E+00
    0.00000E+00         0.00000E+00        -0.50751E+08
 
   -0.51393E+08        -0.13249E+07         0.00000E+00
   -0.13249E+07        -0.48384E+08         0.00000E+00
    0.00000E+00         0.00000E+00        -0.50802E+08
 
   -0.51472E+08        -0.12586E+07         0.00000E+00
   -0.12586E+07        -0.48419E+08         0.00000E+00
    0.00000E+00         0.00000E+00        -0.50853E+08
 
   -0.51550E+08        -0.11931E+07         0.00000E+00
   -0.11931E+07        -0.48453E+08         0.00000E+00
    0.00000E+00         0.00000E+00        -0.50903E+08
 
   -0.51626E+08        -0.11281E+07         0.00000E+00
   -0.11281E+07        -0.48487E+08         0.00000E+00
    0.00000E+00         0.00000E+00        -0.50952E+08
 
   -0.51702E+08        -0.10632E+07         0.00000E+00
   -0.10632E+07        -0.48520E+08         0.00000E+00
    0.00000E+00         0.00000E+00        -0.51001E+08
 
   -0.51777E+08        -0.99808E+06         0.00000E+00
   -0.99808E+06        -0.48551E+08         0.00000E+00
    0.00000E+00         0.00000E+00        -0.51048E+08
 
   -0.51853E+08        -0.93198E+06         0.00000E+00
   -0.93198E+06        -0.48580E+08         0.00000E+00
    0.00000E+00         0.00000E+00        -0.51095E+08
 
   -0.51929E+08        -0.86422E+06         0.00000E+00
   -0.86422E+06        -0.48606E+08         0.00000E+00
    0.00000E+00         0.00000E+00        -0.51140E+08
 
   -0.52007E+08        -0.79393E+06         0.00000E+00
   -0.79393E+06        -0.48629E+08         0.00000E+00
    0.00000E+00         0.00000E+00        -0.51185E+08
 
   -0.52085E+08        -0.72008E+06         0.00000E+00
   -0.72008E+06        -0.48648E+08         0.00000E+00
    0.00000E+00         0.00000E+00        -0.51229E+08
 
   -0.52165E+08        -0.64142E+06         0.00000E+00
   -0.64142E+06        -0.48662E+08         0.00000E+00
    0.00000E+00         0.00000E+00        -0.51271E+08
 
   -0.52247E+08        -0.55651E+06         0.00000E+00
   -0.55651E+06        -0.48672E+08         0.00000E+00
    0.00000E+00         0.00000E+00        -0.51312E+08
 
   -0.52330E+08        -0.46360E+06         0.00000E+00
   -0.46360E+06        -0.48677E+08         0.00000E+00
    0.00000E+00         0.00000E+00        -0.51351E+08
 
   -0.52414E+08        -0.36064E+06         0.00000E+00
   -0.36064E+06        -0.48676E+08         0.00000E+00
    0.00000E+00         0.00000E+00        -0.51388E+08
 
   -0.52499E+08        -0.24518E+06         0.00000E+00
   -0.24518E+06        -0.48670E+08         0.00000E+00
    0.00000E+00         0.00000E+00        -0.51424E+08
 
   -0.52582E+08        -0.11434E+06         0.00000E+00
   -0.11434E+06        -0.48658E+08         0.00000E+00
    0.00000E+00         0.00000E+00        -0.51457E+08
 
   -0.52663E+08         0.35301E+05         0.00000E+00
    0.35301E+05        -0.48639E+08         0.00000E+00
    0.00000E+00         0.00000E+00        -0.51487E+08
 
   -0.52739E+08         0.20774E+06         0.00000E+00
    0.20774E+06        -0.48616E+08         0.00000E+00
    0.00000E+00         0.00000E+00        -0.51513E+08
 
   -0.52805E+08         0.40760E+06         0.00000E+00
    0.40760E+06        -0.48588E+08         0.00000E+00
    0.00000E+00         0.00000E+00        -0.51536E+08
 
   -0.52855E+08         0.64015E+06         0.00000E+00
    0.64015E+06        -0.48556E+08         0.00000E+00
    0.00000E+00         0.00000E+00        -0.51553E+08
 
   -0.52882E+08         0.91118E+06         0.00000E+00
    0.91118E+06        -0.48525E+08         0.00000E+00
    0.00000E+00         0.00000E+00        -0.51564E+08
 
   -0.52874E+08         0.12267E+07         0.00000E+00
    0.12267E+07        -0.48498E+08         0.00000E+00
    0.00000E+00         0.00000E+00        -0.51568E+08
 
   -0.52815E+08         0.15921E+07         0.00000E+00
    0.15921E+07        -0.48481E+08         0.00000E+00
    0.00000E+00         0.00000E+00        -0.51562E+08
 
   -0.52685E+08         0.20110E+07         0.00000E+00
    0.20110E+07        -0.48485E+08         0.00000E+00
    0.00000E+00         0.00000E+00        -0.51545E+08
 
   -0.52460E+08         0.24820E+07         0.00000E+00
    0.24820E+07        -0.48524E+08         0.00000E+00
    0.00000E+00         0.00000E+00        -0.51514E+08
 
   -0.52116E+08         0.29929E+07         0.00000E+00
    0.29929E+07        -0.48623E+08         0.00000E+00
    0.00000E+00         0.00000E+00        -0.51470E+08
 
   -0.51652E+08         0.35111E+07         0.00000E+00
    0.35111E+07        -0.48816E+08         0.00000E+00
    0.00000E+00         0.00000E+00        -0.51419E+08
 
   -0.51962E+08         0.47715E+04         0.00000E+00
    0.47715E+04        -0.50025E+08         0.00000E+00
    0.00000E+00         0.00000E+00        -0.50664E+08
 
   -0.51543E+08        -0.12217E+06         0.00000E+00
   -0.12217E+06        -0.49997E+08         0.00000E+00
    0.00000E+00         0.00000E+00        -0.50560E+08
 
   -0.51176E+08        -0.27552E+06         0.00000E+00
   -0.27552E+06        -0.49951E+08         0.00000E+00
    0.00000E+00         0.00000E+00        -0.50454E+08
 
   -0.50863E+08        -0.45014E+06         0.00000E+00
   -0.45014E+06        -0.49879E+08         0.00000E+00
    0.00000E+00         0.00000E+00        -0.50346E+08
 
   -0.50610E+08        -0.63393E+06         0.00000E+00
   -0.63393E+06        -0.49780E+08         0.00000E+00
    0.00000E+00         0.00000E+00        -0.50243E+08
 
   -0.50416E+08        -0.81523E+06         0.00000E+00
   -0.81523E+06        -0.49659E+08         0.00000E+00
    0.00000E+00         0.00000E+00        -0.50146E+08
 
   -0.50278E+08        -0.98451E+06         0.00000E+00
   -0.98451E+06        -0.49522E+08         0.00000E+00
    0.00000E+00         0.00000E+00        -0.50059E+08
 
   -0.50191E+08        -0.11354E+07         0.00000E+00
   -0.11354E+07        -0.49377E+08         0.00000E+00
    0.00000E+00         0.00000E+00        -0.49982E+08
 
   -0.50146E+08        -0.12644E+07         0.00000E+00
   -0.12644E+07        -0.49229E+08         0.00000E+00
    0.00000E+00         0.00000E+00        -0.49917E+08
 
   -0.50136E+08        -0.13705E+07         0.00000E+00
   -0.13705E+07        -0.49084E+08         0.00000E+00
    0.00000E+00         0.00000E+00        -0.49862E+08
 
   -0.50152E+08        -0.14542E+07         0.00000E+00
   -0.14542E+07        -0.48944E+08         0.00000E+00
    0.00000E+00         0.00000E+00        -0.49818E+08
 
   -0.50189E+08        -0.15168E+07         0.00000E+00
   -0.15168E+07        -0.48813E+08         0.00000E+00
    0.00000E+00         0.00000E+00        -0.49783E+08
 
   -0.50242E+08        -0.15603E+07         0.00000E+00
   -0.15603E+07        -0.48691E+08         0.00000E+00
    0.00000E+00         0.00000E+00        -0.49757E+08
 
   -0.50306E+08        -0.15869E+07         0.00000E+00
   -0.15869E+07        -0.48579E+08         0.00000E+00
    0.00000E+00         0.00000E+00        -0.49739E+08
 
   -0.50377E+08        -0.15987E+07         0.00000E+00
   -0.15987E+07        -0.48477E+08         0.00000E+00
    0.00000E+00         0.00000E+00        -0.49727E+08
 
   -0.50454E+08        -0.15979E+07         0.00000E+00
   -0.15979E+07        -0.48386E+08         0.00000E+00
    0.00000E+00         0.00000E+00        -0.49722E+08
 
   -0.50534E+08        -0.15862E+07         0.00000E+00
   -0.15862E+07        -0.48305E+08         0.00000E+00
    0.00000E+00         0.00000E+00        -0.49722E+08
 
   -0.50615E+08        -0.15653E+07         0.00000E+00
   -0.15653E+07        -0.48232E+08         0.00000E+00
    0.00000E+00         0.00000E+00        -0.49726E+08
 
   -0.50697E+08        -0.15368E+07         0.00000E+00
   -0.15368E+07        -0.48169E+08         0.00000E+00
    0.00000E+00         0.00000E+00        -0.49734E+08
 
   -0.50778E+08        -0.15018E+07         0.00000E+00
   -0.15018E+07        -0.48112E+08         0.00000E+00
    0.00000E+00         0.00000E+00        -0.49745E+08
 
   -0.50858E+08        -0.14614E+07         0.00000E+00
   -0.14614E+07        -0.48063E+08         0.00000E+00
    0.00000E+00         0.00000E+00        -0.49759E+08
 
   -0.50937E+08        -0.14164E+07         0.00000E+00
   -0.14164E+07        -0.48019E+08         0.00000E+00
    0.00000E+00         0.00000E+00        -0.49774E+08
 
   -0.51014E+08        -0.13674E+07         0.00000E+00
   -0.13674E+07        -0.47981E+08         0.00000E+00
    0.00000E+00         0.00000E+00        -0.49792E+08
 
   -0.51090E+08        -0.13149E+07         0.00000E+00
   -0.13149E+07        -0.47946E+08         0.00000E+00
    0.00000E+00         0.00000E+00        -0.49810E+08
 
   -0.51163E+08        -0.12592E+07         0.00000E+00
   -0.12592E+07        -0.47915E+08         0.00000E+00
    0.00000E+00         0.00000E+00        -0.49830E+08
 
   -0.51234E+08        -0.12005E+07         0.00000E+00
   -0.12005E+07        -0.47887E+08         0.00000E+00
    0.00000E+00         0.00000E+00        -0.49849E+08
 
   -0.51304E+08        -0.11388E+07         0.00000E+00
   -0.11388E+07        -0.47862E+08         0.00000E+00
    0.00000E+00         0.00000E+00        -0.49869E+08
 
   -0.51371E+08        -0.10740E+07         0.00000E+00
   -0.10740E+07        -0.47837E+08         0.00000E+00
    0.00000E+00         0.00000E+00        -0.49889E+08
 
   -0.51436E+08        -0.10059E+07         0.00000E+00
   -0.10059E+07        -0.47814E+08         0.00000E+00
    0.00000E+00         0.00000E+00        -0.49908E+08
 
   -0.51498E+08        -0.93419E+06         0.00000E+00
   -0.93419E+06        -0.47791E+08         0.00000E+00
    0.00000E+00         0.00000E+00        -0.49926E+08
 
   -0.51558E+08        -0.85830E+06         0.00000E+00
   -0.85830E+06        -0.47768E+08         0.00000E+00
    0.00000E+00         0.00000E+00        -0.49943E+08
 
   -0.51614E+08        -0.77765E+06         0.00000E+00
   -0.77765E+06        -0.47744E+08         0.00000E+00
    0.00000E+00         0.00000E+00        -0.49958E+08
 
   -0.51667E+08        -0.69152E+06         0.00000E+00
   -0.69152E+06        -0.47720E+08         0.00000E+00
    0.00000E+00         0.00000E+00        -0.49972E+08
 
   -0.51716E+08        -0.59905E+06         0.00000E+00
   -0.59905E+06        -0.47695E+08         0.00000E+00
    0.00000E+00         0.00000E+00        -0.49984E+08
 
   -0.51759E+08        -0.49922E+06         0.00000E+00
   -0.49922E+06        -0.47669E+08         0.00000E+00
    0.00000E+00         0.00000E+00        -0.49993E+08
 
   -0.51796E+08        -0.39093E+06         0.00000E+00
   -0.39093E+06        -0.47642E+08         0.00000E+00
    0.00000E+00         0.00000E+00        -0.49999E+08
 
   -0.51825E+08        -0.27293E+06         0.00000E+00
   -0.27293E+06        -0.47614E+08         0.00000E+00
    0.00000E+00         0.00000E+00        -0.50002E+08
 
   -0.51844E+08        -0.14387E+06         0.00000E+00
   -0.14387E+06        -0.47587E+08         0.00000E+00
    0.00000E+00         0.00000E+00        -0.50002E+08
 
   -0.51851E+08        -0.23646E+04         0.00000E+00
   -0.23646E+04        -0.47560E+08         0.00000E+00
    0.00000E+00         0.00000E+00        -0.49997E+08
 
   -0.51843E+08         0.15300E+06         0.00000E+00
    0.15300E+06        -0.47534E+08         0.00000E+00
    0.00000E+00         0.00000E+00        -0.49988E+08
 
   -0.51816E+08         0.32354E+06         0.00000E+00
    0.32354E+06        -0.47512E+08         0.00000E+00
    0.00000E+00         0.00000E+00        -0.49974E+08
 
   -0.51765E+08         0.51034E+06         0.00000E+00
    0.51034E+06        -0.47496E+08         0.00000E+00
    0.00000E+00         0.00000E+00        -0.49954E+08
 
   -0.51685E+08         0.71401E+06         0.00000E+00
    0.71401E+06        -0.47489E+08         0.00000E+00
    0.00000E+00         0.00000E+00        -0.49929E+08
 
   -0.51571E+08         0.93444E+06         0.00000E+00
    0.93444E+06        -0.47493E+08         0.00000E+00
    0.00000E+00         0.00000E+00        -0.49897E+08
 
   -0.51415E+08         0.11704E+07         0.00000E+00
    0.11704E+07        -0.47514E+08         0.00000E+00
    0.00000E+00         0.00000E+00        -0.49860E+08
 
   -0.51211E+08         0.14189E+07         0.00000E+00
    0.14189E+07        -0.47558E+08         0.00000E+00
    0.00000E+00         0.00000E+00        -0.49816E+08
 
   -0.50954E+08         0.16753E+07         0.00000E+00
    0.16753E+07        -0.47629E+08         0.00000E+00
    0.00000E+00         0.00000E+00        -0.49767E+08
 
   -0.50637E+08         0.19325E+07         0.00000E+00
    0.19325E+07        -0.47734E+08         0.00000E+00
    0.00000E+00         0.00000E+00        -0.49714E+08
 
   -0.50259E+08         0.21829E+07         0.00000E+00
    0.21829E+07        -0.47877E+08         0.00000E+00
    0.00000E+00         0.00000E+00        -0.49659E+08
 
   -0.49811E+08         0.24234E+07         0.00000E+00
    0.24234E+07        -0.48054E+08         0.00000E+00
    0.00000E+00         0.00000E+00        -0.49599E+08
 
   -0.52236E+08         0.90738E+04         0.00000E+00
    0.90738E+04        -0.50001E+08         0.00000E+00
    0.00000E+00         0.00000E+00        -0.50806E+08
 
   -0.51982E+08        -0.27539E+05         0.00000E+00
   -0.27539E+05        -0.50001E+08         0.00000E+00
    0.00000E+00         0.00000E+00        -0.50743E+08
 
   -0.51733E+08        -0.88680E+05         0.00000E+00
   -0.88680E+05        -0.49986E+08         0.00000E+00
    0.00000E+00         0.00000E+00        -0.50667E+08
 
   -0.51497E+08        -0.16739E+06         0.00000E+00
   -0.16739E+06        -0.49958E+08         0.00000E+00
    0.00000E+00         0.00000E+00        -0.50584E+08
 
   -0.51282E+08        -0.25906E+06         0.00000E+00
   -0.25906E+06        -0.49916E+08         0.00000E+00
    0.00000E+00         0.00000E+00        -0.50498E+08
 
   -0.51091E+08        -0.35919E+06         0.00000E+00
   -0.35919E+06        -0.49860E+08         0.00000E+00
    0.00000E+00         0.00000E+00        -0.50411E+08
 
   -0.50927E+08        -0.46342E+06         0.00000E+00
   -0.46342E+06        -0.49791E+08         0.00000E+00
    0.00000E+00         0.00000E+00        -0.50325E+08
 
   -0.50790E+08        -0.56758E+06         0.00000E+00
   -0.56758E+06        -0.49710E+08         0.00000E+00
    0.00000E+00         0.00000E+00        -0.50242E+08
 
   -0.50681E+08        -0.66802E+06         0.00000E+00
   -0.66802E+06        -0.49619E+08         0.00000E+00
    0.00000E+00         0.00000E+00        -0.50164E+08
 
   -0.50598E+08        -0.76185E+06         0.00000E+00
   -0.76185E+06        -0.49521E+08         0.00000E+00
    0.00000E+00         0.00000E+00        -0.50091E+08
 
   -0.50539E+08        -0.84693E+06         0.00000E+00
   -0.84693E+06        -0.49419E+08         0.00000E+00
    0.00000E+00         0.00000E+00        -0.50025E+08
 
   -0.50501E+08        -0.92188E+06         0.00000E+00
   -0.92188E+06        -0.49313E+08         0.00000E+00
    0.00000E+00         0.00000E+00        -0.49965E+08
 
   -0.50482E+08        -0.98594E+06         0.00000E+00
   -0.98594E+06        -0.49207E+08         0.00000E+00
    0.00000E+00         0.00000E+00        -0.49911E+08
 
   -0.50478E+08        -0.10388E+07         0.00000E+00
   -0.10388E+07        -0.49101E+08         0.00000E+00
    0.00000E+00         0.00000E+00        -0.49863E+08
 
   -0.50488E+08        -0.10807E+07         0.00000E+00
   -0.10807E+07        -0.48998E+08         0.00000E+00
    0.00000E+00         0.00000E+00        -0.49822E+08
 
   -0.50509E+08        -0.11118E+07         0.00000E+00
   -0.11118E+07        -0.48897E+08         0.00000E+00
    0.00000E+00         0.00000E+00        -0.49786E+08
 
   -0.50538E+08        -0.11328E+07         0.00000E+00
   -0.11328E+07        -0.48799E+08         0.00000E+00
    0.00000E+00         0.00000E+00        -0.49754E+08
 
   -0.50575E+08        -0.11442E+07         0.00000E+00
   -0.11442E+07        -0.48705E+08         0.00000E+00
    0.00000E+00         0.00000E+00        -0.49728E+08
 
   -0.50617E+08        -0.11468E+07         0.00000E+00
   -0.11468E+07        -0.48616E+08         0.00000E+00
    0.00000E+00         0.00000E+00        -0.49706E+08
 
   -0.50663E+08        -0.11411E+07         0.00000E+00
   -0.11411E+07        -0.48531E+08         0.00000E+00
    0.00000E+00         0.00000E+00        -0.49687E+08
 
   -0.50712E+08        -0.11278E+07         0.00000E+00
   -0.11278E+07        -0.48450E+08         0.00000E+00
    0.00000E+00         0.00000E+00        -0.49671E+08
 
   -0.50762E+08        -0.11075E+07         0.00000E+00
   -0.11075E+07        -0.48374E+08         0.00000E+00
    0.00000E+00         0.00000E+00        -0.49658E+08
 
   -0.50814E+08        -0.10807E+07         0.00000E+00
   -0.10807E+07        -0.48301E+08         0.00000E+00
    0.00000E+00         0.00000E+00        -0.49647E+08
 
   -0.50866E+08        -0.10478E+07         0.00000E+00
   -0.10478E+07        -0.48232E+08         0.00000E+00
    0.00000E+00         0.00000E+00        -0.49638E+08
 
   -0.50917E+08        -0.10091E+07         0.00000E+00
   -0.10091E+07        -0.48166E+08         0.00000E+00
    0.00000E+00         0.00000E+00        -0.49631E+08
 
   -0.50967E+08        -0.96487E+06         0.00000E+00
   -0.96487E+06        -0.48103E+08         0.00000E+00
    0.00000E+00         0.00000E+00        -0.49624E+08
 
   -0.51015E+08        -0.91533E+06         0.00000E+00
   -0.91533E+06        -0.48044E+08         0.00000E+00
    0.00000E+00         0.00000E+00        -0.49618E+08
 
   -0.51060E+08        -0.86056E+06         0.00000E+00
   -0.86056E+06        -0.47987E+08         0.00000E+00
    0.00000E+00         0.00000E+00        -0.49612E+08
 
   -0.51103E+08        -0.80056E+06         0.00000E+00
   -0.80056E+06        -0.47932E+08         0.00000E+00
    0.00000E+00         0.00000E+00        -0.49605E+08
 
   -0.51142E+08        -0.73529E+06         0.00000E+00
   -0.73529E+06        -0.47880E+08         0.00000E+00
    0.00000E+00         0.00000E+00        -0.49599E+08
 
   -0.51176E+08        -0.66462E+06         0.00000E+00
   -0.66462E+06        -0.47829E+08         0.00000E+00
    0.00000E+00         0.00000E+00        -0.49591E+08
 
   -0.51205E+08        -0.58836E+06         0.00000E+00
   -0.58836E+06        -0.47781E+08         0.00000E+00
    0.00000E+00         0.00000E+00        -0.49582E+08
 
   -0.51228E+08        -0.50630E+06         0.00000E+00
   -0.50630E+06        -0.47735E+08         0.00000E+00
    0.00000E+00         0.00000E+00        -0.49571E+08
 
   -0.51244E+08        -0.41819E+06         0.00000E+00
   -0.41819E+06        -0.47691E+08         0.00000E+00
    0.00000E+00         0.00000E+00        -0.49558E+08
 
   -0.51251E+08        -0.32375E+06         0.00000E+00
   -0.32375E+06        -0.47649E+08         0.00000E+00
    0.00000E+00         0.00000E+00        -0.49543E+08
 
   -0.51249E+08        -0.22275E+06         0.00000E+00
   -0.22275E+06        -0.47610E+08         0.00000E+00
    0.00000E+00         0.00000E+00        -0.49525E+08
 
   -0.51235E+08        -0.11498E+06         0.00000E+00
   -0.11498E+06        -0.47575E+08         0.00000E+00
    0.00000E+00         0.00000E+00        -0.49505E+08
 
   -0.51208E+08        -0.34273E+03         0.00000E+00
   -0.34273E+03        -0.47544E+08         0.00000E+00
    0.00000E+00         0.00000E+00        -0.49481E+08
 
   -0.51166E+08         0.12113E+06         0.00000E+00
    0.12113E+06        -0.47519E+08         0.00000E+00
    0.00000E+00         0.00000E+00        -0.49453E+08
 
   -0.51106E+08         0.24917E+06         0.00000E+00
    0.24917E+06        -0.47500E+08         0.00000E+00
    0.00000E+00         0.00000E+00        -0.49422E+08
 
   -0.51027E+08         0.38324E+06         0.00000E+00
    0.38324E+06        -0.47488E+08         0.00000E+00
    0.00000E+00         0.00000E+00        -0.49386E+08
 
   -0.50926E+08         0.52242E+06         0.00000E+00
    0.52242E+06        -0.47487E+08         0.00000E+00
    0.00000E+00         0.00000E+00        -0.49347E+08
 
   -0.50800E+08         0.66531E+06         0.00000E+00
    0.66531E+06        -0.47497E+08         0.00000E+00
    0.00000E+00         0.00000E+00        -0.49305E+08
 
   -0.50648E+08         0.80998E+06         0.00000E+00
    0.80998E+06        -0.47520E+08         0.00000E+00
    0.00000E+00         0.00000E+00        -0.49258E+08
 
   -0.50467E+08         0.95390E+06         0.00000E+00
    0.95390E+06        -0.47559E+08         0.00000E+00
    0.00000E+00         0.00000E+00        -0.49209E+08
 
   -0.50256E+08         0.10939E+07         0.00000E+00
    0.10939E+07        -0.47615E+08         0.00000E+00
    0.00000E+00         0.00000E+00        -0.49158E+08
 
   -0.50015E+08         0.12265E+07         0.00000E+00
    0.12265E+07        -0.47690E+08         0.00000E+00
    0.00000E+00         0.00000E+00        -0.49106E+08
 
   -0.49742E+08         0.13477E+07         0.00000E+00
    0.13477E+07        -0.47785E+08         0.00000E+00
    0.00000E+00         0.00000E+00        -0.49055E+08
 
   -0.49440E+08         0.14530E+07         0.00000E+00
    0.14530E+07        -0.47901E+08         0.00000E+00
    0.00000E+00         0.00000E+00        -0.49005E+08
 
   -0.49110E+08         0.15352E+07         0.00000E+00
    0.15352E+07        -0.48041E+08         0.00000E+00
    0.00000E+00         0.00000E+00        -0.48960E+08
 
   -0.52297E+08         0.10182E+05         0.00000E+00
    0.10182E+05        -0.50001E+08         0.00000E+00
    0.00000E+00         0.00000E+00        -0.50911E+08
 
   -0.52129E+08         0.25982E+04         0.00000E+00
    0.25982E+04        -0.49999E+08         0.00000E+00
    0.00000E+00         0.00000E+00        -0.50867E+08
 
   -0.51957E+08        -0.16051E+05         0.00000E+00
   -0.16051E+05        -0.49993E+08         0.00000E+00
    0.00000E+00         0.00000E+00        -0.50813E+08
 
   -0.51786E+08        -0.45882E+05         0.00000E+00
   -0.45882E+05        -0.49980E+08         0.00000E+00
    0.00000E+00         0.00000E+00        -0.50752E+08
 
   -0.51620E+08        -0.85490E+05         0.00000E+00
   -0.85490E+05        -0.49960E+08         0.00000E+00
    0.00000E+00         0.00000E+00        -0.50685E+08
 
   -0.51463E+08        -0.13309E+06         0.00000E+00
   -0.13309E+06        -0.49932E+08         0.00000E+00
    0.00000E+00         0.00000E+00        -0.50615E+08
 
   -0.51317E+08        -0.18673E+06         0.00000E+00
   -0.18673E+06        -0.49895E+08         0.00000E+00
    0.00000E+00         0.00000E+00        -0.50543E+08
 
   -0.51185E+08        -0.24442E+06         0.00000E+00
   -0.24442E+06        -0.49851E+08         0.00000E+00
    0.00000E+00         0.00000E+00        -0.50471E+08
 
   -0.51068E+08        -0.30422E+06         0.00000E+00
   -0.30422E+06        -0.49799E+08         0.00000E+00
    0.00000E+00         0.00000E+00        -0.50401E+08
 
   -0.50966E+08        -0.36426E+06         0.00000E+00
   -0.36426E+06        -0.49740E+08         0.00000E+00
    0.00000E+00         0.00000E+00        -0.50332E+08
 
   -0.50880E+08        -0.42286E+06         0.00000E+00
   -0.42286E+06        -0.49674E+08         0.00000E+00
    0.00000E+00         0.00000E+00        -0.50265E+08
 
   -0.50808E+08        -0.47854E+06         0.00000E+00
   -0.47854E+06        -0.49603E+08         0.00000E+00
    0.00000E+00         0.00000E+00        -0.50202E+08
 
   -0.50751E+08        -0.53008E+06         0.00000E+00
   -0.53008E+06        -0.49528E+08         0.00000E+00
    0.00000E+00         0.00000E+00        -0.50143E+08
 
   -0.50707E+08        -0.57653E+06         0.00000E+00
   -0.57653E+06        -0.49450E+08         0.00000E+00
    0.00000E+00         0.00000E+00        -0.50087E+08
 
   -0.50675E+08        -0.61716E+06         0.00000E+00
   -0.61716E+06        -0.49369E+08         0.00000E+00
    0.00000E+00         0.00000E+00        -0.50035E+08
 
   -0.50653E+08        -0.65146E+06         0.00000E+00
   -0.65146E+06        -0.49286E+08         0.00000E+00
    0.00000E+00         0.00000E+00        -0.49987E+08
 
   -0.50642E+08        -0.67913E+06         0.00000E+00
   -0.67913E+06        -0.49203E+08         0.00000E+00
    0.00000E+00         0.00000E+00        -0.49942E+08
 
   -0.50638E+08        -0.69999E+06         0.00000E+00
   -0.69999E+06        -0.49120E+08         0.00000E+00
    0.00000E+00         0.00000E+00        -0.49901E+08
 
   -0.50642E+08        -0.71401E+06         0.00000E+00
   -0.71401E+06        -0.49037E+08         0.00000E+00
    0.00000E+00         0.00000E+00        -0.49863E+08
 
   -0.50651E+08        -0.72123E+06         0.00000E+00
   -0.72123E+06        -0.48956E+08         0.00000E+00
    0.00000E+00         0.00000E+00        -0.49828E+08
 
   -0.50665E+08        -0.72176E+06         0.00000E+00
   -0.72176E+06        -0.48875E+08         0.00000E+00
    0.00000E+00         0.00000E+00        -0.49796E+08
 
   -0.50682E+08        -0.71574E+06         0.00000E+00
   -0.71574E+06        -0.48797E+08         0.00000E+00
    0.00000E+00         0.00000E+00        -0.49766E+08
 
   -0.50702E+08        -0.70337E+06         0.00000E+00
   -0.70337E+06        -0.48720E+08         0.00000E+00
    0.00000E+00         0.00000E+00        -0.49738E+08
 
   -0.50723E+08        -0.68483E+06         0.00000E+00
   -0.68483E+06        -0.48646E+08         0.00000E+00
    0.00000E+00         0.00000E+00        -0.49712E+08
 
   -0.50745E+08        -0.66031E+06         0.00000E+00
   -0.66031E+06        -0.48573E+08         0.00000E+00
    0.00000E+00         0.00000E+00        -0.49687E+08
 
   -0.50767E+08        -0.62998E+06         0.00000E+00
   -0.62998E+06        -0.48504E+08         0.00000E+00
    0.00000E+00         0.00000E+00        -0.49663E+08
 
   -0.50788E+08        -0.59403E+06         0.00000E+00
   -0.59403E+06        -0.48436E+08         0.00000E+00
    0.00000E+00         0.00000E+00        -0.49640E+08
 
   -0.50807E+08        -0.55260E+06         0.00000E+00
   -0.55260E+06        -0.48372E+08         0.00000E+00
    0.00000E+00         0.00000E+00        -0.49617E+08
 
   -0.50823E+08        -0.50584E+06         0.00000E+00
   -0.50584E+06        -0.48310E+08         0.00000E+00
    0.00000E+00         0.00000E+00        -0.49595E+08
 
   -0.50835E+08        -0.45390E+06         0.00000E+00
   -0.45390E+06        -0.48251E+08         0.00000E+00
    0.00000E+00         0.00000E+00        -0.49572E+08
 
   -0.50843E+08        -0.39692E+06         0.00000E+00
   -0.39692E+06        -0.48194E+08         0.00000E+00
    0.00000E+00         0.00000E+00        -0.49549E+08
 
   -0.50846E+08        -0.33505E+06         0.00000E+00
   -0.33505E+06        -0.48142E+08         0.00000E+00
    0.00000E+00         0.00000E+00        -0.49524E+08
 
   -0.50843E+08        -0.26844E+06         0.00000E+00
   -0.26844E+06        -0.48092E+08         0.00000E+00
    0.00000E+00         0.00000E+00        -0.49499E+08
 
   -0.50832E+08        -0.19733E+06         0.00000E+00
   -0.19733E+06        -0.48047E+08         0.00000E+00
    0.00000E+00         0.00000E+00        -0.49473E+08
 
   -0.50813E+08        -0.12195E+06         0.00000E+00
   -0.12195E+06        -0.48006E+08         0.00000E+00
    0.00000E+00         0.00000E+00        -0.49445E+08
 
   -0.50785E+08        -0.42641E+05         0.00000E+00
   -0.42641E+05        -0.47969E+08         0.00000E+00
    0.00000E+00         0.00000E+00        -0.49415E+08
 
   -0.50746E+08         0.40163E+05         0.00000E+00
    0.40163E+05        -0.47938E+08         0.00000E+00
    0.00000E+00         0.00000E+00        -0.49383E+08
 
   -0.50696E+08         0.12591E+06         0.00000E+00
    0.12591E+06        -0.47913E+08         0.00000E+00
    0.00000E+00         0.00000E+00        -0.49349E+08
 
   -0.50634E+08         0.21390E+06         0.00000E+00
    0.21390E+06        -0.47894E+08         0.00000E+00
    0.00000E+00         0.00000E+00        -0.49313E+08
 
   -0.50557E+08         0.30324E+06         0.00000E+00
    0.30324E+06        -0.47882E+08         0.00000E+00
    0.00000E+00         0.00000E+00        -0.49275E+08
 
   -0.50466E+08         0.39287E+06         0.00000E+00
    0.39287E+06        -0.47879E+08         0.00000E+00
    0.00000E+00         0.00000E+00        -0.49234E+08
 
   -0.50360E+08         0.48148E+06         0.00000E+00
    0.48148E+06        -0.47884E+08         0.00000E+00
    0.00000E+00         0.00000E+00        -0.49192E+08
 
   -0.50237E+08         0.56755E+06         0.00000E+00
    0.56755E+06        -0.47900E+08         0.00000E+00
    0.00000E+00         0.00000E+00        -0.49149E+08
 
   -0.50099E+08         0.64932E+06         0.00000E+00
    0.64932E+06        -0.47925E+08         0.00000E+00
    0.00000E+00         0.00000E+00        -0.49104E+08
 
   -0.49944E+08         0.72484E+06         0.00000E+00
    0.72484E+06        -0.47961E+08         0.00000E+00
    0.00000E+00         0.00000E+00        -0.49059E+08
 
   -0.49773E+08         0.79193E+06         0.00000E+00
    0.79193E+06        -0.48009E+08         0.00000E+00
    0.00000E+00         0.00000E+00        -0.49014E+08
 
   -0.49587E+08         0.84825E+06         0.00000E+00
    0.84825E+06        -0.48069E+08         0.00000E+00
    0.00000E+00         0.00000E+00        -0.48971E+08
 
   -0.49387E+08         0.89121E+06         0.00000E+00
    0.89121E+06        -0.48140E+08         0.00000E+00
    0.00000E+00         0.00000E+00        -0.48930E+08
 
   -0.49177E+08         0.91812E+06         0.00000E+00
    0.91812E+06        -0.48222E+08         0.00000E+00
    0.00000E+00         0.00000E+00        -0.48893E+08
 
   -0.48958E+08         0.92690E+06         0.00000E+00
    0.92690E+06        -0.48315E+08         0.00000E+00
    0.00000E+00         0.00000E+00        -0.48861E+08
 
   -0.52268E+08         0.11768E+05         0.00000E+00
    0.11768E+05        -0.50000E+08         0.00000E+00
    0.00000E+00         0.00000E+00        -0.50953E+08
 
   -0.52145E+08         0.20723E+05         0.00000E+00
    0.20723E+05        -0.49999E+08         0.00000E+00
    0.00000E+00         0.00000E+00        -0.50921E+08
 
   -0.52017E+08         0.22767E+05         0.00000E+00
    0.22767E+05        -0.49994E+08         0.00000E+00
    0.00000E+00         0.00000E+00        -0.50880E+08
 
   -0.51887E+08         0.18231E+05         0.00000E+00
    0.18231E+05        -0.49986E+08         0.00000E+00
    0.00000E+00         0.00000E+00        -0.50833E+08
 
   -0.51758E+08         0.74008E+04         0.00000E+00
    0.74008E+04        -0.49975E+08         0.00000E+00
    0.00000E+00         0.00000E+00        -0.50781E+08
 
   -0.51632E+08        -0.91813E+04         0.00000E+00
   -0.91813E+04        -0.49958E+08         0.00000E+00
    0.00000E+00         0.00000E+00        -0.50725E+08
 
   -0.51511E+08        -0.30763E+05         0.00000E+00
   -0.30763E+05        -0.49937E+08         0.00000E+00
    0.00000E+00         0.00000E+00        -0.50667E+08
 
   -0.51396E+08        -0.56444E+05         0.00000E+00
   -0.56444E+05        -0.49910E+08         0.00000E+00
    0.00000E+00         0.00000E+00        -0.50607E+08
 
   -0.51288E+08        -0.85243E+05         0.00000E+00
   -0.85243E+05        -0.49878E+08         0.00000E+00
    0.00000E+00         0.00000E+00        -0.50547E+08
 
   -0.51189E+08        -0.11615E+06         0.00000E+00
   -0.11615E+06        -0.49841E+08         0.00000E+00
    0.00000E+00         0.00000E+00        -0.50487E+08
 
   -0.51099E+08        -0.14815E+06         0.00000E+00
   -0.14815E+06        -0.49800E+08         0.00000E+00
    0.00000E+00         0.00000E+00        -0.50428E+08
 
   -0.51019E+08        -0.18028E+06         0.00000E+00
   -0.18028E+06        -0.49753E+08         0.00000E+00
    0.00000E+00         0.00000E+00        -0.50370E+08
 
   -0.50948E+08        -0.21162E+06         0.00000E+00
   -0.21162E+06        -0.49703E+08         0.00000E+00
    0.00000E+00         0.00000E+00        -0.50314E+08
 
   -0.50886E+08        -0.24136E+06         0.00000E+00
   -0.24136E+06        -0.49649E+08         0.00000E+00
    0.00000E+00         0.00000E+00        -0.50260E+08
 
   -0.50832E+08        -0.26876E+06         0.00000E+00
   -0.26876E+06        -0.49592E+08         0.00000E+00
    0.00000E+00         0.00000E+00        -0.50208E+08
 
   -0.50787E+08        -0.29320E+06         0.00000E+00
   -0.29320E+06        -0.49532E+08         0.00000E+00
    0.00000E+00         0.00000E+00        -0.50158E+08
 
   -0.50750E+08        -0.31416E+06         0.00000E+00
   -0.31416E+06        -0.49470E+08         0.00000E+00
    0.00000E+00         0.00000E+00        -0.50111E+08
 
   -0.50720E+08        -0.33122E+06         0.00000E+00
   -0.33122E+06        -0.49406E+08         0.00000E+00
    0.00000E+00         0.00000E+00        -0.50066E+08
 
   -0.50695E+08        -0.34404E+06         0.00000E+00
   -0.34404E+06        -0.49341E+08         0.00000E+00
    0.00000E+00         0.00000E+00        -0.50023E+08
 
   -0.50676E+08        -0.35240E+06         0.00000E+00
   -0.35240E+06        -0.49276E+08         0.00000E+00
    0.00000E+00         0.00000E+00        -0.49982E+08
 
   -0.50662E+08        -0.35612E+06         0.00000E+00
   -0.35612E+06        -0.49210E+08         0.00000E+00
    0.00000E+00         0.00000E+00        -0.49943E+08
 
   -0.50651E+08        -0.35511E+06         0.00000E+00
   -0.35511E+06        -0.49145E+08         0.00000E+00
    0.00000E+00         0.00000E+00        -0.49905E+08
 
   -0.50644E+08        -0.34933E+06         0.00000E+00
   -0.34933E+06        -0.49080E+08         0.00000E+00
    0.00000E+00         0.00000E+00        -0.49870E+08
 
   -0.50638E+08        -0.33877E+06         0.00000E+00
   -0.33877E+06        -0.49016E+08         0.00000E+00
    0.00000E+00         0.00000E+00        -0.49836E+08
 
   -0.50633E+08        -0.32348E+06         0.00000E+00
   -0.32348E+06        -0.48953E+08         0.00000E+00
    0.00000E+00         0.00000E+00        -0.49802E+08
 
   -0.50629E+08        -0.30356E+06         0.00000E+00
   -0.30356E+06        -0.48892E+08         0.00000E+00
    0.00000E+00         0.00000E+00        -0.49770E+08
 
   -0.50625E+08        -0.27911E+06         0.00000E+00
   -0.27911E+06        -0.48833E+08         0.00000E+00
    0.00000E+00         0.00000E+00        -0.49739E+08
 
   -0.50620E+08        -0.25029E+06         0.00000E+00
   -0.25029E+06        -0.48776E+08         0.00000E+00
    0.00000E+00         0.00000E+00        -0.49708E+08
 
   -0.50612E+08        -0.21726E+06         0.00000E+00
   -0.21726E+06        -0.48721E+08         0.00000E+00
    0.00000E+00         0.00000E+00        -0.49678E+08
 
   -0.50602E+08        -0.18026E+06         0.00000E+00
   -0.18026E+06        -0.48670E+08         0.00000E+00
    0.00000E+00         0.00000E+00        -0.49647E+08
 
   -0.50589E+08        -0.13952E+06         0.00000E+00
   -0.13952E+06        -0.48621E+08         0.00000E+00
    0.00000E+00         0.00000E+00        -0.49617E+08
 
   -0.50572E+08        -0.95333E+05         0.00000E+00
   -0.95333E+05        -0.48575E+08         0.00000E+00
    0.00000E+00         0.00000E+00        -0.49586E+08
 
   -0.50550E+08        -0.48041E+05         0.00000E+00
   -0.48041E+05        -0.48534E+08         0.00000E+00
    0.00000E+00         0.00000E+00        -0.49555E+08
 
   -0.50522E+08         0.19664E+04         0.00000E+00
    0.19664E+04        -0.48496E+08         0.00000E+00
    0.00000E+00         0.00000E+00        -0.49524E+08
 
   -0.50488E+08         0.54233E+05         0.00000E+00
    0.54233E+05        -0.48462E+08         0.00000E+00
    0.00000E+00         0.00000E+00        -0.49491E+08
 
   -0.50447E+08         0.10823E+06         0.00000E+00
    0.10823E+06        -0.48433E+08         0.00000E+00
    0.00000E+00         0.00000E+00        -0.49458E+08
 
   -0.50399E+08         0.16335E+06         0.00000E+00
    0.16335E+06        -0.48410E+08         0.00000E+00
    0.00000E+00         0.00000E+00        -0.49425E+08
 
   -0.50343E+08         0.21891E+06         0.00000E+00
    0.21891E+06        -0.48391E+08         0.00000E+00
    0.00000E+00         0.00000E+00        -0.49390E+08
 
   -0.50278E+08         0.27410E+06         0.00000E+00
    0.27410E+06        -0.48379E+08         0.00000E+00
    0.00000E+00         0.00000E+00        -0.49354E+08
 
   -0.50205E+08         0.32805E+06         0.00000E+00
    0.32805E+06        -0.48373E+08         0.00000E+00
    0.00000E+00         0.00000E+00        -0.49318E+08
 
   -0.50122E+08         0.37977E+06         0.00000E+00
    0.37977E+06        -0.48373E+08         0.00000E+00
    0.00000E+00         0.00000E+00        -0.49281E+08
 
   -0.50031E+08         0.42817E+06         0.00000E+00
    0.42817E+06        -0.48380E+08         0.00000E+00
    0.00000E+00         0.00000E+00        -0.49244E+08
 
   -0.49930E+08         0.47209E+06         0.00000E+00
    0.47209E+06        -0.48393E+08         0.00000E+00
    0.00000E+00         0.00000E+00        -0.49206E+08
 
   -0.49822E+08         0.51027E+06         0.00000E+00
    0.51027E+06        -0.48414E+08         0.00000E+00
    0.00000E+00         0.00000E+00        -0.49169E+08
 
   -0.49705E+08         0.54140E+06         0.00000E+00
    0.54140E+06        -0.48442E+08         0.00000E+00
    0.00000E+00         0.00000E+00        -0.49133E+08
 
   -0.49581E+08         0.56412E+06         0.00000E+00
    0.56412E+06        -0.48476E+08         0.00000E+00
    0.00000E+00         0.00000E+00        -0.49098E+08
 
   -0.49452E+08         0.57705E+06         0.00000E+00
    0.57705E+06        -0.48517E+08         0.00000E+00
    0.00000E+00         0.00000E+00        -0.49066E+08
 
   -0.49319E+08         0.57889E+06         0.00000E+00
    0.57889E+06        -0.48565E+08         0.00000E+00
    0.00000E+00         0.00000E+00        -0.49036E+08
 
   -0.49183E+08         0.56843E+06         0.00000E+00
    0.56843E+06        -0.48617E+08         0.00000E+00
    0.00000E+00         0.00000E+00        -0.49011E+08
 
   -0.49048E+08         0.54438E+06         0.00000E+00
    0.54438E+06        -0.48674E+08         0.00000E+00
    0.00000E+00         0.00000E+00        -0.48990E+08
 
   -0.52183E+08         0.14682E+05         0.00000E+00
    0.14682E+05        -0.50000E+08         0.00000E+00
    0.00000E+00         0.00000E+00        -0.50950E+08
 
   -0.52087E+08         0.34162E+05         0.00000E+00
    0.34162E+05        -0.49999E+08         0.00000E+00
    0.00000E+00         0.00000E+00        -0.50924E+08
 
   -0.51986E+08         0.49227E+05         0.00000E+00
    0.49227E+05        -0.49995E+08         0.00000E+00
    0.00000E+00         0.00000E+00        -0.50892E+08
 
   -0.51883E+08         0.59777E+05         0.00000E+00
    0.59777E+05        -0.49990E+08         0.00000E+00
    0.00000E+00         0.00000E+00        -0.50855E+08
 
   -0.51780E+08         0.65943E+05         0.00000E+00
    0.65943E+05        -0.49982E+08         0.00000E+00
    0.00000E+00         0.00000E+00        -0.50813E+08
 
   -0.51677E+08         0.67958E+05         0.00000E+00
    0.67958E+05        -0.49971E+08         0.00000E+00
    0.00000E+00         0.00000E+00        -0.50768E+08
 
   -0.51576E+08         0.66158E+05         0.00000E+00
    0.66158E+05        -0.49957E+08         0.00000E+00
    0.00000E+00         0.00000E+00        -0.50721E+08
 
   -0.51478E+08         0.60962E+05         0.00000E+00
    0.60962E+05        -0.49940E+08         0.00000E+00
    0.00000E+00         0.00000E+00        -0.50671E+08
 
   -0.51383E+08         0.52867E+05         0.00000E+00
    0.52867E+05        -0.49920E+08         0.00000E+00
    0.00000E+00         0.00000E+00        -0.50621E+08
 
   -0.51294E+08         0.42417E+05         0.00000E+00
    0.42417E+05        -0.49896E+08         0.00000E+00
    0.00000E+00         0.00000E+00        -0.50570E+08
 
   -0.51209E+08         0.30189E+05         0.00000E+00
    0.30189E+05        -0.49869E+08         0.00000E+00
    0.00000E+00         0.00000E+00        -0.50519E+08
 
   -0.51130E+08         0.16772E+05         0.00000E+00
    0.16772E+05        -0.49839E+08         0.00000E+00
    0.00000E+00         0.00000E+00        -0.50469E+08
 
   -0.51057E+08         0.27470E+04         0.00000E+00
    0.27470E+04        -0.49805E+08         0.00000E+00
    0.00000E+00         0.00000E+00        -0.50419E+08
 
   -0.50990E+08        -0.11321E+05         0.00000E+00
   -0.11321E+05        -0.49769E+08         0.00000E+00
    0.00000E+00         0.00000E+00        -0.50370E+08
 
   -0.50929E+08        -0.24899E+05         0.00000E+00
   -0.24899E+05        -0.49730E+08         0.00000E+00
    0.00000E+00         0.00000E+00        -0.50322E+08
 
   -0.50873E+08        -0.37496E+05         0.00000E+00
   -0.37496E+05        -0.49689E+08         0.00000E+00
    0.00000E+00         0.00000E+00        -0.50276E+08
 
   -0.50822E+08        -0.48667E+05         0.00000E+00
   -0.48667E+05        -0.49646E+08         0.00000E+00
    0.00000E+00         0.00000E+00        -0.50231E+08
 
   -0.50777E+08        -0.58018E+05         0.00000E+00
   -0.58018E+05        -0.49601E+08         0.00000E+00
    0.00000E+00         0.00000E+00        -0.50187E+08
 
   -0.50736E+08        -0.65212E+05         0.00000E+00
   -0.65212E+05        -0.49555E+08         0.00000E+00
    0.00000E+00         0.00000E+00        -0.50145E+08
 
   -0.50700E+08        -0.69966E+05         0.00000E+00
   -0.69966E+05        -0.49507E+08         0.00000E+00
    0.00000E+00         0.00000E+00        -0.50104E+08
 
   -0.50667E+08        -0.72055E+05         0.00000E+00
   -0.72055E+05        -0.49459E+08         0.00000E+00
    0.00000E+00         0.00000E+00        -0.50064E+08
 
   -0.50637E+08        -0.71305E+05         0.00000E+00
   -0.71305E+05        -0.49411E+08         0.00000E+00
    0.00000E+00         0.00000E+00        -0.50026E+08
 
   -0.50610E+08        -0.67596E+05         0.00000E+00
   -0.67596E+05        -0.49362E+08         0.00000E+00
    0.00000E+00         0.00000E+00        -0.49989E+08
 
   -0.50585E+08        -0.60858E+05         0.00000E+00
   -0.60858E+05        -0.49314E+08         0.00000E+00
    0.00000E+00         0.00000E+00        -0.49953E+08
 
   -0.50562E+08        -0.51071E+05         0.00000E+00
   -0.51071E+05        -0.49267E+08         0.00000E+00
    0.00000E+00         0.00000E+00        -0.49918E+08
 
   -0.50539E+08        -0.38258E+05         0.00000E+00
   -0.38258E+05        -0.49221E+08         0.00000E+00
    0.00000E+00         0.00000E+00        -0.49884E+08
 
   -0.50516E+08        -0.22489E+05         0.00000E+00
   -0.22489E+05        -0.49176E+08         0.00000E+00
    0.00000E+00         0.00000E+00        -0.49850E+08
 
   -0.50493E+08        -0.38774E+04         0.00000E+00
   -0.38774E+04        -0.49132E+08         0.00000E+00
    0.00000E+00         0.00000E+00        -0.49817E+08
 
   -0.50469E+08         0.17419E+05         0.00000E+00
    0.17419E+05        -0.49091E+08         0.00000E+00
    0.00000E+00         0.00000E+00        -0.49785E+08
 
   -0.50444E+08         0.41198E+05         0.00000E+00
    0.41198E+05        -0.49051E+08         0.00000E+00
    0.00000E+00         0.00000E+00        -0.49753E+08
 
   -0.50416E+08         0.67214E+05         0.00000E+00
    0.67214E+05        -0.49015E+08         0.00000E+00
    0.00000E+00         0.00000E+00        -0.49722E+08
 
   -0.50387E+08         0.95175E+05         0.00000E+00
    0.95175E+05        -0.48981E+08         0.00000E+00
    0.00000E+00         0.00000E+00        -0.49690E+08
 
   -0.50354E+08         0.12474E+06         0.00000E+00
    0.12474E+06        -0.48950E+08         0.00000E+00
    0.00000E+00         0.00000E+00        -0.49659E+08
 
   -0.50318E+08         0.15553E+06         0.00000E+00
    0.15553E+06        -0.48922E+08         0.00000E+00
    0.00000E+00         0.00000E+00        -0.49628E+08
 
   -0.50278E+08         0.18709E+06         0.00000E+00
    0.18709E+06        -0.48898E+08         0.00000E+00
    0.00000E+00         0.00000E+00        -0.49597E+08
 
   -0.50234E+08         0.21894E+06         0.00000E+00
    0.21894E+06        -0.48878E+08         0.00000E+00
    0.00000E+00         0.00000E+00        -0.49566E+08
 
   -0.50185E+08         0.25054E+06         0.00000E+00
    0.25054E+06        -0.48862E+08         0.00000E+00
    0.00000E+00         0.00000E+00        -0.49535E+08
 
   -0.50132E+08         0.28129E+06         0.00000E+00
    0.28129E+06        -0.48849E+08         0.00000E+00
    0.00000E+00         0.00000E+00        -0.49504E+08
 
   -0.50074E+08         0.31055E+06         0.00000E+00
    0.31055E+06        -0.48842E+08         0.00000E+00
    0.00000E+00         0.00000E+00        -0.49472E+08
 
   -0.50012E+08         0.33764E+06         0.00000E+00
    0.33764E+06        -0.48839E+08         0.00000E+00
    0.00000E+00         0.00000E+00        -0.49442E+08
 
   -0.49945E+08         0.36182E+06         0.00000E+00
    0.36182E+06        -0.48840E+08         0.00000E+00
    0.00000E+00         0.00000E+00        -0.49411E+08
 
   -0.49873E+08         0.38233E+06         0.00000E+00
    0.38233E+06        -0.48846E+08         0.00000E+00
    0.00000E+00         0.00000E+00        -0.49381E+08
 
   -0.49798E+08         0.39838E+06         0.00000E+00
    0.39838E+06        -0.48856E+08         0.00000E+00
    0.00000E+00         0.00000E+00        -0.49352E+08
 
   -0.49720E+08         0.40918E+06         0.00000E+00
    0.40918E+06        -0.48870E+08         0.00000E+00
    0.00000E+00         0.00000E+00        -0.49324E+08
 
   -0.49638E+08         0.41394E+06         0.00000E+00
    0.41394E+06        -0.48889E+08         0.00000E+00
    0.00000E+00         0.00000E+00        -0.49297E+08
 
   -0.49555E+08         0.41189E+06         0.00000E+00
    0.41189E+06        -0.48911E+08         0.00000E+00
    0.00000E+00         0.00000E+00        -0.49272E+08
 
   -0.49472E+08         0.40230E+06         0.00000E+00
    0.40230E+06        -0.48937E+08         0.00000E+00
    0.00000E+00         0.00000E+00        -0.49249E+08
 
   -0.49389E+08         0.38450E+06         0.00000E+00
    0.38450E+06        -0.48965E+08         0.00000E+00
    0.00000E+00         0.00000E+00        -0.49229E+08
 
   -0.49309E+08         0.35791E+06         0.00000E+00
    0.35791E+06        -0.48996E+08         0.00000E+00
    0.00000E+00         0.00000E+00        -0.49212E+08
 
   -0.49232E+08         0.32208E+06         0.00000E+00
    0.32208E+06        -0.49028E+08         0.00000E+00
    0.00000E+00         0.00000E+00        -0.49200E+08
 
   -0.52057E+08         0.17327E+05         0.00000E+00
    0.17327E+05        -0.50000E+08         0.00000E+00
    0.00000E+00         0.00000E+00        -0.50916E+08
 
   -0.51979E+08         0.44314E+05         0.00000E+00
    0.44314E+05        -0.49999E+08         0.00000E+00
    0.00000E+00         0.00000E+00        -0.50895E+08
 
   -0.51898E+08         0.67891E+05         0.00000E+00
    0.67891E+05        -0.49997E+08         0.00000E+00
    0.00000E+00         0.00000E+00        -0.50870E+08
 
   -0.51815E+08         0.88062E+05         0.00000E+00
    0.88062E+05        -0.49993E+08         0.00000E+00
    0.00000E+00         0.00000E+00        -0.50839E+08
 
   -0.51730E+08         0.10488E+06         0.00000E+00
    0.10488E+06        -0.49988E+08         0.00000E+00
    0.00000E+00         0.00000E+00        -0.50805E+08
 
   -0.51645E+08         0.11845E+06         0.00000E+00
    0.11845E+06        -0.49981E+08         0.00000E+00
    0.00000E+00         0.00000E+00        -0.50768E+08
 
   -0.51560E+08         0.12897E+06         0.00000E+00
    0.12897E+06        -0.49972E+08         0.00000E+00
    0.00000E+00         0.00000E+00        -0.50729E+08
 
   -0.51477E+08         0.13666E+06         0.00000E+00
    0.13666E+06        -0.49961E+08         0.00000E+00
    0.00000E+00         0.00000E+00        -0.50689E+08
 
   -0.51395E+08         0.14182E+06         0.00000E+00
    0.14182E+06        -0.49948E+08         0.00000E+00
    0.00000E+00         0.00000E+00        -0.50647E+08
 
   -0.51316E+08         0.14474E+06         0.00000E+00
    0.14474E+06        -0.49933E+08         0.00000E+00
    0.00000E+00         0.00000E+00        -0.50604E+08
 
   -0.51239E+08         0.14577E+06         0.00000E+00
    0.14577E+06        -0.49915E+08         0.00000E+00
    0.00000E+00         0.00000E+00        -0.50561E+08
 
   -0.51166E+08         0.14526E+06         0.00000E+00
    0.14526E+06        -0.49896E+08         0.00000E+00
    0.00000E+00         0.00000E+00        -0.50518E+08
 
   -0.51096E+08         0.14358E+06         0.00000E+00
    0.14358E+06        -0.49875E+08         0.00000E+00
    0.00000E+00         0.00000E+00        -0.50475E+08
 
   -0.51030E+08         0.14109E+06         0.00000E+00
    0.14109E+06        -0.49851E+08         0.00000E+00
    0.00000E+00         0.00000E+00        -0.50432E+08
 
   -0.50968E+08         0.13815E+06         0.00000E+00
    0.13815E+06        -0.49826E+08         0.00000E+00
    0.00000E+00         0.00000E+00        -0.50390E+08
 
   -0.50909E+08         0.13510E+06         0.00000E+00
    0.13510E+06        -0.49799E+08         0.00000E+00
    0.00000E+00         0.00000E+00        -0.50349E+08
 
   -0.50854E+08         0.13225E+06         0.00000E+00
    0.13225E+06        -0.49771E+08         0.00000E+00
    0.00000E+00         0.00000E+00        -0.50308E+08
 
   -0.50802E+08         0.12990E+06         0.00000E+00
    0.12990E+06        -0.49741E+08         0.00000E+00
    0.00000E+00         0.00000E+00        -0.50269E+08
 
   -0.50754E+08         0.12831E+06         0.00000E+00
    0.12831E+06        -0.49710E+08         0.00000E+00
    0.00000E+00         0.00000E+00        -0.50230E+08
 
   -0.50708E+08         0.12771E+06         0.00000E+00
    0.12771E+06        -0.49679E+08         0.00000E+00
    0.00000E+00         0.00000E+00        -0.50192E+08
 
   -0.50665E+08         0.12829E+06         0.00000E+00
    0.12829E+06        -0.49646E+08         0.00000E+00
    0.00000E+00         0.00000E+00        -0.50155E+08
 
   -0.50625E+08         0.13021E+06         0.00000E+00
    0.13021E+06        -0.49614E+08         0.00000E+00
    0.00000E+00         0.00000E+00        -0.50119E+08
 
   -0.50587E+08         0.13358E+06         0.00000E+00
    0.13358E+06        -0.49581E+08         0.00000E+00
    0.00000E+00         0.00000E+00        -0.50084E+08
 
   -0.50550E+08         0.13849E+06         0.00000E+00
    0.13849E+06        -0.49548E+08         0.00000E+00
    0.00000E+00         0.00000E+00        -0.50050E+08
 
   -0.50515E+08         0.14497E+06         0.00000E+00
    0.14497E+06        -0.49516E+08         0.00000E+00
    0.00000E+00         0.00000E+00        -0.50017E+08
 
   -0.50481E+08         0.15302E+06         0.00000E+00
    0.15302E+06        -0.49484E+08         0.00000E+00
    0.00000E+00         0.00000E+00        -0.49985E+08
 
   -0.50448E+08         0.16260E+06         0.00000E+00
    0.16260E+06        -0.49453E+08         0.00000E+00
    0.00000E+00         0.00000E+00        -0.49953E+08
 
   -0.50414E+08         0.17364E+06         0.00000E+00
    0.17364E+06        -0.49424E+08         0.00000E+00
    0.00000E+00         0.00000E+00        -0.49922E+08
 
   -0.50381E+08         0.18602E+06         0.00000E+00
    0.18602E+06        -0.49395E+08         0.00000E+00
    0.00000E+00         0.00000E+00        -0.49891E+08
 
   -0.50347E+08         0.19957E+06         0.00000E+00
    0.19957E+06        -0.49369E+08         0.00000E+00
    0.00000E+00         0.00000E+00        -0.49861E+08
 
   -0.50313E+08         0.21412E+06         0.00000E+00
    0.21412E+06        -0.49344E+08         0.00000E+00
    0.00000E+00         0.00000E+00        -0.49832E+08
 
   -0.50277E+08         0.22942E+06         0.00000E+00
    0.22942E+06        -0.49321E+08         0.00000E+00
    0.00000E+00         0.00000E+00        -0.49803E+08
 
   -0.50240E+08         0.24520E+06         0.00000E+00
    0.24520E+06        -0.49301E+08         0.00000E+00
    0.00000E+00         0.00000E+00        -0.49775E+08
 
   -0.50201E+08         0.26118E+06         0.00000E+00
    0.26118E+06        -0.49283E+08         0.00000E+00
    0.00000E+00         0.00000E+00        -0.49747E+08
 
   -0.50161E+08         0.27700E+06         0.00000E+00
    0.27700E+06        -0.49267E+08         0.00000E+00
    0.00000E+00         0.00000E+00        -0.49720E+08
 
   -0.50119E+08         0.29231E+06         0.00000E+00
    0.29231E+06        -0.49254E+08         0.00000E+00
    0.00000E+00         0.00000E+00        -0.49693E+08
 
   -0.50075E+08         0.30669E+06         0.00000E+00
    0.30669E+06        -0.49244E+08         0.00000E+00
    0.00000E+00         0.00000E+00        -0.49666E+08
 
   -0.50029E+08         0.31973E+06         0.00000E+00
    0.31973E+06        -0.49237E+08         0.00000E+00
    0.00000E+00         0.00000E+00        -0.49640E+08
 
   -0.49981E+08         0.33097E+06         0.00000E+00
    0.33097E+06        -0.49233E+08         0.00000E+00
    0.00000E+00         0.00000E+00        -0.49615E+08
 
   -0.49931E+08         0.33996E+06         0.00000E+00
    0.33996E+06        -0.49231E+08         0.00000E+00
    0.00000E+00         0.00000E+00        -0.49590E+08
 
   -0.49880E+08         0.34621E+06         0.00000E+00
    0.34621E+06        -0.49233E+08         0.00000E+00
    0.00000E+00         0.00000E+00        -0.49567E+08
 
   -0.49827E+08         0.34924E+06         0.00000E+00
    0.34924E+06        -0.49237E+08         0.00000E+00
    0.00000E+00         0.00000E+00        -0.49544E+08
 
   -0.49774E+08         0.34858E+06         0.00000E+00
    0.34858E+06        -0.49244E+08         0.00000E+00
    0.00000E+00         0.00000E+00        -0.49522E+08
 
   -0.49720E+08         0.34376E+06         0.00000E+00
    0.34376E+06        -0.49253E+08         0.00000E+00
    0.00000E+00         0.00000E+00        -0.49502E+08
 
   -0.49667E+08         0.33435E+06         0.00000E+00
    0.33435E+06        -0.49264E+08         0.00000E+00
    0.00000E+00         0.00000E+00        -0.49483E+08
 
   -0.49615E+08         0.31994E+06         0.00000E+00
    0.31994E+06        -0.49277E+08         0.00000E+00
    0.00000E+00         0.00000E+00        -0.49465E+08
 
   -0.49565E+08         0.30017E+06         0.00000E+00
    0.30017E+06        -0.49291E+08         0.00000E+00
    0.00000E+00         0.00000E+00        -0.49450E+08
 
   -0.49518E+08         0.27476E+06         0.00000E+00
    0.27476E+06        -0.49307E+08         0.00000E+00
    0.00000E+00         0.00000E+00        -0.49438E+08
 
   -0.49474E+08         0.24349E+06         0.00000E+00
    0.24349E+06        -0.49323E+08         0.00000E+00
    0.00000E+00         0.00000E+00        -0.49428E+08
 
   -0.49436E+08         0.20624E+06         0.00000E+00
    0.20624E+06        -0.49339E+08         0.00000E+00
    0.00000E+00         0.00000E+00        -0.49421E+08
 
   -0.51902E+08         0.19082E+05         0.00000E+00
    0.19082E+05        -0.50000E+08         0.00000E+00
    0.00000E+00         0.00000E+00        -0.50862E+08
 
   -0.51840E+08         0.50805E+05         0.00000E+00
    0.50805E+05        -0.49999E+08         0.00000E+00
    0.00000E+00         0.00000E+00        -0.50845E+08
 
   -0.51774E+08         0.79722E+05         0.00000E+00
    0.79722E+05        -0.49998E+08         0.00000E+00
    0.00000E+00         0.00000E+00        -0.50824E+08
 
   -0.51706E+08         0.10582E+06         0.00000E+00
    0.10582E+06        -0.49996E+08         0.00000E+00
    0.00000E+00         0.00000E+00        -0.50800E+08
 
   -0.51636E+08         0.12915E+06         0.00000E+00
    0.12915E+06        -0.49993E+08         0.00000E+00
    0.00000E+00         0.00000E+00        -0.50772E+08
 
   -0.51565E+08         0.14978E+06         0.00000E+00
    0.14978E+06        -0.49989E+08         0.00000E+00
    0.00000E+00         0.00000E+00        -0.50742E+08
 
   -0.51494E+08         0.16782E+06         0.00000E+00
    0.16782E+06        -0.49984E+08         0.00000E+00
    0.00000E+00         0.00000E+00        -0.50710E+08
 
   -0.51423E+08         0.18342E+06         0.00000E+00
    0.18342E+06        -0.49977E+08         0.00000E+00
    0.00000E+00         0.00000E+00        -0.50677E+08
 
   -0.51353E+08         0.19675E+06         0.00000E+00
    0.19675E+06        -0.49970E+08         0.00000E+00
    0.00000E+00         0.00000E+00        -0.50642E+08
 
   -0.51284E+08         0.20800E+06         0.00000E+00
    0.20800E+06        -0.49961E+08         0.00000E+00
    0.00000E+00         0.00000E+00        -0.50606E+08
 
   -0.51216E+08         0.21738E+06         0.00000E+00
    0.21738E+06        -0.49951E+08         0.00000E+00
    0.00000E+00         0.00000E+00        -0.50570E+08
 
   -0.51150E+08         0.22512E+06         0.00000E+00
    0.22512E+06        -0.49939E+08         0.00000E+00
    0.00000E+00         0.00000E+00        -0.50534E+08
 
   -0.51086E+08         0.23144E+06         0.00000E+00
    0.23144E+06        -0.49927E+08         0.00000E+00
    0.00000E+00         0.00000E+00        -0.50498E+08
 
   -0.51024E+08         0.23659E+06         0.00000E+00
    0.23659E+06        -0.49913E+08         0.00000E+00
    0.00000E+00         0.00000E+00        -0.50461E+08
 
   -0.50965E+08         0.24079E+06         0.00000E+00
    0.24079E+06        -0.49898E+08         0.00000E+00
    0.00000E+00         0.00000E+00        -0.50426E+08
 
   -0.50907E+08         0.24426E+06         0.00000E+00
    0.24426E+06        -0.49881E+08         0.00000E+00
    0.00000E+00         0.00000E+00        -0.50390E+08
 
   -0.50852E+08         0.24723E+06         0.00000E+00
    0.24723E+06        -0.49864E+08         0.00000E+00
    0.00000E+00         0.00000E+00        -0.50355E+08
 
   -0.50800E+08         0.24989E+06         0.00000E+00
    0.24989E+06        -0.49846E+08         0.00000E+00
    0.00000E+00         0.00000E+00        -0.50320E+08
 
   -0.50749E+08         0.25242E+06         0.00000E+00
    0.25242E+06        -0.49827E+08         0.00000E+00
    0.00000E+00         0.00000E+00        -0.50287E+08
 
   -0.50701E+08         0.25500E+06         0.00000E+00
    0.25500E+06        -0.49808E+08         0.00000E+00
    0.00000E+00         0.00000E+00        -0.50253E+08
 
   -0.50655E+08         0.25776E+06         0.00000E+00
    0.25776E+06        -0.49788E+08         0.00000E+00
    0.00000E+00         0.00000E+00        -0.50221E+08
 
   -0.50610E+08         0.26081E+06         0.00000E+00
    0.26081E+06        -0.49768E+08         0.00000E+00
    0.00000E+00         0.00000E+00        -0.50189E+08
 
   -0.50567E+08         0.26425E+06         0.00000E+00
    0.26425E+06        -0.49748E+08         0.00000E+00
    0.00000E+00         0.00000E+00        -0.50158E+08
 
   -0.50526E+08         0.26815E+06         0.00000E+00
    0.26815E+06        -0.49728E+08         0.00000E+00
    0.00000E+00         0.00000E+00        -0.50127E+08
 
   -0.50486E+08         0.27254E+06         0.00000E+00
    0.27254E+06        -0.49708E+08         0.00000E+00
    0.00000E+00         0.00000E+00        -0.50098E+08
 
   -0.50447E+08         0.27742E+06         0.00000E+00
    0.27742E+06        -0.49689E+08         0.00000E+00
    0.00000E+00         0.00000E+00        -0.50069E+08
 
   -0.50408E+08         0.28279E+06         0.00000E+00
    0.28279E+06        -0.49670E+08         0.00000E+00
    0.00000E+00         0.00000E+00        -0.50040E+08
 
   -0.50371E+08         0.28858E+06         0.00000E+00
    0.28858E+06        -0.49652E+08         0.00000E+00
    0.00000E+00         0.00000E+00        -0.50013E+08
 
   -0.50334E+08         0.29473E+06         0.00000E+00
    0.29473E+06        -0.49634E+08         0.00000E+00
    0.00000E+00         0.00000E+00        -0.49986E+08
 
   -0.50297E+08         0.30112E+06         0.00000E+00
    0.30112E+06        -0.49618E+08         0.00000E+00
    0.00000E+00         0.00000E+00        -0.49960E+08
 
   -0.50260E+08         0.30764E+06         0.00000E+00
    0.30764E+06        -0.49603E+08         0.00000E+00
    0.00000E+00         0.00000E+00        -0.49934E+08
 
   -0.50223E+08         0.31411E+06         0.00000E+00
    0.31411E+06        -0.49590E+08         0.00000E+00
    0.00000E+00         0.00000E+00        -0.49909E+08
 
   -0.50186E+08         0.32037E+06         0.00000E+00
    0.32037E+06        -0.49578E+08         0.00000E+00
    0.00000E+00         0.00000E+00        -0.49885E+08
 
   -0.50149E+08         0.32620E+06         0.00000E+00
    0.32620E+06        -0.49568E+08         0.00000E+00
    0.00000E+00         0.00000E+00        -0.49861E+08
 
   -0.50111E+08         0.33138E+06         0.00000E+00
    0.33138E+06        -0.49559E+08         0.00000E+00
    0.00000E+00         0.00000E+00        -0.49838E+08
 
   -0.50074E+08         0.33567E+06         0.00000E+00
    0.33567E+06        -0.49552E+08         0.00000E+00
    0.00000E+00         0.00000E+00        -0.49816E+08
 
   -0.50036E+08         0.33881E+06         0.00000E+00
    0.33881E+06        -0.49546E+08         0.00000E+00
    0.00000E+00         0.00000E+00        -0.49795E+08
 
   -0.49997E+08         0.34053E+06         0.00000E+00
    0.34053E+06        -0.49543E+08         0.00000E+00
    0.00000E+00         0.00000E+00        -0.49774E+08
 
   -0.49959E+08         0.34056E+06         0.00000E+00
    0.34056E+06        -0.49541E+08         0.00000E+00
    0.00000E+00         0.00000E+00        -0.49754E+08
 
   -0.49921E+08         0.33861E+06         0.00000E+00
    0.33861E+06        -0.49541E+08         0.00000E+00
    0.00000E+00         0.00000E+00        -0.49736E+08
 
   -0.49883E+08         0.33440E+06         0.00000E+00
    0.33440E+06        -0.49542E+08         0.00000E+00
    0.00000E+00         0.00000E+00        -0.49718E+08
 
   -0.49846E+08         0.32766E+06         0.00000E+00
    0.32766E+06        -0.49545E+08         0.00000E+00
    0.00000E+00         0.00000E+00        -0.49701E+08
 
   -0.49810E+08         0.31812E+06         0.00000E+00
    0.31812E+06        -0.49549E+08         0.00000E+00
    0.00000E+00         0.00000E+00        -0.49685E+08
 
   -0.49775E+08         0.30556E+06         0.00000E+00
    0.30556E+06        -0.49554E+08         0.00000E+00
    0.00000E+00         0.00000E+00        -0.49671E+08
 
   -0.49742E+08         0.28976E+06         0.00000E+00
    0.28976E+06        -0.49560E+08         0.00000E+00
    0.00000E+00         0.00000E+00        -0.49658E+08
 
   -0.49712E+08         0.27053E+06         0.00000E+00
    0.27053E+06        -0.49567E+08         0.00000E+00
    0.00000E+00         0.00000E+00        -0.49647E+08
 
   -0.49684E+08         0.24775E+06         0.00000E+00
    0.24775E+06        -0.49573E+08         0.00000E+00
    0.00000E+00         0.00000E+00        -0.49638E+08
 
   -0.49660E+08         0.22132E+06         0.00000E+00
    0.22132E+06        -0.49580E+08         0.00000E+00
    0.00000E+00         0.00000E+00        -0.49630E+08
 
   -0.49641E+08         0.19121E+06         0.00000E+00
    0.19121E+06        -0.49587E+08         0.00000E+00
    0.00000E+00         0.00000E+00        -0.49624E+08
 
   -0.49626E+08         0.15747E+06         0.00000E+00
    0.15747E+06        -0.49593E+08         0.00000E+00
    0.00000E+00         0.00000E+00        -0.49621E+08
 
   -0.51730E+08         0.19745E+05         0.00000E+00
    0.19745E+05        -0.50000E+08         0.00000E+00
    0.00000E+00         0.00000E+00        -0.50796E+08
 
   -0.51681E+08         0.53751E+05         0.00000E+00
    0.53751E+05        -0.50000E+08         0.00000E+00
    0.00000E+00         0.00000E+00        -0.50783E+08
 
   -0.51629E+08         0.85365E+05         0.00000E+00
    0.85365E+05        -0.49999E+08         0.00000E+00
    0.00000E+00         0.00000E+00        -0.50766E+08
 
   -0.51574E+08         0.11458E+06         0.00000E+00
    0.11458E+06        -0.49999E+08         0.00000E+00
    0.00000E+00         0.00000E+00        -0.50746E+08
 
   -0.51516E+08         0.14142E+06         0.00000E+00
    0.14142E+06        -0.49998E+08         0.00000E+00
    0.00000E+00         0.00000E+00        -0.50724E+08
 
   -0.51458E+08         0.16593E+06         0.00000E+00
    0.16593E+06        -0.49996E+08         0.00000E+00
    0.00000E+00         0.00000E+00        -0.50700E+08
 
   -0.51399E+08         0.18817E+06         0.00000E+00
    0.18817E+06        -0.49994E+08         0.00000E+00
    0.00000E+00         0.00000E+00        -0.50674E+08
 
   -0.51339E+08         0.20825E+06         0.00000E+00
    0.20825E+06        -0.49991E+08         0.00000E+00
    0.00000E+00         0.00000E+00        -0.50646E+08
 
   -0.51279E+08         0.22627E+06         0.00000E+00
    0.22627E+06        -0.49987E+08         0.00000E+00
    0.00000E+00         0.00000E+00        -0.50618E+08
 
   -0.51219E+08         0.24234E+06         0.00000E+00
    0.24234E+06        -0.49983E+08         0.00000E+00
    0.00000E+00         0.00000E+00        -0.50589E+08
 
   -0.51160E+08         0.25662E+06         0.00000E+00
    0.25662E+06        -0.49978E+08         0.00000E+00
    0.00000E+00         0.00000E+00        -0.50559E+08
 
   -0.51102E+08         0.26924E+06         0.00000E+00
    0.26924E+06        -0.49973E+08         0.00000E+00
    0.00000E+00         0.00000E+00        -0.50529E+08
 
   -0.51045E+08         0.28035E+06         0.00000E+00
    0.28035E+06        -0.49967E+08         0.00000E+00
    0.00000E+00         0.00000E+00        -0.50499E+08
 
   -0.50989E+08         0.29010E+06         0.00000E+00
    0.29010E+06        -0.49960E+08         0.00000E+00
    0.00000E+00         0.00000E+00        -0.50469E+08
 
   -0.50934E+08         0.29865E+06         0.00000E+00
    0.29865E+06        -0.49952E+08         0.00000E+00
    0.00000E+00         0.00000E+00        -0.50439E+08
 
   -0.50881E+08         0.30615E+06         0.00000E+00
    0.30615E+06        -0.49944E+08         0.00000E+00
    0.00000E+00         0.00000E+00        -0.50409E+08
 
   -0.50829E+08         0.31273E+06         0.00000E+00
    0.31273E+06        -0.49935E+08         0.00000E+00
    0.00000E+00         0.00000E+00        -0.50379E+08
 
   -0.50779E+08         0.31853E+06         0.00000E+00
    0.31853E+06        -0.49925E+08         0.00000E+00
    0.00000E+00         0.00000E+00        -0.50350E+08
 
   -0.50730E+08         0.32368E+06         0.00000E+00
    0.32368E+06        -0.49915E+08         0.00000E+00
    0.00000E+00         0.00000E+00        -0.50321E+08
 
   -0.50683E+08         0.32828E+06         0.00000E+00
    0.32828E+06        -0.49905E+08         0.00000E+00
    0.00000E+00         0.00000E+00        -0.50293E+08
 
   -0.50637E+08         0.33244E+06         0.00000E+00
    0.33244E+06        -0.49895E+08         0.00000E+00
    0.00000E+00         0.00000E+00        -0.50265E+08
 
   -0.50593E+08         0.33624E+06         0.00000E+00
    0.33624E+06        -0.49884E+08         0.00000E+00
    0.00000E+00         0.00000E+00        -0.50238E+08
 
   -0.50550E+08         0.33975E+06         0.00000E+00
    0.33975E+06        -0.49873E+08         0.00000E+00
    0.00000E+00         0.00000E+00        -0.50212E+08
 
   -0.50508E+08         0.34302E+06         0.00000E+00
    0.34302E+06        -0.49863E+08         0.00000E+00
    0.00000E+00         0.00000E+00        -0.50186E+08
 
   -0.50467E+08         0.34607E+06         0.00000E+00
    0.34607E+06        -0.49852E+08         0.00000E+00
    0.00000E+00         0.00000E+00        -0.50160E+08
 
   -0.50427E+08         0.34893E+06         0.00000E+00
    0.34893E+06        -0.49842E+08         0.00000E+00
    0.00000E+00         0.00000E+00        -0.50135E+08
 
   -0.50388E+08         0.35158E+06         0.00000E+00
    0.35158E+06        -0.49832E+08         0.00000E+00
    0.00000E+00         0.00000E+00        -0.50111E+08
 
   -0.50350E+08         0.35401E+06         0.00000E+00
    0.35401E+06        -0.49823E+08         0.00000E+00
    0.00000E+00         0.00000E+00        -0.50088E+08
 
   -0.50313E+08         0.35617E+06         0.00000E+00
    0.35617E+06        -0.49814E+08         0.00000E+00
    0.00000E+00         0.00000E+00        -0.50065E+08
 
   -0.50277E+08         0.35800E+06         0.00000E+00
    0.35800E+06        -0.49806E+08         0.00000E+00
    0.00000E+00         0.00000E+00        -0.50043E+08
 
   -0.50241E+08         0.35943E+06         0.00000E+00
    0.35943E+06        -0.49798E+08         0.00000E+00
    0.00000E+00         0.00000E+00        -0.50021E+08
 
   -0.50206E+08         0.36036E+06         0.00000E+00
    0.36036E+06        -0.49792E+08         0.00000E+00
    0.00000E+00         0.00000E+00        -0.50001E+08
 
   -0.50172E+08         0.36069E+06         0.00000E+00
    0.36069E+06        -0.49786E+08         0.00000E+00
    0.00000E+00         0.00000E+00        -0.49981E+08
 
   -0.50138E+08         0.36030E+06         0.00000E+00
    0.36030E+06        -0.49781E+08         0.00000E+00
    0.00000E+00         0.00000E+00        -0.49961E+08
 
   -0.50105E+08         0.35905E+06         0.00000E+00
    0.35905E+06        -0.49777E+08         0.00000E+00
    0.00000E+00         0.00000E+00        -0.49943E+08
 
   -0.50072E+08         0.35681E+06         0.00000E+00
    0.35681E+06        -0.49774E+08         0.00000E+00
    0.00000E+00         0.00000E+00        -0.49925E+08
 
   -0.50040E+08         0.35343E+06         0.00000E+00
    0.35343E+06        -0.49772E+08         0.00000E+00
    0.00000E+00         0.00000E+00        -0.49909E+08
 
   -0.50010E+08         0.34876E+06         0.00000E+00
    0.34876E+06        -0.49771E+08         0.00000E+00
    0.00000E+00         0.00000E+00        -0.49893E+08
 
   -0.49980E+08         0.34266E+06         0.00000E+00
    0.34266E+06        -0.49771E+08         0.00000E+00
    0.00000E+00         0.00000E+00        -0.49878E+08
 
   -0.49951E+08         0.33497E+06         0.00000E+00
    0.33497E+06        -0.49772E+08         0.00000E+00
    0.00000E+00         0.00000E+00        -0.49863E+08
 
   -0.49924E+08         0.32556E+06         0.00000E+00
    0.32556E+06        -0.49773E+08         0.00000E+00
    0.00000E+00         0.00000E+00        -0.49850E+08
 
   -0.49898E+08         0.31429E+06         0.00000E+00
    0.31429E+06        -0.49775E+08         0.00000E+00
    0.00000E+00         0.00000E+00        -0.49838E+08
 
   -0.49874E+08         0.30104E+06         0.00000E+00
    0.30104E+06        -0.49777E+08         0.00000E+00
    0.00000E+00         0.00000E+00        -0.49828E+08
 
   -0.49852E+08         0.28573E+06         0.00000E+00
    0.28573E+06        -0.49780E+08         0.00000E+00
    0.00000E+00         0.00000E+00        -0.49818E+08
 
   -0.49833E+08         0.26826E+06         0.00000E+00
    0.26826E+06        -0.49783E+08         0.00000E+00
    0.00000E+00         0.00000E+00        -0.49809E+08
 
   -0.49817E+08         0.24860E+06         0.00000E+00
    0.24860E+06        -0.49785E+08         0.00000E+00
    0.00000E+00         0.00000E+00        -0.49802E+08
 
   -0.49804E+08         0.22673E+06         0.00000E+00
    0.22673E+06        -0.49788E+08         0.00000E+00
    0.00000E+00         0.00000E+00        -0.49797E+08
 
   -0.49794E+08         0.20267E+06         0.00000E+00
    0.20267E+06        -0.49789E+08         0.00000E+00
    0.00000E+00         0.00000E+00        -0.49792E+08
 
   -0.49789E+08         0.17648E+06         0.00000E+00
    0.17648E+06        -0.49790E+08         0.00000E+00
    0.00000E+00         0.00000E+00        -0.49790E+08
 
   -0.49788E+08         0.14827E+06         0.00000E+00
    0.14827E+06        -0.49790E+08         0.00000E+00
    0.00000E+00         0.00000E+00        -0.49789E+08
 
   -0.51554E+08         0.19420E+05         0.00000E+00
    0.19420E+05        -0.50000E+08         0.00000E+00
    0.00000E+00         0.00000E+00        -0.50724E+08
 
   -0.51515E+08         0.53647E+05         0.00000E+00
    0.53647E+05        -0.50000E+08         0.00000E+00
    0.00000E+00         0.00000E+00        -0.50714E+08
 
   -0.51474E+08         0.85845E+05         0.00000E+00
    0.85845E+05        -0.50001E+08         0.00000E+00
    0.00000E+00         0.00000E+00        -0.50700E+08
 
   -0.51430E+08         0.11599E+06         0.00000E+00
    0.11599E+06        -0.50001E+08         0.00000E+00
    0.00000E+00         0.00000E+00        -0.50685E+08
 
   -0.51384E+08         0.14409E+06         0.00000E+00
    0.14409E+06        -0.50001E+08         0.00000E+00
    0.00000E+00         0.00000E+00        -0.50667E+08
 
   -0.51336E+08         0.17016E+06         0.00000E+00
    0.17016E+06        -0.50001E+08         0.00000E+00
    0.00000E+00         0.00000E+00        -0.50648E+08
 
   -0.51287E+08         0.19424E+06         0.00000E+00
    0.19424E+06        -0.50001E+08         0.00000E+00
    0.00000E+00         0.00000E+00        -0.50627E+08
 
   -0.51238E+08         0.21639E+06         0.00000E+00
    0.21639E+06        -0.50001E+08         0.00000E+00
    0.00000E+00         0.00000E+00        -0.50605E+08
 
   -0.51187E+08         0.23667E+06         0.00000E+00
    0.23667E+06        -0.50001E+08         0.00000E+00
    0.00000E+00         0.00000E+00        -0.50583E+08
 
   -0.51137E+08         0.25515E+06         0.00000E+00
    0.25515E+06        -0.50000E+08         0.00000E+00
    0.00000E+00         0.00000E+00        -0.50559E+08
 
   -0.51086E+08         0.27194E+06         0.00000E+00
    0.27194E+06        -0.49999E+08         0.00000E+00
    0.00000E+00         0.00000E+00        -0.50535E+08
 
   -0.51036E+08         0.28711E+06         0.00000E+00
    0.28711E+06        -0.49998E+08         0.00000E+00
    0.00000E+00         0.00000E+00        -0.50511E+08
 
   -0.50986E+08         0.30077E+06         0.00000E+00
    0.30077E+06        -0.49996E+08         0.00000E+00
    0.00000E+00         0.00000E+00        -0.50486E+08
 
   -0.50937E+08         0.31301E+06         0.00000E+00
    0.31301E+06        -0.49994E+08         0.00000E+00
    0.00000E+00         0.00000E+00        -0.50461E+08
 
   -0.50888E+08         0.32394E+06         0.00000E+00
    0.32394E+06        -0.49992E+08         0.00000E+00
    0.00000E+00         0.00000E+00        -0.50437E+08
 
   -0.50840E+08         0.33366E+06         0.00000E+00
    0.33366E+06        -0.49989E+08         0.00000E+00
    0.00000E+00         0.00000E+00        -0.50412E+08
 
   -0.50793E+08         0.34225E+06         0.00000E+00
    0.34225E+06        -0.49986E+08         0.00000E+00
    0.00000E+00         0.00000E+00        -0.50388E+08
 
   -0.50747E+08         0.34982E+06         0.00000E+00
    0.34982E+06        -0.49983E+08         0.00000E+00
    0.00000E+00         0.00000E+00        -0.50364E+08
 
   -0.50702E+08         0.35645E+06         0.00000E+00
    0.35645E+06        -0.49980E+08         0.00000E+00
    0.00000E+00         0.00000E+00        -0.50340E+08
 
   -0.50659E+08         0.36220E+06         0.00000E+00
    0.36220E+06        -0.49976E+08         0.00000E+00
    0.00000E+00         0.00000E+00        -0.50316E+08
 
   -0.50616E+08         0.36717E+06         0.00000E+00
    0.36717E+06        -0.49972E+08         0.00000E+00
    0.00000E+00         0.00000E+00        -0.50293E+08
 
   -0.50574E+08         0.37139E+06         0.00000E+00
    0.37139E+06        -0.49968E+08         0.00000E+00
    0.00000E+00         0.00000E+00        -0.50271E+08
 
   -0.50533E+08         0.37494E+06         0.00000E+00
    0.37494E+06        -0.49964E+08         0.00000E+00
    0.00000E+00         0.00000E+00        -0.50249E+08
 
   -0.50493E+08         0.37783E+06         0.00000E+00
    0.37783E+06        -0.49960E+08         0.00000E+00
    0.00000E+00         0.00000E+00        -0.50227E+08
 
   -0.50455E+08         0.38012E+06         0.00000E+00
    0.38012E+06        -0.49957E+08         0.00000E+00
    0.00000E+00         0.00000E+00        -0.50206E+08
 
   -0.50417E+08         0.38180E+06         0.00000E+00
    0.38180E+06        -0.49953E+08         0.00000E+00
    0.00000E+00         0.00000E+00        -0.50185E+08
 
   -0.50380E+08         0.38290E+06         0.00000E+00
    0.38290E+06        -0.49949E+08         0.00000E+00
    0.00000E+00         0.00000E+00        -0.50165E+08
 
   -0.50344E+08         0.38340E+06         0.00000E+00
    0.38340E+06        -0.49946E+08         0.00000E+00
    0.00000E+00         0.00000E+00        -0.50146E+08
 
   -0.50310E+08         0.38330E+06         0.00000E+00
    0.38330E+06        -0.49943E+08         0.00000E+00
    0.00000E+00         0.00000E+00        -0.50127E+08
 
   -0.50276E+08         0.38256E+06         0.00000E+00
    0.38256E+06        -0.49941E+08         0.00000E+00
    0.00000E+00         0.00000E+00        -0.50109E+08
 
   -0.50243E+08         0.38115E+06         0.00000E+00
    0.38115E+06        -0.49938E+08         0.00000E+00
    0.00000E+00         0.00000E+00        -0.50092E+08
 
   -0.50211E+08         0.37903E+06         0.00000E+00
    0.37903E+06        -0.49936E+08         0.00000E+00
    0.00000E+00         0.00000E+00        -0.50075E+08
 
   -0.50180E+08         0.37616E+06         0.00000E+00
    0.37616E+06        -0.49935E+08         0.00000E+00
    0.00000E+00         0.00000E+00        -0.50059E+08
 
   -0.50151E+08         0.37246E+06         0.00000E+00
    0.37246E+06        -0.49934E+08         0.00000E+00
    0.00000E+00         0.00000E+00        -0.50043E+08
 
   -0.50122E+08         0.36789E+06         0.00000E+00
    0.36789E+06        -0.49933E+08         0.00000E+00
    0.00000E+00         0.00000E+00        -0.50029E+08
 
   -0.50095E+08         0.36237E+06         0.00000E+00
    0.36237E+06        -0.49933E+08         0.00000E+00
    0.00000E+00         0.00000E+00        -0.50015E+08
 
   -0.50069E+08         0.35584E+06         0.00000E+00
    0.35584E+06        -0.49934E+08         0.00000E+00
    0.00000E+00         0.00000E+00        -0.50002E+08
 
   -0.50044E+08         0.34824E+06         0.00000E+00
    0.34824E+06        -0.49934E+08         0.00000E+00
    0.00000E+00         0.00000E+00        -0.49990E+08
 
   -0.50021E+08         0.33950E+06         0.00000E+00
    0.33950E+06        -0.49935E+08         0.00000E+00
    0.00000E+00         0.00000E+00        -0.49979E+08
 
   -0.49999E+08         0.32956E+06         0.00000E+00
    0.32956E+06        -0.49936E+08         0.00000E+00
    0.00000E+00         0.00000E+00        -0.49968E+08
 
   -0.49980E+08         0.31838E+06         0.00000E+00
    0.31838E+06        -0.49938E+08         0.00000E+00
    0.00000E+00         0.00000E+00        -0.49959E+08
 
   -0.49962E+08         0.30590E+06         0.00000E+00
    0.30590E+06        -0.49939E+08         0.00000E+00
    0.00000E+00         0.00000E+00        -0.49951E+08
 
   -0.49946E+08         0.29211E+06         0.00000E+00
    0.29211E+06        -0.49940E+08         0.00000E+00
    0.00000E+00         0.00000E+00        -0.49943E+08
 
   -0.49933E+08         0.27699E+06         0.00000E+00
    0.27699E+06        -0.49942E+08         0.00000E+00
    0.00000E+00         0.00000E+00        -0.49937E+08
 
   -0.49923E+08         0.26054E+06         0.00000E+00
    0.26054E+06        -0.49943E+08         0.00000E+00
    0.00000E+00         0.00000E+00        -0.49931E+08
 
   -0.49915E+08         0.24279E+06         0.00000E+00
    0.24279E+06        -0.49943E+08         0.00000E+00
    0.00000E+00         0.00000E+00        -0.49927E+08
 
   -0.49910E+08         0.22379E+06         0.00000E+00
    0.22379E+06        -0.49943E+08         0.00000E+00
    0.00000E+00         0.00000E+00        -0.49924E+08
 
   -0.49909E+08         0.20360E+06         0.00000E+00
    0.20360E+06        -0.49942E+08         0.00000E+00
    0.00000E+00         0.00000E+00        -0.49922E+08
 
   -0.49911E+08         0.18233E+06         0.00000E+00
    0.18233E+06        -0.49940E+08         0.00000E+00
    0.00000E+00         0.00000E+00        -0.49921E+08
 
   -0.49917E+08         0.16011E+06         0.00000E+00
    0.16011E+06        -0.49937E+08         0.00000E+00
    0.00000E+00         0.00000E+00        -0.49921E+08
 
   -0.51381E+08         0.18336E+05         0.00000E+00
    0.18336E+05        -0.50000E+08         0.00000E+00
    0.00000E+00         0.00000E+00        -0.50651E+08
 
   -0.51352E+08         0.51222E+05         0.00000E+00
    0.51222E+05        -0.50000E+08         0.00000E+00
    0.00000E+00         0.00000E+00        -0.50643E+08
 
   -0.51320E+08         0.82417E+05         0.00000E+00
    0.82417E+05        -0.50001E+08         0.00000E+00
    0.00000E+00         0.00000E+00        -0.50633E+08
 
   -0.51285E+08         0.11188E+06         0.00000E+00
    0.11188E+06        -0.50002E+08         0.00000E+00
    0.00000E+00         0.00000E+00        -0.50621E+08
 
   -0.51249E+08         0.13961E+06         0.00000E+00
    0.13961E+06        -0.50004E+08         0.00000E+00
    0.00000E+00         0.00000E+00        -0.50607E+08
 
   -0.51210E+08         0.16558E+06         0.00000E+00
    0.16558E+06        -0.50005E+08         0.00000E+00
    0.00000E+00         0.00000E+00        -0.50592E+08
 
   -0.51171E+08         0.18983E+06         0.00000E+00
    0.18983E+06        -0.50007E+08         0.00000E+00
    0.00000E+00         0.00000E+00        -0.50576E+08
 
   -0.51130E+08         0.21236E+06         0.00000E+00
    0.21236E+06        -0.50009E+08         0.00000E+00
    0.00000E+00         0.00000E+00        -0.50559E+08
 
   -0.51088E+08         0.23323E+06         0.00000E+00
    0.23323E+06        -0.50010E+08         0.00000E+00
    0.00000E+00         0.00000E+00        -0.50541E+08
 
   -0.51046E+08         0.25247E+06         0.00000E+00
    0.25247E+06        -0.50012E+08         0.00000E+00
    0.00000E+00         0.00000E+00        -0.50522E+08
 
   -0.51004E+08         0.27014E+06         0.00000E+00
    0.27014E+06        -0.50014E+08         0.00000E+00
    0.00000E+00         0.00000E+00        -0.50503E+08
 
   -0.50961E+08         0.28630E+06         0.00000E+00
    0.28630E+06        -0.50016E+08         0.00000E+00
    0.00000E+00         0.00000E+00        -0.50484E+08
 
   -0.50918E+08         0.30101E+06         0.00000E+00
    0.30101E+06        -0.50017E+08         0.00000E+00
    0.00000E+00         0.00000E+00        -0.50464E+08
 
   -0.50876E+08         0.31433E+06         0.00000E+00
    0.31433E+06        -0.50019E+08         0.00000E+00
    0.00000E+00         0.00000E+00        -0.50444E+08
 
   -0.50834E+08         0.32633E+06         0.00000E+00
    0.32633E+06        -0.50020E+08         0.00000E+00
    0.00000E+00         0.00000E+00        -0.50424E+08
 
   -0.50792E+08         0.33708E+06         0.00000E+00
    0.33708E+06        -0.50021E+08         0.00000E+00
    0.00000E+00         0.00000E+00        -0.50404E+08
 
   -0.50750E+08         0.34663E+06         0.00000E+00
    0.34663E+06        -0.50022E+08         0.00000E+00
    0.00000E+00         0.00000E+00        -0.50385E+08
 
   -0.50710E+08         0.35506E+06         0.00000E+00
    0.35506E+06        -0.50023E+08         0.00000E+00
    0.00000E+00         0.00000E+00        -0.50365E+08
 
   -0.50670E+08         0.36242E+06         0.00000E+00
    0.36242E+06        -0.50024E+08         0.00000E+00
    0.00000E+00         0.00000E+00        -0.50346E+08
 
   -0.50630E+08         0.36877E+06         0.00000E+00
    0.36877E+06        -0.50025E+08         0.00000E+00
    0.00000E+00         0.00000E+00        -0.50327E+08
 
   -0.50592E+08         0.37416E+06         0.00000E+00
    0.37416E+06        -0.50025E+08         0.00000E+00
    0.00000E+00         0.00000E+00        -0.50308E+08
 
   -0.50554E+08         0.37864E+06         0.00000E+00
    0.37864E+06        -0.50026E+08         0.00000E+00
    0.00000E+00         0.00000E+00        -0.50290E+08
 
   -0.50517E+08         0.38224E+06         0.00000E+00
    0.38224E+06        -0.50027E+08         0.00000E+00
    0.00000E+00         0.00000E+00        -0.50272E+08
 
   -0.50481E+08         0.38500E+06         0.00000E+00
    0.38500E+06        -0.50027E+08         0.00000E+00
    0.00000E+00         0.00000E+00        -0.50254E+08
 
   -0.50446E+08         0.38695E+06         0.00000E+00
    0.38695E+06        -0.50028E+08         0.00000E+00
    0.00000E+00         0.00000E+00        -0.50237E+08
 
   -0.50411E+08         0.38811E+06         0.00000E+00
    0.38811E+06        -0.50029E+08         0.00000E+00
    0.00000E+00         0.00000E+00        -0.50220E+08
 
   -0.50378E+08         0.38851E+06         0.00000E+00
    0.38851E+06        -0.50029E+08         0.00000E+00
    0.00000E+00         0.00000E+00        -0.50204E+08
 
   -0.50346E+08         0.38814E+06         0.00000E+00
    0.38814E+06        -0.50030E+08         0.00000E+00
    0.00000E+00         0.00000E+00        -0.50188E+08
 
   -0.50315E+08         0.38701E+06         0.00000E+00
    0.38701E+06        -0.50031E+08         0.00000E+00
    0.00000E+00         0.00000E+00        -0.50173E+08
 
   -0.50284E+08         0.38513E+06         0.00000E+00
    0.38513E+06        -0.50032E+08         0.00000E+00
    0.00000E+00         0.00000E+00        -0.50159E+08
 
   -0.50255E+08         0.38249E+06         0.00000E+00
    0.38249E+06        -0.50033E+08         0.00000E+00
    0.00000E+00         0.00000E+00        -0.50145E+08
 
   -0.50227E+08         0.37909E+06         0.00000E+00
    0.37909E+06        -0.50034E+08         0.00000E+00
    0.00000E+00         0.00000E+00        -0.50131E+08
 
   -0.50200E+08         0.37490E+06         0.00000E+00
    0.37490E+06        -0.50036E+08         0.00000E+00
    0.00000E+00         0.00000E+00        -0.50119E+08
 
   -0.50175E+08         0.36992E+06         0.00000E+00
    0.36992E+06        -0.50037E+08         0.00000E+00
    0.00000E+00         0.00000E+00        -0.50107E+08
 
   -0.50151E+08         0.36412E+06         0.00000E+00
    0.36412E+06        -0.50039E+08         0.00000E+00
    0.00000E+00         0.00000E+00        -0.50095E+08
 
   -0.50128E+08         0.35751E+06         0.00000E+00
    0.35751E+06        -0.50041E+08         0.00000E+00
    0.00000E+00         0.00000E+00        -0.50085E+08
 
   -0.50106E+08         0.35005E+06         0.00000E+00
    0.35005E+06        -0.50043E+08         0.00000E+00
    0.00000E+00         0.00000E+00        -0.50075E+08
 
   -0.50086E+08         0.34174E+06         0.00000E+00
    0.34174E+06        -0.50044E+08         0.00000E+00
    0.00000E+00         0.00000E+00        -0.50066E+08
 
   -0.50068E+08         0.33258E+06         0.00000E+00
    0.33258E+06        -0.50046E+08         0.00000E+00
    0.00000E+00         0.00000E+00        -0.50057E+08
 
   -0.50052E+08         0.32255E+06         0.00000E+00
    0.32255E+06        -0.50048E+08         0.00000E+00
    0.00000E+00         0.00000E+00        -0.50050E+08
 
   -0.50038E+08         0.31166E+06         0.00000E+00
    0.31166E+06        -0.50049E+08         0.00000E+00
    0.00000E+00         0.00000E+00        -0.50043E+08
 
   -0.50025E+08         0.29993E+06         0.00000E+00
    0.29993E+06        -0.50050E+08         0.00000E+00
    0.00000E+00         0.00000E+00        -0.50037E+08
 
   -0.50015E+08         0.28738E+06         0.00000E+00
    0.28738E+06        -0.50051E+08         0.00000E+00
    0.00000E+00         0.00000E+00        -0.50032E+08
 
   -0.50007E+08         0.27403E+06         0.00000E+00
    0.27403E+06        -0.50052E+08         0.00000E+00
    0.00000E+00         0.00000E+00        -0.50027E+08
 
   -0.50001E+08         0.25994E+06         0.00000E+00
    0.25994E+06        -0.50052E+08         0.00000E+00
    0.00000E+00         0.00000E+00        -0.50024E+08
 
   -0.49998E+08         0.24517E+06         0.00000E+00
    0.24517E+06        -0.50051E+08         0.00000E+00
    0.00000E+00         0.00000E+00        -0.50021E+08
 
   -0.49998E+08         0.22979E+06         0.00000E+00
    0.22979E+06        -0.50050E+08         0.00000E+00
    0.00000E+00         0.00000E+00        -0.50020E+08
 
   -0.50001E+08         0.21389E+06         0.00000E+00
    0.21389E+06        -0.50048E+08         0.00000E+00
    0.00000E+00         0.00000E+00        -0.50019E+08
 
   -0.50006E+08         0.19759E+06         0.00000E+00
    0.19759E+06        -0.50045E+08         0.00000E+00
    0.00000E+00         0.00000E+00        -0.50019E+08
 
   -0.50015E+08         0.18101E+06         0.00000E+00
    0.18101E+06        -0.50041E+08         0.00000E+00
    0.00000E+00         0.00000E+00        -0.50019E+08
 
   -0.51219E+08         0.16755E+05         0.00000E+00
    0.16755E+05        -0.50000E+08         0.00000E+00
    0.00000E+00         0.00000E+00        -0.50581E+08
 
   -0.51197E+08         0.47246E+05         0.00000E+00
    0.47246E+05        -0.50001E+08         0.00000E+00
    0.00000E+00         0.00000E+00        -0.50575E+08
 
   -0.51173E+08         0.76361E+05         0.00000E+00
    0.76361E+05        -0.50002E+08         0.00000E+00
    0.00000E+00         0.00000E+00        -0.50567E+08
 
   -0.51146E+08         0.10405E+06         0.00000E+00
    0.10405E+06        -0.50003E+08         0.00000E+00
    0.00000E+00         0.00000E+00        -0.50558E+08
 
   -0.51118E+08         0.13029E+06         0.00000E+00
    0.13029E+06        -0.50005E+08         0.00000E+00
    0.00000E+00         0.00000E+00        -0.50548E+08
 
   -0.51087E+08         0.15505E+06         0.00000E+00
    0.15505E+06        -0.50008E+08         0.00000E+00
    0.00000E+00         0.00000E+00        -0.50536E+08
 
   -0.51056E+08         0.17833E+06         0.00000E+00
    0.17833E+06        -0.50010E+08         0.00000E+00
    0.00000E+00         0.00000E+00        -0.50524E+08
 
   -0.51023E+08         0.20013E+06         0.00000E+00
    0.20013E+06        -0.50013E+08         0.00000E+00
    0.00000E+00         0.00000E+00        -0.50510E+08
 
   -0.50989E+08         0.22048E+06         0.00000E+00
    0.22048E+06        -0.50017E+08         0.00000E+00
    0.00000E+00         0.00000E+00        -0.50496E+08
 
   -0.50954E+08         0.23938E+06         0.00000E+00
    0.23938E+06        -0.50020E+08         0.00000E+00
    0.00000E+00         0.00000E+00        -0.50482E+08
 
   -0.50919E+08         0.25688E+06         0.00000E+00
    0.25688E+06        -0.50023E+08         0.00000E+00
    0.00000E+00         0.00000E+00        -0.50467E+08
 
   -0.50883E+08         0.27300E+06         0.00000E+00
    0.27300E+06        -0.50027E+08         0.00000E+00
    0.00000E+00         0.00000E+00        -0.50452E+08
 
   -0.50848E+08         0.28778E+06         0.00000E+00
    0.28778E+06        -0.50030E+08         0.00000E+00
    0.00000E+00         0.00000E+00        -0.50436E+08
 
   -0.50812E+08         0.30127E+06         0.00000E+00
    0.30127E+06        -0.50034E+08         0.00000E+00
    0.00000E+00         0.00000E+00        -0.50421E+08
 
   -0.50776E+08         0.31350E+06         0.00000E+00
    0.31350E+06        -0.50038E+08         0.00000E+00
    0.00000E+00         0.00000E+00        -0.50405E+08
 
   -0.50740E+08         0.32452E+06         0.00000E+00
    0.32452E+06        -0.50041E+08         0.00000E+00
    0.00000E+00         0.00000E+00        -0.50389E+08
 
   -0.50705E+08         0.33437E+06         0.00000E+00
    0.33437E+06        -0.50045E+08         0.00000E+00
    0.00000E+00         0.00000E+00        -0.50374E+08
 
   -0.50669E+08         0.34311E+06         0.00000E+00
    0.34311E+06        -0.50049E+08         0.00000E+00
    0.00000E+00         0.00000E+00        -0.50358E+08
 
   -0.50635E+08         0.35076E+06         0.00000E+00
    0.35076E+06        -0.50052E+08         0.00000E+00
    0.00000E+00         0.00000E+00        -0.50343E+08
 
   -0.50600E+08         0.35737E+06         0.00000E+00
    0.35737E+06        -0.50056E+08         0.00000E+00
    0.00000E+00         0.00000E+00        -0.50328E+08
 
   -0.50566E+08         0.36298E+06         0.00000E+00
    0.36298E+06        -0.50059E+08         0.00000E+00
    0.00000E+00         0.00000E+00        -0.50313E+08
 
   -0.50533E+08         0.36762E+06         0.00000E+00
    0.36762E+06        -0.50063E+08         0.00000E+00
    0.00000E+00         0.00000E+00        -0.50298E+08
 
   -0.50501E+08         0.37134E+06         0.00000E+00
    0.37134E+06        -0.50066E+08         0.00000E+00
    0.00000E+00         0.00000E+00        -0.50284E+08
 
   -0.50469E+08         0.37416E+06         0.00000E+00
    0.37416E+06        -0.50070E+08         0.00000E+00
    0.00000E+00         0.00000E+00        -0.50269E+08
 
   -0.50438E+08         0.37611E+06         0.00000E+00
    0.37611E+06        -0.50073E+08         0.00000E+00
    0.00000E+00         0.00000E+00        -0.50256E+08
 
   -0.50408E+08         0.37722E+06         0.00000E+00
    0.37722E+06        -0.50077E+08         0.00000E+00
    0.00000E+00         0.00000E+00        -0.50242E+08
 
   -0.50378E+08         0.37751E+06         0.00000E+00
    0.37751E+06        -0.50080E+08         0.00000E+00
    0.00000E+00         0.00000E+00        -0.50229E+08
 
   -0.50350E+08         0.37699E+06         0.00000E+00
    0.37699E+06        -0.50083E+08         0.00000E+00
    0.00000E+00         0.00000E+00        -0.50217E+08
 
   -0.50323E+08         0.37570E+06         0.00000E+00
    0.37570E+06        -0.50087E+08         0.00000E+00
    0.00000E+00         0.00000E+00        -0.50205E+08
 
   -0.50296E+08         0.37364E+06         0.00000E+00
    0.37364E+06        -0.50090E+08         0.00000E+00
    0.00000E+00         0.00000E+00        -0.50193E+08
 
   -0.50271E+08         0.37083E+06         0.00000E+00
    0.37083E+06        -0.50093E+08         0.00000E+00
    0.00000E+00         0.00000E+00        -0.50182E+08
 
   -0.50247E+08         0.36728E+06         0.00000E+00
    0.36728E+06        -0.50096E+08         0.00000E+00
    0.00000E+00         0.00000E+00        -0.50172E+08
 
   -0.50223E+08         0.36301E+06         0.00000E+00
    0.36301E+06        -0.50100E+08         0.00000E+00
    0.00000E+00         0.00000E+00        -0.50162E+08
 
   -0.50202E+08         0.35802E+06         0.00000E+00
    0.35802E+06        -0.50103E+08         0.00000E+00
    0.00000E+00         0.00000E+00        -0.50152E+08
 
   -0.50181E+08         0.35233E+06         0.00000E+00
    0.35233E+06        -0.50106E+08         0.00000E+00
    0.00000E+00         0.00000E+00        -0.50144E+08
 
   -0.50162E+08         0.34597E+06         0.00000E+00
    0.34597E+06        -0.50108E+08         0.00000E+00
    0.00000E+00         0.00000E+00        -0.50135E+08
 
   -0.50144E+08         0.33893E+06         0.00000E+00
    0.33893E+06        -0.50111E+08         0.00000E+00
    0.00000E+00         0.00000E+00        -0.50128E+08
 
   -0.50128E+08         0.33124E+06         0.00000E+00
    0.33124E+06        -0.50114E+08         0.00000E+00
    0.00000E+00         0.00000E+00        -0.50121E+08
 
   -0.50114E+08         0.32294E+06         0.00000E+00
    0.32294E+06        -0.50116E+08         0.00000E+00
    0.00000E+00         0.00000E+00        -0.50115E+08
 
   -0.50101E+08         0.31403E+06         0.00000E+00
    0.31403E+06        -0.50118E+08         0.00000E+00
    0.00000E+00         0.00000E+00        -0.50109E+08
 
   -0.50090E+08         0.30457E+06         0.00000E+00
    0.30457E+06        -0.50120E+08         0.00000E+00
    0.00000E+00         0.00000E+00        -0.50104E+08
 
   -0.50081E+08         0.29459E+06         0.00000E+00
    0.29459E+06        -0.50121E+08         0.00000E+00
    0.00000E+00         0.00000E+00        -0.50100E+08
 
   -0.50074E+08         0.28413E+06         0.00000E+00
    0.28413E+06        -0.50122E+08         0.00000E+00
    0.00000E+00         0.00000E+00        -0.50096E+08
 
   -0.50069E+08         0.27326E+06         0.00000E+00
    0.27326E+06        -0.50122E+08         0.00000E+00
    0.00000E+00         0.00000E+00        -0.50093E+08
 
   -0.50066E+08         0.26203E+06         0.00000E+00
    0.26203E+06        -0.50122E+08         0.00000E+00
    0.00000E+00         0.00000E+00        -0.50091E+08
 
   -0.50065E+08         0.25053E+06         0.00000E+00
    0.25053E+06        -0.50121E+08         0.00000E+00
    0.00000E+00         0.00000E+00        -0.50089E+08
 
   -0.50066E+08         0.23884E+06         0.00000E+00
    0.23884E+06        -0.50120E+08         0.00000E+00
    0.00000E+00         0.00000E+00        -0.50089E+08
 
   -0.50070E+08         0.22704E+06         0.00000E+00
    0.22704E+06        -0.50118E+08         0.00000E+00
    0.00000E+00         0.00000E+00        -0.50088E+08
 
   -0.50076E+08         0.21525E+06         0.00000E+00
    0.21525E+06        -0.50115E+08         0.00000E+00
    0.00000E+00         0.00000E+00        -0.50088E+08
 
   -0.50085E+08         0.20357E+06         0.00000E+00
    0.20357E+06        -0.50111E+08         0.00000E+00
    0.00000E+00         0.00000E+00        -0.50089E+08
 
   -0.51071E+08         0.14914E+05         0.00000E+00
    0.14914E+05        -0.50000E+08         0.00000E+00
    0.00000E+00         0.00000E+00        -0.50515E+08
 
   -0.51055E+08         0.42406E+05         0.00000E+00
    0.42406E+05        -0.50001E+08         0.00000E+00
    0.00000E+00         0.00000E+00        -0.50511E+08
 
   -0.51037E+08         0.68810E+05         0.00000E+00
    0.68810E+05        -0.50002E+08         0.00000E+00
    0.00000E+00         0.00000E+00        -0.50506E+08
 
   -0.51017E+08         0.94070E+05         0.00000E+00
    0.94070E+05        -0.50004E+08         0.00000E+00
    0.00000E+00         0.00000E+00        -0.50499E+08
 
   -0.50995E+08         0.11814E+06         0.00000E+00
    0.11814E+06        -0.50006E+08         0.00000E+00
    0.00000E+00         0.00000E+00        -0.50491E+08
 
   -0.50971E+08         0.14100E+06         0.00000E+00
    0.14100E+06        -0.50009E+08         0.00000E+00
    0.00000E+00         0.00000E+00        -0.50482E+08
 
   -0.50947E+08         0.16262E+06         0.00000E+00
    0.16262E+06        -0.50012E+08         0.00000E+00
    0.00000E+00         0.00000E+00        -0.50473E+08
 
   -0.50920E+08         0.18300E+06         0.00000E+00
    0.18300E+06        -0.50016E+08         0.00000E+00
    0.00000E+00         0.00000E+00        -0.50463E+08
 
   -0.50893E+08         0.20213E+06         0.00000E+00
    0.20213E+06        -0.50020E+08         0.00000E+00
    0.00000E+00         0.00000E+00        -0.50452E+08
 
   -0.50865E+08         0.22002E+06         0.00000E+00
    0.22002E+06        -0.50024E+08         0.00000E+00
    0.00000E+00         0.00000E+00        -0.50441E+08
 
   -0.50837E+08         0.23668E+06         0.00000E+00
    0.23668E+06        -0.50028E+08         0.00000E+00
    0.00000E+00         0.00000E+00        -0.50430E+08
 
   -0.50808E+08         0.25213E+06         0.00000E+00
    0.25213E+06        -0.50033E+08         0.00000E+00
    0.00000E+00         0.00000E+00        -0.50418E+08
 
   -0.50778E+08         0.26638E+06         0.00000E+00
    0.26638E+06        -0.50038E+08         0.00000E+00
    0.00000E+00         0.00000E+00        -0.50406E+08
 
   -0.50748E+08         0.27947E+06         0.00000E+00
    0.27947E+06        -0.50042E+08         0.00000E+00
    0.00000E+00         0.00000E+00        -0.50394E+08
 
   -0.50718E+08         0.29142E+06         0.00000E+00
    0.29142E+06        -0.50047E+08         0.00000E+00
    0.00000E+00         0.00000E+00        -0.50382E+08
 
   -0.50688E+08         0.30225E+06         0.00000E+00
    0.30225E+06        -0.50052E+08         0.00000E+00
    0.00000E+00         0.00000E+00        -0.50369E+08
 
   -0.50658E+08         0.31200E+06         0.00000E+00
    0.31200E+06        -0.50058E+08         0.00000E+00
    0.00000E+00         0.00000E+00        -0.50357E+08
 
   -0.50628E+08         0.32070E+06         0.00000E+00
    0.32070E+06        -0.50063E+08         0.00000E+00
    0.00000E+00         0.00000E+00        -0.50345E+08
 
   -0.50599E+08         0.32837E+06         0.00000E+00
    0.32837E+06        -0.50068E+08         0.00000E+00
    0.00000E+00         0.00000E+00        -0.50333E+08
 
   -0.50569E+08         0.33506E+06         0.00000E+00
    0.33506E+06        -0.50073E+08         0.00000E+00
    0.00000E+00         0.00000E+00        -0.50321E+08
 
   -0.50540E+08         0.34078E+06         0.00000E+00
    0.34078E+06        -0.50078E+08         0.00000E+00
    0.00000E+00         0.00000E+00        -0.50309E+08
 
   -0.50512E+08         0.34557E+06         0.00000E+00
    0.34557E+06        -0.50083E+08         0.00000E+00
    0.00000E+00         0.00000E+00        -0.50298E+08
 
   -0.50484E+08         0.34946E+06         0.00000E+00
    0.34946E+06        -0.50089E+08         0.00000E+00
    0.00000E+00         0.00000E+00        -0.50286E+08
 
   -0.50457E+08         0.35248E+06         0.00000E+00
    0.35248E+06        -0.50094E+08         0.00000E+00
    0.00000E+00         0.00000E+00        -0.50275E+08
 
   -0.50430E+08         0.35466E+06         0.00000E+00
    0.35466E+06        -0.50099E+08         0.00000E+00
    0.00000E+00         0.00000E+00        -0.50264E+08
 
   -0.50404E+08         0.35602E+06         0.00000E+00
    0.35602E+06        -0.50104E+08         0.00000E+00
    0.00000E+00         0.00000E+00        -0.50254E+08
 
   -0.50378E+08         0.35658E+06         0.00000E+00
    0.35658E+06        -0.50108E+08         0.00000E+00
    0.00000E+00         0.00000E+00        -0.50243E+08
 
   -0.50354E+08         0.35639E+06         0.00000E+00
    0.35639E+06        -0.50113E+08         0.00000E+00
    0.00000E+00         0.00000E+00        -0.50234E+08
 
   -0.50330E+08         0.35545E+06         0.00000E+00
    0.35545E+06        -0.50118E+08         0.00000E+00
    0.00000E+00         0.00000E+00        -0.50224E+08
 
   -0.50307E+08         0.35380E+06         0.00000E+00
    0.35380E+06        -0.50122E+08         0.00000E+00
    0.00000E+00         0.00000E+00        -0.50215E+08
 
   -0.50285E+08         0.35146E+06         0.00000E+00
    0.35146E+06        -0.50127E+08         0.00000E+00
    0.00000E+00         0.00000E+00        -0.50206E+08
 
   -0.50265E+08         0.34846E+06         0.00000E+00
    0.34846E+06        -0.50131E+08         0.00000E+00
    0.00000E+00         0.00000E+00        -0.50198E+08
 
   -0.50245E+08         0.34483E+06         0.00000E+00
    0.34483E+06        -0.50135E+08         0.00000E+00
    0.00000E+00         0.00000E+00        -0.50190E+08
 
   -0.50226E+08         0.34058E+06         0.00000E+00
    0.34058E+06        -0.50139E+08         0.00000E+00
    0.00000E+00         0.00000E+00        -0.50183E+08
 
   -0.50209E+08         0.33576E+06         0.00000E+00
    0.33576E+06        -0.50143E+08         0.00000E+00
    0.00000E+00         0.00000E+00        -0.50176E+08
 
   -0.50193E+08         0.33038E+06         0.00000E+00
    0.33038E+06        -0.50147E+08         0.00000E+00
    0.00000E+00         0.00000E+00        -0.50170E+08
 
   -0.50178E+08         0.32449E+06         0.00000E+00
    0.32449E+06        -0.50150E+08         0.00000E+00
    0.00000E+00         0.00000E+00        -0.50164E+08
 
   -0.50165E+08         0.31813E+06         0.00000E+00
    0.31813E+06        -0.50153E+08         0.00000E+00
    0.00000E+00         0.00000E+00        -0.50158E+08
 
   -0.50153E+08         0.31132E+06         0.00000E+00
    0.31132E+06        -0.50155E+08         0.00000E+00
    0.00000E+00         0.00000E+00        -0.50154E+08
 
   -0.50142E+08         0.30413E+06         0.00000E+00
    0.30413E+06        -0.50158E+08         0.00000E+00
    0.00000E+00         0.00000E+00        -0.50149E+08
 
   -0.50134E+08         0.29658E+06         0.00000E+00
    0.29658E+06        -0.50160E+08         0.00000E+00
    0.00000E+00         0.00000E+00        -0.50146E+08
 
   -0.50126E+08         0.28874E+06         0.00000E+00
    0.28874E+06        -0.50161E+08         0.00000E+00
    0.00000E+00         0.00000E+00        -0.50142E+08
 
   -0.50121E+08         0.28067E+06         0.00000E+00
    0.28067E+06        -0.50162E+08         0.00000E+00
    0.00000E+00         0.00000E+00        -0.50140E+08
 
   -0.50117E+08         0.27242E+06         0.00000E+00
    0.27242E+06        -0.50163E+08         0.00000E+00
    0.00000E+00         0.00000E+00        -0.50138E+08
 
   -0.50115E+08         0.26407E+06         0.00000E+00
    0.26407E+06        -0.50163E+08         0.00000E+00
    0.00000E+00         0.00000E+00        -0.50136E+08
 
   -0.50115E+08         0.25569E+06         0.00000E+00
    0.25569E+06        -0.50162E+08         0.00000E+00
    0.00000E+00         0.00000E+00        -0.50135E+08
 
   -0.50116E+08         0.24736E+06         0.00000E+00
    0.24736E+06        -0.50161E+08         0.00000E+00
    0.00000E+00         0.00000E+00        -0.50135E+08
 
   -0.50119E+08         0.23918E+06         0.00000E+00
    0.23918E+06        -0.50159E+08         0.00000E+00
    0.00000E+00         0.00000E+00        -0.50134E+08
 
   -0.50125E+08         0.23122E+06         0.00000E+00
    0.23122E+06        -0.50157E+08         0.00000E+00
    0.00000E+00         0.00000E+00        -0.50135E+08
 
   -0.50132E+08         0.22359E+06         0.00000E+00
    0.22359E+06        -0.50153E+08         0.00000E+00
    0.00000E+00         0.00000E+00        -0.50135E+08
 
   -0.50939E+08         0.13001E+05         0.00000E+00
    0.13001E+05        -0.50000E+08         0.00000E+00
    0.00000E+00         0.00000E+00        -0.50456E+08
 
   -0.50928E+08         0.37257E+05         0.00000E+00
    0.37257E+05        -0.50001E+08         0.00000E+00
    0.00000E+00         0.00000E+00        -0.50453E+08
 
   -0.50915E+08         0.60674E+05         0.00000E+00
    0.60674E+05        -0.50002E+08         0.00000E+00
    0.00000E+00         0.00000E+00        -0.50449E+08
 
   -0.50900E+08         0.83197E+05         0.00000E+00
    0.83197E+05        -0.50004E+08         0.00000E+00
    0.00000E+00         0.00000E+00        -0.50444E+08
 
   -0.50884E+08         0.10478E+06         0.00000E+00
    0.10478E+06        -0.50006E+08         0.00000E+00
    0.00000E+00         0.00000E+00        -0.50439E+08
 
   -0.50866E+08         0.12538E+06         0.00000E+00
    0.12538E+06        -0.50009E+08         0.00000E+00
    0.00000E+00         0.00000E+00        -0.50432E+08
 
   -0.50846E+08         0.14498E+06         0.00000E+00
    0.14498E+06        -0.50013E+08         0.00000E+00
    0.00000E+00         0.00000E+00        -0.50425E+08
 
   -0.50826E+08         0.16355E+06         0.00000E+00
    0.16355E+06        -0.50017E+08         0.00000E+00
    0.00000E+00         0.00000E+00        -0.50418E+08
 
   -0.50804E+08         0.18108E+06         0.00000E+00
    0.18108E+06        -0.50021E+08         0.00000E+00
    0.00000E+00         0.00000E+00        -0.50410E+08
 
   -0.50782E+08         0.19757E+06         0.00000E+00
    0.19757E+06        -0.50025E+08         0.00000E+00
    0.00000E+00         0.00000E+00        -0.50401E+08
 
   -0.50759E+08         0.21302E+06         0.00000E+00
    0.21302E+06        -0.50030E+08         0.00000E+00
    0.00000E+00         0.00000E+00        -0.50393E+08
 
   -0.50736E+08         0.22744E+06         0.00000E+00
    0.22744E+06        -0.50035E+08         0.00000E+00
    0.00000E+00         0.00000E+00        -0.50384E+08
 
   -0.50712E+08         0.24082E+06         0.00000E+00
    0.24082E+06        -0.50040E+08         0.00000E+00
    0.00000E+00         0.00000E+00        -0.50375E+08
 
   -0.50687E+08         0.25318E+06         0.00000E+00
    0.25318E+06        -0.50046E+08         0.00000E+00
    0.00000E+00         0.00000E+00        -0.50365E+08
 
   -0.50662E+08         0.26455E+06         0.00000E+00
    0.26455E+06        -0.50051E+08         0.00000E+00
    0.00000E+00         0.00000E+00        -0.50356E+08
 
   -0.50638E+08         0.27492E+06         0.00000E+00
    0.27492E+06        -0.50057E+08         0.00000E+00
    0.00000E+00         0.00000E+00        -0.50347E+08
 
   -0.50613E+08         0.28434E+06         0.00000E+00
    0.28434E+06        -0.50063E+08         0.00000E+00
    0.00000E+00         0.00000E+00        -0.50337E+08
 
   -0.50588E+08         0.29280E+06         0.00000E+00
    0.29280E+06        -0.50068E+08         0.00000E+00
    0.00000E+00         0.00000E+00        -0.50328E+08
 
   -0.50563E+08         0.30035E+06         0.00000E+00
    0.30035E+06        -0.50074E+08         0.00000E+00
    0.00000E+00         0.00000E+00        -0.50318E+08
 
   -0.50538E+08         0.30700E+06         0.00000E+00
    0.30700E+06        -0.50080E+08         0.00000E+00
    0.00000E+00         0.00000E+00        -0.50309E+08
 
   -0.50514E+08         0.31277E+06         0.00000E+00
    0.31277E+06        -0.50086E+08         0.00000E+00
    0.00000E+00         0.00000E+00        -0.50300E+08
 
   -0.50490E+08         0.31769E+06         0.00000E+00
    0.31769E+06        -0.50092E+08         0.00000E+00
    0.00000E+00         0.00000E+00        -0.50291E+08
 
   -0.50466E+08         0.32179E+06         0.00000E+00
    0.32179E+06        -0.50098E+08         0.00000E+00
    0.00000E+00         0.00000E+00        -0.50282E+08
 
   -0.50443E+08         0.32509E+06         0.00000E+00
    0.32509E+06        -0.50104E+08         0.00000E+00
    0.00000E+00         0.00000E+00        -0.50273E+08
 
   -0.50420E+08         0.32761E+06         0.00000E+00
    0.32761E+06        -0.50110E+08         0.00000E+00
    0.00000E+00         0.00000E+00        -0.50265E+08
 
   -0.50398E+08         0.32939E+06         0.00000E+00
    0.32939E+06        -0.50115E+08         0.00000E+00
    0.00000E+00         0.00000E+00        -0.50256E+08
 
   -0.50376E+08         0.33045E+06         0.00000E+00
    0.33045E+06        -0.50121E+08         0.00000E+00
    0.00000E+00         0.00000E+00        -0.50248E+08
 
   -0.50355E+08         0.33083E+06         0.00000E+00
    0.33083E+06        -0.50126E+08         0.00000E+00
    0.00000E+00         0.00000E+00        -0.50241E+08
 
   -0.50335E+08         0.33054E+06         0.00000E+00
    0.33054E+06        -0.50132E+08         0.00000E+00
    0.00000E+00         0.00000E+00        -0.50233E+08
 
   -0.50315E+08         0.32961E+06         0.00000E+00
    0.32961E+06        -0.50137E+08         0.00000E+00
    0.00000E+00         0.00000E+00        -0.50226E+08
 
   -0.50297E+08         0.32809E+06         0.00000E+00
    0.32809E+06        -0.50142E+08         0.00000E+00
    0.00000E+00         0.00000E+00        -0.50219E+08
 
   -0.50279E+08         0.32599E+06         0.00000E+00
    0.32599E+06        -0.50147E+08         0.00000E+00
    0.00000E+00         0.00000E+00        -0.50213E+08
 
   -0.50262E+08         0.32336E+06         0.00000E+00
    0.32336E+06        -0.50151E+08         0.00000E+00
    0.00000E+00         0.00000E+00        -0.50207E+08
 
   -0.50246E+08         0.32022E+06         0.00000E+00
    0.32022E+06        -0.50155E+08         0.00000E+00
    0.00000E+00         0.00000E+00        -0.50201E+08
 
   -0.50231E+08         0.31661E+06         0.00000E+00
    0.31661E+06        -0.50160E+08         0.00000E+00
    0.00000E+00         0.00000E+00        -0.50195E+08
 
   -0.50218E+08         0.31257E+06         0.00000E+00
    0.31257E+06        -0.50163E+08         0.00000E+00
    0.00000E+00         0.00000E+00        -0.50190E+08
 
   -0.50205E+08         0.30815E+06         0.00000E+00
    0.30815E+06        -0.50167E+08         0.00000E+00
    0.00000E+00         0.00000E+00        -0.50186E+08
 
   -0.50193E+08         0.30338E+06         0.00000E+00
    0.30338E+06        -0.50170E+08         0.00000E+00
    0.00000E+00         0.00000E+00        -0.50181E+08
 
   -0.50183E+08         0.29830E+06         0.00000E+00
    0.29830E+06        -0.50173E+08         0.00000E+00
    0.00000E+00         0.00000E+00        -0.50178E+08
 
   -0.50174E+08         0.29298E+06         0.00000E+00
    0.29298E+06        -0.50176E+08         0.00000E+00
    0.00000E+00         0.00000E+00        -0.50174E+08
 
   -0.50167E+08         0.28745E+06         0.00000E+00
    0.28745E+06        -0.50178E+08         0.00000E+00
    0.00000E+00         0.00000E+00        -0.50171E+08
 
   -0.50160E+08         0.28179E+06         0.00000E+00
    0.28179E+06        -0.50180E+08         0.00000E+00
    0.00000E+00         0.00000E+00        -0.50169E+08
 
   -0.50155E+08         0.27603E+06         0.00000E+00
    0.27603E+06        -0.50181E+08         0.00000E+00
    0.00000E+00         0.00000E+00        -0.50167E+08
 
   -0.50152E+08         0.27025E+06         0.00000E+00
    0.27025E+06        -0.50182E+08         0.00000E+00
    0.00000E+00         0.00000E+00        -0.50165E+08
 
   -0.50150E+08         0.26451E+06         0.00000E+00
    0.26451E+06        -0.50182E+08         0.00000E+00
    0.00000E+00         0.00000E+00        -0.50164E+08
 
   -0.50149E+08         0.25889E+06         0.00000E+00
    0.25889E+06        -0.50182E+08         0.00000E+00
    0.00000E+00         0.00000E+00        -0.50163E+08
 
   -0.50150E+08         0.25344E+06         0.00000E+00
    0.25344E+06        -0.50181E+08         0.00000E+00
    0.00000E+00         0.00000E+00        -0.50163E+08
 
   -0.50152E+08         0.24825E+06         0.00000E+00
    0.24825E+06        -0.50180E+08         0.00000E+00
    0.00000E+00         0.00000E+00        -0.50162E+08
 
   -0.50156E+08         0.24340E+06         0.00000E+00
    0.24340E+06        -0.50178E+08         0.00000E+00
    0.00000E+00         0.00000E+00        -0.50163E+08
 
   -0.50161E+08         0.23896E+06         0.00000E+00
    0.23896E+06        -0.50176E+08         0.00000E+00
    0.00000E+00         0.00000E+00        -0.50163E+08
 
   -0.50824E+08         0.11153E+05         0.00000E+00
    0.11153E+05        -0.50000E+08         0.00000E+00
    0.00000E+00         0.00000E+00        -0.50403E+08
 
   -0.50817E+08         0.32198E+05         0.00000E+00
    0.32198E+05        -0.50001E+08         0.00000E+00
    0.00000E+00         0.00000E+00        -0.50401E+08
 
   -0.50807E+08         0.52618E+05         0.00000E+00
    0.52618E+05        -0.50002E+08         0.00000E+00
    0.00000E+00         0.00000E+00        -0.50399E+08
 
   -0.50797E+08         0.72356E+05         0.00000E+00
    0.72356E+05        -0.50004E+08         0.00000E+00
    0.00000E+00         0.00000E+00        -0.50395E+08
 
   -0.50784E+08         0.91367E+05         0.00000E+00
    0.91367E+05        -0.50006E+08         0.00000E+00
    0.00000E+00         0.00000E+00        -0.50391E+08
 
   -0.50771E+08         0.10961E+06         0.00000E+00
    0.10961E+06        -0.50009E+08         0.00000E+00
    0.00000E+00         0.00000E+00        -0.50386E+08
 
   -0.50756E+08         0.12705E+06         0.00000E+00
    0.12705E+06        -0.50012E+08         0.00000E+00
    0.00000E+00         0.00000E+00        -0.50381E+08
 
   -0.50740E+08         0.14368E+06         0.00000E+00
    0.14368E+06        -0.50016E+08         0.00000E+00
    0.00000E+00         0.00000E+00        -0.50376E+08
 
   -0.50723E+08         0.15946E+06         0.00000E+00
    0.15946E+06        -0.50020E+08         0.00000E+00
    0.00000E+00         0.00000E+00        -0.50370E+08
 
   -0.50706E+08         0.17438E+06         0.00000E+00
    0.17438E+06        -0.50025E+08         0.00000E+00
    0.00000E+00         0.00000E+00        -0.50364E+08
 
   -0.50688E+08         0.18845E+06         0.00000E+00
    0.18845E+06        -0.50029E+08         0.00000E+00
    0.00000E+00         0.00000E+00        -0.50357E+08
 
   -0.50669E+08         0.20165E+06         0.00000E+00
    0.20165E+06        -0.50034E+08         0.00000E+00
    0.00000E+00         0.00000E+00        -0.50351E+08
 
   -0.50650E+08         0.21399E+06         0.00000E+00
    0.21399E+06        -0.50040E+08         0.00000E+00
    0.00000E+00         0.00000E+00        -0.50344E+08
 
   -0.50630E+08         0.22546E+06         0.00000E+00
    0.22546E+06        -0.50045E+08         0.00000E+00
    0.00000E+00         0.00000E+00        -0.50337E+08
 
   -0.50610E+08         0.23608E+06         0.00000E+00
    0.23608E+06        -0.50051E+08         0.00000E+00
    0.00000E+00         0.00000E+00        -0.50330E+08
 
   -0.50589E+08         0.24586E+06         0.00000E+00
    0.24586E+06        -0.50056E+08         0.00000E+00
    0.00000E+00         0.00000E+00        -0.50323E+08
 
   -0.50569E+08         0.25481E+06         0.00000E+00
    0.25481E+06        -0.50062E+08         0.00000E+00
    0.00000E+00         0.00000E+00        -0.50315E+08
 
   -0.50548E+08         0.26293E+06         0.00000E+00
    0.26293E+06        -0.50068E+08         0.00000E+00
    0.00000E+00         0.00000E+00        -0.50308E+08
 
   -0.50528E+08         0.27026E+06         0.00000E+00
    0.27026E+06        -0.50074E+08         0.00000E+00
    0.00000E+00         0.00000E+00        -0.50301E+08
 
   -0.50507E+08         0.27680E+06         0.00000E+00
    0.27680E+06        -0.50080E+08         0.00000E+00
    0.00000E+00         0.00000E+00        -0.50294E+08
 
   -0.50487E+08         0.28257E+06         0.00000E+00
    0.28257E+06        -0.50087E+08         0.00000E+00
    0.00000E+00         0.00000E+00        -0.50287E+08
 
   -0.50467E+08         0.28760E+06         0.00000E+00
    0.28760E+06        -0.50093E+08         0.00000E+00
    0.00000E+00         0.00000E+00        -0.50280E+08
 
   -0.50447E+08         0.29190E+06         0.00000E+00
    0.29190E+06        -0.50099E+08         0.00000E+00
    0.00000E+00         0.00000E+00        -0.50273E+08
 
   -0.50427E+08         0.29550E+06         0.00000E+00
    0.29550E+06        -0.50105E+08         0.00000E+00
    0.00000E+00         0.00000E+00        -0.50266E+08
 
   -0.50408E+08         0.29842E+06         0.00000E+00
    0.29842E+06        -0.50111E+08         0.00000E+00
    0.00000E+00         0.00000E+00        -0.50259E+08
 
   -0.50389E+08         0.30069E+06         0.00000E+00
    0.30069E+06        -0.50116E+08         0.00000E+00
    0.00000E+00         0.00000E+00        -0.50253E+08
 
   -0.50371E+08         0.30233E+06         0.00000E+00
    0.30233E+06        -0.50122E+08         0.00000E+00
    0.00000E+00         0.00000E+00        -0.50246E+08
 
   -0.50353E+08         0.30337E+06         0.00000E+00
    0.30337E+06        -0.50128E+08         0.00000E+00
    0.00000E+00         0.00000E+00        -0.50240E+08
 
   -0.50336E+08         0.30384E+06         0.00000E+00
    0.30384E+06        -0.50133E+08         0.00000E+00
    0.00000E+00         0.00000E+00        -0.50234E+08
 
   -0.50319E+08         0.30376E+06         0.00000E+00
    0.30376E+06        -0.50138E+08         0.00000E+00
    0.00000E+00         0.00000E+00        -0.50229E+08
 
   -0.50303E+08         0.30318E+06         0.00000E+00
    0.30318E+06        -0.50144E+08         0.00000E+00
    0.00000E+00         0.00000E+00        -0.50223E+08
 
   -0.50288E+08         0.30211E+06         0.00000E+00
    0.30211E+06        -0.50149E+08         0.00000E+00
    0.00000E+00         0.00000E+00        -0.50218E+08
 
   -0.50273E+08         0.30060E+06         0.00000E+00
    0.30060E+06        -0.50153E+08         0.00000E+00
    0.00000E+00         0.00000E+00        -0.50213E+08
 
   -0.50260E+08         0.29868E+06         0.00000E+00
    0.29868E+06        -0.50158E+08         0.00000E+00
    0.00000E+00         0.00000E+00        -0.50209E+08
 
   -0.50247E+08         0.29639E+06         0.00000E+00
    0.29639E+06        -0.50162E+08         0.00000E+00
    0.00000E+00         0.00000E+00        -0.50204E+08
 
   -0.50235E+08         0.29377E+06         0.00000E+00
    0.29377E+06        -0.50166E+08         0.00000E+00
    0.00000E+00         0.00000E+00        -0.50200E+08
 
   -0.50224E+08         0.29085E+06         0.00000E+00
    0.29085E+06        -0.50169E+08         0.00000E+00
    0.00000E+00         0.00000E+00        -0.50196E+08
 
   -0.50214E+08         0.28769E+06         0.00000E+00
    0.28769E+06        -0.50173E+08         0.00000E+00
    0.00000E+00         0.00000E+00        -0.50193E+08
 
   -0.50205E+08         0.28432E+06         0.00000E+00
    0.28432E+06        -0.50176E+08         0.00000E+00
    0.00000E+00         0.00000E+00        -0.50190E+08
 
   -0.50197E+08         0.28080E+06         0.00000E+00
    0.28080E+06        -0.50179E+08         0.00000E+00
    0.00000E+00         0.00000E+00        -0.50187E+08
 
   -0.50190E+08         0.27717E+06         0.00000E+00
    0.27717E+06        -0.50181E+08         0.00000E+00
    0.00000E+00         0.00000E+00        -0.50185E+08
 
   -0.50184E+08         0.27348E+06         0.00000E+00
    0.27348E+06        -0.50183E+08         0.00000E+00
    0.00000E+00         0.00000E+00        -0.50183E+08
 
   -0.50179E+08         0.26980E+06         0.00000E+00
    0.26980E+06        -0.50185E+08         0.00000E+00
    0.00000E+00         0.00000E+00        -0.50181E+08
 
   -0.50175E+08         0.26618E+06         0.00000E+00
    0.26618E+06        -0.50186E+08         0.00000E+00
    0.00000E+00         0.00000E+00        -0.50179E+08
 
   -0.50172E+08         0.26266E+06         0.00000E+00
    0.26266E+06        -0.50187E+08         0.00000E+00
    0.00000E+00         0.00000E+00        -0.50178E+08
 
   -0.50171E+08         0.25933E+06         0.00000E+00
    0.25933E+06        -0.50187E+08         0.00000E+00
    0.00000E+00         0.00000E+00        -0.50177E+08
 
   -0.50170E+08         0.25622E+06         0.00000E+00
    0.25622E+06        -0.50187E+08         0.00000E+00
    0.00000E+00         0.00000E+00        -0.50177E+08
 
   -0.50171E+08         0.25342E+06         0.00000E+00
    0.25342E+06        -0.50187E+08         0.00000E+00
    0.00000E+00         0.00000E+00        -0.50176E+08
 
   -0.50172E+08         0.25097E+06         0.00000E+00
    0.25097E+06        -0.50186E+08         0.00000E+00
    0.00000E+00         0.00000E+00        -0.50176E+08
 
   -0.50175E+08         0.24894E+06         0.00000E+00
    0.24894E+06        -0.50184E+08         0.00000E+00
    0.00000E+00         0.00000E+00        -0.50177E+08
 
   -0.50725E+08         0.94556E+04         0.00000E+00
    0.94556E+04        -0.50000E+08         0.00000E+00
    0.00000E+00         0.00000E+00        -0.50357E+08
 
   -0.50720E+08         0.27493E+05         0.00000E+00
    0.27493E+05        -0.50001E+08         0.00000E+00
    0.00000E+00         0.00000E+00        -0.50356E+08
 
   -0.50714E+08         0.45080E+05         0.00000E+00
    0.45080E+05        -0.50002E+08         0.00000E+00
    0.00000E+00         0.00000E+00        -0.50354E+08
 
   -0.50706E+08         0.62163E+05         0.00000E+00
    0.62163E+05        -0.50003E+08         0.00000E+00
    0.00000E+00         0.00000E+00        -0.50352E+08
 
   -0.50697E+08         0.78699E+05         0.00000E+00
    0.78699E+05        -0.50006E+08         0.00000E+00
    0.00000E+00         0.00000E+00        -0.50349E+08
 
   -0.50687E+08         0.94649E+05         0.00000E+00
    0.94649E+05        -0.50008E+08         0.00000E+00
    0.00000E+00         0.00000E+00        -0.50346E+08
 
   -0.50676E+08         0.10998E+06         0.00000E+00
    0.10998E+06        -0.50011E+08         0.00000E+00
    0.00000E+00         0.00000E+00        -0.50342E+08
 
   -0.50664E+08         0.12467E+06         0.00000E+00
    0.12467E+06        -0.50015E+08         0.00000E+00
    0.00000E+00         0.00000E+00        -0.50338E+08
 
   -0.50651E+08         0.13869E+06         0.00000E+00
    0.13869E+06        -0.50019E+08         0.00000E+00
    0.00000E+00         0.00000E+00        -0.50334E+08
 
   -0.50637E+08         0.15203E+06         0.00000E+00
    0.15203E+06        -0.50023E+08         0.00000E+00
    0.00000E+00         0.00000E+00        -0.50329E+08
 
   -0.50623E+08         0.16467E+06         0.00000E+00
    0.16467E+06        -0.50027E+08         0.00000E+00
    0.00000E+00         0.00000E+00        -0.50324E+08
 
   -0.50608E+08         0.17661E+06         0.00000E+00
    0.17661E+06        -0.50032E+08         0.00000E+00
    0.00000E+00         0.00000E+00        -0.50319E+08
 
   -0.50593E+08         0.18785E+06         0.00000E+00
    0.18785E+06        -0.50037E+08         0.00000E+00
    0.00000E+00         0.00000E+00        -0.50314E+08
 
   -0.50577E+08         0.19837E+06         0.00000E+00
    0.19837E+06        -0.50042E+08         0.00000E+00
    0.00000E+00         0.00000E+00        -0.50309E+08
 
   -0.50561E+08         0.20819E+06         0.00000E+00
    0.20819E+06        -0.50048E+08         0.00000E+00
    0.00000E+00         0.00000E+00        -0.50304E+08
 
   -0.50544E+08         0.21730E+06         0.00000E+00
    0.21730E+06        -0.50053E+08         0.00000E+00
    0.00000E+00         0.00000E+00        -0.50298E+08
 
   -0.50527E+08         0.22571E+06         0.00000E+00
    0.22571E+06        -0.50059E+08         0.00000E+00
    0.00000E+00         0.00000E+00        -0.50293E+08
 
   -0.50511E+08         0.23344E+06         0.00000E+00
    0.23344E+06        -0.50064E+08         0.00000E+00
    0.00000E+00         0.00000E+00        -0.50287E+08
 
   -0.50494E+08         0.24049E+06         0.00000E+00
    0.24049E+06        -0.50070E+08         0.00000E+00
    0.00000E+00         0.00000E+00        -0.50282E+08
 
   -0.50477E+08         0.24687E+06         0.00000E+00
    0.24687E+06        -0.50076E+08         0.00000E+00
    0.00000E+00         0.00000E+00        -0.50276E+08
 
   -0.50460E+08         0.25260E+06         0.00000E+00
    0.25260E+06        -0.50082E+08         0.00000E+00
    0.00000E+00         0.00000E+00        -0.50271E+08
 
   -0.50443E+08         0.25770E+06         0.00000E+00
    0.25770E+06        -0.50088E+08         0.00000E+00
    0.00000E+00         0.00000E+00        -0.50265E+08
 
   -0.50426E+08         0.26217E+06         0.00000E+00
    0.26217E+06        -0.50094E+08         0.00000E+00
    0.00000E+00         0.00000E+00        -0.50260E+08
 
   -0.50410E+08         0.26605E+06         0.00000E+00
    0.26605E+06        -0.50099E+08         0.00000E+00
    0.00000E+00         0.00000E+00        -0.50255E+08
 
   -0.50394E+08         0.26935E+06         0.00000E+00
    0.26935E+06        -0.50105E+08         0.00000E+00
    0.00000E+00         0.00000E+00        -0.50249E+08
 
   -0.50378E+08         0.27210E+06         0.00000E+00
    0.27210E+06        -0.50111E+08         0.00000E+00
    0.00000E+00         0.00000E+00        -0.50244E+08
 
   -0.50362E+08         0.27431E+06         0.00000E+00
    0.27431E+06        -0.50116E+08         0.00000E+00
    0.00000E+00         0.00000E+00        -0.50239E+08
 
   -0.50347E+08         0.27601E+06         0.00000E+00
    0.27601E+06        -0.50122E+08         0.00000E+00
    0.00000E+00         0.00000E+00        -0.50235E+08
 
   -0.50333E+08         0.27723E+06         0.00000E+00
    0.27723E+06        -0.50127E+08         0.00000E+00
    0.00000E+00         0.00000E+00        -0.50230E+08
 
   -0.50318E+08         0.27800E+06         0.00000E+00
    0.27800E+06        -0.50132E+08         0.00000E+00
    0.00000E+00         0.00000E+00        -0.50225E+08
 
   -0.50305E+08         0.27834E+06         0.00000E+00
    0.27834E+06        -0.50137E+08         0.00000E+00
    0.00000E+00         0.00000E+00        -0.50221E+08
 
   -0.50292E+08         0.27829E+06         0.00000E+00
    0.27829E+06        -0.50142E+08         0.00000E+00
    0.00000E+00         0.00000E+00        -0.50217E+08
 
   -0.50279E+08         0.27787E+06         0.00000E+00
    0.27787E+06        -0.50147E+08         0.00000E+00
    0.00000E+00         0.00000E+00        -0.50213E+08
 
   -0.50267E+08         0.27713E+06         0.00000E+00
    0.27713E+06        -0.50151E+08         0.00000E+00
    0.00000E+00         0.00000E+00        -0.50209E+08
 
   -0.50256E+08         0.27609E+06         0.00000E+00
    0.27609E+06        -0.50155E+08         0.00000E+00
    0.00000E+00         0.00000E+00        -0.50205E+08
 
   -0.50245E+08         0.27479E+06         0.00000E+00
    0.27479E+06        -0.50159E+08         0.00000E+00
    0.00000E+00         0.00000E+00        -0.50202E+08
 
   -0.50235E+08         0.27328E+06         0.00000E+00
    0.27328E+06        -0.50163E+08         0.00000E+00
    0.00000E+00         0.00000E+00        -0.50199E+08
 
   -0.50226E+08         0.27158E+06         0.00000E+00
    0.27158E+06        -0.50166E+08         0.00000E+00
    0.00000E+00         0.00000E+00        -0.50196E+08
 
   -0.50218E+08         0.26975E+06         0.00000E+00
    0.26975E+06        -0.50169E+08         0.00000E+00
    0.00000E+00         0.00000E+00        -0.50193E+08
 
   -0.50210E+08         0.26782E+06         0.00000E+00
    0.26782E+06        -0.50172E+08         0.00000E+00
    0.00000E+00         0.00000E+00        -0.50191E+08
 
   -0.50204E+08         0.26585E+06         0.00000E+00
    0.26585E+06        -0.50174E+08         0.00000E+00
    0.00000E+00         0.00000E+00        -0.50189E+08
 
   -0.50198E+08         0.26386E+06         0.00000E+00
    0.26386E+06        -0.50177E+08         0.00000E+00
    0.00000E+00         0.00000E+00        -0.50187E+08
 
   -0.50193E+08         0.26192E+06         0.00000E+00
    0.26192E+06        -0.50178E+08         0.00000E+00
    0.00000E+00         0.00000E+00        -0.50185E+08
 
   -0.50188E+08         0.26007E+06         0.00000E+00
    0.26007E+06        -0.50180E+08         0.00000E+00
    0.00000E+00         0.00000E+00        -0.50184E+08
 
   -0.50185E+08         0.25836E+06         0.00000E+00
    0.25836E+06        -0.50181E+08         0.00000E+00
    0.00000E+00         0.00000E+00        -0.50182E+08
 
   -0.50182E+08         0.25684E+06         0.00000E+00
    0.25684E+06        -0.50182E+08         0.00000E+00
    0.00000E+00         0.00000E+00        -0.50182E+08
 
   -0.50180E+08         0.25556E+06         0.00000E+00
    0.25556E+06        -0.50183E+08         0.00000E+00
    0.00000E+00         0.00000E+00        -0.50181E+08
 
   -0.50179E+08         0.25456E+06         0.00000E+00
    0.25456E+06        -0.50183E+08         0.00000E+00
    0.00000E+00         0.00000E+00        -0.50180E+08
 
   -0.50179E+08         0.25391E+06         0.00000E+00
    0.25391E+06        -0.50183E+08         0.00000E+00
    0.00000E+00         0.00000E+00        -0.50180E+08
 
   -0.50180E+08         0.25363E+06         0.00000E+00
    0.25363E+06        -0.50183E+08         0.00000E+00
    0.00000E+00         0.00000E+00        -0.50180E+08
 
   -0.50641E+08         0.79563E+04         0.00000E+00
    0.79563E+04        -0.50000E+08         0.00000E+00
    0.00000E+00         0.00000E+00        -0.50317E+08
 
   -0.50638E+08         0.23293E+05         0.00000E+00
    0.23293E+05        -0.50000E+08         0.00000E+00
    0.00000E+00         0.00000E+00        -0.50317E+08
 
   -0.50633E+08         0.38316E+05         0.00000E+00
    0.38316E+05        -0.50002E+08         0.00000E+00
    0.00000E+00         0.00000E+00        -0.50315E+08
 
   -0.50628E+08         0.52979E+05         0.00000E+00
    0.52979E+05        -0.50003E+08         0.00000E+00
    0.00000E+00         0.00000E+00        -0.50314E+08
 
   -0.50621E+08         0.67242E+05         0.00000E+00
    0.67242E+05        -0.50005E+08         0.00000E+00
    0.00000E+00         0.00000E+00        -0.50312E+08
 
   -0.50614E+08         0.81069E+05         0.00000E+00
    0.81069E+05        -0.50007E+08         0.00000E+00
    0.00000E+00         0.00000E+00        -0.50309E+08
 
   -0.50606E+08         0.94429E+05         0.00000E+00
    0.94429E+05        -0.50010E+08         0.00000E+00
    0.00000E+00         0.00000E+00        -0.50307E+08
 
   -0.50596E+08         0.10730E+06         0.00000E+00
    0.10730E+06        -0.50013E+08         0.00000E+00
    0.00000E+00         0.00000E+00        -0.50304E+08
 
   -0.50586E+08         0.11965E+06         0.00000E+00
    0.11965E+06        -0.50017E+08         0.00000E+00
    0.00000E+00         0.00000E+00        -0.50301E+08
 
   -0.50576E+08         0.13147E+06         0.00000E+00
    0.13147E+06        -0.50020E+08         0.00000E+00
    0.00000E+00         0.00000E+00        -0.50298E+08
 
   -0.50565E+08         0.14274E+06         0.00000E+00
    0.14274E+06        -0.50024E+08         0.00000E+00
    0.00000E+00         0.00000E+00        -0.50294E+08
 
   -0.50553E+08         0.15346E+06         0.00000E+00
    0.15346E+06        -0.50029E+08         0.00000E+00
    0.00000E+00         0.00000E+00        -0.50290E+08
 
   -0.50541E+08         0.16361E+06         0.00000E+00
    0.16361E+06        -0.50033E+08         0.00000E+00
    0.00000E+00         0.00000E+00        -0.50287E+08
 
   -0.50528E+08         0.17319E+06         0.00000E+00
    0.17319E+06        -0.50038E+08         0.00000E+00
    0.00000E+00         0.00000E+00        -0.50283E+08
 
   -0.50515E+08         0.18219E+06         0.00000E+00
    0.18219E+06        -0.50043E+08         0.00000E+00
    0.00000E+00         0.00000E+00        -0.50279E+08
 
   -0.50502E+08         0.19063E+06         0.00000E+00
    0.19063E+06        -0.50048E+08         0.00000E+00
    0.00000E+00         0.00000E+00        -0.50275E+08
 
   -0.50488E+08         0.19849E+06         0.00000E+00
    0.19849E+06        -0.50053E+08         0.00000E+00
    0.00000E+00         0.00000E+00        -0.50271E+08
 
   -0.50475E+08         0.20578E+06         0.00000E+00
    0.20578E+06        -0.50058E+08         0.00000E+00
    0.00000E+00         0.00000E+00        -0.50266E+08
 
   -0.50461E+08         0.21252E+06         0.00000E+00
    0.21252E+06        -0.50064E+08         0.00000E+00
    0.00000E+00         0.00000E+00        -0.50262E+08
 
   -0.50447E+08         0.21871E+06         0.00000E+00
    0.21871E+06        -0.50069E+08         0.00000E+00
    0.00000E+00         0.00000E+00        -0.50258E+08
 
   -0.50433E+08         0.22435E+06         0.00000E+00
    0.22435E+06        -0.50074E+08         0.00000E+00
    0.00000E+00         0.00000E+00        -0.50254E+08
 
   -0.50419E+08         0.22947E+06         0.00000E+00
    0.22947E+06        -0.50080E+08         0.00000E+00
    0.00000E+00         0.00000E+00        -0.50249E+08
 
   -0.50405E+08         0.23407E+06         0.00000E+00
    0.23407E+06        -0.50085E+08         0.00000E+00
    0.00000E+00         0.00000E+00        -0.50245E+08
 
   -0.50391E+08         0.23818E+06         0.00000E+00
    0.23818E+06        -0.50091E+08         0.00000E+00
    0.00000E+00         0.00000E+00        -0.50241E+08
 
   -0.50378E+08         0.24180E+06         0.00000E+00
    0.24180E+06        -0.50096E+08         0.00000E+00
    0.00000E+00         0.00000E+00        -0.50237E+08
 
   -0.50364E+08         0.24496E+06         0.00000E+00
    0.24496E+06        -0.50101E+08         0.00000E+00
    0.00000E+00         0.00000E+00        -0.50233E+08
 
   -0.50351E+08         0.24768E+06         0.00000E+00
    0.24768E+06        -0.50106E+08         0.00000E+00
    0.00000E+00         0.00000E+00        -0.50229E+08
 
   -0.50338E+08         0.24998E+06         0.00000E+00
    0.24998E+06        -0.50111E+08         0.00000E+00
    0.00000E+00         0.00000E+00        -0.50225E+08
 
   -0.50326E+08         0.25187E+06         0.00000E+00
    0.25187E+06        -0.50116E+08         0.00000E+00
    0.00000E+00         0.00000E+00        -0.50221E+08
 
   -0.50314E+08         0.25340E+06         0.00000E+00
    0.25340E+06        -0.50121E+08         0.00000E+00
    0.00000E+00         0.00000E+00        -0.50217E+08
 
   -0.50302E+08         0.25457E+06         0.00000E+00
    0.25457E+06        -0.50126E+08         0.00000E+00
    0.00000E+00         0.00000E+00        -0.50214E+08
 
   -0.50290E+08         0.25542E+06         0.00000E+00
    0.25542E+06        -0.50130E+08         0.00000E+00
    0.00000E+00         0.00000E+00        -0.50210E+08
 
   -0.50279E+08         0.25598E+06         0.00000E+00
    0.25598E+06        -0.50135E+08         0.00000E+00
    0.00000E+00         0.00000E+00        -0.50207E+08
 
   -0.50269E+08         0.25627E+06         0.00000E+00
    0.25627E+06        -0.50139E+08         0.00000E+00
    0.00000E+00         0.00000E+00        -0.50204E+08
 
   -0.50259E+08         0.25633E+06         0.00000E+00
    0.25633E+06        -0.50143E+08         0.00000E+00
    0.00000E+00         0.00000E+00        -0.50201E+08
 
   -0.50249E+08         0.25619E+06         0.00000E+00
    0.25619E+06        -0.50147E+08         0.00000E+00
    0.00000E+00         0.00000E+00        -0.50198E+08
 
   -0.50240E+08         0.25589E+06         0.00000E+00
    0.25589E+06        -0.50150E+08         0.00000E+00
    0.00000E+00         0.00000E+00        -0.50195E+08
 
   -0.50232E+08         0.25545E+06         0.00000E+00
    0.25545E+06        -0.50154E+08         0.00000E+00
    0.00000E+00         0.00000E+00        -0.50193E+08
 
   -0.50224E+08         0.25491E+06         0.00000E+00
    0.25491E+06        -0.50157E+08         0.00000E+00
    0.00000E+00         0.00000E+00        -0.50190E+08
 
   -0.50217E+08         0.25432E+06         0.00000E+00
    0.25432E+06        -0.50160E+08         0.00000E+00
    0.00000E+00         0.00000E+00        -0.50188E+08
 
   -0.50210E+08         0.25370E+06         0.00000E+00
    0.25370E+06        -0.50162E+08         0.00000E+00
    0.00000E+00         0.00000E+00        -0.50186E+08
 
   -0.50204E+08         0.25310E+06         0.00000E+00
    0.25310E+06        -0.50164E+08         0.00000E+00
    0.00000E+00         0.00000E+00        -0.50184E+08
 
   -0.50198E+08         0.25255E+06         0.00000E+00
    0.25255E+06        -0.50167E+08         0.00000E+00
    0.00000E+00         0.00000E+00        -0.50183E+08
 
   -0.50193E+08         0.25210E+06         0.00000E+00
    0.25210E+06        -0.50169E+08         0.00000E+00
    0.00000E+00         0.00000E+00        -0.50181E+08
 
   -0.50189E+08         0.25179E+06         0.00000E+00
    0.25179E+06        -0.50170E+08         0.00000E+00
    0.00000E+00         0.00000E+00        -0.50180E+08
 
   -0.50186E+08         0.25165E+06         0.00000E+00
    0.25165E+06        -0.50172E+08         0.00000E+00
    0.00000E+00         0.00000E+00        -0.50179E+08
 
   -0.50182E+08         0.25172E+06         0.00000E+00
    0.25172E+06        -0.50173E+08         0.00000E+00
    0.00000E+00         0.00000E+00        -0.50178E+08
 
   -0.50180E+08         0.25204E+06         0.00000E+00
    0.25204E+06        -0.50174E+08         0.00000E+00
    0.00000E+00         0.00000E+00        -0.50177E+08
 
   -0.50178E+08         0.25265E+06         0.00000E+00
    0.25265E+06        -0.50174E+08         0.00000E+00
    0.00000E+00         0.00000E+00        -0.50177E+08
 
   -0.50177E+08         0.25359E+06         0.00000E+00
    0.25359E+06        -0.50175E+08         0.00000E+00
    0.00000E+00         0.00000E+00        -0.50176E+08
 
   -0.50570E+08         0.66715E+04         0.00000E+00
    0.66715E+04        -0.50000E+08         0.00000E+00
    0.00000E+00         0.00000E+00        -0.50283E+08
 
   -0.50568E+08         0.19660E+05         0.00000E+00
    0.19660E+05        -0.50000E+08         0.00000E+00
    0.00000E+00         0.00000E+00        -0.50283E+08
 
   -0.50565E+08         0.32439E+05         0.00000E+00
    0.32439E+05        -0.50001E+08         0.00000E+00
    0.00000E+00         0.00000E+00        -0.50282E+08
 
   -0.50561E+08         0.44970E+05         0.00000E+00
    0.44970E+05        -0.50003E+08         0.00000E+00
    0.00000E+00         0.00000E+00        -0.50281E+08
 
   -0.50556E+08         0.57217E+05         0.00000E+00
    0.57217E+05        -0.50004E+08         0.00000E+00
    0.00000E+00         0.00000E+00        -0.50279E+08
 
   -0.50551E+08         0.69150E+05         0.00000E+00
    0.69150E+05        -0.50006E+08         0.00000E+00
    0.00000E+00         0.00000E+00        -0.50278E+08
 
   -0.50544E+08         0.80739E+05         0.00000E+00
    0.80739E+05        -0.50009E+08         0.00000E+00
    0.00000E+00         0.00000E+00        -0.50276E+08
 
   -0.50537E+08         0.91961E+05         0.00000E+00
    0.91961E+05        -0.50011E+08         0.00000E+00
    0.00000E+00         0.00000E+00        -0.50274E+08
 
   -0.50530E+08         0.10279E+06         0.00000E+00
    0.10279E+06        -0.50014E+08         0.00000E+00
    0.00000E+00         0.00000E+00        -0.50272E+08
 
   -0.50521E+08         0.11322E+06         0.00000E+00
    0.11322E+06        -0.50018E+08         0.00000E+00
    0.00000E+00         0.00000E+00        -0.50269E+08
 
   -0.50513E+08         0.12323E+06         0.00000E+00
    0.12323E+06        -0.50021E+08         0.00000E+00
    0.00000E+00         0.00000E+00        -0.50267E+08
 
   -0.50503E+08         0.13280E+06         0.00000E+00
    0.13280E+06        -0.50025E+08         0.00000E+00
    0.00000E+00         0.00000E+00        -0.50264E+08
 
   -0.50494E+08         0.14193E+06         0.00000E+00
    0.14193E+06        -0.50029E+08         0.00000E+00
    0.00000E+00         0.00000E+00        -0.50261E+08
 
   -0.50484E+08         0.15061E+06         0.00000E+00
    0.15061E+06        -0.50033E+08         0.00000E+00
    0.00000E+00         0.00000E+00        -0.50258E+08
 
   -0.50473E+08         0.15883E+06         0.00000E+00
    0.15883E+06        -0.50037E+08         0.00000E+00
    0.00000E+00         0.00000E+00        -0.50255E+08
 
   -0.50463E+08         0.16660E+06         0.00000E+00
    0.16660E+06        -0.50042E+08         0.00000E+00
    0.00000E+00         0.00000E+00        -0.50252E+08
 
   -0.50452E+08         0.17392E+06         0.00000E+00
    0.17392E+06        -0.50046E+08         0.00000E+00
    0.00000E+00         0.00000E+00        -0.50249E+08
 
   -0.50440E+08         0.18077E+06         0.00000E+00
    0.18077E+06        -0.50051E+08         0.00000E+00
    0.00000E+00         0.00000E+00        -0.50246E+08
 
   -0.50429E+08         0.18718E+06         0.00000E+00
    0.18718E+06        -0.50056E+08         0.00000E+00
    0.00000E+00         0.00000E+00        -0.50242E+08
 
   -0.50418E+08         0.19313E+06         0.00000E+00
    0.19313E+06        -0.50061E+08         0.00000E+00
    0.00000E+00         0.00000E+00        -0.50239E+08
 
   -0.50406E+08         0.19865E+06         0.00000E+00
    0.19865E+06        -0.50066E+08         0.00000E+00
    0.00000E+00         0.00000E+00        -0.50236E+08
 
   -0.50395E+08         0.20374E+06         0.00000E+00
    0.20374E+06        -0.50070E+08         0.00000E+00
    0.00000E+00         0.00000E+00        -0.50232E+08
 
   -0.50383E+08         0.20841E+06         0.00000E+00
    0.20841E+06        -0.50075E+08         0.00000E+00
    0.00000E+00         0.00000E+00        -0.50229E+08
 
   -0.50372E+08         0.21268E+06         0.00000E+00
    0.21268E+06        -0.50080E+08         0.00000E+00
    0.00000E+00         0.00000E+00        -0.50226E+08
 
   -0.50360E+08         0.21654E+06         0.00000E+00
    0.21654E+06        -0.50085E+08         0.00000E+00
    0.00000E+00         0.00000E+00        -0.50222E+08
 
   -0.50349E+08         0.22003E+06         0.00000E+00
    0.22003E+06        -0.50090E+08         0.00000E+00
    0.00000E+00         0.00000E+00        -0.50219E+08
 
   -0.50338E+08         0.22316E+06         0.00000E+00
    0.22316E+06        -0.50094E+08         0.00000E+00
    0.00000E+00         0.00000E+00        -0.50216E+08
 
   -0.50327E+08         0.22594E+06         0.00000E+00
    0.22594E+06        -0.50099E+08         0.00000E+00
    0.00000E+00         0.00000E+00        -0.50213E+08
 
   -0.50316E+08         0.22840E+06         0.00000E+00
    0.22840E+06        -0.50104E+08         0.00000E+00
    0.00000E+00         0.00000E+00        -0.50210E+08
 
   -0.50305E+08         0.23055E+06         0.00000E+00
    0.23055E+06        -0.50108E+08         0.00000E+00
    0.00000E+00         0.00000E+00        -0.50207E+08
 
   -0.50295E+08         0.23242E+06         0.00000E+00
    0.23242E+06        -0.50112E+08         0.00000E+00
    0.00000E+00         0.00000E+00        -0.50204E+08
 
   -0.50285E+08         0.23402E+06         0.00000E+00
    0.23402E+06        -0.50116E+08         0.00000E+00
    0.00000E+00         0.00000E+00        -0.50201E+08
 
   -0.50275E+08         0.23539E+06         0.00000E+00
    0.23539E+06        -0.50121E+08         0.00000E+00
    0.00000E+00         0.00000E+00        -0.50198E+08
 
   -0.50266E+08         0.23655E+06         0.00000E+00
    0.23655E+06        -0.50124E+08         0.00000E+00
    0.00000E+00         0.00000E+00        -0.50195E+08
 
   -0.50257E+08         0.23751E+06         0.00000E+00
    0.23751E+06        -0.50128E+08         0.00000E+00
    0.00000E+00         0.00000E+00        -0.50192E+08
 
   -0.50248E+08         0.23833E+06         0.00000E+00
    0.23833E+06        -0.50132E+08         0.00000E+00
    0.00000E+00         0.00000E+00        -0.50190E+08
 
   -0.50240E+08         0.23900E+06         0.00000E+00
    0.23900E+06        -0.50135E+08         0.00000E+00
    0.00000E+00         0.00000E+00        -0.50187E+08
 
   -0.50232E+08         0.23958E+06         0.00000E+00
    0.23958E+06        -0.50138E+08         0.00000E+00
    0.00000E+00         0.00000E+00        -0.50185E+08
 
   -0.50224E+08         0.24008E+06         0.00000E+00
    0.24008E+06        -0.50141E+08         0.00000E+00
    0.00000E+00         0.00000E+00        -0.50183E+08
 
   -0.50217E+08         0.24054E+06         0.00000E+00
    0.24054E+06        -0.50144E+08         0.00000E+00
    0.00000E+00         0.00000E+00        -0.50181E+08
 
   -0.50210E+08         0.24099E+06         0.00000E+00
    0.24099E+06        -0.50147E+08         0.00000E+00
    0.00000E+00         0.00000E+00        -0.50179E+08
 
   -0.50204E+08         0.24146E+06         0.00000E+00
    0.24146E+06        -0.50149E+08         0.00000E+00
    0.00000E+00         0.00000E+00        -0.50177E+08
 
   -0.50198E+08         0.24198E+06         0.00000E+00
    0.24198E+06        -0.50152E+08         0.00000E+00
    0.00000E+00         0.00000E+00        -0.50175E+08
 
   -0.50193E+08         0.24258E+06         0.00000E+00
    0.24258E+06        -0.50154E+08         0.00000E+00
    0.00000E+00         0.00000E+00        -0.50174E+08
 
   -0.50188E+08         0.24329E+06         0.00000E+00
    0.24329E+06        -0.50156E+08         0.00000E+00
    0.00000E+00         0.00000E+00        -0.50172E+08
 
   -0.50183E+08         0.24415E+06         0.00000E+00
    0.24415E+06        -0.50158E+08         0.00000E+00
    0.00000E+00         0.00000E+00        -0.50171E+08
 
   -0.50179E+08         0.24518E+06         0.00000E+00
    0.24518E+06        -0.50159E+08         0.00000E+00
    0.00000E+00         0.00000E+00        -0.50170E+08
 
   -0.50175E+08         0.24642E+06         0.00000E+00
    0.24642E+06        -0.50161E+08         0.00000E+00
    0.00000E+00         0.00000E+00        -0.50169E+08
 
   -0.50172E+08         0.24788E+06         0.00000E+00
    0.24788E+06        -0.50162E+08         0.00000E+00
    0.00000E+00         0.00000E+00        -0.50168E+08
 
   -0.50169E+08         0.24960E+06         0.00000E+00
    0.24960E+06        -0.50163E+08         0.00000E+00
    0.00000E+00         0.00000E+00        -0.50168E+08
 
   -0.50510E+08         0.55977E+04         0.00000E+00
    0.55977E+04        -0.50000E+08         0.00000E+00
    0.00000E+00         0.00000E+00        -0.50254E+08
 
   -0.50508E+08         0.16596E+05         0.00000E+00
    0.16596E+05        -0.50000E+08         0.00000E+00
    0.00000E+00         0.00000E+00        -0.50254E+08
 
   -0.50506E+08         0.27462E+05         0.00000E+00
    0.27462E+05        -0.50001E+08         0.00000E+00
    0.00000E+00         0.00000E+00        -0.50253E+08
 
   -0.50503E+08         0.38165E+05         0.00000E+00
    0.38165E+05        -0.50002E+08         0.00000E+00
    0.00000E+00         0.00000E+00        -0.50252E+08
 
   -0.50500E+08         0.48674E+05         0.00000E+00
    0.48674E+05        -0.50004E+08         0.00000E+00
    0.00000E+00         0.00000E+00        -0.50251E+08
 
   -0.50496E+08         0.58961E+05         0.00000E+00
    0.58961E+05        -0.50005E+08         0.00000E+00
    0.00000E+00         0.00000E+00        -0.50250E+08
 
   -0.50491E+08         0.69003E+05         0.00000E+00
    0.69003E+05        -0.50007E+08         0.00000E+00
    0.00000E+00         0.00000E+00        -0.50249E+08
 
   -0.50486E+08         0.78778E+05         0.00000E+00
    0.78778E+05        -0.50010E+08         0.00000E+00
    0.00000E+00         0.00000E+00        -0.50248E+08
 
   -0.50480E+08         0.88267E+05         0.00000E+00
    0.88267E+05        -0.50012E+08         0.00000E+00
    0.00000E+00         0.00000E+00        -0.50246E+08
 
   -0.50473E+08         0.97451E+05         0.00000E+00
    0.97451E+05        -0.50015E+08         0.00000E+00
    0.00000E+00         0.00000E+00        -0.50244E+08
 
   -0.50466E+08         0.10632E+06         0.00000E+00
    0.10632E+06        -0.50018E+08         0.00000E+00
    0.00000E+00         0.00000E+00        -0.50242E+08
 
   -0.50459E+08         0.11486E+06         0.00000E+00
    0.11486E+06        -0.50021E+08         0.00000E+00
    0.00000E+00         0.00000E+00        -0.50240E+08
 
   -0.50451E+08         0.12305E+06         0.00000E+00
    0.12305E+06        -0.50025E+08         0.00000E+00
    0.00000E+00         0.00000E+00        -0.50238E+08
 
   -0.50443E+08         0.13090E+06         0.00000E+00
    0.13090E+06        -0.50028E+08         0.00000E+00
    0.00000E+00         0.00000E+00        -0.50236E+08
 
   -0.50435E+08         0.13840E+06         0.00000E+00
    0.13840E+06        -0.50032E+08         0.00000E+00
    0.00000E+00         0.00000E+00        -0.50233E+08
 
   -0.50426E+08         0.14554E+06         0.00000E+00
    0.14554E+06        -0.50036E+08         0.00000E+00
    0.00000E+00         0.00000E+00        -0.50231E+08
 
   -0.50417E+08         0.15232E+06         0.00000E+00
    0.15232E+06        -0.50040E+08         0.00000E+00
    0.00000E+00         0.00000E+00        -0.50229E+08
 
   -0.50408E+08         0.15874E+06         0.00000E+00
    0.15874E+06        -0.50044E+08         0.00000E+00
    0.00000E+00         0.00000E+00        -0.50226E+08
 
   -0.50399E+08         0.16480E+06         0.00000E+00
    0.16480E+06        -0.50048E+08         0.00000E+00
    0.00000E+00         0.00000E+00        -0.50223E+08
 
   -0.50389E+08         0.17051E+06         0.00000E+00
    0.17051E+06        -0.50052E+08         0.00000E+00
    0.00000E+00         0.00000E+00        -0.50221E+08
 
   -0.50380E+08         0.17587E+06         0.00000E+00
    0.17587E+06        -0.50056E+08         0.00000E+00
    0.00000E+00         0.00000E+00        -0.50218E+08
 
   -0.50370E+08         0.18088E+06         0.00000E+00
    0.18088E+06        -0.50061E+08         0.00000E+00
    0.00000E+00         0.00000E+00        -0.50215E+08
 
   -0.50361E+08         0.18555E+06         0.00000E+00
    0.18555E+06        -0.50065E+08         0.00000E+00
    0.00000E+00         0.00000E+00        -0.50213E+08
 
   -0.50351E+08         0.18990E+06         0.00000E+00
    0.18990E+06        -0.50069E+08         0.00000E+00
    0.00000E+00         0.00000E+00        -0.50210E+08
 
   -0.50341E+08         0.19393E+06         0.00000E+00
    0.19393E+06        -0.50074E+08         0.00000E+00
    0.00000E+00         0.00000E+00        -0.50207E+08
 
   -0.50332E+08         0.19765E+06         0.00000E+00
    0.19765E+06        -0.50078E+08         0.00000E+00
    0.00000E+00         0.00000E+00        -0.50205E+08
 
   -0.50322E+08         0.20108E+06         0.00000E+00
    0.20108E+06        -0.50082E+08         0.00000E+00
    0.00000E+00         0.00000E+00        -0.50202E+08
 
   -0.50312E+08         0.20422E+06         0.00000E+00
    0.20422E+06        -0.50086E+08         0.00000E+00
    0.00000E+00         0.00000E+00        -0.50199E+08
 
   -0.50303E+08         0.20711E+06         0.00000E+00
    0.20711E+06        -0.50090E+08         0.00000E+00
    0.00000E+00         0.00000E+00        -0.50197E+08
 
   -0.50294E+08         0.20975E+06         0.00000E+00
    0.20975E+06        -0.50094E+08         0.00000E+00
    0.00000E+00         0.00000E+00        -0.50194E+08
 
   -0.50285E+08         0.21215E+06         0.00000E+00
    0.21215E+06        -0.50098E+08         0.00000E+00
    0.00000E+00         0.00000E+00        -0.50191E+08
 
   -0.50276E+08         0.21435E+06         0.00000E+00
    0.21435E+06        -0.50102E+08         0.00000E+00
    0.00000E+00         0.00000E+00        -0.50189E+08
 
   -0.50267E+08         0.21635E+06         0.00000E+00
    0.21635E+06        -0.50106E+08         0.00000E+00
    0.00000E+00         0.00000E+00        -0.50186E+08
 
   -0.50259E+08         0.21818E+06         0.00000E+00
    0.21818E+06        -0.50109E+08         0.00000E+00
    0.00000E+00         0.00000E+00        -0.50184E+08
 
   -0.50250E+08         0.21985E+06         0.00000E+00
    0.21985E+06        -0.50113E+08         0.00000E+00
    0.00000E+00         0.00000E+00        -0.50182E+08
 
   -0.50242E+08         0.22140E+06         0.00000E+00
    0.22140E+06        -0.50116E+08         0.00000E+00
    0.00000E+00         0.00000E+00        -0.50179E+08
 
   -0.50234E+08         0.22284E+06         0.00000E+00
    0.22284E+06        -0.50119E+08         0.00000E+00
    0.00000E+00         0.00000E+00        -0.50177E+08
 
   -0.50227E+08         0.22419E+06         0.00000E+00
    0.22419E+06        -0.50122E+08         0.00000E+00
    0.00000E+00         0.00000E+00        -0.50175E+08
 
   -0.50220E+08         0.22549E+06         0.00000E+00
    0.22549E+06        -0.50125E+08         0.00000E+00
    0.00000E+00         0.00000E+00        -0.50173E+08
 
   -0.50213E+08         0.22674E+06         0.00000E+00
    0.22674E+06        -0.50128E+08         0.00000E+00
    0.00000E+00         0.00000E+00        -0.50171E+08
 
   -0.50206E+08         0.22799E+06         0.00000E+00
    0.22799E+06        -0.50131E+08         0.00000E+00
    0.00000E+00         0.00000E+00        -0.50169E+08
 
   -0.50199E+08         0.22924E+06         0.00000E+00
    0.22924E+06        -0.50133E+08         0.00000E+00
    0.00000E+00         0.00000E+00        -0.50167E+08
 
   -0.50193E+08         0.23053E+06         0.00000E+00
    0.23053E+06        -0.50136E+08         0.00000E+00
    0.00000E+00         0.00000E+00        -0.50165E+08
 
   -0.50187E+08         0.23188E+06         0.00000E+00
    0.23188E+06        -0.50138E+08         0.00000E+00
    0.00000E+00         0.00000E+00        -0.50164E+08
 
   -0.50182E+08         0.23332E+06         0.00000E+00
    0.23332E+06        -0.50140E+08         0.00000E+00
    0.00000E+00         0.00000E+00        -0.50162E+08
 
   -0.50177E+08         0.23486E+06         0.00000E+00
    0.23486E+06        -0.50142E+08         0.00000E+00
    0.00000E+00         0.00000E+00        -0.50161E+08
 
   -0.50172E+08         0.23653E+06         0.00000E+00
    0.23653E+06        -0.50144E+08         0.00000E+00
    0.00000E+00         0.00000E+00        -0.50160E+08
 
   -0.50167E+08         0.23835E+06         0.00000E+00
    0.23835E+06        -0.50146E+08         0.00000E+00
    0.00000E+00         0.00000E+00        -0.50158E+08
 
   -0.50163E+08         0.24034E+06         0.00000E+00
    0.24034E+06        -0.50148E+08         0.00000E+00
    0.00000E+00         0.00000E+00        -0.50158E+08
 
   -0.50159E+08         0.24252E+06         0.00000E+00
    0.24252E+06        -0.50149E+08         0.00000E+00
    0.00000E+00         0.00000E+00        -0.50157E+08
 
   -0.50459E+08         0.47185E+04         0.00000E+00
    0.47185E+04        -0.50000E+08         0.00000E+00
    0.00000E+00         0.00000E+00        -0.50229E+08
 
   -0.50458E+08         0.14065E+05         0.00000E+00
    0.14065E+05        -0.50000E+08         0.00000E+00
    0.00000E+00         0.00000E+00        -0.50229E+08
 
   -0.50456E+08         0.23336E+05         0.00000E+00
    0.23336E+05        -0.50001E+08         0.00000E+00
    0.00000E+00         0.00000E+00        -0.50228E+08
 
   -0.50454E+08         0.32503E+05         0.00000E+00
    0.32503E+05        -0.50002E+08         0.00000E+00
    0.00000E+00         0.00000E+00        -0.50228E+08
 
   -0.50452E+08         0.41544E+05         0.00000E+00
    0.41544E+05        -0.50003E+08         0.00000E+00
    0.00000E+00         0.00000E+00        -0.50227E+08
 
   -0.50448E+08         0.50434E+05         0.00000E+00
    0.50434E+05        -0.50004E+08         0.00000E+00
    0.00000E+00         0.00000E+00        -0.50226E+08
 
   -0.50445E+08         0.59153E+05         0.00000E+00
    0.59153E+05        -0.50006E+08         0.00000E+00
    0.00000E+00         0.00000E+00        -0.50225E+08
 
   -0.50441E+08         0.67683E+05         0.00000E+00
    0.67683E+05        -0.50008E+08         0.00000E+00
    0.00000E+00         0.00000E+00        -0.50224E+08
 
   -0.50436E+08         0.76006E+05         0.00000E+00
    0.76006E+05        -0.50010E+08         0.00000E+00
    0.00000E+00         0.00000E+00        -0.50223E+08
 
   -0.50431E+08         0.84108E+05         0.00000E+00
    0.84108E+05        -0.50012E+08         0.00000E+00
    0.00000E+00         0.00000E+00        -0.50222E+08
 
   -0.50425E+08         0.91974E+05         0.00000E+00
    0.91974E+05        -0.50015E+08         0.00000E+00
    0.00000E+00         0.00000E+00        -0.50220E+08
 
   -0.50420E+08         0.99595E+05         0.00000E+00
    0.99595E+05        -0.50018E+08         0.00000E+00
    0.00000E+00         0.00000E+00        -0.50219E+08
 
   -0.50413E+08         0.10696E+06         0.00000E+00
    0.10696E+06        -0.50021E+08         0.00000E+00
    0.00000E+00         0.00000E+00        -0.50217E+08
 
   -0.50407E+08         0.11406E+06         0.00000E+00
    0.11406E+06        -0.50024E+08         0.00000E+00
    0.00000E+00         0.00000E+00        -0.50215E+08
 
   -0.50400E+08         0.12089E+06         0.00000E+00
    0.12089E+06        -0.50027E+08         0.00000E+00
    0.00000E+00         0.00000E+00        -0.50213E+08
 
   -0.50393E+08         0.12744E+06         0.00000E+00
    0.12744E+06        -0.50030E+08         0.00000E+00
    0.00000E+00         0.00000E+00        -0.50211E+08
 
   -0.50386E+08         0.13372E+06         0.00000E+00
    0.13372E+06        -0.50033E+08         0.00000E+00
    0.00000E+00         0.00000E+00        -0.50209E+08
 
   -0.50378E+08         0.13972E+06         0.00000E+00
    0.13972E+06        -0.50037E+08         0.00000E+00
    0.00000E+00         0.00000E+00        -0.50207E+08
 
   -0.50370E+08         0.14543E+06         0.00000E+00
    0.14543E+06        -0.50040E+08         0.00000E+00
    0.00000E+00         0.00000E+00        -0.50205E+08
 
   -0.50362E+08         0.15087E+06         0.00000E+00
    0.15087E+06        -0.50044E+08         0.00000E+00
    0.00000E+00         0.00000E+00        -0.50203E+08
 
   -0.50354E+08         0.15603E+06         0.00000E+00
    0.15603E+06        -0.50048E+08         0.00000E+00
    0.00000E+00         0.00000E+00        -0.50201E+08
 
   -0.50346E+08         0.16092E+06         0.00000E+00
    0.16092E+06        -0.50051E+08         0.00000E+00
    0.00000E+00         0.00000E+00        -0.50199E+08
 
   -0.50338E+08         0.16554E+06         0.00000E+00
    0.16554E+06        -0.50055E+08         0.00000E+00
    0.00000E+00         0.00000E+00        -0.50197E+08
 
   -0.50330E+08         0.16990E+06         0.00000E+00
    0.16990E+06        -0.50059E+08         0.00000E+00
    0.00000E+00         0.00000E+00        -0.50194E+08
 
   -0.50321E+08         0.17400E+06         0.00000E+00
    0.17400E+06        -0.50063E+08         0.00000E+00
    0.00000E+00         0.00000E+00        -0.50192E+08
 
   -0.50313E+08         0.17786E+06         0.00000E+00
    0.17786E+06        -0.50066E+08         0.00000E+00
    0.00000E+00         0.00000E+00        -0.50190E+08
 
   -0.50305E+08         0.18149E+06         0.00000E+00
    0.18149E+06        -0.50070E+08         0.00000E+00
    0.00000E+00         0.00000E+00        -0.50187E+08
 
   -0.50297E+08         0.18489E+06         0.00000E+00
    0.18489E+06        -0.50074E+08         0.00000E+00
    0.00000E+00         0.00000E+00        -0.50185E+08
 
   -0.50288E+08         0.18807E+06         0.00000E+00
    0.18807E+06        -0.50077E+08         0.00000E+00
    0.00000E+00         0.00000E+00        -0.50183E+08
 
   -0.50280E+08         0.19105E+06         0.00000E+00
    0.19105E+06        -0.50081E+08         0.00000E+00
    0.00000E+00         0.00000E+00        -0.50181E+08
 
   -0.50272E+08         0.19385E+06         0.00000E+00
    0.19385E+06        -0.50084E+08         0.00000E+00
    0.00000E+00         0.00000E+00        -0.50178E+08
 
   -0.50264E+08         0.19647E+06         0.00000E+00
    0.19647E+06        -0.50088E+08         0.00000E+00
    0.00000E+00         0.00000E+00        -0.50176E+08
 
   -0.50256E+08         0.19894E+06         0.00000E+00
    0.19894E+06        -0.50091E+08         0.00000E+00
    0.00000E+00         0.00000E+00        -0.50174E+08
 
   -0.50248E+08         0.20126E+06         0.00000E+00
    0.20126E+06        -0.50094E+08         0.00000E+00
    0.00000E+00         0.00000E+00        -0.50172E+08
 
   -0.50241E+08         0.20345E+06         0.00000E+00
    0.20345E+06        -0.50098E+08         0.00000E+00
    0.00000E+00         0.00000E+00        -0.50169E+08
 
   -0.50233E+08         0.20554E+06         0.00000E+00
    0.20554E+06        -0.50101E+08         0.00000E+00
    0.00000E+00         0.00000E+00        -0.50167E+08
 
   -0.50226E+08         0.20753E+06         0.00000E+00
    0.20753E+06        -0.50104E+08         0.00000E+00
    0.00000E+00         0.00000E+00        -0.50165E+08
 
   -0.50219E+08         0.20945E+06         0.00000E+00
    0.20945E+06        -0.50107E+08         0.00000E+00
    0.00000E+00         0.00000E+00        -0.50163E+08
 
   -0.50212E+08         0.21131E+06         0.00000E+00
    0.21131E+06        -0.50109E+08         0.00000E+00
    0.00000E+00         0.00000E+00        -0.50161E+08
 
   -0.50205E+08         0.21313E+06         0.00000E+00
    0.21313E+06        -0.50112E+08         0.00000E+00
    0.00000E+00         0.00000E+00        -0.50159E+08
 
   -0.50198E+08         0.21493E+06         0.00000E+00
    0.21493E+06        -0.50115E+08         0.00000E+00
    0.00000E+00         0.00000E+00        -0.50157E+08
 
   -0.50192E+08         0.21673E+06         0.00000E+00
    0.21673E+06        -0.50117E+08         0.00000E+00
    0.00000E+00         0.00000E+00        -0.50155E+08
 
   -0.50185E+08         0.21855E+06         0.00000E+00
    0.21855E+06        -0.50120E+08         0.00000E+00
    0.00000E+00         0.00000E+00        -0.50153E+08
 
   -0.50179E+08         0.22040E+06         0.00000E+00
    0.22040E+06        -0.50122E+08         0.00000E+00
    0.00000E+00         0.00000E+00        -0.50152E+08
 
   -0.50173E+08         0.22231E+06         0.00000E+00
    0.22231E+06        -0.50125E+08         0.00000E+00
    0.00000E+00         0.00000E+00        -0.50150E+08
 
   -0.50168E+08         0.22428E+06         0.00000E+00
    0.22428E+06        -0.50127E+08         0.00000E+00
    0.00000E+00         0.00000E+00        -0.50149E+08
 
   -0.50162E+08         0.22634E+06         0.00000E+00
    0.22634E+06        -0.50129E+08         0.00000E+00
    0.00000E+00         0.00000E+00        -0.50148E+08
 
   -0.50157E+08         0.22850E+06         0.00000E+00
    0.22850E+06        -0.50131E+08         0.00000E+00
    0.00000E+00         0.00000E+00        -0.50146E+08
 
   -0.50152E+08         0.23077E+06         0.00000E+00
    0.23077E+06        -0.50133E+08         0.00000E+00
    0.00000E+00         0.00000E+00        -0.50145E+08
 
   -0.50147E+08         0.23317E+06         0.00000E+00
    0.23317E+06        -0.50135E+08         0.00000E+00
    0.00000E+00         0.00000E+00        -0.50145E+08
 
   -0.50415E+08         0.40105E+04         0.00000E+00
    0.40105E+04        -0.50000E+08         0.00000E+00
    0.00000E+00         0.00000E+00        -0.50208E+08
 
   -0.50415E+08         0.12010E+05         0.00000E+00
    0.12010E+05        -0.50000E+08         0.00000E+00
    0.00000E+00         0.00000E+00        -0.50207E+08
 
   -0.50414E+08         0.19970E+05         0.00000E+00
    0.19970E+05        -0.50001E+08         0.00000E+00
    0.00000E+00         0.00000E+00        -0.50207E+08
 
   -0.50412E+08         0.27871E+05         0.00000E+00
    0.27871E+05        -0.50001E+08         0.00000E+00
    0.00000E+00         0.00000E+00        -0.50207E+08
 
   -0.50410E+08         0.35692E+05         0.00000E+00
    0.35692E+05        -0.50002E+08         0.00000E+00
    0.00000E+00         0.00000E+00        -0.50206E+08
 
   -0.50407E+08         0.43415E+05         0.00000E+00
    0.43415E+05        -0.50004E+08         0.00000E+00
    0.00000E+00         0.00000E+00        -0.50205E+08
 
   -0.50404E+08         0.51023E+05         0.00000E+00
    0.51023E+05        -0.50005E+08         0.00000E+00
    0.00000E+00         0.00000E+00        -0.50205E+08
 
   -0.50401E+08         0.58499E+05         0.00000E+00
    0.58499E+05        -0.50006E+08         0.00000E+00
    0.00000E+00         0.00000E+00        -0.50204E+08
 
   -0.50397E+08         0.65829E+05         0.00000E+00
    0.65829E+05        -0.50008E+08         0.00000E+00
    0.00000E+00         0.00000E+00        -0.50203E+08
 
   -0.50393E+08         0.73000E+05         0.00000E+00
    0.73000E+05        -0.50010E+08         0.00000E+00
    0.00000E+00         0.00000E+00        -0.50202E+08
 
   -0.50389E+08         0.80001E+05         0.00000E+00
    0.80001E+05        -0.50012E+08         0.00000E+00
    0.00000E+00         0.00000E+00        -0.50201E+08
 
   -0.50384E+08         0.86821E+05         0.00000E+00
    0.86821E+05        -0.50015E+08         0.00000E+00
    0.00000E+00         0.00000E+00        -0.50199E+08
 
   -0.50379E+08         0.93451E+05         0.00000E+00
    0.93451E+05        -0.50017E+08         0.00000E+00
    0.00000E+00         0.00000E+00        -0.50198E+08
 
   -0.50374E+08         0.99883E+05         0.00000E+00
    0.99883E+05        -0.50019E+08         0.00000E+00
    0.00000E+00         0.00000E+00        -0.50197E+08
 
   -0.50368E+08         0.10611E+06         0.00000E+00
    0.10611E+06        -0.50022E+08         0.00000E+00
    0.00000E+00         0.00000E+00        -0.50195E+08
 
   -0.50362E+08         0.11213E+06         0.00000E+00
    0.11213E+06        -0.50025E+08         0.00000E+00
    0.00000E+00         0.00000E+00        -0.50193E+08
 
   -0.50356E+08         0.11794E+06         0.00000E+00
    0.11794E+06        -0.50028E+08         0.00000E+00
    0.00000E+00         0.00000E+00        -0.50192E+08
 
   -0.50350E+08         0.12353E+06         0.00000E+00
    0.12353E+06        -0.50031E+08         0.00000E+00
    0.00000E+00         0.00000E+00        -0.50190E+08
 
   -0.50343E+08         0.12890E+06         0.00000E+00
    0.12890E+06        -0.50034E+08         0.00000E+00
    0.00000E+00         0.00000E+00        -0.50188E+08
 
   -0.50336E+08         0.13406E+06         0.00000E+00
    0.13406E+06        -0.50037E+08         0.00000E+00
    0.00000E+00         0.00000E+00        -0.50187E+08
 
   -0.50330E+08         0.13900E+06         0.00000E+00
    0.13900E+06        -0.50040E+08         0.00000E+00
    0.00000E+00         0.00000E+00        -0.50185E+08
 
   -0.50323E+08         0.14373E+06         0.00000E+00
    0.14373E+06        -0.50043E+08         0.00000E+00
    0.00000E+00         0.00000E+00        -0.50183E+08
 
   -0.50316E+08         0.14825E+06         0.00000E+00
    0.14825E+06        -0.50046E+08         0.00000E+00
    0.00000E+00         0.00000E+00        -0.50181E+08
 
   -0.50309E+08         0.15256E+06         0.00000E+00
    0.15256E+06        -0.50049E+08         0.00000E+00
    0.00000E+00         0.00000E+00        -0.50179E+08
 
   -0.50301E+08         0.15666E+06         0.00000E+00
    0.15666E+06        -0.50053E+08         0.00000E+00
    0.00000E+00         0.00000E+00        -0.50177E+08
 
   -0.50294E+08         0.16058E+06         0.00000E+00
    0.16058E+06        -0.50056E+08         0.00000E+00
    0.00000E+00         0.00000E+00        -0.50175E+08
 
   -0.50287E+08         0.16430E+06         0.00000E+00
    0.16430E+06        -0.50059E+08         0.00000E+00
    0.00000E+00         0.00000E+00        -0.50173E+08
 
   -0.50280E+08         0.16784E+06         0.00000E+00
    0.16784E+06        -0.50062E+08         0.00000E+00
    0.00000E+00         0.00000E+00        -0.50171E+08
 
   -0.50272E+08         0.17121E+06         0.00000E+00
    0.17121E+06        -0.50065E+08         0.00000E+00
    0.00000E+00         0.00000E+00        -0.50169E+08
 
   -0.50265E+08         0.17441E+06         0.00000E+00
    0.17441E+06        -0.50069E+08         0.00000E+00
    0.00000E+00         0.00000E+00        -0.50167E+08
 
   -0.50258E+08         0.17746E+06         0.00000E+00
    0.17746E+06        -0.50072E+08         0.00000E+00
    0.00000E+00         0.00000E+00        -0.50165E+08
 
   -0.50251E+08         0.18036E+06         0.00000E+00
    0.18036E+06        -0.50075E+08         0.00000E+00
    0.00000E+00         0.00000E+00        -0.50163E+08
 
   -0.50243E+08         0.18314E+06         0.00000E+00
    0.18314E+06        -0.50078E+08         0.00000E+00
    0.00000E+00         0.00000E+00        -0.50161E+08
 
   -0.50236E+08         0.18579E+06         0.00000E+00
    0.18579E+06        -0.50081E+08         0.00000E+00
    0.00000E+00         0.00000E+00        -0.50159E+08
 
   -0.50229E+08         0.18834E+06         0.00000E+00
    0.18834E+06        -0.50084E+08         0.00000E+00
    0.00000E+00         0.00000E+00        -0.50157E+08
 
   -0.50222E+08         0.19078E+06         0.00000E+00
    0.19078E+06        -0.50087E+08         0.00000E+00
    0.00000E+00         0.00000E+00        -0.50155E+08
 
   -0.50215E+08         0.19315E+06         0.00000E+00
    0.19315E+06        -0.50089E+08         0.00000E+00
    0.00000E+00         0.00000E+00        -0.50153E+08
 
   -0.50208E+08         0.19545E+06         0.00000E+00
    0.19545E+06        -0.50092E+08         0.00000E+00
    0.00000E+00         0.00000E+00        -0.50151E+08
 
   -0.50202E+08         0.19768E+06         0.00000E+00
    0.19768E+06        -0.50095E+08         0.00000E+00
    0.00000E+00         0.00000E+00        -0.50149E+08
 
   -0.50195E+08         0.19988E+06         0.00000E+00
    0.19988E+06        -0.50098E+08         0.00000E+00
    0.00000E+00         0.00000E+00        -0.50147E+08
 
   -0.50188E+08         0.20205E+06         0.00000E+00
    0.20205E+06        -0.50100E+08         0.00000E+00
    0.00000E+00         0.00000E+00        -0.50145E+08
 
   -0.50182E+08         0.20420E+06         0.00000E+00
    0.20420E+06        -0.50103E+08         0.00000E+00
    0.00000E+00         0.00000E+00        -0.50143E+08
 
   -0.50175E+08         0.20634E+06         0.00000E+00
    0.20634E+06        -0.50105E+08         0.00000E+00
    0.00000E+00         0.00000E+00        -0.50141E+08
 
   -0.50169E+08         0.20850E+06         0.00000E+00
    0.20850E+06        -0.50107E+08         0.00000E+00
    0.00000E+00         0.00000E+00        -0.50140E+08
 
   -0.50163E+08         0.21068E+06         0.00000E+00
    0.21068E+06        -0.50110E+08         0.00000E+00
    0.00000E+00         0.00000E+00        -0.50138E+08
 
   -0.50157E+08         0.21289E+06         0.00000E+00
    0.21289E+06        -0.50112E+08         0.00000E+00
    0.00000E+00         0.00000E+00        -0.50136E+08
 
   -0.50151E+08         0.21514E+06         0.00000E+00
    0.21514E+06        -0.50115E+08         0.00000E+00
    0.00000E+00         0.00000E+00        -0.50135E+08
 
   -0.50145E+08         0.21746E+06         0.00000E+00
    0.21746E+06        -0.50117E+08         0.00000E+00
    0.00000E+00         0.00000E+00        -0.50134E+08
 
   -0.50140E+08         0.21983E+06         0.00000E+00
    0.21983E+06        -0.50119E+08         0.00000E+00
    0.00000E+00         0.00000E+00        -0.50133E+08
 
   -0.50134E+08         0.22228E+06         0.00000E+00
    0.22228E+06        -0.50121E+08         0.00000E+00
    0.00000E+00         0.00000E+00        -0.50132E+08
 
   -0.50378E+08         0.34479E+04         0.00000E+00
    0.34479E+04        -0.50000E+08         0.00000E+00
    0.00000E+00         0.00000E+00        -0.50189E+08
 
   -0.50377E+08         0.10362E+05         0.00000E+00
    0.10362E+05        -0.50000E+08         0.00000E+00
    0.00000E+00         0.00000E+00        -0.50189E+08
 
   -0.50377E+08         0.17262E+05         0.00000E+00
    0.17262E+05        -0.50001E+08         0.00000E+00
    0.00000E+00         0.00000E+00        -0.50188E+08
 
   -0.50375E+08         0.24130E+05         0.00000E+00
    0.24130E+05        -0.50001E+08         0.00000E+00
    0.00000E+00         0.00000E+00        -0.50188E+08
 
   -0.50374E+08         0.30952E+05         0.00000E+00
    0.30952E+05        -0.50002E+08         0.00000E+00
    0.00000E+00         0.00000E+00        -0.50188E+08
 
   -0.50371E+08         0.37712E+05         0.00000E+00
    0.37712E+05        -0.50003E+08         0.00000E+00
    0.00000E+00         0.00000E+00        -0.50187E+08
 
   -0.50369E+08         0.44396E+05         0.00000E+00
    0.44396E+05        -0.50004E+08         0.00000E+00
    0.00000E+00         0.00000E+00        -0.50186E+08
 
   -0.50366E+08         0.50991E+05         0.00000E+00
    0.50991E+05        -0.50005E+08         0.00000E+00
    0.00000E+00         0.00000E+00        -0.50186E+08
 
   -0.50363E+08         0.57485E+05         0.00000E+00
    0.57485E+05        -0.50007E+08         0.00000E+00
    0.00000E+00         0.00000E+00        -0.50185E+08
 
   -0.50360E+08         0.63868E+05         0.00000E+00
    0.63868E+05        -0.50008E+08         0.00000E+00
    0.00000E+00         0.00000E+00        -0.50184E+08
 
   -0.50356E+08         0.70128E+05         0.00000E+00
    0.70128E+05        -0.50010E+08         0.00000E+00
    0.00000E+00         0.00000E+00        -0.50183E+08
 
   -0.50352E+08         0.76257E+05         0.00000E+00
    0.76257E+05        -0.50012E+08         0.00000E+00
    0.00000E+00         0.00000E+00        -0.50182E+08
 
   -0.50348E+08         0.82247E+05         0.00000E+00
    0.82247E+05        -0.50014E+08         0.00000E+00
    0.00000E+00         0.00000E+00        -0.50181E+08
 
   -0.50343E+08         0.88090E+05         0.00000E+00
    0.88090E+05        -0.50016E+08         0.00000E+00
    0.00000E+00         0.00000E+00        -0.50180E+08
 
   -0.50339E+08         0.93781E+05         0.00000E+00
    0.93781E+05        -0.50018E+08         0.00000E+00
    0.00000E+00         0.00000E+00        -0.50178E+08
 
   -0.50334E+08         0.99315E+05         0.00000E+00
    0.99315E+05        -0.50020E+08         0.00000E+00
    0.00000E+00         0.00000E+00        -0.50177E+08
 
   -0.50328E+08         0.10469E+06         0.00000E+00
    0.10469E+06        -0.50023E+08         0.00000E+00
    0.00000E+00         0.00000E+00        -0.50176E+08
 
   -0.50323E+08         0.10989E+06         0.00000E+00
    0.10989E+06        -0.50025E+08         0.00000E+00
    0.00000E+00         0.00000E+00        -0.50174E+08
 
   -0.50318E+08         0.11494E+06         0.00000E+00
    0.11494E+06        -0.50028E+08         0.00000E+00
    0.00000E+00         0.00000E+00        -0.50173E+08
 
   -0.50312E+08         0.11981E+06         0.00000E+00
    0.11981E+06        -0.50030E+08         0.00000E+00
    0.00000E+00         0.00000E+00        -0.50171E+08
 
   -0.50306E+08         0.12452E+06         0.00000E+00
    0.12452E+06        -0.50033E+08         0.00000E+00
    0.00000E+00         0.00000E+00        -0.50170E+08
 
   -0.50300E+08         0.12905E+06         0.00000E+00
    0.12905E+06        -0.50036E+08         0.00000E+00
    0.00000E+00         0.00000E+00        -0.50168E+08
 
   -0.50294E+08         0.13343E+06         0.00000E+00
    0.13343E+06        -0.50038E+08         0.00000E+00
    0.00000E+00         0.00000E+00        -0.50166E+08
 
   -0.50288E+08         0.13763E+06         0.00000E+00
    0.13763E+06        -0.50041E+08         0.00000E+00
    0.00000E+00         0.00000E+00        -0.50164E+08
 
   -0.50282E+08         0.14168E+06         0.00000E+00
    0.14168E+06        -0.50044E+08         0.00000E+00
    0.00000E+00         0.00000E+00        -0.50163E+08
 
   -0.50275E+08         0.14557E+06         0.00000E+00
    0.14557E+06        -0.50047E+08         0.00000E+00
    0.00000E+00         0.00000E+00        -0.50161E+08
 
   -0.50269E+08         0.14931E+06         0.00000E+00
    0.14931E+06        -0.50049E+08         0.00000E+00
    0.00000E+00         0.00000E+00        -0.50159E+08
 
   -0.50262E+08         0.15290E+06         0.00000E+00
    0.15290E+06        -0.50052E+08         0.00000E+00
    0.00000E+00         0.00000E+00        -0.50157E+08
 
   -0.50256E+08         0.15635E+06         0.00000E+00
    0.15635E+06        -0.50055E+08         0.00000E+00
    0.00000E+00         0.00000E+00        -0.50155E+08
 
   -0.50249E+08         0.15967E+06         0.00000E+00
    0.15967E+06        -0.50058E+08         0.00000E+00
    0.00000E+00         0.00000E+00        -0.50154E+08
 
   -0.50243E+08         0.16286E+06         0.00000E+00
    0.16286E+06        -0.50061E+08         0.00000E+00
    0.00000E+00         0.00000E+00        -0.50152E+08
 
   -0.50236E+08         0.16592E+06         0.00000E+00
    0.16592E+06        -0.50063E+08         0.00000E+00
    0.00000E+00         0.00000E+00        -0.50150E+08
 
   -0.50229E+08         0.16888E+06         0.00000E+00
    0.16888E+06        -0.50066E+08         0.00000E+00
    0.00000E+00         0.00000E+00        -0.50148E+08
 
   -0.50223E+08         0.17173E+06         0.00000E+00
    0.17173E+06        -0.50069E+08         0.00000E+00
    0.00000E+00         0.00000E+00        -0.50146E+08
 
   -0.50216E+08         0.17448E+06         0.00000E+00
    0.17448E+06        -0.50071E+08         0.00000E+00
    0.00000E+00         0.00000E+00        -0.50144E+08
 
   -0.50210E+08         0.17715E+06         0.00000E+00
    0.17715E+06        -0.50074E+08         0.00000E+00
    0.00000E+00         0.00000E+00        -0.50142E+08
 
   -0.50203E+08         0.17974E+06         0.00000E+00
    0.17974E+06        -0.50077E+08         0.00000E+00
    0.00000E+00         0.00000E+00        -0.50140E+08
 
   -0.50196E+08         0.18226E+06         0.00000E+00
    0.18226E+06        -0.50079E+08         0.00000E+00
    0.00000E+00         0.00000E+00        -0.50138E+08
 
   -0.50190E+08         0.18472E+06         0.00000E+00
    0.18472E+06        -0.50082E+08         0.00000E+00
    0.00000E+00         0.00000E+00        -0.50136E+08
 
   -0.50183E+08         0.18714E+06         0.00000E+00
    0.18714E+06        -0.50084E+08         0.00000E+00
    0.00000E+00         0.00000E+00        -0.50134E+08
 
   -0.50177E+08         0.18951E+06         0.00000E+00
    0.18951E+06        -0.50087E+08         0.00000E+00
    0.00000E+00         0.00000E+00        -0.50133E+08
 
   -0.50170E+08         0.19185E+06         0.00000E+00
    0.19185E+06        -0.50089E+08         0.00000E+00
    0.00000E+00         0.00000E+00        -0.50131E+08
 
   -0.50164E+08         0.19417E+06         0.00000E+00
    0.19417E+06        -0.50092E+08         0.00000E+00
    0.00000E+00         0.00000E+00        -0.50129E+08
 
   -0.50158E+08         0.19648E+06         0.00000E+00
    0.19648E+06        -0.50094E+08         0.00000E+00
    0.00000E+00         0.00000E+00        -0.50127E+08
 
   -0.50152E+08         0.19878E+06         0.00000E+00
    0.19878E+06        -0.50096E+08         0.00000E+00
    0.00000E+00         0.00000E+00        -0.50126E+08
 
   -0.50145E+08         0.20109E+06         0.00000E+00
    0.20109E+06        -0.50099E+08         0.00000E+00
    0.00000E+00         0.00000E+00        -0.50124E+08
 
   -0.50139E+08         0.20341E+06         0.00000E+00
    0.20341E+06        -0.50101E+08         0.00000E+00
    0.00000E+00         0.00000E+00        -0.50123E+08
 
   -0.50133E+08         0.20575E+06         0.00000E+00
    0.20575E+06        -0.50104E+08         0.00000E+00
    0.00000E+00         0.00000E+00        -0.50122E+08
 
   -0.50128E+08         0.20811E+06         0.00000E+00
    0.20811E+06        -0.50106E+08         0.00000E+00
    0.00000E+00         0.00000E+00        -0.50120E+08
 
   -0.50122E+08         0.21050E+06         0.00000E+00
    0.21050E+06        -0.50108E+08         0.00000E+00
    0.00000E+00         0.00000E+00        -0.50120E+08
 
   -0.50346E+08         0.30051E+04         0.00000E+00
    0.30051E+04        -0.50000E+08         0.00000E+00
    0.00000E+00         0.00000E+00        -0.50173E+08
 
   -0.50345E+08         0.90538E+04         0.00000E+00
    0.90538E+04        -0.50000E+08         0.00000E+00
    0.00000E+00         0.00000E+00        -0.50172E+08
 
   -0.50344E+08         0.15102E+05         0.00000E+00
    0.15102E+05        -0.50000E+08         0.00000E+00
    0.00000E+00         0.00000E+00        -0.50172E+08
 
   -0.50343E+08         0.21137E+05         0.00000E+00
    0.21137E+05        -0.50001E+08         0.00000E+00
    0.00000E+00         0.00000E+00        -0.50172E+08
 
   -0.50342E+08         0.27146E+05         0.00000E+00
    0.27146E+05        -0.50002E+08         0.00000E+00
    0.00000E+00         0.00000E+00        -0.50171E+08
 
   -0.50340E+08         0.33119E+05         0.00000E+00
    0.33119E+05        -0.50002E+08         0.00000E+00
    0.00000E+00         0.00000E+00        -0.50171E+08
 
   -0.50338E+08         0.39042E+05         0.00000E+00
    0.39042E+05        -0.50003E+08         0.00000E+00
    0.00000E+00         0.00000E+00        -0.50170E+08
 
   -0.50335E+08         0.44907E+05         0.00000E+00
    0.44907E+05        -0.50004E+08         0.00000E+00
    0.00000E+00         0.00000E+00        -0.50170E+08
 
   -0.50333E+08         0.50703E+05         0.00000E+00
    0.50703E+05        -0.50005E+08         0.00000E+00
    0.00000E+00         0.00000E+00        -0.50169E+08
 
   -0.50330E+08         0.56421E+05         0.00000E+00
    0.56421E+05        -0.50007E+08         0.00000E+00
    0.00000E+00         0.00000E+00        -0.50168E+08
 
   -0.50327E+08         0.62052E+05         0.00000E+00
    0.62052E+05        -0.50008E+08         0.00000E+00
    0.00000E+00         0.00000E+00        -0.50167E+08
 
   -0.50323E+08         0.67589E+05         0.00000E+00
    0.67589E+05        -0.50010E+08         0.00000E+00
    0.00000E+00         0.00000E+00        -0.50166E+08
 
   -0.50320E+08         0.73024E+05         0.00000E+00
    0.73024E+05        -0.50011E+08         0.00000E+00
    0.00000E+00         0.00000E+00        -0.50165E+08
 
   -0.50316E+08         0.78351E+05         0.00000E+00
    0.78351E+05        -0.50013E+08         0.00000E+00
    0.00000E+00         0.00000E+00        -0.50164E+08
 
   -0.50312E+08         0.83565E+05         0.00000E+00
    0.83565E+05        -0.50015E+08         0.00000E+00
    0.00000E+00         0.00000E+00        -0.50163E+08
 
   -0.50307E+08         0.88661E+05         0.00000E+00
    0.88661E+05        -0.50017E+08         0.00000E+00
    0.00000E+00         0.00000E+00        -0.50162E+08
 
   -0.50303E+08         0.93634E+05         0.00000E+00
    0.93634E+05        -0.50019E+08         0.00000E+00
    0.00000E+00         0.00000E+00        -0.50161E+08
 
   -0.50298E+08         0.98483E+05         0.00000E+00
    0.98483E+05        -0.50021E+08         0.00000E+00
    0.00000E+00         0.00000E+00        -0.50160E+08
 
   -0.50294E+08         0.10320E+06         0.00000E+00
    0.10320E+06        -0.50023E+08         0.00000E+00
    0.00000E+00         0.00000E+00        -0.50158E+08
 
   -0.50289E+08         0.10779E+06         0.00000E+00
    0.10779E+06        -0.50025E+08         0.00000E+00
    0.00000E+00         0.00000E+00        -0.50157E+08
 
   -0.50284E+08         0.11225E+06         0.00000E+00
    0.11225E+06        -0.50027E+08         0.00000E+00
    0.00000E+00         0.00000E+00        -0.50155E+08
 
   -0.50278E+08         0.11658E+06         0.00000E+00
    0.11658E+06        -0.50029E+08         0.00000E+00
    0.00000E+00         0.00000E+00        -0.50154E+08
 
   -0.50273E+08         0.12078E+06         0.00000E+00
    0.12078E+06        -0.50032E+08         0.00000E+00
    0.00000E+00         0.00000E+00        -0.50152E+08
 
   -0.50267E+08         0.12485E+06         0.00000E+00
    0.12485E+06        -0.50034E+08         0.00000E+00
    0.00000E+00         0.00000E+00        -0.50151E+08
 
   -0.50262E+08         0.12879E+06         0.00000E+00
    0.12879E+06        -0.50036E+08         0.00000E+00
    0.00000E+00         0.00000E+00        -0.50149E+08
 
   -0.50256E+08         0.13260E+06         0.00000E+00
    0.13260E+06        -0.50039E+08         0.00000E+00
    0.00000E+00         0.00000E+00        -0.50148E+08
 
   -0.50250E+08         0.13629E+06         0.00000E+00
    0.13629E+06        -0.50041E+08         0.00000E+00
    0.00000E+00         0.00000E+00        -0.50146E+08
 
   -0.50245E+08         0.13986E+06         0.00000E+00
    0.13986E+06        -0.50044E+08         0.00000E+00
    0.00000E+00         0.00000E+00        -0.50144E+08
 
   -0.50239E+08         0.14331E+06         0.00000E+00
    0.14331E+06        -0.50046E+08         0.00000E+00
    0.00000E+00         0.00000E+00        -0.50143E+08
 
   -0.50233E+08         0.14665E+06         0.00000E+00
    0.14665E+06        -0.50049E+08         0.00000E+00
    0.00000E+00         0.00000E+00        -0.50141E+08
 
   -0.50227E+08         0.14988E+06         0.00000E+00
    0.14988E+06        -0.50051E+08         0.00000E+00
    0.00000E+00         0.00000E+00        -0.50139E+08
 
   -0.50221E+08         0.15301E+06         0.00000E+00
    0.15301E+06        -0.50053E+08         0.00000E+00
    0.00000E+00         0.00000E+00        -0.50137E+08
 
   -0.50215E+08         0.15604E+06         0.00000E+00
    0.15604E+06        -0.50056E+08         0.00000E+00
    0.00000E+00         0.00000E+00        -0.50135E+08
 
   -0.50208E+08         0.15898E+06         0.00000E+00
    0.15898E+06        -0.50058E+08         0.00000E+00
    0.00000E+00         0.00000E+00        -0.50134E+08
 
   -0.50202E+08         0.16183E+06         0.00000E+00
    0.16183E+06        -0.50061E+08         0.00000E+00
    0.00000E+00         0.00000E+00        -0.50132E+08
 
   -0.50196E+08         0.16460E+06         0.00000E+00
    0.16460E+06        -0.50063E+08         0.00000E+00
    0.00000E+00         0.00000E+00        -0.50130E+08
 
   -0.50190E+08         0.16730E+06         0.00000E+00
    0.16730E+06        -0.50066E+08         0.00000E+00
    0.00000E+00         0.00000E+00        -0.50128E+08
 
   -0.50184E+08         0.16992E+06         0.00000E+00
    0.16992E+06        -0.50068E+08         0.00000E+00
    0.00000E+00         0.00000E+00        -0.50126E+08
 
   -0.50177E+08         0.17249E+06         0.00000E+00
    0.17249E+06        -0.50070E+08         0.00000E+00
    0.00000E+00         0.00000E+00        -0.50124E+08
 
   -0.50171E+08         0.17500E+06         0.00000E+00
    0.17500E+06        -0.50073E+08         0.00000E+00
    0.00000E+00         0.00000E+00        -0.50123E+08
 
   -0.50165E+08         0.17746E+06         0.00000E+00
    0.17746E+06        -0.50075E+08         0.00000E+00
    0.00000E+00         0.00000E+00        -0.50121E+08
 
   -0.50159E+08         0.17988E+06         0.00000E+00
    0.17988E+06        -0.50077E+08         0.00000E+00
    0.00000E+00         0.00000E+00        -0.50119E+08
 
   -0.50152E+08         0.18226E+06         0.00000E+00
    0.18226E+06        -0.50080E+08         0.00000E+00
    0.00000E+00         0.00000E+00        -0.50117E+08
 
   -0.50146E+08         0.18461E+06         0.00000E+00
    0.18461E+06        -0.50082E+08         0.00000E+00
    0.00000E+00         0.00000E+00        -0.50116E+08
 
   -0.50140E+08         0.18693E+06         0.00000E+00
    0.18693E+06        -0.50084E+08         0.00000E+00
    0.00000E+00         0.00000E+00        -0.50114E+08
 
   -0.50134E+08         0.18923E+06         0.00000E+00
    0.18923E+06        -0.50087E+08         0.00000E+00
    0.00000E+00         0.00000E+00        -0.50112E+08
 
   -0.50128E+08         0.19152E+06         0.00000E+00
    0.19152E+06        -0.50089E+08         0.00000E+00
    0.00000E+00         0.00000E+00        -0.50111E+08
 
   -0.50122E+08         0.19379E+06         0.00000E+00
    0.19379E+06        -0.50092E+08         0.00000E+00
    0.00000E+00         0.00000E+00        -0.50110E+08
 
   -0.50116E+08         0.19605E+06         0.00000E+00
    0.19605E+06        -0.50094E+08         0.00000E+00
    0.00000E+00         0.00000E+00        -0.50109E+08
 
   -0.50110E+08         0.19831E+06         0.00000E+00
    0.19831E+06        -0.50096E+08         0.00000E+00
    0.00000E+00         0.00000E+00        -0.50108E+08
 
   -0.50317E+08         0.26583E+04         0.00000E+00
    0.26583E+04        -0.50000E+08         0.00000E+00
    0.00000E+00         0.00000E+00        -0.50158E+08
 
   -0.50317E+08         0.80201E+04         0.00000E+00
    0.80201E+04        -0.50000E+08         0.00000E+00
    0.00000E+00         0.00000E+00        -0.50158E+08
 
   -0.50316E+08         0.13388E+05         0.00000E+00
    0.13388E+05        -0.50000E+08         0.00000E+00
    0.00000E+00         0.00000E+00        -0.50158E+08
 
   -0.50315E+08         0.18754E+05         0.00000E+00
    0.18754E+05        -0.50001E+08         0.00000E+00
    0.00000E+00         0.00000E+00        -0.50158E+08
 
   -0.50313E+08         0.24106E+05         0.00000E+00
    0.24106E+05        -0.50001E+08         0.00000E+00
    0.00000E+00         0.00000E+00        -0.50157E+08
 
   -0.50312E+08         0.29437E+05         0.00000E+00
    0.29437E+05        -0.50002E+08         0.00000E+00
    0.00000E+00         0.00000E+00        -0.50157E+08
 
   -0.50310E+08         0.34738E+05         0.00000E+00
    0.34738E+05        -0.50003E+08         0.00000E+00
    0.00000E+00         0.00000E+00        -0.50156E+08
 
   -0.50308E+08         0.40000E+05         0.00000E+00
    0.40000E+05        -0.50003E+08         0.00000E+00
    0.00000E+00         0.00000E+00        -0.50155E+08
 
   -0.50305E+08         0.45215E+05         0.00000E+00
    0.45215E+05        -0.50004E+08         0.00000E+00
    0.00000E+00         0.00000E+00        -0.50155E+08
 
   -0.50303E+08         0.50375E+05         0.00000E+00
    0.50375E+05        -0.50005E+08         0.00000E+00
    0.00000E+00         0.00000E+00        -0.50154E+08
 
   -0.50300E+08         0.55474E+05         0.00000E+00
    0.55474E+05        -0.50006E+08         0.00000E+00
    0.00000E+00         0.00000E+00        -0.50153E+08
 
   -0.50297E+08         0.60504E+05         0.00000E+00
    0.60504E+05        -0.50008E+08         0.00000E+00
    0.00000E+00         0.00000E+00        -0.50152E+08
 
   -0.50294E+08         0.65461E+05         0.00000E+00
    0.65461E+05        -0.50009E+08         0.00000E+00
    0.00000E+00         0.00000E+00        -0.50151E+08
 
   -0.50291E+08         0.70337E+05         0.00000E+00
    0.70337E+05        -0.50010E+08         0.00000E+00
    0.00000E+00         0.00000E+00        -0.50150E+08
 
   -0.50287E+08         0.75129E+05         0.00000E+00
    0.75129E+05        -0.50012E+08         0.00000E+00
    0.00000E+00         0.00000E+00        -0.50149E+08
 
   -0.50283E+08         0.79832E+05         0.00000E+00
    0.79832E+05        -0.50013E+08         0.00000E+00
    0.00000E+00         0.00000E+00        -0.50148E+08
 
   -0.50279E+08         0.84442E+05         0.00000E+00
    0.84442E+05        -0.50015E+08         0.00000E+00
    0.00000E+00         0.00000E+00        -0.50147E+08
 
   -0.50275E+08         0.88956E+05         0.00000E+00
    0.88956E+05        -0.50017E+08         0.00000E+00
    0.00000E+00         0.00000E+00        -0.50146E+08
 
   -0.50271E+08         0.93371E+05         0.00000E+00
    0.93371E+05        -0.50019E+08         0.00000E+00
    0.00000E+00         0.00000E+00        -0.50145E+08
 
   -0.50267E+08         0.97685E+05         0.00000E+00
    0.97685E+05        -0.50020E+08         0.00000E+00
    0.00000E+00         0.00000E+00        -0.50144E+08
 
   -0.50262E+08         0.10190E+06         0.00000E+00
    0.10190E+06        -0.50022E+08         0.00000E+00
    0.00000E+00         0.00000E+00        -0.50142E+08
 
   -0.50257E+08         0.10600E+06         0.00000E+00
    0.10600E+06        -0.50024E+08         0.00000E+00
    0.00000E+00         0.00000E+00        -0.50141E+08
 
   -0.50253E+08         0.11001E+06         0.00000E+00
    0.11001E+06        -0.50026E+08         0.00000E+00
    0.00000E+00         0.00000E+00        -0.50139E+08
 
   -0.50248E+08         0.11391E+06         0.00000E+00
    0.11391E+06        -0.50028E+08         0.00000E+00
    0.00000E+00         0.00000E+00        -0.50138E+08
 
   -0.50243E+08         0.11770E+06         0.00000E+00
    0.11770E+06        -0.50030E+08         0.00000E+00
    0.00000E+00         0.00000E+00        -0.50137E+08
 
   -0.50238E+08         0.12139E+06         0.00000E+00
    0.12139E+06        -0.50032E+08         0.00000E+00
    0.00000E+00         0.00000E+00        -0.50135E+08
 
   -0.50233E+08         0.12498E+06         0.00000E+00
    0.12498E+06        -0.50034E+08         0.00000E+00
    0.00000E+00         0.00000E+00        -0.50134E+08
 
   -0.50227E+08         0.12847E+06         0.00000E+00
    0.12847E+06        -0.50037E+08         0.00000E+00
    0.00000E+00         0.00000E+00        -0.50132E+08
 
   -0.50222E+08         0.13187E+06         0.00000E+00
    0.13187E+06        -0.50039E+08         0.00000E+00
    0.00000E+00         0.00000E+00        -0.50130E+08
 
   -0.50216E+08         0.13516E+06         0.00000E+00
    0.13516E+06        -0.50041E+08         0.00000E+00
    0.00000E+00         0.00000E+00        -0.50129E+08
 
   -0.50211E+08         0.13837E+06         0.00000E+00
    0.13837E+06        -0.50043E+08         0.00000E+00
    0.00000E+00         0.00000E+00        -0.50127E+08
 
   -0.50205E+08         0.14148E+06         0.00000E+00
    0.14148E+06        -0.50045E+08         0.00000E+00
    0.00000E+00         0.00000E+00        -0.50125E+08
 
   -0.50200E+08         0.14450E+06         0.00000E+00
    0.14450E+06        -0.50047E+08         0.00000E+00
    0.00000E+00         0.00000E+00        -0.50124E+08
 
   -0.50194E+08         0.14744E+06         0.00000E+00
    0.14744E+06        -0.50050E+08         0.00000E+00
    0.00000E+00         0.00000E+00        -0.50122E+08
 
   -0.50188E+08         0.15031E+06         0.00000E+00
    0.15031E+06        -0.50052E+08         0.00000E+00
    0.00000E+00         0.00000E+00        -0.50120E+08
 
   -0.50182E+08         0.15309E+06         0.00000E+00
    0.15309E+06        -0.50054E+08         0.00000E+00
    0.00000E+00         0.00000E+00        -0.50118E+08
 
   -0.50177E+08         0.15580E+06         0.00000E+00
    0.15580E+06        -0.50056E+08         0.00000E+00
    0.00000E+00         0.00000E+00        -0.50117E+08
 
   -0.50171E+08         0.15845E+06         0.00000E+00
    0.15845E+06        -0.50058E+08         0.00000E+00
    0.00000E+00         0.00000E+00        -0.50115E+08
 
   -0.50165E+08         0.16103E+06         0.00000E+00
    0.16103E+06        -0.50061E+08         0.00000E+00
    0.00000E+00         0.00000E+00        -0.50113E+08
 
   -0.50159E+08         0.16354E+06         0.00000E+00
    0.16354E+06        -0.50063E+08         0.00000E+00
    0.00000E+00         0.00000E+00        -0.50111E+08
 
   -0.50153E+08         0.16600E+06         0.00000E+00
    0.16600E+06        -0.50065E+08         0.00000E+00
    0.00000E+00         0.00000E+00        -0.50110E+08
 
   -0.50147E+08         0.16841E+06         0.00000E+00
    0.16841E+06        -0.50067E+08         0.00000E+00
    0.00000E+00         0.00000E+00        -0.50108E+08
 
   -0.50141E+08         0.17077E+06         0.00000E+00
    0.17077E+06        -0.50069E+08         0.00000E+00
    0.00000E+00         0.00000E+00        -0.50106E+08
 
   -0.50135E+08         0.17308E+06         0.00000E+00
    0.17308E+06        -0.50072E+08         0.00000E+00
    0.00000E+00         0.00000E+00        -0.50105E+08
 
   -0.50129E+08         0.17535E+06         0.00000E+00
    0.17535E+06        -0.50074E+08         0.00000E+00
    0.00000E+00         0.00000E+00        -0.50103E+08
 
   -0.50123E+08         0.17757E+06         0.00000E+00
    0.17757E+06        -0.50076E+08         0.00000E+00
    0.00000E+00         0.00000E+00        -0.50102E+08
 
   -0.50117E+08         0.17976E+06         0.00000E+00
    0.17976E+06        -0.50079E+08         0.00000E+00
    0.00000E+00         0.00000E+00        -0.50100E+08
 
   -0.50111E+08         0.18192E+06         0.00000E+00
    0.18192E+06        -0.50081E+08         0.00000E+00
    0.00000E+00         0.00000E+00        -0.50099E+08
 
   -0.50105E+08         0.18404E+06         0.00000E+00
    0.18404E+06        -0.50083E+08         0.00000E+00
    0.00000E+00         0.00000E+00        -0.50098E+08
 
   -0.50100E+08         0.18614E+06         0.00000E+00
    0.18614E+06        -0.50086E+08         0.00000E+00
    0.00000E+00         0.00000E+00        -0.50097E+08
 
   -0.50292E+08         0.23869E+04         0.00000E+00
    0.23869E+04        -0.50000E+08         0.00000E+00
    0.00000E+00         0.00000E+00        -0.50145E+08
 
   -0.50291E+08         0.72039E+04         0.00000E+00
    0.72039E+04        -0.50000E+08         0.00000E+00
    0.00000E+00         0.00000E+00        -0.50145E+08
 
   -0.50290E+08         0.12030E+05         0.00000E+00
    0.12030E+05        -0.50000E+08         0.00000E+00
    0.00000E+00         0.00000E+00        -0.50145E+08
 
   -0.50289E+08         0.16857E+05         0.00000E+00
    0.16857E+05        -0.50001E+08         0.00000E+00
    0.00000E+00         0.00000E+00        -0.50145E+08
 
   -0.50288E+08         0.21679E+05         0.00000E+00
    0.21679E+05        -0.50001E+08         0.00000E+00
    0.00000E+00         0.00000E+00        -0.50144E+08
 
   -0.50286E+08         0.26489E+05         0.00000E+00
    0.26489E+05        -0.50001E+08         0.00000E+00
    0.00000E+00         0.00000E+00        -0.50144E+08
 
   -0.50285E+08         0.31279E+05         0.00000E+00
    0.31279E+05        -0.50002E+08         0.00000E+00
    0.00000E+00         0.00000E+00        -0.50143E+08
 
   -0.50283E+08         0.36043E+05         0.00000E+00
    0.36043E+05        -0.50003E+08         0.00000E+00
    0.00000E+00         0.00000E+00        -0.50143E+08
 
   -0.50281E+08         0.40775E+05         0.00000E+00
    0.40775E+05        -0.50003E+08         0.00000E+00
    0.00000E+00         0.00000E+00        -0.50142E+08
 
   -0.50278E+08         0.45468E+05         0.00000E+00
    0.45468E+05        -0.50004E+08         0.00000E+00
    0.00000E+00         0.00000E+00        -0.50141E+08
 
   -0.50276E+08         0.50116E+05         0.00000E+00
    0.50116E+05        -0.50005E+08         0.00000E+00
    0.00000E+00         0.00000E+00        -0.50140E+08
 
   -0.50273E+08         0.54714E+05         0.00000E+00
    0.54714E+05        -0.50006E+08         0.00000E+00
    0.00000E+00         0.00000E+00        -0.50140E+08
 
   -0.50270E+08         0.59257E+05         0.00000E+00
    0.59257E+05        -0.50007E+08         0.00000E+00
    0.00000E+00         0.00000E+00        -0.50139E+08
 
   -0.50267E+08         0.63740E+05         0.00000E+00
    0.63740E+05        -0.50008E+08         0.00000E+00
    0.00000E+00         0.00000E+00        -0.50138E+08
 
   -0.50264E+08         0.68160E+05         0.00000E+00
    0.68160E+05        -0.50010E+08         0.00000E+00
    0.00000E+00         0.00000E+00        -0.50137E+08
 
   -0.50261E+08         0.72510E+05         0.00000E+00
    0.72510E+05        -0.50011E+08         0.00000E+00
    0.00000E+00         0.00000E+00        -0.50136E+08
 
   -0.50257E+08         0.76790E+05         0.00000E+00
    0.76790E+05        -0.50012E+08         0.00000E+00
    0.00000E+00         0.00000E+00        -0.50135E+08
 
   -0.50254E+08         0.80994E+05         0.00000E+00
    0.80994E+05        -0.50014E+08         0.00000E+00
    0.00000E+00         0.00000E+00        -0.50134E+08
 
   -0.50250E+08         0.85121E+05         0.00000E+00
    0.85121E+05        -0.50015E+08         0.00000E+00
    0.00000E+00         0.00000E+00        -0.50133E+08
 
   -0.50246E+08         0.89168E+05         0.00000E+00
    0.89168E+05        -0.50017E+08         0.00000E+00
    0.00000E+00         0.00000E+00        -0.50131E+08
 
   -0.50242E+08         0.93133E+05         0.00000E+00
    0.93133E+05        -0.50018E+08         0.00000E+00
    0.00000E+00         0.00000E+00        -0.50130E+08
 
   -0.50238E+08         0.97015E+05         0.00000E+00
    0.97015E+05        -0.50020E+08         0.00000E+00
    0.00000E+00         0.00000E+00        -0.50129E+08
 
   -0.50233E+08         0.10081E+06         0.00000E+00
    0.10081E+06        -0.50022E+08         0.00000E+00
    0.00000E+00         0.00000E+00        -0.50128E+08
 
   -0.50229E+08         0.10453E+06         0.00000E+00
    0.10453E+06        -0.50023E+08         0.00000E+00
    0.00000E+00         0.00000E+00        -0.50126E+08
 
   -0.50225E+08         0.10815E+06         0.00000E+00
    0.10815E+06        -0.50025E+08         0.00000E+00
    0.00000E+00         0.00000E+00        -0.50125E+08
 
   -0.50220E+08         0.11169E+06         0.00000E+00
    0.11169E+06        -0.50027E+08         0.00000E+00
    0.00000E+00         0.00000E+00        -0.50123E+08
 
   -0.50215E+08         0.11515E+06         0.00000E+00
    0.11515E+06        -0.50029E+08         0.00000E+00
    0.00000E+00         0.00000E+00        -0.50122E+08
 
   -0.50210E+08         0.11852E+06         0.00000E+00
    0.11852E+06        -0.50031E+08         0.00000E+00
    0.00000E+00         0.00000E+00        -0.50121E+08
 
   -0.50205E+08         0.12181E+06         0.00000E+00
    0.12181E+06        -0.50033E+08         0.00000E+00
    0.00000E+00         0.00000E+00        -0.50119E+08
 
   -0.50200E+08         0.12501E+06         0.00000E+00
    0.12501E+06        -0.50034E+08         0.00000E+00
    0.00000E+00         0.00000E+00        -0.50117E+08
 
   -0.50195E+08         0.12813E+06         0.00000E+00
    0.12813E+06        -0.50036E+08         0.00000E+00
    0.00000E+00         0.00000E+00        -0.50116E+08
 
   -0.50190E+08         0.13117E+06         0.00000E+00
    0.13117E+06        -0.50038E+08         0.00000E+00
    0.00000E+00         0.00000E+00        -0.50114E+08
 
   -0.50185E+08         0.13413E+06         0.00000E+00
    0.13413E+06        -0.50040E+08         0.00000E+00
    0.00000E+00         0.00000E+00        -0.50113E+08
 
   -0.50180E+08         0.13701E+06         0.00000E+00
    0.13701E+06        -0.50042E+08         0.00000E+00
    0.00000E+00         0.00000E+00        -0.50111E+08
 
   -0.50174E+08         0.13982E+06         0.00000E+00
    0.13982E+06        -0.50044E+08         0.00000E+00
    0.00000E+00         0.00000E+00        -0.50109E+08
 
   -0.50169E+08         0.14256E+06         0.00000E+00
    0.14256E+06        -0.50046E+08         0.00000E+00
    0.00000E+00         0.00000E+00        -0.50108E+08
 
   -0.50163E+08         0.14522E+06         0.00000E+00
    0.14522E+06        -0.50048E+08         0.00000E+00
    0.00000E+00         0.00000E+00        -0.50106E+08
 
   -0.50158E+08         0.14781E+06         0.00000E+00
    0.14781E+06        -0.50050E+08         0.00000E+00
    0.00000E+00         0.00000E+00        -0.50104E+08
 
   -0.50152E+08         0.15034E+06         0.00000E+00
    0.15034E+06        -0.50052E+08         0.00000E+00
    0.00000E+00         0.00000E+00        -0.50103E+08
 
   -0.50146E+08         0.15280E+06         0.00000E+00
    0.15280E+06        -0.50054E+08         0.00000E+00
    0.00000E+00         0.00000E+00        -0.50101E+08
 
   -0.50141E+08         0.15520E+06         0.00000E+00
    0.15520E+06        -0.50056E+08         0.00000E+00
    0.00000E+00         0.00000E+00        -0.50099E+08
 
   -0.50135E+08         0.15754E+06         0.00000E+00
    0.15754E+06        -0.50059E+08         0.00000E+00
    0.00000E+00         0.00000E+00        -0.50098E+08
 
   -0.50129E+08         0.15982E+06         0.00000E+00
    0.15982E+06        -0.50061E+08         0.00000E+00
    0.00000E+00         0.00000E+00        -0.50096E+08
 
   -0.50123E+08         0.16204E+06         0.00000E+00
    0.16204E+06        -0.50063E+08         0.00000E+00
    0.00000E+00         0.00000E+00        -0.50094E+08
 
   -0.50118E+08         0.16421E+06         0.00000E+00
    0.16421E+06        -0.50065E+08         0.00000E+00
    0.00000E+00         0.00000E+00        -0.50093E+08
 
   -0.50112E+08         0.16632E+06         0.00000E+00
    0.16632E+06        -0.50067E+08         0.00000E+00
    0.00000E+00         0.00000E+00        -0.50092E+08
 
   -0.50106E+08         0.16838E+06         0.00000E+00
    0.16838E+06        -0.50069E+08         0.00000E+00
    0.00000E+00         0.00000E+00        -0.50090E+08
 
   -0.50101E+08         0.17039E+06         0.00000E+00
    0.17039E+06        -0.50072E+08         0.00000E+00
    0.00000E+00         0.00000E+00        -0.50089E+08
 
   -0.50095E+08         0.17235E+06         0.00000E+00
    0.17235E+06        -0.50074E+08         0.00000E+00
    0.00000E+00         0.00000E+00        -0.50088E+08
 
   -0.50090E+08         0.17426E+06         0.00000E+00
    0.17426E+06        -0.50076E+08         0.00000E+00
    0.00000E+00         0.00000E+00        -0.50087E+08
 
   -0.50269E+08         0.21735E+04         0.00000E+00
    0.21735E+04        -0.50000E+08         0.00000E+00
    0.00000E+00         0.00000E+00        -0.50134E+08
 
   -0.50268E+08         0.65564E+04         0.00000E+00
    0.65564E+04        -0.50000E+08         0.00000E+00
    0.00000E+00         0.00000E+00        -0.50134E+08
 
   -0.50267E+08         0.10948E+05         0.00000E+00
    0.10948E+05        -0.50000E+08         0.00000E+00
    0.00000E+00         0.00000E+00        -0.50133E+08
 
   -0.50266E+08         0.15342E+05         0.00000E+00
    0.15342E+05        -0.50000E+08         0.00000E+00
    0.00000E+00         0.00000E+00        -0.50133E+08
 
   -0.50265E+08         0.19734E+05         0.00000E+00
    0.19734E+05        -0.50001E+08         0.00000E+00
    0.00000E+00         0.00000E+00        -0.50133E+08
 
   -0.50264E+08         0.24118E+05         0.00000E+00
    0.24118E+05        -0.50001E+08         0.00000E+00
    0.00000E+00         0.00000E+00        -0.50132E+08
 
   -0.50262E+08         0.28488E+05         0.00000E+00
    0.28488E+05        -0.50002E+08         0.00000E+00
    0.00000E+00         0.00000E+00        -0.50132E+08
 
   -0.50260E+08         0.32840E+05         0.00000E+00
    0.32840E+05        -0.50002E+08         0.00000E+00
    0.00000E+00         0.00000E+00        -0.50131E+08
 
   -0.50258E+08         0.37169E+05         0.00000E+00
    0.37169E+05        -0.50003E+08         0.00000E+00
    0.00000E+00         0.00000E+00        -0.50130E+08
 
   -0.50256E+08         0.41468E+05         0.00000E+00
    0.41468E+05        -0.50003E+08         0.00000E+00
    0.00000E+00         0.00000E+00        -0.50130E+08
 
   -0.50254E+08         0.45734E+05         0.00000E+00
    0.45734E+05        -0.50004E+08         0.00000E+00
    0.00000E+00         0.00000E+00        -0.50129E+08
 
   -0.50251E+08         0.49962E+05         0.00000E+00
    0.49962E+05        -0.50005E+08         0.00000E+00
    0.00000E+00         0.00000E+00        -0.50128E+08
 
   -0.50249E+08         0.54148E+05         0.00000E+00
    0.54148E+05        -0.50006E+08         0.00000E+00
    0.00000E+00         0.00000E+00        -0.50127E+08
 
   -0.50246E+08         0.58288E+05         0.00000E+00
    0.58288E+05        -0.50007E+08         0.00000E+00
    0.00000E+00         0.00000E+00        -0.50126E+08
 
   -0.50243E+08         0.62377E+05         0.00000E+00
    0.62377E+05        -0.50008E+08         0.00000E+00
    0.00000E+00         0.00000E+00        -0.50125E+08
 
   -0.50240E+08         0.66413E+05         0.00000E+00
    0.66413E+05        -0.50009E+08         0.00000E+00
    0.00000E+00         0.00000E+00        -0.50124E+08
 
   -0.50237E+08         0.70393E+05         0.00000E+00
    0.70393E+05        -0.50010E+08         0.00000E+00
    0.00000E+00         0.00000E+00        -0.50123E+08
 
   -0.50234E+08         0.74312E+05         0.00000E+00
    0.74312E+05        -0.50011E+08         0.00000E+00
    0.00000E+00         0.00000E+00        -0.50122E+08
 
   -0.50230E+08         0.78169E+05         0.00000E+00
    0.78169E+05        -0.50013E+08         0.00000E+00
    0.00000E+00         0.00000E+00        -0.50121E+08
 
   -0.50227E+08         0.81962E+05         0.00000E+00
    0.81962E+05        -0.50014E+08         0.00000E+00
    0.00000E+00         0.00000E+00        -0.50120E+08
 
   -0.50223E+08         0.85688E+05         0.00000E+00
    0.85688E+05        -0.50015E+08         0.00000E+00
    0.00000E+00         0.00000E+00        -0.50119E+08
 
   -0.50219E+08         0.89345E+05         0.00000E+00
    0.89345E+05        -0.50017E+08         0.00000E+00
    0.00000E+00         0.00000E+00        -0.50118E+08
 
   -0.50215E+08         0.92933E+05         0.00000E+00
    0.92933E+05        -0.50018E+08         0.00000E+00
    0.00000E+00         0.00000E+00        -0.50117E+08
 
   -0.50211E+08         0.96449E+05         0.00000E+00
    0.96449E+05        -0.50020E+08         0.00000E+00
    0.00000E+00         0.00000E+00        -0.50115E+08
 
   -0.50207E+08         0.99893E+05         0.00000E+00
    0.99893E+05        -0.50021E+08         0.00000E+00
    0.00000E+00         0.00000E+00        -0.50114E+08
 
   -0.50203E+08         0.10326E+06         0.00000E+00
    0.10326E+06        -0.50023E+08         0.00000E+00
    0.00000E+00         0.00000E+00        -0.50113E+08
 
   -0.50198E+08         0.10656E+06         0.00000E+00
    0.10656E+06        -0.50024E+08         0.00000E+00
    0.00000E+00         0.00000E+00        -0.50111E+08
 
   -0.50194E+08         0.10979E+06         0.00000E+00
    0.10979E+06        -0.50026E+08         0.00000E+00
    0.00000E+00         0.00000E+00        -0.50110E+08
 
   -0.50190E+08         0.11293E+06         0.00000E+00
    0.11293E+06        -0.50028E+08         0.00000E+00
    0.00000E+00         0.00000E+00        -0.50109E+08
 
   -0.50185E+08         0.11601E+06         0.00000E+00
    0.11601E+06        -0.50029E+08         0.00000E+00
    0.00000E+00         0.00000E+00        -0.50107E+08
 
   -0.50180E+08         0.11901E+06         0.00000E+00
    0.11901E+06        -0.50031E+08         0.00000E+00
    0.00000E+00         0.00000E+00        -0.50106E+08
 
   -0.50175E+08         0.12194E+06         0.00000E+00
    0.12194E+06        -0.50033E+08         0.00000E+00
    0.00000E+00         0.00000E+00        -0.50104E+08
 
   -0.50171E+08         0.12480E+06         0.00000E+00
    0.12480E+06        -0.50034E+08         0.00000E+00
    0.00000E+00         0.00000E+00        -0.50103E+08
 
   -0.50166E+08         0.12758E+06         0.00000E+00
    0.12758E+06        -0.50036E+08         0.00000E+00
    0.00000E+00         0.00000E+00        -0.50101E+08
 
   -0.50161E+08         0.13029E+06         0.00000E+00
    0.13029E+06        -0.50038E+08         0.00000E+00
    0.00000E+00         0.00000E+00        -0.50099E+08
 
   -0.50155E+08         0.13293E+06         0.00000E+00
    0.13293E+06        -0.50040E+08         0.00000E+00
    0.00000E+00         0.00000E+00        -0.50098E+08
 
   -0.50150E+08         0.13550E+06         0.00000E+00
    0.13550E+06        -0.50042E+08         0.00000E+00
    0.00000E+00         0.00000E+00        -0.50096E+08
 
   -0.50145E+08         0.13800E+06         0.00000E+00
    0.13800E+06        -0.50044E+08         0.00000E+00
    0.00000E+00         0.00000E+00        -0.50095E+08
 
   -0.50140E+08         0.14044E+06         0.00000E+00
    0.14044E+06        -0.50045E+08         0.00000E+00
    0.00000E+00         0.00000E+00        -0.50093E+08
 
   -0.50134E+08         0.14280E+06         0.00000E+00
    0.14280E+06        -0.50047E+08         0.00000E+00
    0.00000E+00         0.00000E+00        -0.50091E+08
 
   -0.50129E+08         0.14510E+06         0.00000E+00
    0.14510E+06        -0.50049E+08         0.00000E+00
    0.00000E+00         0.00000E+00        -0.50090E+08
 
   -0.50124E+08         0.14733E+06         0.00000E+00
    0.14733E+06        -0.50051E+08         0.00000E+00
    0.00000E+00         0.00000E+00        -0.50088E+08
 
   -0.50118E+08         0.14950E+06         0.00000E+00
    0.14950E+06        -0.50053E+08         0.00000E+00
    0.00000E+00         0.00000E+00        -0.50087E+08
 
   -0.50113E+08         0.15160E+06         0.00000E+00
    0.15160E+06        -0.50055E+08         0.00000E+00
    0.00000E+00         0.00000E+00        -0.50085E+08
 
   -0.50107E+08         0.15364E+06         0.00000E+00
    0.15364E+06        -0.50057E+08         0.00000E+00
    0.00000E+00         0.00000E+00        -0.50084E+08
 
   -0.50102E+08         0.15561E+06         0.00000E+00
    0.15561E+06        -0.50059E+08         0.00000E+00
    0.00000E+00         0.00000E+00        -0.50083E+08
 
   -0.50096E+08         0.15752E+06         0.00000E+00
    0.15752E+06        -0.50061E+08         0.00000E+00
    0.00000E+00         0.00000E+00        -0.50081E+08
 
   -0.50091E+08         0.15937E+06         0.00000E+00
    0.15937E+06        -0.50064E+08         0.00000E+00
    0.00000E+00         0.00000E+00        -0.50080E+08
 
   -0.50086E+08         0.16116E+06         0.00000E+00
    0.16116E+06        -0.50066E+08         0.00000E+00
    0.00000E+00         0.00000E+00        -0.50079E+08
 
   -0.50081E+08         0.16288E+06         0.00000E+00
    0.16288E+06        -0.50068E+08         0.00000E+00
    0.00000E+00         0.00000E+00        -0.50078E+08
 
   -0.50248E+08         0.20037E+04         0.00000E+00
    0.20037E+04        -0.50000E+08         0.00000E+00
    0.00000E+00         0.00000E+00        -0.50123E+08
 
   -0.50247E+08         0.60376E+04         0.00000E+00
    0.60376E+04        -0.50000E+08         0.00000E+00
    0.00000E+00         0.00000E+00        -0.50123E+08
 
   -0.50246E+08         0.10078E+05         0.00000E+00
    0.10078E+05        -0.50000E+08         0.00000E+00
    0.00000E+00         0.00000E+00        -0.50123E+08
 
   -0.50245E+08         0.14120E+05         0.00000E+00
    0.14120E+05        -0.50000E+08         0.00000E+00
    0.00000E+00         0.00000E+00        -0.50122E+08
 
   -0.50244E+08         0.18160E+05         0.00000E+00
    0.18160E+05        -0.50001E+08         0.00000E+00
    0.00000E+00         0.00000E+00        -0.50122E+08
 
   -0.50243E+08         0.22194E+05         0.00000E+00
    0.22194E+05        -0.50001E+08         0.00000E+00
    0.00000E+00         0.00000E+00        -0.50121E+08
 
   -0.50241E+08         0.26217E+05         0.00000E+00
    0.26217E+05        -0.50001E+08         0.00000E+00
    0.00000E+00         0.00000E+00        -0.50121E+08
 
   -0.50239E+08         0.30225E+05         0.00000E+00
    0.30225E+05        -0.50002E+08         0.00000E+00
    0.00000E+00         0.00000E+00        -0.50120E+08
 
   -0.50237E+08         0.34215E+05         0.00000E+00
    0.34215E+05        -0.50002E+08         0.00000E+00
    0.00000E+00         0.00000E+00        -0.50120E+08
 
   -0.50235E+08         0.38182E+05         0.00000E+00
    0.38182E+05        -0.50003E+08         0.00000E+00
    0.00000E+00         0.00000E+00        -0.50119E+08
 
   -0.50233E+08         0.42122E+05         0.00000E+00
    0.42122E+05        -0.50003E+08         0.00000E+00
    0.00000E+00         0.00000E+00        -0.50118E+08
 
   -0.50231E+08         0.46032E+05         0.00000E+00
    0.46032E+05        -0.50004E+08         0.00000E+00
    0.00000E+00         0.00000E+00        -0.50118E+08
 
   -0.50229E+08         0.49908E+05         0.00000E+00
    0.49908E+05        -0.50005E+08         0.00000E+00
    0.00000E+00         0.00000E+00        -0.50117E+08
 
   -0.50226E+08         0.53746E+05         0.00000E+00
    0.53746E+05        -0.50006E+08         0.00000E+00
    0.00000E+00         0.00000E+00        -0.50116E+08
 
   -0.50223E+08         0.57544E+05         0.00000E+00
    0.57544E+05        -0.50007E+08         0.00000E+00
    0.00000E+00         0.00000E+00        -0.50115E+08
 
   -0.50221E+08         0.61298E+05         0.00000E+00
    0.61298E+05        -0.50007E+08         0.00000E+00
    0.00000E+00         0.00000E+00        -0.50114E+08
 
   -0.50218E+08         0.65006E+05         0.00000E+00
    0.65006E+05        -0.50008E+08         0.00000E+00
    0.00000E+00         0.00000E+00        -0.50113E+08
 
   -0.50215E+08         0.68664E+05         0.00000E+00
    0.68664E+05        -0.50009E+08         0.00000E+00
    0.00000E+00         0.00000E+00        -0.50112E+08
 
   -0.50212E+08         0.72271E+05         0.00000E+00
    0.72271E+05        -0.50011E+08         0.00000E+00
    0.00000E+00         0.00000E+00        -0.50111E+08
 
   -0.50208E+08         0.75823E+05         0.00000E+00
    0.75823E+05        -0.50012E+08         0.00000E+00
    0.00000E+00         0.00000E+00        -0.50110E+08
 
   -0.50205E+08         0.79320E+05         0.00000E+00
    0.79320E+05        -0.50013E+08         0.00000E+00
    0.00000E+00         0.00000E+00        -0.50109E+08
 
   -0.50202E+08         0.82758E+05         0.00000E+00
    0.82758E+05        -0.50014E+08         0.00000E+00
    0.00000E+00         0.00000E+00        -0.50108E+08
 
   -0.50198E+08         0.86137E+05         0.00000E+00
    0.86137E+05        -0.50015E+08         0.00000E+00
    0.00000E+00         0.00000E+00        -0.50107E+08
 
   -0.50194E+08         0.89455E+05         0.00000E+00
    0.89455E+05        -0.50017E+08         0.00000E+00
    0.00000E+00         0.00000E+00        -0.50105E+08
 
   -0.50190E+08         0.92710E+05         0.00000E+00
    0.92710E+05        -0.50018E+08         0.00000E+00
    0.00000E+00         0.00000E+00        -0.50104E+08
 
   -0.50187E+08         0.95902E+05         0.00000E+00
    0.95902E+05        -0.50019E+08         0.00000E+00
    0.00000E+00         0.00000E+00        -0.50103E+08
 
   -0.50183E+08         0.99028E+05         0.00000E+00
    0.99028E+05        -0.50021E+08         0.00000E+00
    0.00000E+00         0.00000E+00        -0.50102E+08
 
   -0.50179E+08         0.10209E+06         0.00000E+00
    0.10209E+06        -0.50022E+08         0.00000E+00
    0.00000E+00         0.00000E+00        -0.50100E+08
 
   -0.50174E+08         0.10508E+06         0.00000E+00
    0.10508E+06        -0.50023E+08         0.00000E+00
    0.00000E+00         0.00000E+00        -0.50099E+08
 
   -0.50170E+08         0.10801E+06         0.00000E+00
    0.10801E+06        -0.50025E+08         0.00000E+00
    0.00000E+00         0.00000E+00        -0.50098E+08
 
   -0.50166E+08         0.11087E+06         0.00000E+00
    0.11087E+06        -0.50027E+08         0.00000E+00
    0.00000E+00         0.00000E+00        -0.50096E+08
 
   -0.50161E+08         0.11366E+06         0.00000E+00
    0.11366E+06        -0.50028E+08         0.00000E+00
    0.00000E+00         0.00000E+00        -0.50095E+08
 
   -0.50157E+08         0.11639E+06         0.00000E+00
    0.11639E+06        -0.50030E+08         0.00000E+00
    0.00000E+00         0.00000E+00        -0.50093E+08
 
   -0.50152E+08         0.11905E+06         0.00000E+00
    0.11905E+06        -0.50031E+08         0.00000E+00
    0.00000E+00         0.00000E+00        -0.50092E+08
 
   -0.50148E+08         0.12163E+06         0.00000E+00
    0.12163E+06        -0.50033E+08         0.00000E+00
    0.00000E+00         0.00000E+00        -0.50090E+08
 
   -0.50143E+08         0.12415E+06         0.00000E+00
    0.12415E+06        -0.50035E+08         0.00000E+00
    0.00000E+00         0.00000E+00        -0.50089E+08
 
   -0.50138E+08         0.12660E+06         0.00000E+00
    0.12660E+06        -0.50036E+08         0.00000E+00
    0.00000E+00         0.00000E+00        -0.50087E+08
 
   -0.50133E+08         0.12898E+06         0.00000E+00
    0.12898E+06        -0.50038E+08         0.00000E+00
    0.00000E+00         0.00000E+00        -0.50086E+08
 
   -0.50128E+08         0.13129E+06         0.00000E+00
    0.13129E+06        -0.50040E+08         0.00000E+00
    0.00000E+00         0.00000E+00        -0.50084E+08
 
   -0.50123E+08         0.13353E+06         0.00000E+00
    0.13353E+06        -0.50041E+08         0.00000E+00
    0.00000E+00         0.00000E+00        -0.50083E+08
 
   -0.50118E+08         0.13571E+06         0.00000E+00
    0.13571E+06        -0.50043E+08         0.00000E+00
    0.00000E+00         0.00000E+00        -0.50081E+08
 
   -0.50113E+08         0.13781E+06         0.00000E+00
    0.13781E+06        -0.50045E+08         0.00000E+00
    0.00000E+00         0.00000E+00        -0.50080E+08
 
   -0.50108E+08         0.13985E+06         0.00000E+00
    0.13985E+06        -0.50047E+08         0.00000E+00
    0.00000E+00         0.00000E+00        -0.50078E+08
 
   -0.50103E+08         0.14181E+06         0.00000E+00
    0.14181E+06        -0.50049E+08         0.00000E+00
    0.00000E+00         0.00000E+00        -0.50077E+08
 
   -0.50098E+08         0.14371E+06         0.00000E+00
    0.14371E+06        -0.50051E+08         0.00000E+00
    0.00000E+00         0.00000E+00        -0.50076E+08
 
   -0.50093E+08         0.14553E+06         0.00000E+00
    0.14553E+06        -0.50053E+08         0.00000E+00
    0.00000E+00         0.00000E+00        -0.50074E+08
 
   -0.50087E+08         0.14729E+06         0.00000E+00
    0.14729E+06        -0.50055E+08         0.00000E+00
    0.00000E+00         0.00000E+00        -0.50073E+08
 
   -0.50082E+08         0.14898E+06         0.00000E+00
    0.14898E+06        -0.50057E+08         0.00000E+00
    0.00000E+00         0.00000E+00        -0.50072E+08
 
   -0.50077E+08         0.15060E+06         0.00000E+00
    0.15060E+06        -0.50059E+08         0.00000E+00
    0.00000E+00         0.00000E+00        -0.50071E+08
 
   -0.50073E+08         0.15216E+06         0.00000E+00
    0.15216E+06        -0.50061E+08         0.00000E+00
    0.00000E+00         0.00000E+00        -0.50071E+08
 
   -0.50228E+08         0.18663E+04         0.00000E+00
    0.18663E+04        -0.50000E+08         0.00000E+00
    0.00000E+00         0.00000E+00        -0.50113E+08
 
   -0.50228E+08         0.56155E+04         0.00000E+00
    0.56155E+04        -0.50000E+08         0.00000E+00
    0.00000E+00         0.00000E+00        -0.50113E+08
 
   -0.50227E+08         0.93679E+04         0.00000E+00
    0.93679E+04        -0.50000E+08         0.00000E+00
    0.00000E+00         0.00000E+00        -0.50113E+08
 
   -0.50226E+08         0.13120E+05         0.00000E+00
    0.13120E+05        -0.50000E+08         0.00000E+00
    0.00000E+00         0.00000E+00        -0.50113E+08
 
   -0.50224E+08         0.16869E+05         0.00000E+00
    0.16869E+05        -0.50001E+08         0.00000E+00
    0.00000E+00         0.00000E+00        -0.50112E+08
 
   -0.50223E+08         0.20612E+05         0.00000E+00
    0.20612E+05        -0.50001E+08         0.00000E+00
    0.00000E+00         0.00000E+00        -0.50112E+08
 
   -0.50222E+08         0.24344E+05         0.00000E+00
    0.24344E+05        -0.50001E+08         0.00000E+00
    0.00000E+00         0.00000E+00        -0.50111E+08
 
   -0.50220E+08         0.28064E+05         0.00000E+00
    0.28064E+05        -0.50001E+08         0.00000E+00
    0.00000E+00         0.00000E+00        -0.50111E+08
 
   -0.50218E+08         0.31766E+05         0.00000E+00
    0.31766E+05        -0.50002E+08         0.00000E+00
    0.00000E+00         0.00000E+00        -0.50110E+08
 
   -0.50216E+08         0.35450E+05         0.00000E+00
    0.35450E+05        -0.50002E+08         0.00000E+00
    0.00000E+00         0.00000E+00        -0.50109E+08
 
   -0.50214E+08         0.39110E+05         0.00000E+00
    0.39110E+05        -0.50003E+08         0.00000E+00
    0.00000E+00         0.00000E+00        -0.50109E+08
 
   -0.50212E+08         0.42744E+05         0.00000E+00
    0.42744E+05        -0.50003E+08         0.00000E+00
    0.00000E+00         0.00000E+00        -0.50108E+08
 
   -0.50210E+08         0.46350E+05         0.00000E+00
    0.46350E+05        -0.50004E+08         0.00000E+00
    0.00000E+00         0.00000E+00        -0.50107E+08
 
   -0.50208E+08         0.49923E+05         0.00000E+00
    0.49923E+05        -0.50005E+08         0.00000E+00
    0.00000E+00         0.00000E+00        -0.50106E+08
 
   -0.50205E+08         0.53462E+05         0.00000E+00
    0.53462E+05        -0.50005E+08         0.00000E+00
    0.00000E+00         0.00000E+00        -0.50105E+08
 
   -0.50203E+08         0.56964E+05         0.00000E+00
    0.56964E+05        -0.50006E+08         0.00000E+00
    0.00000E+00         0.00000E+00        -0.50104E+08
 
   -0.50200E+08         0.60425E+05         0.00000E+00
    0.60425E+05        -0.50007E+08         0.00000E+00
    0.00000E+00         0.00000E+00        -0.50104E+08
 
   -0.50197E+08         0.63845E+05         0.00000E+00
    0.63845E+05        -0.50008E+08         0.00000E+00
    0.00000E+00         0.00000E+00        -0.50103E+08
 
   -0.50194E+08         0.67220E+05         0.00000E+00
    0.67220E+05        -0.50009E+08         0.00000E+00
    0.00000E+00         0.00000E+00        -0.50102E+08
 
   -0.50191E+08         0.70548E+05         0.00000E+00
    0.70548E+05        -0.50010E+08         0.00000E+00
    0.00000E+00         0.00000E+00        -0.50101E+08
 
   -0.50188E+08         0.73827E+05         0.00000E+00
    0.73827E+05        -0.50011E+08         0.00000E+00
    0.00000E+00         0.00000E+00        -0.50100E+08
 
   -0.50185E+08         0.77056E+05         0.00000E+00
    0.77056E+05        -0.50012E+08         0.00000E+00
    0.00000E+00         0.00000E+00        -0.50098E+08
 
   -0.50182E+08         0.80233E+05         0.00000E+00
    0.80233E+05        -0.50013E+08         0.00000E+00
    0.00000E+00         0.00000E+00        -0.50097E+08
 
   -0.50178E+08         0.83355E+05         0.00000E+00
    0.83355E+05        -0.50014E+08         0.00000E+00
    0.00000E+00         0.00000E+00        -0.50096E+08
 
   -0.50175E+08         0.86422E+05         0.00000E+00
    0.86422E+05        -0.50015E+08         0.00000E+00
    0.00000E+00         0.00000E+00        -0.50095E+08
 
   -0.50171E+08         0.89431E+05         0.00000E+00
    0.89431E+05        -0.50016E+08         0.00000E+00
    0.00000E+00         0.00000E+00        -0.50094E+08
 
   -0.50168E+08         0.92383E+05         0.00000E+00
    0.92383E+05        -0.50018E+08         0.00000E+00
    0.00000E+00         0.00000E+00        -0.50093E+08
 
   -0.50164E+08         0.95275E+05         0.00000E+00
    0.95275E+05        -0.50019E+08         0.00000E+00
    0.00000E+00         0.00000E+00        -0.50091E+08
 
   -0.50160E+08         0.98106E+05         0.00000E+00
    0.98106E+05        -0.50020E+08         0.00000E+00
    0.00000E+00         0.00000E+00        -0.50090E+08
 
   -0.50156E+08         0.10088E+06         0.00000E+00
    0.10088E+06        -0.50022E+08         0.00000E+00
    0.00000E+00         0.00000E+00        -0.50089E+08
 
   -0.50152E+08         0.10358E+06         0.00000E+00
    0.10358E+06        -0.50023E+08         0.00000E+00
    0.00000E+00         0.00000E+00        -0.50088E+08
 
   -0.50148E+08         0.10623E+06         0.00000E+00
    0.10623E+06        -0.50024E+08         0.00000E+00
    0.00000E+00         0.00000E+00        -0.50086E+08
 
   -0.50144E+08         0.10880E+06         0.00000E+00
    0.10880E+06        -0.50026E+08         0.00000E+00
    0.00000E+00         0.00000E+00        -0.50085E+08
 
   -0.50139E+08         0.11132E+06         0.00000E+00
    0.11132E+06        -0.50027E+08         0.00000E+00
    0.00000E+00         0.00000E+00        -0.50083E+08
 
   -0.50135E+08         0.11376E+06         0.00000E+00
    0.11376E+06        -0.50029E+08         0.00000E+00
    0.00000E+00         0.00000E+00        -0.50082E+08
 
   -0.50131E+08         0.11615E+06         0.00000E+00
    0.11615E+06        -0.50030E+08         0.00000E+00
    0.00000E+00         0.00000E+00        -0.50081E+08
 
   -0.50126E+08         0.11846E+06         0.00000E+00
    0.11846E+06        -0.50032E+08         0.00000E+00
    0.00000E+00         0.00000E+00        -0.50079E+08
 
   -0.50122E+08         0.12070E+06         0.00000E+00
    0.12070E+06        -0.50033E+08         0.00000E+00
    0.00000E+00         0.00000E+00        -0.50078E+08
 
   -0.50117E+08         0.12288E+06         0.00000E+00
    0.12288E+06        -0.50035E+08         0.00000E+00
    0.00000E+00         0.00000E+00        -0.50076E+08
 
   -0.50112E+08         0.12499E+06         0.00000E+00
    0.12499E+06        -0.50037E+08         0.00000E+00
    0.00000E+00         0.00000E+00        -0.50075E+08
 
   -0.50108E+08         0.12703E+06         0.00000E+00
    0.12703E+06        -0.50038E+08         0.00000E+00
    0.00000E+00         0.00000E+00        -0.50074E+08
 
   -0.50103E+08         0.12899E+06         0.00000E+00
    0.12899E+06        -0.50040E+08         0.00000E+00
    0.00000E+00         0.00000E+00        -0.50072E+08
 
   -0.50098E+08         0.13089E+06         0.00000E+00
    0.13089E+06        -0.50042E+08         0.00000E+00
    0.00000E+00         0.00000E+00        -0.50071E+08
 
   -0.50093E+08         0.13271E+06         0.00000E+00
    0.13271E+06        -0.50043E+08         0.00000E+00
    0.00000E+00         0.00000E+00        -0.50070E+08
 
   -0.50089E+08         0.13447E+06         0.00000E+00
    0.13447E+06        -0.50045E+08         0.00000E+00
    0.00000E+00         0.00000E+00        -0.50068E+08
 
   -0.50084E+08         0.13615E+06         0.00000E+00
    0.13615E+06        -0.50047E+08         0.00000E+00
    0.00000E+00         0.00000E+00        -0.50067E+08
 
   -0.50079E+08         0.13776E+06         0.00000E+00
    0.13776E+06        -0.50049E+08         0.00000E+00
    0.00000E+00         0.00000E+00        -0.50066E+08
 
   -0.50075E+08         0.13929E+06         0.00000E+00
    0.13929E+06        -0.50051E+08         0.00000E+00
    0.00000E+00         0.00000E+00        -0.50065E+08
 
   -0.50070E+08         0.14076E+06         0.00000E+00
    0.14076E+06        -0.50052E+08         0.00000E+00
    0.00000E+00         0.00000E+00        -0.50064E+08
 
   -0.50065E+08         0.14215E+06         0.00000E+00
    0.14215E+06        -0.50054E+08         0.00000E+00
    0.00000E+00         0.00000E+00        -0.50064E+08
 
   -0.50210E+08         0.17527E+04         0.00000E+00
    0.17527E+04        -0.50000E+08         0.00000E+00
    0.00000E+00         0.00000E+00        -0.50104E+08
 
   -0.50210E+08         0.52653E+04         0.00000E+00
    0.52653E+04        -0.50000E+08         0.00000E+00
    0.00000E+00         0.00000E+00        -0.50104E+08
 
   -0.50209E+08         0.87777E+04         0.00000E+00
    0.87777E+04        -0.50000E+08         0.00000E+00
    0.00000E+00         0.00000E+00        -0.50104E+08
 
   -0.50208E+08         0.12288E+05         0.00000E+00
    0.12288E+05        -0.50000E+08         0.00000E+00
    0.00000E+00         0.00000E+00        -0.50103E+08
 
   -0.50206E+08         0.15792E+05         0.00000E+00
    0.15792E+05        -0.50000E+08         0.00000E+00
    0.00000E+00         0.00000E+00        -0.50103E+08
 
   -0.50205E+08         0.19289E+05         0.00000E+00
    0.19289E+05        -0.50001E+08         0.00000E+00
    0.00000E+00         0.00000E+00        -0.50103E+08
 
   -0.50204E+08         0.22775E+05         0.00000E+00
    0.22775E+05        -0.50001E+08         0.00000E+00
    0.00000E+00         0.00000E+00        -0.50102E+08
 
   -0.50202E+08         0.26249E+05         0.00000E+00
    0.26249E+05        -0.50001E+08         0.00000E+00
    0.00000E+00         0.00000E+00        -0.50101E+08
 
   -0.50200E+08         0.29706E+05         0.00000E+00
    0.29706E+05        -0.50002E+08         0.00000E+00
    0.00000E+00         0.00000E+00        -0.50101E+08
 
   -0.50199E+08         0.33145E+05         0.00000E+00
    0.33145E+05        -0.50002E+08         0.00000E+00
    0.00000E+00         0.00000E+00        -0.50100E+08
 
   -0.50197E+08         0.36563E+05         0.00000E+00
    0.36563E+05        -0.50002E+08         0.00000E+00
    0.00000E+00         0.00000E+00        -0.50099E+08
 
   -0.50195E+08         0.39957E+05         0.00000E+00
    0.39957E+05        -0.50003E+08         0.00000E+00
    0.00000E+00         0.00000E+00        -0.50099E+08
 
   -0.50193E+08         0.43325E+05         0.00000E+00
    0.43325E+05        -0.50003E+08         0.00000E+00
    0.00000E+00         0.00000E+00        -0.50098E+08
 
   -0.50190E+08         0.46664E+05         0.00000E+00
    0.46664E+05        -0.50004E+08         0.00000E+00
    0.00000E+00         0.00000E+00        -0.50097E+08
 
   -0.50188E+08         0.49972E+05         0.00000E+00
    0.49972E+05        -0.50005E+08         0.00000E+00
    0.00000E+00         0.00000E+00        -0.50096E+08
 
   -0.50186E+08         0.53247E+05         0.00000E+00
    0.53247E+05        -0.50005E+08         0.00000E+00
    0.00000E+00         0.00000E+00        -0.50096E+08
 
   -0.50183E+08         0.56487E+05         0.00000E+00
    0.56487E+05        -0.50006E+08         0.00000E+00
    0.00000E+00         0.00000E+00        -0.50095E+08
 
   -0.50181E+08         0.59689E+05         0.00000E+00
    0.59689E+05        -0.50007E+08         0.00000E+00
    0.00000E+00         0.00000E+00        -0.50094E+08
 
   -0.50178E+08         0.62851E+05         0.00000E+00
    0.62851E+05        -0.50008E+08         0.00000E+00
    0.00000E+00         0.00000E+00        -0.50093E+08
 
   -0.50175E+08         0.65971E+05         0.00000E+00
    0.65971E+05        -0.50008E+08         0.00000E+00
    0.00000E+00         0.00000E+00        -0.50092E+08
 
   -0.50172E+08         0.69047E+05         0.00000E+00
    0.69047E+05        -0.50009E+08         0.00000E+00
    0.00000E+00         0.00000E+00        -0.50091E+08
 
   -0.50169E+08         0.72077E+05         0.00000E+00
    0.72077E+05        -0.50010E+08         0.00000E+00
    0.00000E+00         0.00000E+00        -0.50090E+08
 
   -0.50166E+08         0.75061E+05         0.00000E+00
    0.75061E+05        -0.50011E+08         0.00000E+00
    0.00000E+00         0.00000E+00        -0.50089E+08
 
   -0.50163E+08         0.77995E+05         0.00000E+00
    0.77995E+05        -0.50012E+08         0.00000E+00
    0.00000E+00         0.00000E+00        -0.50088E+08
 
   -0.50160E+08         0.80878E+05         0.00000E+00
    0.80878E+05        -0.50013E+08         0.00000E+00
    0.00000E+00         0.00000E+00        -0.50087E+08
 
   -0.50157E+08         0.83710E+05         0.00000E+00
    0.83710E+05        -0.50014E+08         0.00000E+00
    0.00000E+00         0.00000E+00        -0.50086E+08
 
   -0.50153E+08         0.86487E+05         0.00000E+00
    0.86487E+05        -0.50015E+08         0.00000E+00
    0.00000E+00         0.00000E+00        -0.50084E+08
 
   -0.50150E+08         0.89210E+05         0.00000E+00
    0.89210E+05        -0.50016E+08         0.00000E+00
    0.00000E+00         0.00000E+00        -0.50083E+08
 
   -0.50146E+08         0.91876E+05         0.00000E+00
    0.91876E+05        -0.50018E+08         0.00000E+00
    0.00000E+00         0.00000E+00        -0.50082E+08
 
   -0.50143E+08         0.94484E+05         0.00000E+00
    0.94484E+05        -0.50019E+08         0.00000E+00
    0.00000E+00         0.00000E+00        -0.50081E+08
 
   -0.50139E+08         0.97033E+05         0.00000E+00
    0.97033E+05        -0.50020E+08         0.00000E+00
    0.00000E+00         0.00000E+00        -0.50080E+08
 
   -0.50135E+08         0.99522E+05         0.00000E+00
    0.99522E+05        -0.50021E+08         0.00000E+00
    0.00000E+00         0.00000E+00        -0.50078E+08
 
   -0.50131E+08         0.10195E+06         0.00000E+00
    0.10195E+06        -0.50023E+08         0.00000E+00
    0.00000E+00         0.00000E+00        -0.50077E+08
 
   -0.50127E+08         0.10432E+06         0.00000E+00
    0.10432E+06        -0.50024E+08         0.00000E+00
    0.00000E+00         0.00000E+00        -0.50076E+08
 
   -0.50123E+08         0.10662E+06         0.00000E+00
    0.10662E+06        -0.50025E+08         0.00000E+00
    0.00000E+00         0.00000E+00        -0.50074E+08
 
   -0.50119E+08         0.10886E+06         0.00000E+00
    0.10886E+06        -0.50027E+08         0.00000E+00
    0.00000E+00         0.00000E+00        -0.50073E+08
 
   -0.50115E+08         0.11103E+06         0.00000E+00
    0.11103E+06        -0.50028E+08         0.00000E+00
    0.00000E+00         0.00000E+00        -0.50072E+08
 
   -0.50111E+08         0.11313E+06         0.00000E+00
    0.11313E+06        -0.50029E+08         0.00000E+00
    0.00000E+00         0.00000E+00        -0.50071E+08
 
   -0.50107E+08         0.11517E+06         0.00000E+00
    0.11517E+06        -0.50031E+08         0.00000E+00
    0.00000E+00         0.00000E+00        -0.50069E+08
 
   -0.50102E+08         0.11714E+06         0.00000E+00
    0.11714E+06        -0.50032E+08         0.00000E+00
    0.00000E+00         0.00000E+00        -0.50068E+08
 
   -0.50098E+08         0.11904E+06         0.00000E+00
    0.11904E+06        -0.50034E+08         0.00000E+00
    0.00000E+00         0.00000E+00        -0.50067E+08
 
   -0.50094E+08         0.12087E+06         0.00000E+00
    0.12087E+06        -0.50036E+08         0.00000E+00
    0.00000E+00         0.00000E+00        -0.50065E+08
 
   -0.50089E+08         0.12263E+06         0.00000E+00
    0.12263E+06        -0.50037E+08         0.00000E+00
    0.00000E+00         0.00000E+00        -0.50064E+08
 
   -0.50085E+08         0.12431E+06         0.00000E+00
    0.12431E+06        -0.50039E+08         0.00000E+00
    0.00000E+00         0.00000E+00        -0.50063E+08
 
   -0.50080E+08         0.12593E+06         0.00000E+00
    0.12593E+06        -0.50040E+08         0.00000E+00
    0.00000E+00         0.00000E+00        -0.50062E+08
 
   -0.50076E+08         0.12747E+06         0.00000E+00
    0.12747E+06        -0.50042E+08         0.00000E+00
    0.00000E+00         0.00000E+00        -0.50061E+08
 
   -0.50072E+08         0.12894E+06         0.00000E+00
    0.12894E+06        -0.50044E+08         0.00000E+00
    0.00000E+00         0.00000E+00        -0.50060E+08
 
   -0.50067E+08         0.13034E+06         0.00000E+00
    0.13034E+06        -0.50045E+08         0.00000E+00
    0.00000E+00         0.00000E+00        -0.50059E+08
 
   -0.50063E+08         0.13166E+06         0.00000E+00
    0.13166E+06        -0.50047E+08         0.00000E+00
    0.00000E+00         0.00000E+00        -0.50058E+08
 
   -0.50059E+08         0.13291E+06         0.00000E+00
    0.13291E+06        -0.50049E+08         0.00000E+00
    0.00000E+00         0.00000E+00        -0.50057E+08
 
   -0.50193E+08         0.16565E+04         0.00000E+00
    0.16565E+04        -0.50000E+08         0.00000E+00
    0.00000E+00         0.00000E+00        -0.50096E+08
 
   -0.50193E+08         0.49682E+04         0.00000E+00
    0.49682E+04        -0.50000E+08         0.00000E+00
    0.00000E+00         0.00000E+00        -0.50095E+08
 
   -0.50192E+08         0.82769E+04         0.00000E+00
    0.82769E+04        -0.50000E+08         0.00000E+00
    0.00000E+00         0.00000E+00        -0.50095E+08
 
   -0.50191E+08         0.11580E+05         0.00000E+00
    0.11580E+05        -0.50000E+08         0.00000E+00
    0.00000E+00         0.00000E+00        -0.50095E+08
 
   -0.50189E+08         0.14876E+05         0.00000E+00
    0.14876E+05        -0.50000E+08         0.00000E+00
    0.00000E+00         0.00000E+00        -0.50094E+08
 
   -0.50188E+08         0.18163E+05         0.00000E+00
    0.18163E+05        -0.50001E+08         0.00000E+00
    0.00000E+00         0.00000E+00        -0.50094E+08
 
   -0.50187E+08         0.21438E+05         0.00000E+00
    0.21438E+05        -0.50001E+08         0.00000E+00
    0.00000E+00         0.00000E+00        -0.50093E+08
 
   -0.50185E+08         0.24698E+05         0.00000E+00
    0.24698E+05        -0.50001E+08         0.00000E+00
    0.00000E+00         0.00000E+00        -0.50093E+08
 
   -0.50184E+08         0.27943E+05         0.00000E+00
    0.27943E+05        -0.50001E+08         0.00000E+00
    0.00000E+00         0.00000E+00        -0.50092E+08
 
   -0.50182E+08         0.31169E+05         0.00000E+00
    0.31169E+05        -0.50002E+08         0.00000E+00
    0.00000E+00         0.00000E+00        -0.50092E+08
 
   -0.50180E+08         0.34375E+05         0.00000E+00
    0.34375E+05        -0.50002E+08         0.00000E+00
    0.00000E+00         0.00000E+00        -0.50091E+08
 
   -0.50178E+08         0.37558E+05         0.00000E+00
    0.37558E+05        -0.50003E+08         0.00000E+00
    0.00000E+00         0.00000E+00        -0.50090E+08
 
   -0.50176E+08         0.40717E+05         0.00000E+00
    0.40717E+05        -0.50003E+08         0.00000E+00
    0.00000E+00         0.00000E+00        -0.50090E+08
 
   -0.50174E+08         0.43848E+05         0.00000E+00
    0.43848E+05        -0.50003E+08         0.00000E+00
    0.00000E+00         0.00000E+00        -0.50089E+08
 
   -0.50172E+08         0.46951E+05         0.00000E+00
    0.46951E+05        -0.50004E+08         0.00000E+00
    0.00000E+00         0.00000E+00        -0.50088E+08
 
   -0.50170E+08         0.50022E+05         0.00000E+00
    0.50022E+05        -0.50005E+08         0.00000E+00
    0.00000E+00         0.00000E+00        -0.50087E+08
 
   -0.50168E+08         0.53061E+05         0.00000E+00
    0.53061E+05        -0.50005E+08         0.00000E+00
    0.00000E+00         0.00000E+00        -0.50086E+08
 
   -0.50165E+08         0.56065E+05         0.00000E+00
    0.56065E+05        -0.50006E+08         0.00000E+00
    0.00000E+00         0.00000E+00        -0.50086E+08
 
   -0.50163E+08         0.59031E+05         0.00000E+00
    0.59031E+05        -0.50007E+08         0.00000E+00
    0.00000E+00         0.00000E+00        -0.50085E+08
 
   -0.50160E+08         0.61959E+05         0.00000E+00
    0.61959E+05        -0.50007E+08         0.00000E+00
    0.00000E+00         0.00000E+00        -0.50084E+08
 
   -0.50158E+08         0.64847E+05         0.00000E+00
    0.64847E+05        -0.50008E+08         0.00000E+00
    0.00000E+00         0.00000E+00        -0.50083E+08
 
   -0.50155E+08         0.67693E+05         0.00000E+00
    0.67693E+05        -0.50009E+08         0.00000E+00
    0.00000E+00         0.00000E+00        -0.50082E+08
 
   -0.50152E+08         0.70494E+05         0.00000E+00
    0.70494E+05        -0.50010E+08         0.00000E+00
    0.00000E+00         0.00000E+00        -0.50081E+08
 
   -0.50149E+08         0.73250E+05         0.00000E+00
    0.73250E+05        -0.50011E+08         0.00000E+00
    0.00000E+00         0.00000E+00        -0.50080E+08
 
   -0.50146E+08         0.75959E+05         0.00000E+00
    0.75959E+05        -0.50012E+08         0.00000E+00
    0.00000E+00         0.00000E+00        -0.50079E+08
 
   -0.50143E+08         0.78619E+05         0.00000E+00
    0.78619E+05        -0.50012E+08         0.00000E+00
    0.00000E+00         0.00000E+00        -0.50078E+08
 
   -0.50140E+08         0.81229E+05         0.00000E+00
    0.81229E+05        -0.50013E+08         0.00000E+00
    0.00000E+00         0.00000E+00        -0.50077E+08
 
   -0.50137E+08         0.83787E+05         0.00000E+00
    0.83787E+05        -0.50014E+08         0.00000E+00
    0.00000E+00         0.00000E+00        -0.50076E+08
 
   -0.50134E+08         0.86292E+05         0.00000E+00
    0.86292E+05        -0.50016E+08         0.00000E+00
    0.00000E+00         0.00000E+00        -0.50075E+08
 
   -0.50130E+08         0.88742E+05         0.00000E+00
    0.88742E+05        -0.50017E+08         0.00000E+00
    0.00000E+00         0.00000E+00        -0.50073E+08
 
   -0.50127E+08         0.91137E+05         0.00000E+00
    0.91137E+05        -0.50018E+08         0.00000E+00
    0.00000E+00         0.00000E+00        -0.50072E+08
 
   -0.50123E+08         0.93474E+05         0.00000E+00
    0.93474E+05        -0.50019E+08         0.00000E+00
    0.00000E+00         0.00000E+00        -0.50071E+08
 
   -0.50120E+08         0.95752E+05         0.00000E+00
    0.95752E+05        -0.50020E+08         0.00000E+00
    0.00000E+00         0.00000E+00        -0.50070E+08
 
   -0.50116E+08         0.97971E+05         0.00000E+00
    0.97971E+05        -0.50021E+08         0.00000E+00
    0.00000E+00         0.00000E+00        -0.50069E+08
 
   -0.50112E+08         0.10013E+06         0.00000E+00
    0.10013E+06        -0.50022E+08         0.00000E+00
    0.00000E+00         0.00000E+00        -0.50068E+08
 
   -0.50109E+08         0.10222E+06         0.00000E+00
    0.10222E+06        -0.50024E+08         0.00000E+00
    0.00000E+00         0.00000E+00        -0.50066E+08
 
   -0.50105E+08         0.10425E+06         0.00000E+00
    0.10425E+06        -0.50025E+08         0.00000E+00
    0.00000E+00         0.00000E+00        -0.50065E+08
 
   -0.50101E+08         0.10622E+06         0.00000E+00
    0.10622E+06        -0.50026E+08         0.00000E+00
    0.00000E+00         0.00000E+00        -0.50064E+08
 
   -0.50097E+08         0.10812E+06         0.00000E+00
    0.10812E+06        -0.50028E+08         0.00000E+00
    0.00000E+00         0.00000E+00        -0.50063E+08
 
   -0.50093E+08         0.10996E+06         0.00000E+00
    0.10996E+06        -0.50029E+08         0.00000E+00
    0.00000E+00         0.00000E+00        -0.50061E+08
 
   -0.50089E+08         0.11172E+06         0.00000E+00
    0.11172E+06        -0.50030E+08         0.00000E+00
    0.00000E+00         0.00000E+00        -0.50060E+08
 
   -0.50085E+08         0.11342E+06         0.00000E+00
    0.11342E+06        -0.50032E+08         0.00000E+00
    0.00000E+00         0.00000E+00        -0.50059E+08
 
   -0.50081E+08         0.11505E+06         0.00000E+00
    0.11505E+06        -0.50033E+08         0.00000E+00
    0.00000E+00         0.00000E+00        -0.50058E+08
 
   -0.50077E+08         0.11660E+06         0.00000E+00
    0.11660E+06        -0.50035E+08         0.00000E+00
    0.00000E+00         0.00000E+00        -0.50057E+08
 
   -0.50073E+08         0.11809E+06         0.00000E+00
    0.11809E+06        -0.50036E+08         0.00000E+00
    0.00000E+00         0.00000E+00        -0.50056E+08
 
   -0.50069E+08         0.11950E+06         0.00000E+00
    0.11950E+06        -0.50038E+08         0.00000E+00
    0.00000E+00         0.00000E+00        -0.50055E+08
 
   -0.50065E+08         0.12085E+06         0.00000E+00
    0.12085E+06        -0.50039E+08         0.00000E+00
    0.00000E+00         0.00000E+00        -0.50054E+08
 
   -0.50061E+08         0.12212E+06         0.00000E+00
    0.12212E+06        -0.50041E+08         0.00000E+00
    0.00000E+00         0.00000E+00        -0.50053E+08
 
   -0.50057E+08         0.12332E+06         0.00000E+00
    0.12332E+06        -0.50042E+08         0.00000E+00
    0.00000E+00         0.00000E+00        -0.50052E+08
 
   -0.50053E+08         0.12445E+06         0.00000E+00
    0.12445E+06        -0.50044E+08         0.00000E+00
    0.00000E+00         0.00000E+00        -0.50052E+08
 
   -0.50177E+08         0.15730E+04         0.00000E+00
    0.15730E+04        -0.50000E+08         0.00000E+00
    0.00000E+00         0.00000E+00        -0.50088E+08
 
   -0.50176E+08         0.47108E+04         0.00000E+00
    0.47108E+04        -0.50000E+08         0.00000E+00
    0.00000E+00         0.00000E+00        -0.50087E+08
 
   -0.50176E+08         0.78428E+04         0.00000E+00
    0.78428E+04        -0.50000E+08         0.00000E+00
    0.00000E+00         0.00000E+00        -0.50087E+08
 
   -0.50175E+08         0.10967E+05         0.00000E+00
    0.10967E+05        -0.50000E+08         0.00000E+00
    0.00000E+00         0.00000E+00        -0.50087E+08
 
   -0.50173E+08         0.14082E+05         0.00000E+00
    0.14082E+05        -0.50000E+08         0.00000E+00
    0.00000E+00         0.00000E+00        -0.50086E+08
 
   -0.50172E+08         0.17186E+05         0.00000E+00
    0.17186E+05        -0.50000E+08         0.00000E+00
    0.00000E+00         0.00000E+00        -0.50086E+08
 
   -0.50171E+08         0.20276E+05         0.00000E+00
    0.20276E+05        -0.50001E+08         0.00000E+00
    0.00000E+00         0.00000E+00        -0.50086E+08
 
   -0.50169E+08         0.23352E+05         0.00000E+00
    0.23352E+05        -0.50001E+08         0.00000E+00
    0.00000E+00         0.00000E+00        -0.50085E+08
 
   -0.50168E+08         0.26410E+05         0.00000E+00
    0.26410E+05        -0.50001E+08         0.00000E+00
    0.00000E+00         0.00000E+00        -0.50084E+08
 
   -0.50166E+08         0.29450E+05         0.00000E+00
    0.29450E+05        -0.50001E+08         0.00000E+00
    0.00000E+00         0.00000E+00        -0.50084E+08
 
   -0.50165E+08         0.32469E+05         0.00000E+00
    0.32469E+05        -0.50002E+08         0.00000E+00
    0.00000E+00         0.00000E+00        -0.50083E+08
 
   -0.50163E+08         0.35465E+05         0.00000E+00
    0.35465E+05        -0.50002E+08         0.00000E+00
    0.00000E+00         0.00000E+00        -0.50083E+08
 
   -0.50161E+08         0.38438E+05         0.00000E+00
    0.38438E+05        -0.50003E+08         0.00000E+00
    0.00000E+00         0.00000E+00        -0.50082E+08
 
   -0.50159E+08         0.41384E+05         0.00000E+00
    0.41384E+05        -0.50003E+08         0.00000E+00
    0.00000E+00         0.00000E+00        -0.50081E+08
 
   -0.50157E+08         0.44302E+05         0.00000E+00
    0.44302E+05        -0.50004E+08         0.00000E+00
    0.00000E+00         0.00000E+00        -0.50080E+08
 
   -0.50155E+08         0.47191E+05         0.00000E+00
    0.47191E+05        -0.50004E+08         0.00000E+00
    0.00000E+00         0.00000E+00        -0.50080E+08
 
   -0.50153E+08         0.50048E+05         0.00000E+00
    0.50048E+05        -0.50005E+08         0.00000E+00
    0.00000E+00         0.00000E+00        -0.50079E+08
 
   -0.50151E+08         0.52872E+05         0.00000E+00
    0.52872E+05        -0.50005E+08         0.00000E+00
    0.00000E+00         0.00000E+00        -0.50078E+08
 
   -0.50149E+08         0.55660E+05         0.00000E+00
    0.55660E+05        -0.50006E+08         0.00000E+00
    0.00000E+00         0.00000E+00        -0.50077E+08
 
   -0.50146E+08         0.58413E+05         0.00000E+00
    0.58413E+05        -0.50006E+08         0.00000E+00
    0.00000E+00         0.00000E+00        -0.50076E+08
 
   -0.50144E+08         0.61127E+05         0.00000E+00
    0.61127E+05        -0.50007E+08         0.00000E+00
    0.00000E+00         0.00000E+00        -0.50075E+08
 
   -0.50141E+08         0.63801E+05         0.00000E+00
    0.63801E+05        -0.50008E+08         0.00000E+00
    0.00000E+00         0.00000E+00        -0.50075E+08
 
   -0.50139E+08         0.66434E+05         0.00000E+00
    0.66434E+05        -0.50009E+08         0.00000E+00
    0.00000E+00         0.00000E+00        -0.50074E+08
 
   -0.50136E+08         0.69023E+05         0.00000E+00
    0.69023E+05        -0.50009E+08         0.00000E+00
    0.00000E+00         0.00000E+00        -0.50073E+08
 
   -0.50133E+08         0.71568E+05         0.00000E+00
    0.71568E+05        -0.50010E+08         0.00000E+00
    0.00000E+00         0.00000E+00        -0.50072E+08
 
   -0.50130E+08         0.74067E+05         0.00000E+00
    0.74067E+05        -0.50011E+08         0.00000E+00
    0.00000E+00         0.00000E+00        -0.50071E+08
 
   -0.50128E+08         0.76518E+05         0.00000E+00
    0.76518E+05        -0.50012E+08         0.00000E+00
    0.00000E+00         0.00000E+00        -0.50070E+08
 
   -0.50125E+08         0.78921E+05         0.00000E+00
    0.78921E+05        -0.50013E+08         0.00000E+00
    0.00000E+00         0.00000E+00        -0.50069E+08
 
   -0.50122E+08         0.81272E+05         0.00000E+00
    0.81272E+05        -0.50014E+08         0.00000E+00
    0.00000E+00         0.00000E+00        -0.50068E+08
 
   -0.50118E+08         0.83571E+05         0.00000E+00
    0.83571E+05        -0.50015E+08         0.00000E+00
    0.00000E+00         0.00000E+00        -0.50067E+08
 
   -0.50115E+08         0.85817E+05         0.00000E+00
    0.85817E+05        -0.50016E+08         0.00000E+00
    0.00000E+00         0.00000E+00        -0.50066E+08
 
   -0.50112E+08         0.88009E+05         0.00000E+00
    0.88009E+05        -0.50017E+08         0.00000E+00
    0.00000E+00         0.00000E+00        -0.50065E+08
 
   -0.50109E+08         0.90144E+05         0.00000E+00
    0.90144E+05        -0.50018E+08         0.00000E+00
    0.00000E+00         0.00000E+00        -0.50063E+08
 
   -0.50106E+08         0.92221E+05         0.00000E+00
    0.92221E+05        -0.50019E+08         0.00000E+00
    0.00000E+00         0.00000E+00        -0.50062E+08
 
   -0.50102E+08         0.94240E+05         0.00000E+00
    0.94240E+05        -0.50020E+08         0.00000E+00
    0.00000E+00         0.00000E+00        -0.50061E+08
 
   -0.50099E+08         0.96198E+05         0.00000E+00
    0.96198E+05        -0.50021E+08         0.00000E+00
    0.00000E+00         0.00000E+00        -0.50060E+08
 
   -0.50095E+08         0.98096E+05         0.00000E+00
    0.98096E+05        -0.50022E+08         0.00000E+00
    0.00000E+00         0.00000E+00        -0.50059E+08
 
   -0.50092E+08         0.99930E+05         0.00000E+00
    0.99930E+05        -0.50024E+08         0.00000E+00
    0.00000E+00         0.00000E+00        -0.50058E+08
 
   -0.50088E+08         0.10170E+06         0.00000E+00
    0.10170E+06        -0.50025E+08         0.00000E+00
    0.00000E+00         0.00000E+00        -0.50057E+08
 
   -0.50084E+08         0.10341E+06         0.00000E+00
    0.10341E+06        -0.50026E+08         0.00000E+00
    0.00000E+00         0.00000E+00        -0.50056E+08
 
   -0.50081E+08         0.10505E+06         0.00000E+00
    0.10505E+06        -0.50027E+08         0.00000E+00
    0.00000E+00         0.00000E+00        -0.50054E+08
 
   -0.50077E+08         0.10662E+06         0.00000E+00
    0.10662E+06        -0.50028E+08         0.00000E+00
    0.00000E+00         0.00000E+00        -0.50053E+08
 
   -0.50073E+08         0.10813E+06         0.00000E+00
    0.10813E+06        -0.50030E+08         0.00000E+00
    0.00000E+00         0.00000E+00        -0.50052E+08
 
   -0.50070E+08         0.10956E+06         0.00000E+00
    0.10956E+06        -0.50031E+08         0.00000E+00
    0.00000E+00         0.00000E+00        -0.50051E+08
 
   -0.50066E+08         0.11093E+06         0.00000E+00
    0.11093E+06        -0.50032E+08         0.00000E+00
    0.00000E+00         0.00000E+00        -0.50050E+08
 
   -0.50062E+08         0.11223E+06         0.00000E+00
    0.11223E+06        -0.50034E+08         0.00000E+00
    0.00000E+00         0.00000E+00        -0.50049E+08
 
   -0.50059E+08         0.11346E+06         0.00000E+00
    0.11346E+06        -0.50035E+08         0.00000E+00
    0.00000E+00         0.00000E+00        -0.50048E+08
 
   -0.50055E+08         0.11462E+06         0.00000E+00
    0.11462E+06        -0.50037E+08         0.00000E+00
    0.00000E+00         0.00000E+00        -0.50048E+08
 
   -0.50051E+08         0.11571E+06         0.00000E+00
    0.11571E+06        -0.50038E+08         0.00000E+00
    0.00000E+00         0.00000E+00        -0.50047E+08
 
   -0.50048E+08         0.11673E+06         0.00000E+00
    0.11673E+06        -0.50040E+08         0.00000E+00
    0.00000E+00         0.00000E+00        -0.50047E+08
 
   -0.50162E+08         0.14990E+04         0.00000E+00
    0.14990E+04        -0.50000E+08         0.00000E+00
    0.00000E+00         0.00000E+00        -0.50080E+08
 
   -0.50161E+08         0.44833E+04         0.00000E+00
    0.44833E+04        -0.50000E+08         0.00000E+00
    0.00000E+00         0.00000E+00        -0.50080E+08
 
   -0.50160E+08         0.74596E+04         0.00000E+00
    0.74596E+04        -0.50000E+08         0.00000E+00
    0.00000E+00         0.00000E+00        -0.50080E+08
 
   -0.50159E+08         0.10426E+05         0.00000E+00
    0.10426E+05        -0.50000E+08         0.00000E+00
    0.00000E+00         0.00000E+00        -0.50079E+08
 
   -0.50158E+08         0.13382E+05         0.00000E+00
    0.13382E+05        -0.50000E+08         0.00000E+00
    0.00000E+00         0.00000E+00        -0.50079E+08
 
   -0.50157E+08         0.16324E+05         0.00000E+00
    0.16324E+05        -0.50000E+08         0.00000E+00
    0.00000E+00         0.00000E+00        -0.50078E+08
 
   -0.50156E+08         0.19252E+05         0.00000E+00
    0.19252E+05        -0.50001E+08         0.00000E+00
    0.00000E+00         0.00000E+00        -0.50078E+08
 
   -0.50155E+08         0.22164E+05         0.00000E+00
    0.22164E+05        -0.50001E+08         0.00000E+00
    0.00000E+00         0.00000E+00        -0.50077E+08
 
   -0.50153E+08         0.25057E+05         0.00000E+00
    0.25057E+05        -0.50001E+08         0.00000E+00
    0.00000E+00         0.00000E+00        -0.50077E+08
 
   -0.50152E+08         0.27932E+05         0.00000E+00
    0.27932E+05        -0.50001E+08         0.00000E+00
    0.00000E+00         0.00000E+00        -0.50076E+08
 
   -0.50150E+08         0.30785E+05         0.00000E+00
    0.30785E+05        -0.50002E+08         0.00000E+00
    0.00000E+00         0.00000E+00        -0.50076E+08
 
   -0.50148E+08         0.33616E+05         0.00000E+00
    0.33616E+05        -0.50002E+08         0.00000E+00
    0.00000E+00         0.00000E+00        -0.50075E+08
 
   -0.50147E+08         0.36422E+05         0.00000E+00
    0.36422E+05        -0.50002E+08         0.00000E+00
    0.00000E+00         0.00000E+00        -0.50074E+08
 
   -0.50145E+08         0.39202E+05         0.00000E+00
    0.39202E+05        -0.50003E+08         0.00000E+00
    0.00000E+00         0.00000E+00        -0.50074E+08
 
   -0.50143E+08         0.41955E+05         0.00000E+00
    0.41955E+05        -0.50003E+08         0.00000E+00
    0.00000E+00         0.00000E+00        -0.50073E+08
 
   -0.50141E+08         0.44679E+05         0.00000E+00
    0.44679E+05        -0.50004E+08         0.00000E+00
    0.00000E+00         0.00000E+00        -0.50072E+08
 
   -0.50139E+08         0.47372E+05         0.00000E+00
    0.47372E+05        -0.50004E+08         0.00000E+00
    0.00000E+00         0.00000E+00        -0.50072E+08
 
   -0.50137E+08         0.50034E+05         0.00000E+00
    0.50034E+05        -0.50005E+08         0.00000E+00
    0.00000E+00         0.00000E+00        -0.50071E+08
 
   -0.50135E+08         0.52661E+05         0.00000E+00
    0.52661E+05        -0.50005E+08         0.00000E+00
    0.00000E+00         0.00000E+00        -0.50070E+08
 
   -0.50133E+08         0.55253E+05         0.00000E+00
    0.55253E+05        -0.50006E+08         0.00000E+00
    0.00000E+00         0.00000E+00        -0.50069E+08
 
   -0.50131E+08         0.57809E+05         0.00000E+00
    0.57809E+05        -0.50006E+08         0.00000E+00
    0.00000E+00         0.00000E+00        -0.50069E+08
 
   -0.50128E+08         0.60326E+05         0.00000E+00
    0.60326E+05        -0.50007E+08         0.00000E+00
    0.00000E+00         0.00000E+00        -0.50068E+08
 
   -0.50126E+08         0.62803E+05         0.00000E+00
    0.62803E+05        -0.50008E+08         0.00000E+00
    0.00000E+00         0.00000E+00        -0.50067E+08
 
   -0.50124E+08         0.65239E+05         0.00000E+00
    0.65239E+05        -0.50008E+08         0.00000E+00
    0.00000E+00         0.00000E+00        -0.50066E+08
 
   -0.50121E+08         0.67633E+05         0.00000E+00
    0.67633E+05        -0.50009E+08         0.00000E+00
    0.00000E+00         0.00000E+00        -0.50065E+08
 
   -0.50118E+08         0.69982E+05         0.00000E+00
    0.69982E+05        -0.50010E+08         0.00000E+00
    0.00000E+00         0.00000E+00        -0.50064E+08
 
   -0.50116E+08         0.72285E+05         0.00000E+00
    0.72285E+05        -0.50011E+08         0.00000E+00
    0.00000E+00         0.00000E+00        -0.50063E+08
 
   -0.50113E+08         0.74542E+05         0.00000E+00
    0.74542E+05        -0.50011E+08         0.00000E+00
    0.00000E+00         0.00000E+00        -0.50062E+08
 
   -0.50110E+08         0.76750E+05         0.00000E+00
    0.76750E+05        -0.50012E+08         0.00000E+00
    0.00000E+00         0.00000E+00        -0.50061E+08
 
   -0.50107E+08         0.78908E+05         0.00000E+00
    0.78908E+05        -0.50013E+08         0.00000E+00
    0.00000E+00         0.00000E+00        -0.50060E+08
 
   -0.50105E+08         0.81015E+05         0.00000E+00
    0.81015E+05        -0.50014E+08         0.00000E+00
    0.00000E+00         0.00000E+00        -0.50059E+08
 
   -0.50102E+08         0.83070E+05         0.00000E+00
    0.83070E+05        -0.50015E+08         0.00000E+00
    0.00000E+00         0.00000E+00        -0.50058E+08
 
   -0.50099E+08         0.85070E+05         0.00000E+00
    0.85070E+05        -0.50016E+08         0.00000E+00
    0.00000E+00         0.00000E+00        -0.50057E+08
 
   -0.50096E+08         0.87016E+05         0.00000E+00
    0.87016E+05        -0.50017E+08         0.00000E+00
    0.00000E+00         0.00000E+00        -0.50056E+08
 
   -0.50093E+08         0.88904E+05         0.00000E+00
    0.88904E+05        -0.50018E+08         0.00000E+00
    0.00000E+00         0.00000E+00        -0.50055E+08
 
   -0.50089E+08         0.90735E+05         0.00000E+00
    0.90735E+05        -0.50019E+08         0.00000E+00
    0.00000E+00         0.00000E+00        -0.50054E+08
 
   -0.50086E+08         0.92507E+05         0.00000E+00
    0.92507E+05        -0.50020E+08         0.00000E+00
    0.00000E+00         0.00000E+00        -0.50053E+08
 
   -0.50083E+08         0.94219E+05         0.00000E+00
    0.94219E+05        -0.50021E+08         0.00000E+00
    0.00000E+00         0.00000E+00        -0.50052E+08
 
   -0.50080E+08         0.95869E+05         0.00000E+00
    0.95869E+05        -0.50022E+08         0.00000E+00
    0.00000E+00         0.00000E+00        -0.50051E+08
 
   -0.50076E+08         0.97457E+05         0.00000E+00
    0.97457E+05        -0.50023E+08         0.00000E+00
    0.00000E+00         0.00000E+00        -0.50050E+08
 
   -0.50073E+08         0.98982E+05         0.00000E+00
    0.98982E+05        -0.50024E+08         0.00000E+00
    0.00000E+00         0.00000E+00        -0.50049E+08
 
   -0.50070E+08         0.10044E+06         0.00000E+00
    0.10044E+06        -0.50026E+08         0.00000E+00
    0.00000E+00         0.00000E+00        -0.50048E+08
 
   -0.50066E+08         0.10184E+06         0.00000E+00
    0.10184E+06        -0.50027E+08         0.00000E+00
    0.00000E+00         0.00000E+00        -0.50047E+08
 
   -0.50063E+08         0.10317E+06         0.00000E+00
    0.10317E+06        -0.50028E+08         0.00000E+00
    0.00000E+00         0.00000E+00        -0.50046E+08
 
   -0.50060E+08         0.10443E+06         0.00000E+00
    0.10443E+06        -0.50029E+08         0.00000E+00
    0.00000E+00         0.00000E+00        -0.50045E+08
 
   -0.50056E+08         0.10563E+06         0.00000E+00
    0.10563E+06        -0.50031E+08         0.00000E+00
    0.00000E+00         0.00000E+00        -0.50045E+08
 
   -0.50053E+08         0.10676E+06         0.00000E+00
    0.10676E+06        -0.50032E+08         0.00000E+00
    0.00000E+00         0.00000E+00        -0.50044E+08
 
   -0.50050E+08         0.10782E+06         0.00000E+00
    0.10782E+06        -0.50033E+08         0.00000E+00
    0.00000E+00         0.00000E+00        -0.50043E+08
 
   -0.50046E+08         0.10882E+06         0.00000E+00
    0.10882E+06        -0.50034E+08         0.00000E+00
    0.00000E+00         0.00000E+00        -0.50042E+08
 
   -0.50043E+08         0.10975E+06         0.00000E+00
    0.10975E+06        -0.50036E+08         0.00000E+00
    0.00000E+00         0.00000E+00        -0.50042E+08
 
   -0.50147E+08         0.14323E+04         0.00000E+00
    0.14323E+04        -0.50000E+08         0.00000E+00
    0.00000E+00         0.00000E+00        -0.50073E+08
 
   -0.50147E+08         0.42791E+04         0.00000E+00
    0.42791E+04        -0.50000E+08         0.00000E+00
    0.00000E+00         0.00000E+00        -0.50073E+08
 
   -0.50146E+08         0.71163E+04         0.00000E+00
    0.71163E+04        -0.50000E+08         0.00000E+00
    0.00000E+00         0.00000E+00        -0.50072E+08
 
   -0.50145E+08         0.99422E+04         0.00000E+00
    0.99422E+04        -0.50000E+08         0.00000E+00
    0.00000E+00         0.00000E+00        -0.50072E+08
 
   -0.50144E+08         0.12755E+05         0.00000E+00
    0.12755E+05        -0.50000E+08         0.00000E+00
    0.00000E+00         0.00000E+00        -0.50072E+08
 
   -0.50143E+08         0.15554E+05         0.00000E+00
    0.15554E+05        -0.50000E+08         0.00000E+00
    0.00000E+00         0.00000E+00        -0.50071E+08
 
   -0.50142E+08         0.18337E+05         0.00000E+00
    0.18337E+05        -0.50001E+08         0.00000E+00
    0.00000E+00         0.00000E+00        -0.50071E+08
 
   -0.50140E+08         0.21103E+05         0.00000E+00
    0.21103E+05        -0.50001E+08         0.00000E+00
    0.00000E+00         0.00000E+00        -0.50070E+08
 
   -0.50139E+08         0.23850E+05         0.00000E+00
    0.23850E+05        -0.50001E+08         0.00000E+00
    0.00000E+00         0.00000E+00        -0.50070E+08
 
   -0.50138E+08         0.26577E+05         0.00000E+00
    0.26577E+05        -0.50001E+08         0.00000E+00
    0.00000E+00         0.00000E+00        -0.50069E+08
 
   -0.50136E+08         0.29282E+05         0.00000E+00
    0.29282E+05        -0.50001E+08         0.00000E+00
    0.00000E+00         0.00000E+00        -0.50069E+08
 
   -0.50135E+08         0.31964E+05         0.00000E+00
    0.31964E+05        -0.50002E+08         0.00000E+00
    0.00000E+00         0.00000E+00        -0.50068E+08
 
   -0.50133E+08         0.34622E+05         0.00000E+00
    0.34622E+05        -0.50002E+08         0.00000E+00
    0.00000E+00         0.00000E+00        -0.50068E+08
 
   -0.50132E+08         0.37254E+05         0.00000E+00
    0.37254E+05        -0.50002E+08         0.00000E+00
    0.00000E+00         0.00000E+00        -0.50067E+08
 
   -0.50130E+08         0.39858E+05         0.00000E+00
    0.39858E+05        -0.50003E+08         0.00000E+00
    0.00000E+00         0.00000E+00        -0.50066E+08
 
   -0.50128E+08         0.42434E+05         0.00000E+00
    0.42434E+05        -0.50003E+08         0.00000E+00
    0.00000E+00         0.00000E+00        -0.50066E+08
 
   -0.50126E+08         0.44980E+05         0.00000E+00
    0.44980E+05        -0.50004E+08         0.00000E+00
    0.00000E+00         0.00000E+00        -0.50065E+08
 
   -0.50124E+08         0.47494E+05         0.00000E+00
    0.47494E+05        -0.50004E+08         0.00000E+00
    0.00000E+00         0.00000E+00        -0.50064E+08
 
   -0.50122E+08         0.49976E+05         0.00000E+00
    0.49976E+05        -0.50005E+08         0.00000E+00
    0.00000E+00         0.00000E+00        -0.50064E+08
 
   -0.50120E+08         0.52423E+05         0.00000E+00
    0.52423E+05        -0.50005E+08         0.00000E+00
    0.00000E+00         0.00000E+00        -0.50063E+08
 
   -0.50118E+08         0.54834E+05         0.00000E+00
    0.54834E+05        -0.50006E+08         0.00000E+00
    0.00000E+00         0.00000E+00        -0.50062E+08
 
   -0.50116E+08         0.57208E+05         0.00000E+00
    0.57208E+05        -0.50006E+08         0.00000E+00
    0.00000E+00         0.00000E+00        -0.50061E+08
 
   -0.50114E+08         0.59544E+05         0.00000E+00
    0.59544E+05        -0.50007E+08         0.00000E+00
    0.00000E+00         0.00000E+00        -0.50060E+08
 
   -0.50112E+08         0.61840E+05         0.00000E+00
    0.61840E+05        -0.50008E+08         0.00000E+00
    0.00000E+00         0.00000E+00        -0.50060E+08
 
   -0.50109E+08         0.64095E+05         0.00000E+00
    0.64095E+05        -0.50008E+08         0.00000E+00
    0.00000E+00         0.00000E+00        -0.50059E+08
 
   -0.50107E+08         0.66307E+05         0.00000E+00
    0.66307E+05        -0.50009E+08         0.00000E+00
    0.00000E+00         0.00000E+00        -0.50058E+08
 
   -0.50105E+08         0.68475E+05         0.00000E+00
    0.68475E+05        -0.50010E+08         0.00000E+00
    0.00000E+00         0.00000E+00        -0.50057E+08
 
   -0.50102E+08         0.70598E+05         0.00000E+00
    0.70598E+05        -0.50010E+08         0.00000E+00
    0.00000E+00         0.00000E+00        -0.50056E+08
 
   -0.50100E+08         0.72674E+05         0.00000E+00
    0.72674E+05        -0.50011E+08         0.00000E+00
    0.00000E+00         0.00000E+00        -0.50055E+08
 
   -0.50097E+08         0.74702E+05         0.00000E+00
    0.74702E+05        -0.50012E+08         0.00000E+00
    0.00000E+00         0.00000E+00        -0.50055E+08
 
   -0.50095E+08         0.76681E+05         0.00000E+00
    0.76681E+05        -0.50013E+08         0.00000E+00
    0.00000E+00         0.00000E+00        -0.50054E+08
 
   -0.50092E+08         0.78610E+05         0.00000E+00
    0.78610E+05        -0.50014E+08         0.00000E+00
    0.00000E+00         0.00000E+00        -0.50053E+08
 
   -0.50089E+08         0.80487E+05         0.00000E+00
    0.80487E+05        -0.50014E+08         0.00000E+00
    0.00000E+00         0.00000E+00        -0.50052E+08
 
   -0.50086E+08         0.82310E+05         0.00000E+00
    0.82310E+05        -0.50015E+08         0.00000E+00
    0.00000E+00         0.00000E+00        -0.50051E+08
 
   -0.50084E+08         0.84080E+05         0.00000E+00
    0.84080E+05        -0.50016E+08         0.00000E+00
    0.00000E+00         0.00000E+00        -0.50050E+08
 
   -0.50081E+08         0.85794E+05         0.00000E+00
    0.85794E+05        -0.50017E+08         0.00000E+00
    0.00000E+00         0.00000E+00        -0.50049E+08
 
   -0.50078E+08         0.87451E+05         0.00000E+00
    0.87451E+05        -0.50018E+08         0.00000E+00
    0.00000E+00         0.00000E+00        -0.50048E+08
 
   -0.50075E+08         0.89050E+05         0.00000E+00
    0.89050E+05        -0.50019E+08         0.00000E+00
    0.00000E+00         0.00000E+00        -0.50047E+08
 
   -0.50072E+08         0.90591E+05         0.00000E+00
    0.90591E+05        -0.50020E+08         0.00000E+00
    0.00000E+00         0.00000E+00        -0.50046E+08
 
   -0.50069E+08         0.92072E+05         0.00000E+00
    0.92072E+05        -0.50021E+08         0.00000E+00
    0.00000E+00         0.00000E+00        -0.50045E+08
 
   -0.50066E+08         0.93492E+05         0.00000E+00
    0.93492E+05        -0.50022E+08         0.00000E+00
    0.00000E+00         0.00000E+00        -0.50044E+08
 
   -0.50063E+08         0.94851E+05         0.00000E+00
    0.94851E+05        -0.50023E+08         0.00000E+00
    0.00000E+00         0.00000E+00        -0.50043E+08
 
   -0.50060E+08         0.96147E+05         0.00000E+00
    0.96147E+05        -0.50024E+08         0.00000E+00
    0.00000E+00         0.00000E+00        -0.50043E+08
 
   -0.50057E+08         0.97381E+05         0.00000E+00
    0.97381E+05        -0.50025E+08         0.00000E+00
    0.00000E+00         0.00000E+00        -0.50042E+08
 
   -0.50054E+08         0.98551E+05         0.00000E+00
    0.98551E+05        -0.50026E+08         0.00000E+00
    0.00000E+00         0.00000E+00        -0.50041E+08
 
   -0.50051E+08         0.99659E+05         0.00000E+00
    0.99659E+05        -0.50027E+08         0.00000E+00
    0.00000E+00         0.00000E+00        -0.50040E+08
 
   -0.50048E+08         0.10070E+06         0.00000E+00
    0.10070E+06        -0.50029E+08         0.00000E+00
    0.00000E+00         0.00000E+00        -0.50039E+08
 
   -0.50045E+08         0.10168E+06         0.00000E+00
    0.10168E+06        -0.50030E+08         0.00000E+00
    0.00000E+00         0.00000E+00        -0.50039E+08
 
   -0.50042E+08         0.10260E+06         0.00000E+00
    0.10260E+06        -0.50031E+08         0.00000E+00
    0.00000E+00         0.00000E+00        -0.50038E+08
 
   -0.50039E+08         0.10346E+06         0.00000E+00
    0.10346E+06        -0.50032E+08         0.00000E+00
    0.00000E+00         0.00000E+00        -0.50038E+08
 
   -0.50133E+08         0.13716E+04         0.00000E+00
    0.13716E+04        -0.50000E+08         0.00000E+00
    0.00000E+00         0.00000E+00        -0.50066E+08
 
   -0.50133E+08         0.40941E+04         0.00000E+00
    0.40941E+04        -0.50000E+08         0.00000E+00
    0.00000E+00         0.00000E+00        -0.50066E+08
 
   -0.50132E+08         0.68056E+04         0.00000E+00
    0.68056E+04        -0.50000E+08         0.00000E+00
    0.00000E+00         0.00000E+00        -0.50065E+08
 
   -0.50131E+08         0.95047E+04         0.00000E+00
    0.95047E+04        -0.50000E+08         0.00000E+00
    0.00000E+00         0.00000E+00        -0.50065E+08
 
   -0.50130E+08         0.12190E+05         0.00000E+00
    0.12190E+05        -0.50000E+08         0.00000E+00
    0.00000E+00         0.00000E+00        -0.50065E+08
 
   -0.50129E+08         0.14860E+05         0.00000E+00
    0.14860E+05        -0.50000E+08         0.00000E+00
    0.00000E+00         0.00000E+00        -0.50064E+08
 
   -0.50128E+08         0.17513E+05         0.00000E+00
    0.17513E+05        -0.50000E+08         0.00000E+00
    0.00000E+00         0.00000E+00        -0.50064E+08
 
   -0.50127E+08         0.20148E+05         0.00000E+00
    0.20148E+05        -0.50001E+08         0.00000E+00
    0.00000E+00         0.00000E+00        -0.50064E+08
 
   -0.50126E+08         0.22764E+05         0.00000E+00
    0.22764E+05        -0.50001E+08         0.00000E+00
    0.00000E+00         0.00000E+00        -0.50063E+08
 
   -0.50124E+08         0.25358E+05         0.00000E+00
    0.25358E+05        -0.50001E+08         0.00000E+00
    0.00000E+00         0.00000E+00        -0.50063E+08
 
   -0.50123E+08         0.27931E+05         0.00000E+00
    0.27931E+05        -0.50001E+08         0.00000E+00
    0.00000E+00         0.00000E+00        -0.50062E+08
 
   -0.50122E+08         0.30480E+05         0.00000E+00
    0.30480E+05        -0.50002E+08         0.00000E+00
    0.00000E+00         0.00000E+00        -0.50062E+08
 
   -0.50120E+08         0.33005E+05         0.00000E+00
    0.33005E+05        -0.50002E+08         0.00000E+00
    0.00000E+00         0.00000E+00        -0.50061E+08
 
   -0.50119E+08         0.35504E+05         0.00000E+00
    0.35504E+05        -0.50002E+08         0.00000E+00
    0.00000E+00         0.00000E+00        -0.50060E+08
 
   -0.50117E+08         0.37975E+05         0.00000E+00
    0.37975E+05        -0.50003E+08         0.00000E+00
    0.00000E+00         0.00000E+00        -0.50060E+08
 
   -0.50116E+08         0.40418E+05         0.00000E+00
    0.40418E+05        -0.50003E+08         0.00000E+00
    0.00000E+00         0.00000E+00        -0.50059E+08
 
   -0.50114E+08         0.42831E+05         0.00000E+00
    0.42831E+05        -0.50003E+08         0.00000E+00
    0.00000E+00         0.00000E+00        -0.50059E+08
 
   -0.50112E+08         0.45213E+05         0.00000E+00
    0.45213E+05        -0.50004E+08         0.00000E+00
    0.00000E+00         0.00000E+00        -0.50058E+08
 
   -0.50110E+08         0.47563E+05         0.00000E+00
    0.47563E+05        -0.50004E+08         0.00000E+00
    0.00000E+00         0.00000E+00        -0.50057E+08
 
   -0.50109E+08         0.49879E+05         0.00000E+00
    0.49879E+05        -0.50005E+08         0.00000E+00
    0.00000E+00         0.00000E+00        -0.50057E+08
 
   -0.50107E+08         0.52161E+05         0.00000E+00
    0.52161E+05        -0.50005E+08         0.00000E+00
    0.00000E+00         0.00000E+00        -0.50056E+08
 
   -0.50105E+08         0.54406E+05         0.00000E+00
    0.54406E+05        -0.50006E+08         0.00000E+00
    0.00000E+00         0.00000E+00        -0.50055E+08
 
   -0.50103E+08         0.56613E+05         0.00000E+00
    0.56613E+05        -0.50006E+08         0.00000E+00
    0.00000E+00         0.00000E+00        -0.50054E+08
 
   -0.50101E+08         0.58782E+05         0.00000E+00
    0.58782E+05        -0.50007E+08         0.00000E+00
    0.00000E+00         0.00000E+00        -0.50054E+08
 
   -0.50099E+08         0.60911E+05         0.00000E+00
    0.60911E+05        -0.50007E+08         0.00000E+00
    0.00000E+00         0.00000E+00        -0.50053E+08
 
   -0.50096E+08         0.62999E+05         0.00000E+00
    0.62999E+05        -0.50008E+08         0.00000E+00
    0.00000E+00         0.00000E+00        -0.50052E+08
 
   -0.50094E+08         0.65044E+05         0.00000E+00
    0.65044E+05        -0.50009E+08         0.00000E+00
    0.00000E+00         0.00000E+00        -0.50051E+08
 
   -0.50092E+08         0.67046E+05         0.00000E+00
    0.67046E+05        -0.50009E+08         0.00000E+00
    0.00000E+00         0.00000E+00        -0.50051E+08
 
   -0.50090E+08         0.69003E+05         0.00000E+00
    0.69003E+05        -0.50010E+08         0.00000E+00
    0.00000E+00         0.00000E+00        -0.50050E+08
 
   -0.50087E+08         0.70913E+05         0.00000E+00
    0.70913E+05        -0.50011E+08         0.00000E+00
    0.00000E+00         0.00000E+00        -0.50049E+08
 
   -0.50085E+08         0.72776E+05         0.00000E+00
    0.72776E+05        -0.50011E+08         0.00000E+00
    0.00000E+00         0.00000E+00        -0.50048E+08
 
   -0.50083E+08         0.74590E+05         0.00000E+00
    0.74590E+05        -0.50012E+08         0.00000E+00
    0.00000E+00         0.00000E+00        -0.50047E+08
 
   -0.50080E+08         0.76355E+05         0.00000E+00
    0.76355E+05        -0.50013E+08         0.00000E+00
    0.00000E+00         0.00000E+00        -0.50047E+08
 
   -0.50078E+08         0.78068E+05         0.00000E+00
    0.78068E+05        -0.50014E+08         0.00000E+00
    0.00000E+00         0.00000E+00        -0.50046E+08
 
   -0.50075E+08         0.79730E+05         0.00000E+00
    0.79730E+05        -0.50015E+08         0.00000E+00
    0.00000E+00         0.00000E+00        -0.50045E+08
 
   -0.50072E+08         0.81338E+05         0.00000E+00
    0.81338E+05        -0.50015E+08         0.00000E+00
    0.00000E+00         0.00000E+00        -0.50044E+08
 
   -0.50070E+08         0.82892E+05         0.00000E+00
    0.82892E+05        -0.50016E+08         0.00000E+00
    0.00000E+00         0.00000E+00        -0.50043E+08
 
   -0.50067E+08         0.84391E+05         0.00000E+00
    0.84391E+05        -0.50017E+08         0.00000E+00
    0.00000E+00         0.00000E+00        -0.50042E+08
 
   -0.50065E+08         0.85833E+05         0.00000E+00
    0.85833E+05        -0.50018E+08         0.00000E+00
    0.00000E+00         0.00000E+00        -0.50041E+08
 
   -0.50062E+08         0.87218E+05         0.00000E+00
    0.87218E+05        -0.50019E+08         0.00000E+00
    0.00000E+00         0.00000E+00        -0.50041E+08
 
   -0.50059E+08         0.88546E+05         0.00000E+00
    0.88546E+05        -0.50020E+08         0.00000E+00
    0.00000E+00         0.00000E+00        -0.50040E+08
 
   -0.50056E+08         0.89814E+05         0.00000E+00
    0.89814E+05        -0.50021E+08         0.00000E+00
    0.00000E+00         0.00000E+00        -0.50039E+08
 
   -0.50054E+08         0.91024E+05         0.00000E+00
    0.91024E+05        -0.50022E+08         0.00000E+00
    0.00000E+00         0.00000E+00        -0.50038E+08
 
   -0.50051E+08         0.92174E+05         0.00000E+00
    0.92174E+05        -0.50023E+08         0.00000E+00
    0.00000E+00         0.00000E+00        -0.50037E+08
 
   -0.50048E+08         0.93263E+05         0.00000E+00
    0.93263E+05        -0.50024E+08         0.00000E+00
    0.00000E+00         0.00000E+00        -0.50037E+08
 
   -0.50045E+08         0.94293E+05         0.00000E+00
    0.94293E+05        -0.50025E+08         0.00000E+00
    0.00000E+00         0.00000E+00        -0.50036E+08
 
   -0.50043E+08         0.95263E+05         0.00000E+00
    0.95263E+05        -0.50026E+08         0.00000E+00
    0.00000E+00         0.00000E+00        -0.50035E+08
 
   -0.50040E+08         0.96174E+05         0.00000E+00
    0.96174E+05        -0.50027E+08         0.00000E+00
    0.00000E+00         0.00000E+00        -0.50035E+08
 
   -0.50038E+08         0.97026E+05         0.00000E+00
    0.97026E+05        -0.50028E+08         0.00000E+00
    0.00000E+00         0.00000E+00        -0.50034E+08
 
   -0.50035E+08         0.97820E+05         0.00000E+00
    0.97820E+05        -0.50029E+08         0.00000E+00
    0.00000E+00         0.00000E+00        -0.50034E+08
 
   -0.50120E+08         0.13160E+04         0.00000E+00
    0.13160E+04        -0.50000E+08         0.00000E+00
    0.00000E+00         0.00000E+00        -0.50059E+08
 
   -0.50119E+08         0.39254E+04         0.00000E+00
    0.39254E+04        -0.50000E+08         0.00000E+00
    0.00000E+00         0.00000E+00        -0.50059E+08
 
   -0.50119E+08         0.65231E+04         0.00000E+00
    0.65231E+04        -0.50000E+08         0.00000E+00
    0.00000E+00         0.00000E+00        -0.50059E+08
 
   -0.50118E+08         0.91075E+04         0.00000E+00
    0.91075E+04        -0.50000E+08         0.00000E+00
    0.00000E+00         0.00000E+00        -0.50059E+08
 
   -0.50117E+08         0.11677E+05         0.00000E+00
    0.11677E+05        -0.50000E+08         0.00000E+00
    0.00000E+00         0.00000E+00        -0.50058E+08
 
   -0.50116E+08         0.14231E+05         0.00000E+00
    0.14231E+05        -0.50000E+08         0.00000E+00
    0.00000E+00         0.00000E+00        -0.50058E+08
 
   -0.50115E+08         0.16767E+05         0.00000E+00
    0.16767E+05        -0.50000E+08         0.00000E+00
    0.00000E+00         0.00000E+00        -0.50058E+08
 
   -0.50114E+08         0.19285E+05         0.00000E+00
    0.19285E+05        -0.50001E+08         0.00000E+00
    0.00000E+00         0.00000E+00        -0.50057E+08
 
   -0.50113E+08         0.21782E+05         0.00000E+00
    0.21782E+05        -0.50001E+08         0.00000E+00
    0.00000E+00         0.00000E+00        -0.50057E+08
 
   -0.50112E+08         0.24259E+05         0.00000E+00
    0.24259E+05        -0.50001E+08         0.00000E+00
    0.00000E+00         0.00000E+00        -0.50056E+08
 
   -0.50111E+08         0.26712E+05         0.00000E+00
    0.26712E+05        -0.50001E+08         0.00000E+00
    0.00000E+00         0.00000E+00        -0.50056E+08
 
   -0.50109E+08         0.29143E+05         0.00000E+00
    0.29143E+05        -0.50001E+08         0.00000E+00
    0.00000E+00         0.00000E+00        -0.50055E+08
 
   -0.50108E+08         0.31548E+05         0.00000E+00
    0.31548E+05        -0.50002E+08         0.00000E+00
    0.00000E+00         0.00000E+00        -0.50055E+08
 
   -0.50107E+08         0.33928E+05         0.00000E+00
    0.33928E+05        -0.50002E+08         0.00000E+00
    0.00000E+00         0.00000E+00        -0.50054E+08
 
   -0.50105E+08         0.36280E+05         0.00000E+00
    0.36280E+05        -0.50002E+08         0.00000E+00
    0.00000E+00         0.00000E+00        -0.50054E+08
 
   -0.50104E+08         0.38604E+05         0.00000E+00
    0.38604E+05        -0.50003E+08         0.00000E+00
    0.00000E+00         0.00000E+00        -0.50053E+08
 
   -0.50102E+08         0.40899E+05         0.00000E+00
    0.40899E+05        -0.50003E+08         0.00000E+00
    0.00000E+00         0.00000E+00        -0.50053E+08
 
   -0.50101E+08         0.43162E+05         0.00000E+00
    0.43162E+05        -0.50003E+08         0.00000E+00
    0.00000E+00         0.00000E+00        -0.50052E+08
 
   -0.50099E+08         0.45394E+05         0.00000E+00
    0.45394E+05        -0.50004E+08         0.00000E+00
    0.00000E+00         0.00000E+00        -0.50051E+08
 
   -0.50097E+08         0.47593E+05         0.00000E+00
    0.47593E+05        -0.50004E+08         0.00000E+00
    0.00000E+00         0.00000E+00        -0.50051E+08
 
   -0.50096E+08         0.49758E+05         0.00000E+00
    0.49758E+05        -0.50005E+08         0.00000E+00
    0.00000E+00         0.00000E+00        -0.50050E+08
 
   -0.50094E+08         0.51887E+05         0.00000E+00
    0.51887E+05        -0.50005E+08         0.00000E+00
    0.00000E+00         0.00000E+00        -0.50050E+08
 
   -0.50092E+08         0.53980E+05         0.00000E+00
    0.53980E+05        -0.50006E+08         0.00000E+00
    0.00000E+00         0.00000E+00        -0.50049E+08
 
   -0.50090E+08         0.56035E+05         0.00000E+00
    0.56035E+05        -0.50006E+08         0.00000E+00
    0.00000E+00         0.00000E+00        -0.50048E+08
 
   -0.50088E+08         0.58051E+05         0.00000E+00
    0.58051E+05        -0.50007E+08         0.00000E+00
    0.00000E+00         0.00000E+00        -0.50048E+08
 
   -0.50086E+08         0.60027E+05         0.00000E+00
    0.60027E+05        -0.50007E+08         0.00000E+00
    0.00000E+00         0.00000E+00        -0.50047E+08
 
   -0.50084E+08         0.61962E+05         0.00000E+00
    0.61962E+05        -0.50008E+08         0.00000E+00
    0.00000E+00         0.00000E+00        -0.50046E+08
 
   -0.50082E+08         0.63855E+05         0.00000E+00
    0.63855E+05        -0.50008E+08         0.00000E+00
    0.00000E+00         0.00000E+00        -0.50045E+08
 
   -0.50080E+08         0.65704E+05         0.00000E+00
    0.65704E+05        -0.50009E+08         0.00000E+00
    0.00000E+00         0.00000E+00        -0.50045E+08
 
   -0.50078E+08         0.67509E+05         0.00000E+00
    0.67509E+05        -0.50010E+08         0.00000E+00
    0.00000E+00         0.00000E+00        -0.50044E+08
 
   -0.50076E+08         0.69268E+05         0.00000E+00
    0.69268E+05        -0.50010E+08         0.00000E+00
    0.00000E+00         0.00000E+00        -0.50043E+08
 
   -0.50074E+08         0.70980E+05         0.00000E+00
    0.70980E+05        -0.50011E+08         0.00000E+00
    0.00000E+00         0.00000E+00        -0.50042E+08
 
   -0.50072E+08         0.72644E+05         0.00000E+00
    0.72644E+05        -0.50012E+08         0.00000E+00
    0.00000E+00         0.00000E+00        -0.50042E+08
 
   -0.50069E+08         0.74259E+05         0.00000E+00
    0.74259E+05        -0.50012E+08         0.00000E+00
    0.00000E+00         0.00000E+00        -0.50041E+08
 
   -0.50067E+08         0.75824E+05         0.00000E+00
    0.75824E+05        -0.50013E+08         0.00000E+00
    0.00000E+00         0.00000E+00        -0.50040E+08
 
   -0.50065E+08         0.77338E+05         0.00000E+00
    0.77338E+05        -0.50014E+08         0.00000E+00
    0.00000E+00         0.00000E+00        -0.50039E+08
 
   -0.50062E+08         0.78800E+05         0.00000E+00
    0.78800E+05        -0.50015E+08         0.00000E+00
    0.00000E+00         0.00000E+00        -0.50039E+08
 
   -0.50060E+08         0.80209E+05         0.00000E+00
    0.80209E+05        -0.50015E+08         0.00000E+00
    0.00000E+00         0.00000E+00        -0.50038E+08
 
   -0.50058E+08         0.81565E+05         0.00000E+00
    0.81565E+05        -0.50016E+08         0.00000E+00
    0.00000E+00         0.00000E+00        -0.50037E+08
 
   -0.50055E+08         0.82866E+05         0.00000E+00
    0.82866E+05        -0.50017E+08         0.00000E+00
    0.00000E+00         0.00000E+00        -0.50036E+08
 
   -0.50053E+08         0.84111E+05         0.00000E+00
    0.84111E+05        -0.50018E+08         0.00000E+00
    0.00000E+00         0.00000E+00        -0.50036E+08
 
   -0.50050E+08         0.85301E+05         0.00000E+00
    0.85301E+05        -0.50019E+08         0.00000E+00
    0.00000E+00         0.00000E+00        -0.50035E+08
 
   -0.50048E+08         0.86435E+05         0.00000E+00
    0.86435E+05        -0.50020E+08         0.00000E+00
    0.00000E+00         0.00000E+00        -0.50034E+08
 
   -0.50045E+08         0.87512E+05         0.00000E+00
    0.87512E+05        -0.50020E+08         0.00000E+00
    0.00000E+00         0.00000E+00        -0.50033E+08
 
   -0.50043E+08         0.88532E+05         0.00000E+00
    0.88532E+05        -0.50021E+08         0.00000E+00
    0.00000E+00         0.00000E+00        -0.50033E+08
 
   -0.50041E+08         0.89496E+05         0.00000E+00
    0.89496E+05        -0.50022E+08         0.00000E+00
    0.00000E+00         0.00000E+00        -0.50032E+08
 
   -0.50038E+08         0.90403E+05         0.00000E+00
    0.90403E+05        -0.50023E+08         0.00000E+00
    0.00000E+00         0.00000E+00        -0.50032E+08
 
   -0.50036E+08         0.91254E+05         0.00000E+00
    0.91254E+05        -0.50024E+08         0.00000E+00
    0.00000E+00         0.00000E+00        -0.50031E+08
 
   -0.50034E+08         0.92050E+05         0.00000E+00
    0.92050E+05        -0.50025E+08         0.00000E+00
    0.00000E+00         0.00000E+00        -0.50031E+08
 
   -0.50031E+08         0.92791E+05         0.00000E+00
    0.92791E+05        -0.50026E+08         0.00000E+00
    0.00000E+00         0.00000E+00        -0.50030E+08
 
   -0.50107E+08         0.12652E+04         0.00000E+00
    0.12652E+04        -0.50000E+08         0.00000E+00
    0.00000E+00         0.00000E+00        -0.50053E+08
 
   -0.50107E+08         0.37717E+04         0.00000E+00
    0.37717E+04        -0.50000E+08         0.00000E+00
    0.00000E+00         0.00000E+00        -0.50053E+08
 
   -0.50106E+08         0.62661E+04         0.00000E+00
    0.62661E+04        -0.50000E+08         0.00000E+00
    0.00000E+00         0.00000E+00        -0.50053E+08
 
   -0.50105E+08         0.87467E+04         0.00000E+00
    0.87467E+04        -0.50000E+08         0.00000E+00
    0.00000E+00         0.00000E+00        -0.50052E+08
 
   -0.50105E+08         0.11212E+05         0.00000E+00
    0.11212E+05        -0.50000E+08         0.00000E+00
    0.00000E+00         0.00000E+00        -0.50052E+08
 
   -0.50104E+08         0.13661E+05         0.00000E+00
    0.13661E+05        -0.50000E+08         0.00000E+00
    0.00000E+00         0.00000E+00        -0.50052E+08
 
   -0.50103E+08         0.16092E+05         0.00000E+00
    0.16092E+05        -0.50000E+08         0.00000E+00
    0.00000E+00         0.00000E+00        -0.50051E+08
 
   -0.50102E+08         0.18504E+05         0.00000E+00
    0.18504E+05        -0.50001E+08         0.00000E+00
    0.00000E+00         0.00000E+00        -0.50051E+08
 
   -0.50101E+08         0.20896E+05         0.00000E+00
    0.20896E+05        -0.50001E+08         0.00000E+00
    0.00000E+00         0.00000E+00        -0.50051E+08
 
   -0.50100E+08         0.23266E+05         0.00000E+00
    0.23266E+05        -0.50001E+08         0.00000E+00
    0.00000E+00         0.00000E+00        -0.50050E+08
 
   -0.50099E+08         0.25614E+05         0.00000E+00
    0.25614E+05        -0.50001E+08         0.00000E+00
    0.00000E+00         0.00000E+00        -0.50050E+08
 
   -0.50098E+08         0.27938E+05         0.00000E+00
    0.27938E+05        -0.50001E+08         0.00000E+00
    0.00000E+00         0.00000E+00        -0.50049E+08
 
   -0.50096E+08         0.30237E+05         0.00000E+00
    0.30237E+05        -0.50002E+08         0.00000E+00
    0.00000E+00         0.00000E+00        -0.50049E+08
 
   -0.50095E+08         0.32510E+05         0.00000E+00
    0.32510E+05        -0.50002E+08         0.00000E+00
    0.00000E+00         0.00000E+00        -0.50048E+08
 
   -0.50094E+08         0.34756E+05         0.00000E+00
    0.34756E+05        -0.50002E+08         0.00000E+00
    0.00000E+00         0.00000E+00        -0.50048E+08
 
   -0.50093E+08         0.36974E+05         0.00000E+00
    0.36974E+05        -0.50002E+08         0.00000E+00
    0.00000E+00         0.00000E+00        -0.50047E+08
 
   -0.50091E+08         0.39163E+05         0.00000E+00
    0.39163E+05        -0.50003E+08         0.00000E+00
    0.00000E+00         0.00000E+00        -0.50047E+08
 
   -0.50090E+08         0.41321E+05         0.00000E+00
    0.41321E+05        -0.50003E+08         0.00000E+00
    0.00000E+00         0.00000E+00        -0.50046E+08
 
   -0.50088E+08         0.43448E+05         0.00000E+00
    0.43448E+05        -0.50003E+08         0.00000E+00
    0.00000E+00         0.00000E+00        -0.50046E+08
 
   -0.50087E+08         0.45542E+05         0.00000E+00
    0.45542E+05        -0.50004E+08         0.00000E+00
    0.00000E+00         0.00000E+00        -0.50045E+08
 
   -0.50085E+08         0.47603E+05         0.00000E+00
    0.47603E+05        -0.50004E+08         0.00000E+00
    0.00000E+00         0.00000E+00        -0.50045E+08
 
   -0.50084E+08         0.49629E+05         0.00000E+00
    0.49629E+05        -0.50005E+08         0.00000E+00
    0.00000E+00         0.00000E+00        -0.50044E+08
 
   -0.50082E+08         0.51620E+05         0.00000E+00
    0.51620E+05        -0.50005E+08         0.00000E+00
    0.00000E+00         0.00000E+00        -0.50044E+08
 
   -0.50080E+08         0.53574E+05         0.00000E+00
    0.53574E+05        -0.50005E+08         0.00000E+00
    0.00000E+00         0.00000E+00        -0.50043E+08
 
   -0.50079E+08         0.55490E+05         0.00000E+00
    0.55490E+05        -0.50006E+08         0.00000E+00
    0.00000E+00         0.00000E+00        -0.50042E+08
 
   -0.50077E+08         0.57367E+05         0.00000E+00
    0.57367E+05        -0.50006E+08         0.00000E+00
    0.00000E+00         0.00000E+00        -0.50042E+08
 
   -0.50075E+08         0.59204E+05         0.00000E+00
    0.59204E+05        -0.50007E+08         0.00000E+00
    0.00000E+00         0.00000E+00        -0.50041E+08
 
   -0.50073E+08         0.61000E+05         0.00000E+00
    0.61000E+05        -0.50007E+08         0.00000E+00
    0.00000E+00         0.00000E+00        -0.50040E+08
 
   -0.50071E+08         0.62753E+05         0.00000E+00
    0.62753E+05        -0.50008E+08         0.00000E+00
    0.00000E+00         0.00000E+00        -0.50040E+08
 
   -0.50070E+08         0.64464E+05         0.00000E+00
    0.64464E+05        -0.50009E+08         0.00000E+00
    0.00000E+00         0.00000E+00        -0.50039E+08
 
   -0.50068E+08         0.66131E+05         0.00000E+00
    0.66131E+05        -0.50009E+08         0.00000E+00
    0.00000E+00         0.00000E+00        -0.50038E+08
 
   -0.50066E+08         0.67752E+05         0.00000E+00
    0.67752E+05        -0.50010E+08         0.00000E+00
    0.00000E+00         0.00000E+00        -0.50038E+08
 
   -0.50064E+08         0.69327E+05         0.00000E+00
    0.69327E+05        -0.50010E+08         0.00000E+00
    0.00000E+00         0.00000E+00        -0.50037E+08
 
   -0.50062E+08         0.70856E+05         0.00000E+00
    0.70856E+05        -0.50011E+08         0.00000E+00
    0.00000E+00         0.00000E+00        -0.50036E+08
 
   -0.50060E+08         0.72336E+05         0.00000E+00
    0.72336E+05        -0.50012E+08         0.00000E+00
    0.00000E+00         0.00000E+00        -0.50036E+08
 
   -0.50058E+08         0.73767E+05         0.00000E+00
    0.73767E+05        -0.50012E+08         0.00000E+00
    0.00000E+00         0.00000E+00        -0.50035E+08
 
   -0.50055E+08         0.75148E+05         0.00000E+00
    0.75148E+05        -0.50013E+08         0.00000E+00
    0.00000E+00         0.00000E+00        -0.50034E+08
 
   -0.50053E+08         0.76479E+05         0.00000E+00
    0.76479E+05        -0.50014E+08         0.00000E+00
    0.00000E+00         0.00000E+00        -0.50034E+08
 
   -0.50051E+08         0.77759E+05         0.00000E+00
    0.77759E+05        -0.50014E+08         0.00000E+00
    0.00000E+00         0.00000E+00        -0.50033E+08
 
   -0.50049E+08         0.78986E+05         0.00000E+00
    0.78986E+05        -0.50015E+08         0.00000E+00
    0.00000E+00         0.00000E+00        -0.50032E+08
 
   -0.50047E+08         0.80161E+05         0.00000E+00
    0.80161E+05        -0.50016E+08         0.00000E+00
    0.00000E+00         0.00000E+00        -0.50032E+08
 
   -0.50045E+08         0.81282E+05         0.00000E+00
    0.81282E+05        -0.50017E+08         0.00000E+00
    0.00000E+00         0.00000E+00        -0.50031E+08
 
   -0.50043E+08         0.82351E+05         0.00000E+00
    0.82351E+05        -0.50017E+08         0.00000E+00
    0.00000E+00         0.00000E+00        -0.50030E+08
 
   -0.50040E+08         0.83365E+05         0.00000E+00
    0.83365E+05        -0.50018E+08         0.00000E+00
    0.00000E+00         0.00000E+00        -0.50030E+08
 
   -0.50038E+08         0.84326E+05         0.00000E+00
    0.84326E+05        -0.50019E+08         0.00000E+00
    0.00000E+00         0.00000E+00        -0.50029E+08
 
   -0.50036E+08         0.85233E+05         0.00000E+00
    0.85233E+05        -0.50020E+08         0.00000E+00
    0.00000E+00         0.00000E+00        -0.50029E+08
 
   -0.50034E+08         0.86087E+05         0.00000E+00
    0.86087E+05        -0.50021E+08         0.00000E+00
    0.00000E+00         0.00000E+00        -0.50028E+08
 
   -0.50032E+08         0.86887E+05         0.00000E+00
    0.86887E+05        -0.50021E+08         0.00000E+00
    0.00000E+00         0.00000E+00        -0.50028E+08
 
   -0.50030E+08         0.87636E+05         0.00000E+00
    0.87636E+05        -0.50022E+08         0.00000E+00
    0.00000E+00         0.00000E+00        -0.50027E+08
 
   -0.50028E+08         0.88334E+05         0.00000E+00
    0.88334E+05        -0.50023E+08         0.00000E+00
    0.00000E+00         0.00000E+00        -0.50027E+08
 
   -0.50095E+08         0.12189E+04         0.00000E+00
    0.12189E+04        -0.50000E+08         0.00000E+00
    0.00000E+00         0.00000E+00        -0.50047E+08
 
   -0.50094E+08         0.36323E+04         0.00000E+00
    0.36323E+04        -0.50000E+08         0.00000E+00
    0.00000E+00         0.00000E+00        -0.50047E+08
 
   -0.50094E+08         0.60333E+04         0.00000E+00
    0.60333E+04        -0.50000E+08         0.00000E+00
    0.00000E+00         0.00000E+00        -0.50047E+08
 
   -0.50093E+08         0.84204E+04         0.00000E+00
    0.84204E+04        -0.50000E+08         0.00000E+00
    0.00000E+00         0.00000E+00        -0.50046E+08
 
   -0.50092E+08         0.10792E+05         0.00000E+00
    0.10792E+05        -0.50000E+08         0.00000E+00
    0.00000E+00         0.00000E+00        -0.50046E+08
 
   -0.50092E+08         0.13147E+05         0.00000E+00
    0.13147E+05        -0.50000E+08         0.00000E+00
    0.00000E+00         0.00000E+00        -0.50046E+08
 
   -0.50091E+08         0.15484E+05         0.00000E+00
    0.15484E+05        -0.50000E+08         0.00000E+00
    0.00000E+00         0.00000E+00        -0.50045E+08
 
   -0.50090E+08         0.17802E+05         0.00000E+00
    0.17802E+05        -0.50000E+08         0.00000E+00
    0.00000E+00         0.00000E+00        -0.50045E+08
 
   -0.50089E+08         0.20099E+05         0.00000E+00
    0.20099E+05        -0.50001E+08         0.00000E+00
    0.00000E+00         0.00000E+00        -0.50045E+08
 
   -0.50088E+08         0.22375E+05         0.00000E+00
    0.22375E+05        -0.50001E+08         0.00000E+00
    0.00000E+00         0.00000E+00        -0.50044E+08
 
   -0.50087E+08         0.24628E+05         0.00000E+00
    0.24628E+05        -0.50001E+08         0.00000E+00
    0.00000E+00         0.00000E+00        -0.50044E+08
 
   -0.50086E+08         0.26857E+05         0.00000E+00
    0.26857E+05        -0.50001E+08         0.00000E+00
    0.00000E+00         0.00000E+00        -0.50044E+08
 
   -0.50085E+08         0.29062E+05         0.00000E+00
    0.29062E+05        -0.50001E+08         0.00000E+00
    0.00000E+00         0.00000E+00        -0.50043E+08
 
   -0.50084E+08         0.31240E+05         0.00000E+00
    0.31240E+05        -0.50002E+08         0.00000E+00
    0.00000E+00         0.00000E+00        -0.50043E+08
 
   -0.50083E+08         0.33392E+05         0.00000E+00
    0.33392E+05        -0.50002E+08         0.00000E+00
    0.00000E+00         0.00000E+00        -0.50042E+08
 
   -0.50082E+08         0.35516E+05         0.00000E+00
    0.35516E+05        -0.50002E+08         0.00000E+00
    0.00000E+00         0.00000E+00        -0.50042E+08
 
   -0.50080E+08         0.37611E+05         0.00000E+00
    0.37611E+05        -0.50002E+08         0.00000E+00
    0.00000E+00         0.00000E+00        -0.50041E+08
 
   -0.50079E+08         0.39676E+05         0.00000E+00
    0.39676E+05        -0.50003E+08         0.00000E+00
    0.00000E+00         0.00000E+00        -0.50041E+08
 
   -0.50078E+08         0.41710E+05         0.00000E+00
    0.41710E+05        -0.50003E+08         0.00000E+00
    0.00000E+00         0.00000E+00        -0.50040E+08
 
   -0.50077E+08         0.43713E+05         0.00000E+00
    0.43713E+05        -0.50003E+08         0.00000E+00
    0.00000E+00         0.00000E+00        -0.50040E+08
 
   -0.50075E+08         0.45682E+05         0.00000E+00
    0.45682E+05        -0.50004E+08         0.00000E+00
    0.00000E+00         0.00000E+00        -0.50039E+08
 
   -0.50074E+08         0.47617E+05         0.00000E+00
    0.47617E+05        -0.50004E+08         0.00000E+00
    0.00000E+00         0.00000E+00        -0.50039E+08
 
   -0.50072E+08         0.49518E+05         0.00000E+00
    0.49518E+05        -0.50004E+08         0.00000E+00
    0.00000E+00         0.00000E+00        -0.50038E+08
 
   -0.50071E+08         0.51382E+05         0.00000E+00
    0.51382E+05        -0.50005E+08         0.00000E+00
    0.00000E+00         0.00000E+00        -0.50038E+08
 
   -0.50069E+08         0.53210E+05         0.00000E+00
    0.53210E+05        -0.50005E+08         0.00000E+00
    0.00000E+00         0.00000E+00        -0.50037E+08
 
   -0.50068E+08         0.54999E+05         0.00000E+00
    0.54999E+05        -0.50006E+08         0.00000E+00
    0.00000E+00         0.00000E+00        -0.50037E+08
 
   -0.50066E+08         0.56750E+05         0.00000E+00
    0.56750E+05        -0.50006E+08         0.00000E+00
    0.00000E+00         0.00000E+00        -0.50036E+08
 
   -0.50065E+08         0.58461E+05         0.00000E+00
    0.58461E+05        -0.50007E+08         0.00000E+00
    0.00000E+00         0.00000E+00        -0.50036E+08
 
   -0.50063E+08         0.60131E+05         0.00000E+00
    0.60131E+05        -0.50007E+08         0.00000E+00
    0.00000E+00         0.00000E+00        -0.50035E+08
 
   -0.50061E+08         0.61759E+05         0.00000E+00
    0.61759E+05        -0.50008E+08         0.00000E+00
    0.00000E+00         0.00000E+00        -0.50035E+08
 
   -0.50060E+08         0.63345E+05         0.00000E+00
    0.63345E+05        -0.50008E+08         0.00000E+00
    0.00000E+00         0.00000E+00        -0.50034E+08
 
   -0.50058E+08         0.64887E+05         0.00000E+00
    0.64887E+05        -0.50009E+08         0.00000E+00
    0.00000E+00         0.00000E+00        -0.50033E+08
 
   -0.50056E+08         0.66385E+05         0.00000E+00
    0.66385E+05        -0.50009E+08         0.00000E+00
    0.00000E+00         0.00000E+00        -0.50033E+08
 
   -0.50054E+08         0.67837E+05         0.00000E+00
    0.67837E+05        -0.50010E+08         0.00000E+00
    0.00000E+00         0.00000E+00        -0.50032E+08
 
   -0.50053E+08         0.69243E+05         0.00000E+00
    0.69243E+05        -0.50010E+08         0.00000E+00
    0.00000E+00         0.00000E+00        -0.50032E+08
 
   -0.50051E+08         0.70602E+05         0.00000E+00
    0.70602E+05        -0.50011E+08         0.00000E+00
    0.00000E+00         0.00000E+00        -0.50031E+08
 
   -0.50049E+08         0.71913E+05         0.00000E+00
    0.71913E+05        -0.50012E+08         0.00000E+00
    0.00000E+00         0.00000E+00        -0.50030E+08
 
   -0.50047E+08         0.73176E+05         0.00000E+00
    0.73176E+05        -0.50012E+08         0.00000E+00
    0.00000E+00         0.00000E+00        -0.50030E+08
 
   -0.50045E+08         0.74390E+05         0.00000E+00
    0.74390E+05        -0.50013E+08         0.00000E+00
    0.00000E+00         0.00000E+00        -0.50029E+08
 
   -0.50043E+08         0.75554E+05         0.00000E+00
    0.75554E+05        -0.50013E+08         0.00000E+00
    0.00000E+00         0.00000E+00        -0.50029E+08
 
   -0.50041E+08         0.76668E+05         0.00000E+00
    0.76668E+05        -0.50014E+08         0.00000E+00
    0.00000E+00         0.00000E+00        -0.50028E+08
 
   -0.50039E+08         0.77731E+05         0.00000E+00
    0.77731E+05        -0.50015E+08         0.00000E+00
    0.00000E+00         0.00000E+00        -0.50027E+08
 
   -0.50037E+08         0.78743E+05         0.00000E+00
    0.78743E+05        -0.50015E+08         0.00000E+00
    0.00000E+00         0.00000E+00        -0.50027E+08
 
   -0.50036E+08         0.79704E+05         0.00000E+00
    0.79704E+05        -0.50016E+08         0.00000E+00
    0.00000E+00         0.00000E+00        -0.50026E+08
 
   -0.50034E+08         0.80614E+05         0.00000E+00
    0.80614E+05        -0.50017E+08         0.00000E+00
    0.00000E+00         0.00000E+00        -0.50026E+08
 
   -0.50032E+08         0.81474E+05         0.00000E+00
    0.81474E+05        -0.50017E+08         0.00000E+00
    0.00000E+00         0.00000E+00        -0.50025E+08
 
   -0.50030E+08         0.82282E+05         0.00000E+00
    0.82282E+05        -0.50018E+08         0.00000E+00
    0.00000E+00         0.00000E+00        -0.50025E+08
 
   -0.50028E+08         0.83041E+05         0.00000E+00
    0.83041E+05        -0.50019E+08         0.00000E+00
    0.00000E+00         0.00000E+00        -0.50024E+08
 
   -0.50026E+08         0.83751E+05         0.00000E+00
    0.83751E+05        -0.50020E+08         0.00000E+00
    0.00000E+00         0.00000E+00        -0.50024E+08
 
   -0.50025E+08         0.84414E+05         0.00000E+00
    0.84414E+05        -0.50020E+08         0.00000E+00
    0.00000E+00         0.00000E+00        -0.50024E+08
 
   -0.50083E+08         0.11771E+04         0.00000E+00
    0.11771E+04        -0.50000E+08         0.00000E+00
    0.00000E+00         0.00000E+00        -0.50041E+08
 
   -0.50083E+08         0.35070E+04         0.00000E+00
    0.35070E+04        -0.50000E+08         0.00000E+00
    0.00000E+00         0.00000E+00        -0.50041E+08
 
   -0.50082E+08         0.58244E+04         0.00000E+00
    0.58244E+04        -0.50000E+08         0.00000E+00
    0.00000E+00         0.00000E+00        -0.50041E+08
 
   -0.50081E+08         0.81279E+04         0.00000E+00
    0.81279E+04        -0.50000E+08         0.00000E+00
    0.00000E+00         0.00000E+00        -0.50040E+08
 
   -0.50081E+08         0.10416E+05         0.00000E+00
    0.10416E+05        -0.50000E+08         0.00000E+00
    0.00000E+00         0.00000E+00        -0.50040E+08
 
   -0.50080E+08         0.12687E+05         0.00000E+00
    0.12687E+05        -0.50000E+08         0.00000E+00
    0.00000E+00         0.00000E+00        -0.50040E+08
 
   -0.50080E+08         0.14940E+05         0.00000E+00
    0.14940E+05        -0.50000E+08         0.00000E+00
    0.00000E+00         0.00000E+00        -0.50040E+08
 
   -0.50079E+08         0.17174E+05         0.00000E+00
    0.17174E+05        -0.50000E+08         0.00000E+00
    0.00000E+00         0.00000E+00        -0.50039E+08
 
   -0.50078E+08         0.19388E+05         0.00000E+00
    0.19388E+05        -0.50001E+08         0.00000E+00
    0.00000E+00         0.00000E+00        -0.50039E+08
 
   -0.50077E+08         0.21580E+05         0.00000E+00
    0.21580E+05        -0.50001E+08         0.00000E+00
    0.00000E+00         0.00000E+00        -0.50039E+08
 
   -0.50076E+08         0.23750E+05         0.00000E+00
    0.23750E+05        -0.50001E+08         0.00000E+00
    0.00000E+00         0.00000E+00        -0.50039E+08
 
   -0.50075E+08         0.25895E+05         0.00000E+00
    0.25895E+05        -0.50001E+08         0.00000E+00
    0.00000E+00         0.00000E+00        -0.50038E+08
 
   -0.50074E+08         0.28017E+05         0.00000E+00
    0.28017E+05        -0.50001E+08         0.00000E+00
    0.00000E+00         0.00000E+00        -0.50038E+08
 
   -0.50073E+08         0.30112E+05         0.00000E+00
    0.30112E+05        -0.50001E+08         0.00000E+00
    0.00000E+00         0.00000E+00        -0.50037E+08
 
   -0.50072E+08         0.32181E+05         0.00000E+00
    0.32181E+05        -0.50002E+08         0.00000E+00
    0.00000E+00         0.00000E+00        -0.50037E+08
 
   -0.50071E+08         0.34223E+05         0.00000E+00
    0.34223E+05        -0.50002E+08         0.00000E+00
    0.00000E+00         0.00000E+00        -0.50037E+08
 
   -0.50070E+08         0.36236E+05         0.00000E+00
    0.36236E+05        -0.50002E+08         0.00000E+00
    0.00000E+00         0.00000E+00        -0.50036E+08
 
   -0.50069E+08         0.38219E+05         0.00000E+00
    0.38219E+05        -0.50002E+08         0.00000E+00
    0.00000E+00         0.00000E+00        -0.50036E+08
 
   -0.50068E+08         0.40172E+05         0.00000E+00
    0.40172E+05        -0.50003E+08         0.00000E+00
    0.00000E+00         0.00000E+00        -0.50035E+08
 
   -0.50067E+08         0.42094E+05         0.00000E+00
    0.42094E+05        -0.50003E+08         0.00000E+00
    0.00000E+00         0.00000E+00        -0.50035E+08
 
   -0.50066E+08         0.43983E+05         0.00000E+00
    0.43983E+05        -0.50003E+08         0.00000E+00
    0.00000E+00         0.00000E+00        -0.50034E+08
 
   -0.50064E+08         0.45839E+05         0.00000E+00
    0.45839E+05        -0.50004E+08         0.00000E+00
    0.00000E+00         0.00000E+00        -0.50034E+08
 
   -0.50063E+08         0.47661E+05         0.00000E+00
    0.47661E+05        -0.50004E+08         0.00000E+00
    0.00000E+00         0.00000E+00        -0.50034E+08
 
   -0.50062E+08         0.49447E+05         0.00000E+00
    0.49447E+05        -0.50004E+08         0.00000E+00
    0.00000E+00         0.00000E+00        -0.50033E+08
 
   -0.50061E+08         0.51198E+05         0.00000E+00
    0.51198E+05        -0.50005E+08         0.00000E+00
    0.00000E+00         0.00000E+00        -0.50033E+08
 
   -0.50059E+08         0.52911E+05         0.00000E+00
    0.52911E+05        -0.50005E+08         0.00000E+00
    0.00000E+00         0.00000E+00        -0.50032E+08
 
   -0.50058E+08         0.54587E+05         0.00000E+00
    0.54587E+05        -0.50005E+08         0.00000E+00
    0.00000E+00         0.00000E+00        -0.50032E+08
 
   -0.50056E+08         0.56224E+05         0.00000E+00
    0.56224E+05        -0.50006E+08         0.00000E+00
    0.00000E+00         0.00000E+00        -0.50031E+08
 
   -0.50055E+08         0.57822E+05         0.00000E+00
    0.57822E+05        -0.50006E+08         0.00000E+00
    0.00000E+00         0.00000E+00        -0.50031E+08
 
   -0.50053E+08         0.59379E+05         0.00000E+00
    0.59379E+05        -0.50007E+08         0.00000E+00
    0.00000E+00         0.00000E+00        -0.50030E+08
 
   -0.50052E+08         0.60894E+05         0.00000E+00
    0.60894E+05        -0.50007E+08         0.00000E+00
    0.00000E+00         0.00000E+00        -0.50030E+08
 
   -0.50050E+08         0.62368E+05         0.00000E+00
    0.62368E+05        -0.50008E+08         0.00000E+00
    0.00000E+00         0.00000E+00        -0.50029E+08
 
   -0.50049E+08         0.63798E+05         0.00000E+00
    0.63798E+05        -0.50008E+08         0.00000E+00
    0.00000E+00         0.00000E+00        -0.50029E+08
 
   -0.50047E+08         0.65185E+05         0.00000E+00
    0.65185E+05        -0.50009E+08         0.00000E+00
    0.00000E+00         0.00000E+00        -0.50028E+08
 
   -0.50046E+08         0.66527E+05         0.00000E+00
    0.66527E+05        -0.50009E+08         0.00000E+00
    0.00000E+00         0.00000E+00        -0.50028E+08
 
   -0.50044E+08         0.67824E+05         0.00000E+00
    0.67824E+05        -0.50010E+08         0.00000E+00
    0.00000E+00         0.00000E+00        -0.50027E+08
 
   -0.50043E+08         0.69075E+05         0.00000E+00
    0.69075E+05        -0.50010E+08         0.00000E+00
    0.00000E+00         0.00000E+00        -0.50026E+08
 
   -0.50041E+08         0.70279E+05         0.00000E+00
    0.70279E+05        -0.50011E+08         0.00000E+00
    0.00000E+00         0.00000E+00        -0.50026E+08
 
   -0.50039E+08         0.71437E+05         0.00000E+00
    0.71437E+05        -0.50011E+08         0.00000E+00
    0.00000E+00         0.00000E+00        -0.50025E+08
 
   -0.50038E+08         0.72547E+05         0.00000E+00
    0.72547E+05        -0.50012E+08         0.00000E+00
    0.00000E+00         0.00000E+00        -0.50025E+08
 
   -0.50036E+08         0.73608E+05         0.00000E+00
    0.73608E+05        -0.50012E+08         0.00000E+00
    0.00000E+00         0.00000E+00        -0.50024E+08
 
   -0.50034E+08         0.74622E+05         0.00000E+00
    0.74622E+05        -0.50013E+08         0.00000E+00
    0.00000E+00         0.00000E+00        -0.50024E+08
 
   -0.50033E+08         0.75587E+05         0.00000E+00
    0.75587E+05        -0.50014E+08         0.00000E+00
    0.00000E+00         0.00000E+00        -0.50023E+08
 
   -0.50031E+08         0.76503E+05         0.00000E+00
    0.76503E+05        -0.50014E+08         0.00000E+00
    0.00000E+00         0.00000E+00        -0.50023E+08
 
   -0.50029E+08         0.77370E+05         0.00000E+00
    0.77370E+05        -0.50015E+08         0.00000E+00
    0.00000E+00         0.00000E+00        -0.50022E+08
 
   -0.50028E+08         0.78190E+05         0.00000E+00
    0.78190E+05        -0.50015E+08         0.00000E+00
    0.00000E+00         0.00000E+00        -0.50022E+08
 
   -0.50026E+08         0.78961E+05         0.00000E+00
    0.78961E+05        -0.50016E+08         0.00000E+00
    0.00000E+00         0.00000E+00        -0.50022E+08
 
   -0.50024E+08         0.79685E+05         0.00000E+00
    0.79685E+05        -0.50017E+08         0.00000E+00
    0.00000E+00         0.00000E+00        -0.50021E+08
 
   -0.50023E+08         0.80363E+05         0.00000E+00
    0.80363E+05        -0.50017E+08         0.00000E+00
    0.00000E+00         0.00000E+00        -0.50021E+08
 
   -0.50021E+08         0.80996E+05         0.00000E+00
    0.80996E+05        -0.50018E+08         0.00000E+00
    0.00000E+00         0.00000E+00        -0.50021E+08
 
   -0.50071E+08         0.11400E+04         0.00000E+00
    0.11400E+04        -0.50000E+08         0.00000E+00
    0.00000E+00         0.00000E+00        -0.50035E+08
 
   -0.50071E+08         0.33959E+04         0.00000E+00
    0.33959E+04        -0.50000E+08         0.00000E+00
    0.00000E+00         0.00000E+00        -0.50035E+08
 
   -0.50071E+08         0.56394E+04         0.00000E+00
    0.56394E+04        -0.50000E+08         0.00000E+00
    0.00000E+00         0.00000E+00        -0.50035E+08
 
   -0.50070E+08         0.78690E+04         0.00000E+00
    0.78690E+04        -0.50000E+08         0.00000E+00
    0.00000E+00         0.00000E+00        -0.50035E+08
 
   -0.50070E+08         0.10083E+05         0.00000E+00
    0.10083E+05        -0.50000E+08         0.00000E+00
    0.00000E+00         0.00000E+00        -0.50035E+08
 
   -0.50069E+08         0.12281E+05         0.00000E+00
    0.12281E+05        -0.50000E+08         0.00000E+00
    0.00000E+00         0.00000E+00        -0.50034E+08
 
   -0.50068E+08         0.14461E+05         0.00000E+00
    0.14461E+05        -0.50000E+08         0.00000E+00
    0.00000E+00         0.00000E+00        -0.50034E+08
 
   -0.50068E+08         0.16621E+05         0.00000E+00
    0.16621E+05        -0.50000E+08         0.00000E+00
    0.00000E+00         0.00000E+00        -0.50034E+08
 
   -0.50067E+08         0.18762E+05         0.00000E+00
    0.18762E+05        -0.50000E+08         0.00000E+00
    0.00000E+00         0.00000E+00        -0.50034E+08
 
   -0.50066E+08         0.20881E+05         0.00000E+00
    0.20881E+05        -0.50001E+08         0.00000E+00
    0.00000E+00         0.00000E+00        -0.50033E+08
 
   -0.50066E+08         0.22977E+05         0.00000E+00
    0.22977E+05        -0.50001E+08         0.00000E+00
    0.00000E+00         0.00000E+00        -0.50033E+08
 
   -0.50065E+08         0.25050E+05         0.00000E+00
    0.25050E+05        -0.50001E+08         0.00000E+00
    0.00000E+00         0.00000E+00        -0.50033E+08
 
   -0.50064E+08         0.27099E+05         0.00000E+00
    0.27099E+05        -0.50001E+08         0.00000E+00
    0.00000E+00         0.00000E+00        -0.50033E+08
 
   -0.50063E+08         0.29123E+05         0.00000E+00
    0.29123E+05        -0.50001E+08         0.00000E+00
    0.00000E+00         0.00000E+00        -0.50032E+08
 
   -0.50062E+08         0.31120E+05         0.00000E+00
    0.31120E+05        -0.50001E+08         0.00000E+00
    0.00000E+00         0.00000E+00        -0.50032E+08
 
   -0.50061E+08         0.33090E+05         0.00000E+00
    0.33090E+05        -0.50002E+08         0.00000E+00
    0.00000E+00         0.00000E+00        -0.50032E+08
 
   -0.50060E+08         0.35032E+05         0.00000E+00
    0.35032E+05        -0.50002E+08         0.00000E+00
    0.00000E+00         0.00000E+00        -0.50031E+08
 
   -0.50060E+08         0.36944E+05         0.00000E+00
    0.36944E+05        -0.50002E+08         0.00000E+00
    0.00000E+00         0.00000E+00        -0.50031E+08
 
   -0.50059E+08         0.38827E+05         0.00000E+00
    0.38827E+05        -0.50002E+08         0.00000E+00
    0.00000E+00         0.00000E+00        -0.50030E+08
 
   -0.50058E+08         0.40679E+05         0.00000E+00
    0.40679E+05        -0.50003E+08         0.00000E+00
    0.00000E+00         0.00000E+00        -0.50030E+08
 
   -0.50056E+08         0.42499E+05         0.00000E+00
    0.42499E+05        -0.50003E+08         0.00000E+00
    0.00000E+00         0.00000E+00        -0.50030E+08
 
   -0.50055E+08         0.44286E+05         0.00000E+00
    0.44286E+05        -0.50003E+08         0.00000E+00
    0.00000E+00         0.00000E+00        -0.50029E+08
 
   -0.50054E+08         0.46040E+05         0.00000E+00
    0.46040E+05        -0.50003E+08         0.00000E+00
    0.00000E+00         0.00000E+00        -0.50029E+08
 
   -0.50053E+08         0.47760E+05         0.00000E+00
    0.47760E+05        -0.50004E+08         0.00000E+00
    0.00000E+00         0.00000E+00        -0.50028E+08
 
   -0.50052E+08         0.49444E+05         0.00000E+00
    0.49444E+05        -0.50004E+08         0.00000E+00
    0.00000E+00         0.00000E+00        -0.50028E+08
 
   -0.50051E+08         0.51093E+05         0.00000E+00
    0.51093E+05        -0.50004E+08         0.00000E+00
    0.00000E+00         0.00000E+00        -0.50028E+08
 
   -0.50050E+08         0.52704E+05         0.00000E+00
    0.52704E+05        -0.50005E+08         0.00000E+00
    0.00000E+00         0.00000E+00        -0.50027E+08
 
   -0.50048E+08         0.54278E+05         0.00000E+00
    0.54278E+05        -0.50005E+08         0.00000E+00
    0.00000E+00         0.00000E+00        -0.50027E+08
 
   -0.50047E+08         0.55813E+05         0.00000E+00
    0.55813E+05        -0.50005E+08         0.00000E+00
    0.00000E+00         0.00000E+00        -0.50026E+08
 
   -0.50046E+08         0.57309E+05         0.00000E+00
    0.57309E+05        -0.50006E+08         0.00000E+00
    0.00000E+00         0.00000E+00        -0.50026E+08
 
   -0.50045E+08         0.58765E+05         0.00000E+00
    0.58765E+05        -0.50006E+08         0.00000E+00
    0.00000E+00         0.00000E+00        -0.50025E+08
 
   -0.50043E+08         0.60180E+05         0.00000E+00
    0.60180E+05        -0.50007E+08         0.00000E+00
    0.00000E+00         0.00000E+00        -0.50025E+08
 
   -0.50042E+08         0.61553E+05         0.00000E+00
    0.61553E+05        -0.50007E+08         0.00000E+00
    0.00000E+00         0.00000E+00        -0.50025E+08
 
   -0.50041E+08         0.62884E+05         0.00000E+00
    0.62884E+05        -0.50007E+08         0.00000E+00
    0.00000E+00         0.00000E+00        -0.50024E+08
 
   -0.50039E+08         0.64172E+05         0.00000E+00
    0.64172E+05        -0.50008E+08         0.00000E+00
    0.00000E+00         0.00000E+00        -0.50024E+08
 
   -0.50038E+08         0.65416E+05         0.00000E+00
    0.65416E+05        -0.50008E+08         0.00000E+00
    0.00000E+00         0.00000E+00        -0.50023E+08
 
   -0.50037E+08         0.66616E+05         0.00000E+00
    0.66616E+05        -0.50009E+08         0.00000E+00
    0.00000E+00         0.00000E+00        -0.50023E+08
 
   -0.50035E+08         0.67771E+05         0.00000E+00
    0.67771E+05        -0.50009E+08         0.00000E+00
    0.00000E+00         0.00000E+00        -0.50022E+08
 
   -0.50034E+08         0.68881E+05         0.00000E+00
    0.68881E+05        -0.50010E+08         0.00000E+00
    0.00000E+00         0.00000E+00        -0.50022E+08
 
   -0.50032E+08         0.69945E+05         0.00000E+00
    0.69945E+05        -0.50010E+08         0.00000E+00
    0.00000E+00         0.00000E+00        -0.50021E+08
 
   -0.50031E+08         0.70963E+05         0.00000E+00
    0.70963E+05        -0.50011E+08         0.00000E+00
    0.00000E+00         0.00000E+00        -0.50021E+08
 
   -0.50029E+08         0.71934E+05         0.00000E+00
    0.71934E+05        -0.50011E+08         0.00000E+00
    0.00000E+00         0.00000E+00        -0.50021E+08
 
   -0.50028E+08         0.72860E+05         0.00000E+00
    0.72860E+05        -0.50012E+08         0.00000E+00
    0.00000E+00         0.00000E+00        -0.50020E+08
 
   -0.50027E+08         0.73738E+05         0.00000E+00
    0.73738E+05        -0.50012E+08         0.00000E+00
    0.00000E+00         0.00000E+00        -0.50020E+08
 
   -0.50025E+08         0.74571E+05         0.00000E+00
    0.74571E+05        -0.50013E+08         0.00000E+00
    0.00000E+00         0.00000E+00        -0.50019E+08
 
   -0.50024E+08         0.75357E+05         0.00000E+00
    0.75357E+05        -0.50013E+08         0.00000E+00
    0.00000E+00         0.00000E+00        -0.50019E+08
 
   -0.50022E+08         0.76097E+05         0.00000E+00
    0.76097E+05        -0.50014E+08         0.00000E+00
    0.00000E+00         0.00000E+00        -0.50019E+08
 
   -0.50021E+08         0.76792E+05         0.00000E+00
    0.76792E+05        -0.50014E+08         0.00000E+00
    0.00000E+00         0.00000E+00        -0.50018E+08
 
   -0.50020E+08         0.77444E+05         0.00000E+00
    0.77444E+05        -0.50015E+08         0.00000E+00
    0.00000E+00         0.00000E+00        -0.50018E+08
 
   -0.50018E+08         0.78052E+05         0.00000E+00
    0.78052E+05        -0.50015E+08         0.00000E+00
    0.00000E+00         0.00000E+00        -0.50018E+08
 
   -0.50060E+08         0.11076E+04         0.00000E+00
    0.11076E+04        -0.50000E+08         0.00000E+00
    0.00000E+00         0.00000E+00        -0.50030E+08
 
   -0.50060E+08         0.32992E+04         0.00000E+00
    0.32992E+04        -0.50000E+08         0.00000E+00
    0.00000E+00         0.00000E+00        -0.50030E+08
 
   -0.50060E+08         0.54785E+04         0.00000E+00
    0.54785E+04        -0.50000E+08         0.00000E+00
    0.00000E+00         0.00000E+00        -0.50030E+08
 
   -0.50059E+08         0.76441E+04         0.00000E+00
    0.76441E+04        -0.50000E+08         0.00000E+00
    0.00000E+00         0.00000E+00        -0.50029E+08
 
   -0.50059E+08         0.97946E+04         0.00000E+00
    0.97946E+04        -0.50000E+08         0.00000E+00
    0.00000E+00         0.00000E+00        -0.50029E+08
 
   -0.50058E+08         0.11929E+05         0.00000E+00
    0.11929E+05        -0.50000E+08         0.00000E+00
    0.00000E+00         0.00000E+00        -0.50029E+08
 
   -0.50058E+08         0.14045E+05         0.00000E+00
    0.14045E+05        -0.50000E+08         0.00000E+00
    0.00000E+00         0.00000E+00        -0.50029E+08
 
   -0.50057E+08         0.16142E+05         0.00000E+00
    0.16142E+05        -0.50000E+08         0.00000E+00
    0.00000E+00         0.00000E+00        -0.50029E+08
 
   -0.50057E+08         0.18220E+05         0.00000E+00
    0.18220E+05        -0.50000E+08         0.00000E+00
    0.00000E+00         0.00000E+00        -0.50028E+08
 
   -0.50056E+08         0.20276E+05         0.00000E+00
    0.20276E+05        -0.50001E+08         0.00000E+00
    0.00000E+00         0.00000E+00        -0.50028E+08
 
   -0.50055E+08         0.22310E+05         0.00000E+00
    0.22310E+05        -0.50001E+08         0.00000E+00
    0.00000E+00         0.00000E+00        -0.50028E+08
 
   -0.50055E+08         0.24321E+05         0.00000E+00
    0.24321E+05        -0.50001E+08         0.00000E+00
    0.00000E+00         0.00000E+00        -0.50028E+08
 
   -0.50054E+08         0.26308E+05         0.00000E+00
    0.26308E+05        -0.50001E+08         0.00000E+00
    0.00000E+00         0.00000E+00        -0.50027E+08
 
   -0.50053E+08         0.28269E+05         0.00000E+00
    0.28269E+05        -0.50001E+08         0.00000E+00
    0.00000E+00         0.00000E+00        -0.50027E+08
 
   -0.50053E+08         0.30205E+05         0.00000E+00
    0.30205E+05        -0.50001E+08         0.00000E+00
    0.00000E+00         0.00000E+00        -0.50027E+08
 
   -0.50052E+08         0.32114E+05         0.00000E+00
    0.32114E+05        -0.50001E+08         0.00000E+00
    0.00000E+00         0.00000E+00        -0.50027E+08
 
   -0.50051E+08         0.33995E+05         0.00000E+00
    0.33995E+05        -0.50002E+08         0.00000E+00
    0.00000E+00         0.00000E+00        -0.50026E+08
 
   -0.50050E+08         0.35848E+05         0.00000E+00
    0.35848E+05        -0.50002E+08         0.00000E+00
    0.00000E+00         0.00000E+00        -0.50026E+08
 
   -0.50049E+08         0.37671E+05         0.00000E+00
    0.37671E+05        -0.50002E+08         0.00000E+00
    0.00000E+00         0.00000E+00        -0.50026E+08
 
   -0.50048E+08         0.39464E+05         0.00000E+00
    0.39464E+05        -0.50002E+08         0.00000E+00
    0.00000E+00         0.00000E+00        -0.50025E+08
 
   -0.50048E+08         0.41225E+05         0.00000E+00
    0.41225E+05        -0.50002E+08         0.00000E+00
    0.00000E+00         0.00000E+00        -0.50025E+08
 
   -0.50047E+08         0.42955E+05         0.00000E+00
    0.42955E+05        -0.50003E+08         0.00000E+00
    0.00000E+00         0.00000E+00        -0.50025E+08
 
   -0.50046E+08         0.44651E+05         0.00000E+00
    0.44651E+05        -0.50003E+08         0.00000E+00
    0.00000E+00         0.00000E+00        -0.50024E+08
 
   -0.50045E+08         0.46314E+05         0.00000E+00
    0.46314E+05        -0.50003E+08         0.00000E+00
    0.00000E+00         0.00000E+00        -0.50024E+08
 
   -0.50044E+08         0.47943E+05         0.00000E+00
    0.47943E+05        -0.50003E+08         0.00000E+00
    0.00000E+00         0.00000E+00        -0.50024E+08
 
   -0.50043E+08         0.49536E+05         0.00000E+00
    0.49536E+05        -0.50004E+08         0.00000E+00
    0.00000E+00         0.00000E+00        -0.50023E+08
 
   -0.50042E+08         0.51093E+05         0.00000E+00
    0.51093E+05        -0.50004E+08         0.00000E+00
    0.00000E+00         0.00000E+00        -0.50023E+08
 
   -0.50041E+08         0.52613E+05         0.00000E+00
    0.52613E+05        -0.50004E+08         0.00000E+00
    0.00000E+00         0.00000E+00        -0.50023E+08
 
   -0.50040E+08         0.54096E+05         0.00000E+00
    0.54096E+05        -0.50005E+08         0.00000E+00
    0.00000E+00         0.00000E+00        -0.50022E+08
 
   -0.50039E+08         0.55541E+05         0.00000E+00
    0.55541E+05        -0.50005E+08         0.00000E+00
    0.00000E+00         0.00000E+00        -0.50022E+08
 
   -0.50038E+08         0.56946E+05         0.00000E+00
    0.56946E+05        -0.50005E+08         0.00000E+00
    0.00000E+00         0.00000E+00        -0.50021E+08
 
   -0.50037E+08         0.58312E+05         0.00000E+00
    0.58312E+05        -0.50006E+08         0.00000E+00
    0.00000E+00         0.00000E+00        -0.50021E+08
 
   -0.50035E+08         0.59637E+05         0.00000E+00
    0.59637E+05        -0.50006E+08         0.00000E+00
    0.00000E+00         0.00000E+00        -0.50021E+08
 
   -0.50034E+08         0.60921E+05         0.00000E+00
    0.60921E+05        -0.50006E+08         0.00000E+00
    0.00000E+00         0.00000E+00        -0.50020E+08
 
   -0.50033E+08         0.62164E+05         0.00000E+00
    0.62164E+05        -0.50007E+08         0.00000E+00
    0.00000E+00         0.00000E+00        -0.50020E+08
 
   -0.50032E+08         0.63364E+05         0.00000E+00
    0.63364E+05        -0.50007E+08         0.00000E+00
    0.00000E+00         0.00000E+00        -0.50020E+08
 
   -0.50031E+08         0.64521E+05         0.00000E+00
    0.64521E+05        -0.50007E+08         0.00000E+00
    0.00000E+00         0.00000E+00        -0.50019E+08
 
   -0.50030E+08         0.65635E+05         0.00000E+00
    0.65635E+05        -0.50008E+08         0.00000E+00
    0.00000E+00         0.00000E+00        -0.50019E+08
 
   -0.50028E+08         0.66705E+05         0.00000E+00
    0.66705E+05        -0.50008E+08         0.00000E+00
    0.00000E+00         0.00000E+00        -0.50018E+08
 
   -0.50027E+08         0.67732E+05         0.00000E+00
    0.67732E+05        -0.50009E+08         0.00000E+00
    0.00000E+00         0.00000E+00        -0.50018E+08
 
   -0.50026E+08         0.68713E+05         0.00000E+00
    0.68713E+05        -0.50009E+08         0.00000E+00
    0.00000E+00         0.00000E+00        -0.50018E+08
 
   -0.50025E+08         0.69651E+05         0.00000E+00
    0.69651E+05        -0.50009E+08         0.00000E+00
    0.00000E+00         0.00000E+00        -0.50017E+08
 
   -0.50024E+08         0.70543E+05         0.00000E+00
    0.70543E+05        -0.50010E+08         0.00000E+00
    0.00000E+00         0.00000E+00        -0.50017E+08
 
   -0.50022E+08         0.71391E+05         0.00000E+00
    0.71391E+05        -0.50010E+08         0.00000E+00
    0.00000E+00         0.00000E+00        -0.50017E+08
 
   -0.50021E+08         0.72194E+05         0.00000E+00
    0.72194E+05        -0.50011E+08         0.00000E+00
    0.00000E+00         0.00000E+00        -0.50016E+08
 
   -0.50020E+08         0.72953E+05         0.00000E+00
    0.72953E+05        -0.50011E+08         0.00000E+00
    0.00000E+00         0.00000E+00        -0.50016E+08
 
   -0.50019E+08         0.73668E+05         0.00000E+00
    0.73668E+05        -0.50012E+08         0.00000E+00
    0.00000E+00         0.00000E+00        -0.50016E+08
 
   -0.50018E+08         0.74340E+05         0.00000E+00
    0.74340E+05        -0.50012E+08         0.00000E+00
    0.00000E+00         0.00000E+00        -0.50015E+08
 
   -0.50017E+08         0.74970E+05         0.00000E+00
    0.74970E+05        -0.50013E+08         0.00000E+00
    0.00000E+00         0.00000E+00        -0.50015E+08
 
   -0.50016E+08         0.75559E+05         0.00000E+00
    0.75559E+05        -0.50013E+08         0.00000E+00
    0.00000E+00         0.00000E+00        -0.50015E+08
 
   -0.50049E+08         0.10801E+04         0.00000E+00
    0.10801E+04        -0.50000E+08         0.00000E+00
    0.00000E+00         0.00000E+00        -0.50024E+08
 
   -0.50049E+08         0.32172E+04         0.00000E+00
    0.32172E+04        -0.50000E+08         0.00000E+00
    0.00000E+00         0.00000E+00        -0.50024E+08
 
   -0.50049E+08         0.53422E+04         0.00000E+00
    0.53422E+04        -0.50000E+08         0.00000E+00
    0.00000E+00         0.00000E+00        -0.50024E+08
 
   -0.50049E+08         0.74538E+04         0.00000E+00
    0.74538E+04        -0.50000E+08         0.00000E+00
    0.00000E+00         0.00000E+00        -0.50024E+08
 
   -0.50048E+08         0.95504E+04         0.00000E+00
    0.95504E+04        -0.50000E+08         0.00000E+00
    0.00000E+00         0.00000E+00        -0.50024E+08
 
   -0.50048E+08         0.11631E+05         0.00000E+00
    0.11631E+05        -0.50000E+08         0.00000E+00
    0.00000E+00         0.00000E+00        -0.50024E+08
 
   -0.50047E+08         0.13694E+05         0.00000E+00
    0.13694E+05        -0.50000E+08         0.00000E+00
    0.00000E+00         0.00000E+00        -0.50024E+08
 
   -0.50047E+08         0.15738E+05         0.00000E+00
    0.15738E+05        -0.50000E+08         0.00000E+00
    0.00000E+00         0.00000E+00        -0.50024E+08
 
   -0.50046E+08         0.17762E+05         0.00000E+00
    0.17762E+05        -0.50000E+08         0.00000E+00
    0.00000E+00         0.00000E+00        -0.50023E+08
 
   -0.50046E+08         0.19766E+05         0.00000E+00
    0.19766E+05        -0.50000E+08         0.00000E+00
    0.00000E+00         0.00000E+00        -0.50023E+08
 
   -0.50045E+08         0.21748E+05         0.00000E+00
    0.21748E+05        -0.50001E+08         0.00000E+00
    0.00000E+00         0.00000E+00        -0.50023E+08
 
   -0.50045E+08         0.23706E+05         0.00000E+00
    0.23706E+05        -0.50001E+08         0.00000E+00
    0.00000E+00         0.00000E+00        -0.50023E+08
 
   -0.50044E+08         0.25642E+05         0.00000E+00
    0.25642E+05        -0.50001E+08         0.00000E+00
    0.00000E+00         0.00000E+00        -0.50023E+08
 
   -0.50044E+08         0.27552E+05         0.00000E+00
    0.27552E+05        -0.50001E+08         0.00000E+00
    0.00000E+00         0.00000E+00        -0.50022E+08
 
   -0.50043E+08         0.29436E+05         0.00000E+00
    0.29436E+05        -0.50001E+08         0.00000E+00
    0.00000E+00         0.00000E+00        -0.50022E+08
 
   -0.50042E+08         0.31295E+05         0.00000E+00
    0.31295E+05        -0.50001E+08         0.00000E+00
    0.00000E+00         0.00000E+00        -0.50022E+08
 
   -0.50042E+08         0.33125E+05         0.00000E+00
    0.33125E+05        -0.50001E+08         0.00000E+00
    0.00000E+00         0.00000E+00        -0.50022E+08
 
   -0.50041E+08         0.34928E+05         0.00000E+00
    0.34928E+05        -0.50001E+08         0.00000E+00
    0.00000E+00         0.00000E+00        -0.50021E+08
 
   -0.50040E+08         0.36701E+05         0.00000E+00
    0.36701E+05        -0.50002E+08         0.00000E+00
    0.00000E+00         0.00000E+00        -0.50021E+08
 
   -0.50040E+08         0.38445E+05         0.00000E+00
    0.38445E+05        -0.50002E+08         0.00000E+00
    0.00000E+00         0.00000E+00        -0.50021E+08
 
   -0.50039E+08         0.40158E+05         0.00000E+00
    0.40158E+05        -0.50002E+08         0.00000E+00
    0.00000E+00         0.00000E+00        -0.50021E+08
 
   -0.50038E+08         0.41839E+05         0.00000E+00
    0.41839E+05        -0.50002E+08         0.00000E+00
    0.00000E+00         0.00000E+00        -0.50020E+08
 
   -0.50037E+08         0.43489E+05         0.00000E+00
    0.43489E+05        -0.50002E+08         0.00000E+00
    0.00000E+00         0.00000E+00        -0.50020E+08
 
   -0.50037E+08         0.45105E+05         0.00000E+00
    0.45105E+05        -0.50003E+08         0.00000E+00
    0.00000E+00         0.00000E+00        -0.50020E+08
 
   -0.50036E+08         0.46687E+05         0.00000E+00
    0.46687E+05        -0.50003E+08         0.00000E+00
    0.00000E+00         0.00000E+00        -0.50019E+08
 
   -0.50035E+08         0.48235E+05         0.00000E+00
    0.48235E+05        -0.50003E+08         0.00000E+00
    0.00000E+00         0.00000E+00        -0.50019E+08
 
   -0.50034E+08         0.49747E+05         0.00000E+00
    0.49747E+05        -0.50003E+08         0.00000E+00
    0.00000E+00         0.00000E+00        -0.50019E+08
 
   -0.50033E+08         0.51223E+05         0.00000E+00
    0.51223E+05        -0.50004E+08         0.00000E+00
    0.00000E+00         0.00000E+00        -0.50019E+08
 
   -0.50033E+08         0.52663E+05         0.00000E+00
    0.52663E+05        -0.50004E+08         0.00000E+00
    0.00000E+00         0.00000E+00        -0.50018E+08
 
   -0.50032E+08         0.54065E+05         0.00000E+00
    0.54065E+05        -0.50004E+08         0.00000E+00
    0.00000E+00         0.00000E+00        -0.50018E+08
 
   -0.50031E+08         0.55429E+05         0.00000E+00
    0.55429E+05        -0.50004E+08         0.00000E+00
    0.00000E+00         0.00000E+00        -0.50018E+08
 
   -0.50030E+08         0.56755E+05         0.00000E+00
    0.56755E+05        -0.50005E+08         0.00000E+00
    0.00000E+00         0.00000E+00        -0.50017E+08
 
   -0.50029E+08         0.58041E+05         0.00000E+00
    0.58041E+05        -0.50005E+08         0.00000E+00
    0.00000E+00         0.00000E+00        -0.50017E+08
 
   -0.50028E+08         0.59286E+05         0.00000E+00
    0.59286E+05        -0.50005E+08         0.00000E+00
    0.00000E+00         0.00000E+00        -0.50017E+08
 
   -0.50027E+08         0.60492E+05         0.00000E+00
    0.60492E+05        -0.50006E+08         0.00000E+00
    0.00000E+00         0.00000E+00        -0.50016E+08
 
   -0.50026E+08         0.61656E+05         0.00000E+00
    0.61656E+05        -0.50006E+08         0.00000E+00
    0.00000E+00         0.00000E+00        -0.50016E+08
 
   -0.50025E+08         0.62779E+05         0.00000E+00
    0.62779E+05        -0.50006E+08         0.00000E+00
    0.00000E+00         0.00000E+00        -0.50016E+08
 
   -0.50024E+08         0.63859E+05         0.00000E+00
    0.63859E+05        -0.50006E+08         0.00000E+00
    0.00000E+00         0.00000E+00        -0.50015E+08
 
   -0.50023E+08         0.64897E+05         0.00000E+00
    0.64897E+05        -0.50007E+08         0.00000E+00
    0.00000E+00         0.00000E+00        -0.50015E+08
 
   -0.50022E+08         0.65893E+05         0.00000E+00
    0.65893E+05        -0.50007E+08         0.00000E+00
    0.00000E+00         0.00000E+00        -0.50015E+08
 
   -0.50021E+08         0.66845E+05         0.00000E+00
    0.66845E+05        -0.50007E+08         0.00000E+00
    0.00000E+00         0.00000E+00        -0.50014E+08
 
   -0.50020E+08         0.67754E+05         0.00000E+00
    0.67754E+05        -0.50008E+08         0.00000E+00
    0.00000E+00         0.00000E+00        -0.50014E+08
 
   -0.50019E+08         0.68620E+05         0.00000E+00
    0.68620E+05        -0.50008E+08         0.00000E+00
    0.00000E+00         0.00000E+00        -0.50014E+08
 
   -0.50018E+08         0.69443E+05         0.00000E+00
    0.69443E+05        -0.50008E+08         0.00000E+00
    0.00000E+00         0.00000E+00        -0.50014E+08
 
   -0.50017E+08         0.70223E+05         0.00000E+00
    0.70223E+05        -0.50009E+08         0.00000E+00
    0.00000E+00         0.00000E+00        -0.50013E+08
 
   -0.50016E+08         0.70960E+05         0.00000E+00
    0.70960E+05        -0.50009E+08         0.00000E+00
    0.00000E+00         0.00000E+00        -0.50013E+08
 
   -0.50015E+08         0.71655E+05         0.00000E+00
    0.71655E+05        -0.50010E+08         0.00000E+00
    0.00000E+00         0.00000E+00        -0.50013E+08
 
   -0.50015E+08         0.72308E+05         0.00000E+00
    0.72308E+05        -0.50010E+08         0.00000E+00
    0.00000E+00         0.00000E+00        -0.50013E+08
 
   -0.50014E+08         0.72921E+05         0.00000E+00
    0.72921E+05        -0.50010E+08         0.00000E+00
    0.00000E+00         0.00000E+00        -0.50013E+08
 
   -0.50013E+08         0.73495E+05         0.00000E+00
    0.73495E+05        -0.50011E+08         0.00000E+00
    0.00000E+00         0.00000E+00        -0.50012E+08
 
   -0.50039E+08         0.10576E+04         0.00000E+00
    0.10576E+04        -0.50000E+08         0.00000E+00
    0.00000E+00         0.00000E+00        -0.50019E+08
 
   -0.50039E+08         0.31502E+04         0.00000E+00
    0.31502E+04        -0.50000E+08         0.00000E+00
    0.00000E+00         0.00000E+00        -0.50019E+08
 
   -0.50038E+08         0.52310E+04         0.00000E+00
    0.52310E+04        -0.50000E+08         0.00000E+00
    0.00000E+00         0.00000E+00        -0.50019E+08
 
   -0.50038E+08         0.72986E+04         0.00000E+00
    0.72986E+04        -0.50000E+08         0.00000E+00
    0.00000E+00         0.00000E+00        -0.50019E+08
 
   -0.50038E+08         0.93514E+04         0.00000E+00
    0.93514E+04        -0.50000E+08         0.00000E+00
    0.00000E+00         0.00000E+00        -0.50019E+08
 
   -0.50038E+08         0.11388E+05         0.00000E+00
    0.11388E+05        -0.50000E+08         0.00000E+00
    0.00000E+00         0.00000E+00        -0.50019E+08
 
   -0.50037E+08         0.13408E+05         0.00000E+00
    0.13408E+05        -0.50000E+08         0.00000E+00
    0.00000E+00         0.00000E+00        -0.50019E+08
 
   -0.50037E+08         0.15409E+05         0.00000E+00
    0.15409E+05        -0.50000E+08         0.00000E+00
    0.00000E+00         0.00000E+00        -0.50018E+08
 
   -0.50036E+08         0.17391E+05         0.00000E+00
    0.17391E+05        -0.50000E+08         0.00000E+00
    0.00000E+00         0.00000E+00        -0.50018E+08
 
   -0.50036E+08         0.19352E+05         0.00000E+00
    0.19352E+05        -0.50000E+08         0.00000E+00
    0.00000E+00         0.00000E+00        -0.50018E+08
 
   -0.50036E+08         0.21291E+05         0.00000E+00
    0.21291E+05        -0.50000E+08         0.00000E+00
    0.00000E+00         0.00000E+00        -0.50018E+08
 
   -0.50035E+08         0.23208E+05         0.00000E+00
    0.23208E+05        -0.50001E+08         0.00000E+00
    0.00000E+00         0.00000E+00        -0.50018E+08
 
   -0.50035E+08         0.25101E+05         0.00000E+00
    0.25101E+05        -0.50001E+08         0.00000E+00
    0.00000E+00         0.00000E+00        -0.50018E+08
 
   -0.50034E+08         0.26970E+05         0.00000E+00
    0.26970E+05        -0.50001E+08         0.00000E+00
    0.00000E+00         0.00000E+00        -0.50017E+08
 
   -0.50034E+08         0.28813E+05         0.00000E+00
    0.28813E+05        -0.50001E+08         0.00000E+00
    0.00000E+00         0.00000E+00        -0.50017E+08
 
   -0.50033E+08         0.30631E+05         0.00000E+00
    0.30631E+05        -0.50001E+08         0.00000E+00
    0.00000E+00         0.00000E+00        -0.50017E+08
 
   -0.50033E+08         0.32421E+05         0.00000E+00
    0.32421E+05        -0.50001E+08         0.00000E+00
    0.00000E+00         0.00000E+00        -0.50017E+08
 
   -0.50032E+08         0.34183E+05         0.00000E+00
    0.34183E+05        -0.50001E+08         0.00000E+00
    0.00000E+00         0.00000E+00        -0.50017E+08
 
   -0.50032E+08         0.35917E+05         0.00000E+00
    0.35917E+05        -0.50001E+08         0.00000E+00
    0.00000E+00         0.00000E+00        -0.50017E+08
 
   -0.50031E+08         0.37621E+05         0.00000E+00
    0.37621E+05        -0.50001E+08         0.00000E+00
    0.00000E+00         0.00000E+00        -0.50016E+08
 
   -0.50031E+08         0.39295E+05         0.00000E+00
    0.39295E+05        -0.50002E+08         0.00000E+00
    0.00000E+00         0.00000E+00        -0.50016E+08
 
   -0.50030E+08         0.40938E+05         0.00000E+00
    0.40938E+05        -0.50002E+08         0.00000E+00
    0.00000E+00         0.00000E+00        -0.50016E+08
 
   -0.50029E+08         0.42549E+05         0.00000E+00
    0.42549E+05        -0.50002E+08         0.00000E+00
    0.00000E+00         0.00000E+00        -0.50016E+08
 
   -0.50029E+08         0.44128E+05         0.00000E+00
    0.44128E+05        -0.50002E+08         0.00000E+00
    0.00000E+00         0.00000E+00        -0.50015E+08
 
   -0.50028E+08         0.45673E+05         0.00000E+00
    0.45673E+05        -0.50002E+08         0.00000E+00
    0.00000E+00         0.00000E+00        -0.50015E+08
 
   -0.50028E+08         0.47185E+05         0.00000E+00
    0.47185E+05        -0.50002E+08         0.00000E+00
    0.00000E+00         0.00000E+00        -0.50015E+08
 
   -0.50027E+08         0.48662E+05         0.00000E+00
    0.48662E+05        -0.50003E+08         0.00000E+00
    0.00000E+00         0.00000E+00        -0.50015E+08
 
   -0.50026E+08         0.50103E+05         0.00000E+00
    0.50103E+05        -0.50003E+08         0.00000E+00
    0.00000E+00         0.00000E+00        -0.50015E+08
 
   -0.50026E+08         0.51508E+05         0.00000E+00
    0.51508E+05        -0.50003E+08         0.00000E+00
    0.00000E+00         0.00000E+00        -0.50014E+08
 
   -0.50025E+08         0.52877E+05         0.00000E+00
    0.52877E+05        -0.50003E+08         0.00000E+00
    0.00000E+00         0.00000E+00        -0.50014E+08
 
   -0.50024E+08         0.54208E+05         0.00000E+00
    0.54208E+05        -0.50003E+08         0.00000E+00
    0.00000E+00         0.00000E+00        -0.50014E+08
 
   -0.50023E+08         0.55501E+05         0.00000E+00
    0.55501E+05        -0.50004E+08         0.00000E+00
    0.00000E+00         0.00000E+00        -0.50014E+08
 
   -0.50023E+08         0.56756E+05         0.00000E+00
    0.56756E+05        -0.50004E+08         0.00000E+00
    0.00000E+00         0.00000E+00        -0.50013E+08
 
   -0.50022E+08         0.57972E+05         0.00000E+00
    0.57972E+05        -0.50004E+08         0.00000E+00
    0.00000E+00         0.00000E+00        -0.50013E+08
 
   -0.50021E+08         0.59148E+05         0.00000E+00
    0.59148E+05        -0.50004E+08         0.00000E+00
    0.00000E+00         0.00000E+00        -0.50013E+08
 
   -0.50021E+08         0.60283E+05         0.00000E+00
    0.60283E+05        -0.50005E+08         0.00000E+00
    0.00000E+00         0.00000E+00        -0.50013E+08
 
   -0.50020E+08         0.61379E+05         0.00000E+00
    0.61379E+05        -0.50005E+08         0.00000E+00
    0.00000E+00         0.00000E+00        -0.50012E+08
 
   -0.50019E+08         0.62433E+05         0.00000E+00
    0.62433E+05        -0.50005E+08         0.00000E+00
    0.00000E+00         0.00000E+00        -0.50012E+08
 
   -0.50018E+08         0.63446E+05         0.00000E+00
    0.63446E+05        -0.50005E+08         0.00000E+00
    0.00000E+00         0.00000E+00        -0.50012E+08
 
   -0.50017E+08         0.64417E+05         0.00000E+00
    0.64417E+05        -0.50006E+08         0.00000E+00
    0.00000E+00         0.00000E+00        -0.50012E+08
 
   -0.50017E+08         0.65346E+05         0.00000E+00
    0.65346E+05        -0.50006E+08         0.00000E+00
    0.00000E+00         0.00000E+00        -0.50011E+08
 
   -0.50016E+08         0.66233E+05         0.00000E+00
    0.66233E+05        -0.50006E+08         0.00000E+00
    0.00000E+00         0.00000E+00        -0.50011E+08
 
   -0.50015E+08         0.67079E+05         0.00000E+00
    0.67079E+05        -0.50006E+08         0.00000E+00
    0.00000E+00         0.00000E+00        -0.50011E+08
 
   -0.50014E+08         0.67882E+05         0.00000E+00
    0.67882E+05        -0.50007E+08         0.00000E+00
    0.00000E+00         0.00000E+00        -0.50011E+08
 
   -0.50014E+08         0.68643E+05         0.00000E+00
    0.68643E+05        -0.50007E+08         0.00000E+00
    0.00000E+00         0.00000E+00        -0.50010E+08
 
   -0.50013E+08         0.69364E+05         0.00000E+00
    0.69364E+05        -0.50007E+08         0.00000E+00
    0.00000E+00         0.00000E+00        -0.50010E+08
 
   -0.50012E+08         0.70043E+05         0.00000E+00
    0.70043E+05        -0.50007E+08         0.00000E+00
    0.00000E+00         0.00000E+00        -0.50010E+08
 
   -0.50011E+08         0.70682E+05         0.00000E+00
    0.70682E+05        -0.50008E+08         0.00000E+00
    0.00000E+00         0.00000E+00        -0.50010E+08
 
   -0.50011E+08         0.71281E+05         0.00000E+00
    0.71281E+05        -0.50008E+08         0.00000E+00
    0.00000E+00         0.00000E+00        -0.50010E+08
 
   -0.50010E+08         0.71843E+05         0.00000E+00
    0.71843E+05        -0.50008E+08         0.00000E+00
    0.00000E+00         0.00000E+00        -0.50010E+08
 
   -0.50028E+08         0.10403E+04         0.00000E+00
    0.10403E+04        -0.50000E+08         0.00000E+00
    0.00000E+00         0.00000E+00        -0.50014E+08
 
   -0.50028E+08         0.30986E+04         0.00000E+00
    0.30986E+04        -0.50000E+08         0.00000E+00
    0.00000E+00         0.00000E+00        -0.50014E+08
 
   -0.50028E+08         0.51453E+04         0.00000E+00
    0.51453E+04        -0.50000E+08         0.00000E+00
    0.00000E+00         0.00000E+00        -0.50014E+08
 
   -0.50028E+08         0.71790E+04         0.00000E+00
    0.71790E+04        -0.50000E+08         0.00000E+00
    0.00000E+00         0.00000E+00        -0.50014E+08
 
   -0.50028E+08         0.91983E+04         0.00000E+00
    0.91983E+04        -0.50000E+08         0.00000E+00
    0.00000E+00         0.00000E+00        -0.50014E+08
 
   -0.50028E+08         0.11202E+05         0.00000E+00
    0.11202E+05        -0.50000E+08         0.00000E+00
    0.00000E+00         0.00000E+00        -0.50014E+08
 
   -0.50027E+08         0.13188E+05         0.00000E+00
    0.13188E+05        -0.50000E+08         0.00000E+00
    0.00000E+00         0.00000E+00        -0.50014E+08
 
   -0.50027E+08         0.15156E+05         0.00000E+00
    0.15156E+05        -0.50000E+08         0.00000E+00
    0.00000E+00         0.00000E+00        -0.50014E+08
 
   -0.50027E+08         0.17105E+05         0.00000E+00
    0.17105E+05        -0.50000E+08         0.00000E+00
    0.00000E+00         0.00000E+00        -0.50013E+08
 
   -0.50026E+08         0.19033E+05         0.00000E+00
    0.19033E+05        -0.50000E+08         0.00000E+00
    0.00000E+00         0.00000E+00        -0.50013E+08
 
   -0.50026E+08         0.20940E+05         0.00000E+00
    0.20940E+05        -0.50000E+08         0.00000E+00
    0.00000E+00         0.00000E+00        -0.50013E+08
 
   -0.50026E+08         0.22825E+05         0.00000E+00
    0.22825E+05        -0.50000E+08         0.00000E+00
    0.00000E+00         0.00000E+00        -0.50013E+08
 
   -0.50025E+08         0.24686E+05         0.00000E+00
    0.24686E+05        -0.50000E+08         0.00000E+00
    0.00000E+00         0.00000E+00        -0.50013E+08
 
   -0.50025E+08         0.26524E+05         0.00000E+00
    0.26524E+05        -0.50001E+08         0.00000E+00
    0.00000E+00         0.00000E+00        -0.50013E+08
 
   -0.50025E+08         0.28336E+05         0.00000E+00
    0.28336E+05        -0.50001E+08         0.00000E+00
    0.00000E+00         0.00000E+00        -0.50013E+08
 
   -0.50024E+08         0.30122E+05         0.00000E+00
    0.30122E+05        -0.50001E+08         0.00000E+00
    0.00000E+00         0.00000E+00        -0.50013E+08
 
   -0.50024E+08         0.31881E+05         0.00000E+00
    0.31881E+05        -0.50001E+08         0.00000E+00
    0.00000E+00         0.00000E+00        -0.50012E+08
 
   -0.50024E+08         0.33613E+05         0.00000E+00
    0.33613E+05        -0.50001E+08         0.00000E+00
    0.00000E+00         0.00000E+00        -0.50012E+08
 
   -0.50023E+08         0.35317E+05         0.00000E+00
    0.35317E+05        -0.50001E+08         0.00000E+00
    0.00000E+00         0.00000E+00        -0.50012E+08
 
   -0.50023E+08         0.36991E+05         0.00000E+00
    0.36991E+05        -0.50001E+08         0.00000E+00
    0.00000E+00         0.00000E+00        -0.50012E+08
 
   -0.50022E+08         0.38636E+05         0.00000E+00
    0.38636E+05        -0.50001E+08         0.00000E+00
    0.00000E+00         0.00000E+00        -0.50012E+08
 
   -0.50022E+08         0.40249E+05         0.00000E+00
    0.40249E+05        -0.50001E+08         0.00000E+00
    0.00000E+00         0.00000E+00        -0.50012E+08
 
   -0.50022E+08         0.41832E+05         0.00000E+00
    0.41832E+05        -0.50001E+08         0.00000E+00
    0.00000E+00         0.00000E+00        -0.50011E+08
 
   -0.50021E+08         0.43382E+05         0.00000E+00
    0.43382E+05        -0.50002E+08         0.00000E+00
    0.00000E+00         0.00000E+00        -0.50011E+08
 
   -0.50021E+08         0.44899E+05         0.00000E+00
    0.44899E+05        -0.50002E+08         0.00000E+00
    0.00000E+00         0.00000E+00        -0.50011E+08
 
   -0.50020E+08         0.46383E+05         0.00000E+00
    0.46383E+05        -0.50002E+08         0.00000E+00
    0.00000E+00         0.00000E+00        -0.50011E+08
 
   -0.50020E+08         0.47833E+05         0.00000E+00
    0.47833E+05        -0.50002E+08         0.00000E+00
    0.00000E+00         0.00000E+00        -0.50011E+08
 
   -0.50019E+08         0.49248E+05         0.00000E+00
    0.49248E+05        -0.50002E+08         0.00000E+00
    0.00000E+00         0.00000E+00        -0.50011E+08
 
   -0.50019E+08         0.50627E+05         0.00000E+00
    0.50627E+05        -0.50002E+08         0.00000E+00
    0.00000E+00         0.00000E+00        -0.50010E+08
 
   -0.50018E+08         0.51970E+05         0.00000E+00
    0.51970E+05        -0.50002E+08         0.00000E+00
    0.00000E+00         0.00000E+00        -0.50010E+08
 
   -0.50018E+08         0.53277E+05         0.00000E+00
    0.53277E+05        -0.50003E+08         0.00000E+00
    0.00000E+00         0.00000E+00        -0.50010E+08
 
   -0.50017E+08         0.54546E+05         0.00000E+00
    0.54546E+05        -0.50003E+08         0.00000E+00
    0.00000E+00         0.00000E+00        -0.50010E+08
 
   -0.50017E+08         0.55777E+05         0.00000E+00
    0.55777E+05        -0.50003E+08         0.00000E+00
    0.00000E+00         0.00000E+00        -0.50010E+08
 
   -0.50016E+08         0.56970E+05         0.00000E+00
    0.56970E+05        -0.50003E+08         0.00000E+00
    0.00000E+00         0.00000E+00        -0.50010E+08
 
   -0.50016E+08         0.58124E+05         0.00000E+00
    0.58124E+05        -0.50003E+08         0.00000E+00
    0.00000E+00         0.00000E+00        -0.50009E+08
 
   -0.50015E+08         0.59238E+05         0.00000E+00
    0.59238E+05        -0.50003E+08         0.00000E+00
    0.00000E+00         0.00000E+00        -0.50009E+08
 
   -0.50014E+08         0.60313E+05         0.00000E+00
    0.60313E+05        -0.50004E+08         0.00000E+00
    0.00000E+00         0.00000E+00        -0.50009E+08
 
   -0.50014E+08         0.61347E+05         0.00000E+00
    0.61347E+05        -0.50004E+08         0.00000E+00
    0.00000E+00         0.00000E+00        -0.50009E+08
 
   -0.50013E+08         0.62341E+05         0.00000E+00
    0.62341E+05        -0.50004E+08         0.00000E+00
    0.00000E+00         0.00000E+00        -0.50009E+08
 
   -0.50013E+08         0.63294E+05         0.00000E+00
    0.63294E+05        -0.50004E+08         0.00000E+00
    0.00000E+00         0.00000E+00        -0.50008E+08
 
   -0.50012E+08         0.64206E+05         0.00000E+00
    0.64206E+05        -0.50004E+08         0.00000E+00
    0.00000E+00         0.00000E+00        -0.50008E+08
 
   -0.50012E+08         0.65077E+05         0.00000E+00
    0.65077E+05        -0.50004E+08         0.00000E+00
    0.00000E+00         0.00000E+00        -0.50008E+08
 
   -0.50011E+08         0.65907E+05         0.00000E+00
    0.65907E+05        -0.50005E+08         0.00000E+00
    0.00000E+00         0.00000E+00        -0.50008E+08
 
   -0.50011E+08         0.66696E+05         0.00000E+00
    0.66696E+05        -0.50005E+08         0.00000E+00
    0.00000E+00         0.00000E+00        -0.50008E+08
 
   -0.50010E+08         0.67444E+05         0.00000E+00
    0.67444E+05        -0.50005E+08         0.00000E+00
    0.00000E+00         0.00000E+00        -0.50008E+08
 
   -0.50009E+08         0.68151E+05         0.00000E+00
    0.68151E+05        -0.50005E+08         0.00000E+00
    0.00000E+00         0.00000E+00        -0.50008E+08
 
   -0.50009E+08         0.68819E+05         0.00000E+00
    0.68819E+05        -0.50005E+08         0.00000E+00
    0.00000E+00         0.00000E+00        -0.50007E+08
 
   -0.50008E+08         0.69447E+05         0.00000E+00
    0.69447E+05        -0.50006E+08         0.00000E+00
    0.00000E+00         0.00000E+00        -0.50007E+08
 
   -0.50008E+08         0.70037E+05         0.00000E+00
    0.70037E+05        -0.50006E+08         0.00000E+00
    0.00000E+00         0.00000E+00        -0.50007E+08
 
   -0.50007E+08         0.70590E+05         0.00000E+00
    0.70590E+05        -0.50006E+08         0.00000E+00
    0.00000E+00         0.00000E+00        -0.50007E+08
 
   -0.50018E+08         0.10281E+04         0.00000E+00
    0.10281E+04        -0.50000E+08         0.00000E+00
    0.00000E+00         0.00000E+00        -0.50009E+08
 
   -0.50018E+08         0.30626E+04         0.00000E+00
    0.30626E+04        -0.50000E+08         0.00000E+00
    0.00000E+00         0.00000E+00        -0.50009E+08
 
   -0.50018E+08         0.50856E+04         0.00000E+00
    0.50856E+04        -0.50000E+08         0.00000E+00
    0.00000E+00         0.00000E+00        -0.50009E+08
 
   -0.50018E+08         0.70958E+04         0.00000E+00
    0.70958E+04        -0.50000E+08         0.00000E+00
    0.00000E+00         0.00000E+00        -0.50009E+08
 
   -0.50018E+08         0.90916E+04         0.00000E+00
    0.90916E+04        -0.50000E+08         0.00000E+00
    0.00000E+00         0.00000E+00        -0.50009E+08
 
   -0.50018E+08         0.11072E+05         0.00000E+00
    0.11072E+05        -0.50000E+08         0.00000E+00
    0.00000E+00         0.00000E+00        -0.50009E+08
 
   -0.50017E+08         0.13035E+05         0.00000E+00
    0.13035E+05        -0.50000E+08         0.00000E+00
    0.00000E+00         0.00000E+00        -0.50009E+08
 
   -0.50017E+08         0.14980E+05         0.00000E+00
    0.14980E+05        -0.50000E+08         0.00000E+00
    0.00000E+00         0.00000E+00        -0.50009E+08
 
   -0.50017E+08         0.16906E+05         0.00000E+00
    0.16906E+05        -0.50000E+08         0.00000E+00
    0.00000E+00         0.00000E+00        -0.50009E+08
 
   -0.50017E+08         0.18812E+05         0.00000E+00
    0.18812E+05        -0.50000E+08         0.00000E+00
    0.00000E+00         0.00000E+00        -0.50009E+08
 
   -0.50017E+08         0.20697E+05         0.00000E+00
    0.20697E+05        -0.50000E+08         0.00000E+00
    0.00000E+00         0.00000E+00        -0.50008E+08
 
   -0.50016E+08         0.22559E+05         0.00000E+00
    0.22559E+05        -0.50000E+08         0.00000E+00
    0.00000E+00         0.00000E+00        -0.50008E+08
 
   -0.50016E+08         0.24399E+05         0.00000E+00
    0.24399E+05        -0.50000E+08         0.00000E+00
    0.00000E+00         0.00000E+00        -0.50008E+08
 
   -0.50016E+08         0.26214E+05         0.00000E+00
    0.26214E+05        -0.50000E+08         0.00000E+00
    0.00000E+00         0.00000E+00        -0.50008E+08
 
   -0.50016E+08         0.28004E+05         0.00000E+00
    0.28004E+05        -0.50000E+08         0.00000E+00
    0.00000E+00         0.00000E+00        -0.50008E+08
 
   -0.50016E+08         0.29769E+05         0.00000E+00
    0.29769E+05        -0.50000E+08         0.00000E+00
    0.00000E+00         0.00000E+00        -0.50008E+08
 
   -0.50015E+08         0.31507E+05         0.00000E+00
    0.31507E+05        -0.50000E+08         0.00000E+00
    0.00000E+00         0.00000E+00        -0.50008E+08
 
   -0.50015E+08         0.33218E+05         0.00000E+00
    0.33218E+05        -0.50001E+08         0.00000E+00
    0.00000E+00         0.00000E+00        -0.50008E+08
 
   -0.50015E+08         0.34900E+05         0.00000E+00
    0.34900E+05        -0.50001E+08         0.00000E+00
    0.00000E+00         0.00000E+00        -0.50008E+08
 
   -0.50015E+08         0.36554E+05         0.00000E+00
    0.36554E+05        -0.50001E+08         0.00000E+00
    0.00000E+00         0.00000E+00        -0.50008E+08
 
   -0.50014E+08         0.38178E+05         0.00000E+00
    0.38178E+05        -0.50001E+08         0.00000E+00
    0.00000E+00         0.00000E+00        -0.50008E+08
 
   -0.50014E+08         0.39772E+05         0.00000E+00
    0.39772E+05        -0.50001E+08         0.00000E+00
    0.00000E+00         0.00000E+00        -0.50007E+08
 
   -0.50014E+08         0.41334E+05         0.00000E+00
    0.41334E+05        -0.50001E+08         0.00000E+00
    0.00000E+00         0.00000E+00        -0.50007E+08
 
   -0.50013E+08         0.42865E+05         0.00000E+00
    0.42865E+05        -0.50001E+08         0.00000E+00
    0.00000E+00         0.00000E+00        -0.50007E+08
 
   -0.50013E+08         0.44363E+05         0.00000E+00
    0.44363E+05        -0.50001E+08         0.00000E+00
    0.00000E+00         0.00000E+00        -0.50007E+08
 
   -0.50013E+08         0.45828E+05         0.00000E+00
    0.45828E+05        -0.50001E+08         0.00000E+00
    0.00000E+00         0.00000E+00        -0.50007E+08
 
   -0.50013E+08         0.47259E+05         0.00000E+00
    0.47259E+05        -0.50001E+08         0.00000E+00
    0.00000E+00         0.00000E+00        -0.50007E+08
 
   -0.50012E+08         0.48656E+05         0.00000E+00
    0.48656E+05        -0.50001E+08         0.00000E+00
    0.00000E+00         0.00000E+00        -0.50007E+08
 
   -0.50012E+08         0.50017E+05         0.00000E+00
    0.50017E+05        -0.50001E+08         0.00000E+00
    0.00000E+00         0.00000E+00        -0.50007E+08
 
   -0.50012E+08         0.51343E+05         0.00000E+00
    0.51343E+05        -0.50002E+08         0.00000E+00
    0.00000E+00         0.00000E+00        -0.50007E+08
 
   -0.50011E+08         0.52632E+05         0.00000E+00
    0.52632E+05        -0.50002E+08         0.00000E+00
    0.00000E+00         0.00000E+00        -0.50006E+08
 
   -0.50011E+08         0.53885E+05         0.00000E+00
    0.53885E+05        -0.50002E+08         0.00000E+00
    0.00000E+00         0.00000E+00        -0.50006E+08
 
   -0.50011E+08         0.55100E+05         0.00000E+00
    0.55100E+05        -0.50002E+08         0.00000E+00
    0.00000E+00         0.00000E+00        -0.50006E+08
 
   -0.50010E+08         0.56277E+05         0.00000E+00
    0.56277E+05        -0.50002E+08         0.00000E+00
    0.00000E+00         0.00000E+00        -0.50006E+08
 
   -0.50010E+08         0.57415E+05         0.00000E+00
    0.57415E+05        -0.50002E+08         0.00000E+00
    0.00000E+00         0.00000E+00        -0.50006E+08
 
   -0.50010E+08         0.58515E+05         0.00000E+00
    0.58515E+05        -0.50002E+08         0.00000E+00
    0.00000E+00         0.00000E+00        -0.50006E+08
 
   -0.50009E+08         0.59575E+05         0.00000E+00
    0.59575E+05        -0.50002E+08         0.00000E+00
    0.00000E+00         0.00000E+00        -0.50006E+08
 
   -0.50009E+08         0.60596E+05         0.00000E+00
    0.60596E+05        -0.50002E+08         0.00000E+00
    0.00000E+00         0.00000E+00        -0.50006E+08
 
   -0.50008E+08         0.61577E+05         0.00000E+00
    0.61577E+05        -0.50002E+08         0.00000E+00
    0.00000E+00         0.00000E+00        -0.50006E+08
 
   -0.50008E+08         0.62518E+05         0.00000E+00
    0.62518E+05        -0.50003E+08         0.00000E+00
    0.00000E+00         0.00000E+00        -0.50005E+08
 
   -0.50008E+08         0.63418E+05         0.00000E+00
    0.63418E+05        -0.50003E+08         0.00000E+00
    0.00000E+00         0.00000E+00        -0.50005E+08
 
   -0.50007E+08         0.64278E+05         0.00000E+00
    0.64278E+05        -0.50003E+08         0.00000E+00
    0.00000E+00         0.00000E+00        -0.50005E+08
 
   -0.50007E+08         0.65097E+05         0.00000E+00
    0.65097E+05        -0.50003E+08         0.00000E+00
    0.00000E+00         0.00000E+00        -0.50005E+08
 
   -0.50007E+08         0.65876E+05         0.00000E+00
    0.65876E+05        -0.50003E+08         0.00000E+00
    0.00000E+00         0.00000E+00        -0.50005E+08
 
   -0.50006E+08         0.66615E+05         0.00000E+00
    0.66615E+05        -0.50003E+08         0.00000E+00
    0.00000E+00         0.00000E+00        -0.50005E+08
 
   -0.50006E+08         0.67314E+05         0.00000E+00
    0.67314E+05        -0.50003E+08         0.00000E+00
    0.00000E+00         0.00000E+00        -0.50005E+08
 
   -0.50006E+08         0.67974E+05         0.00000E+00
    0.67974E+05        -0.50004E+08         0.00000E+00
    0.00000E+00         0.00000E+00        -0.50005E+08
 
   -0.50005E+08         0.68596E+05         0.00000E+00
    0.68596E+05        -0.50004E+08         0.00000E+00
    0.00000E+00         0.00000E+00        -0.50005E+08
 
   -0.50005E+08         0.69179E+05         0.00000E+00
    0.69179E+05        -0.50004E+08         0.00000E+00
    0.00000E+00         0.00000E+00        -0.50005E+08
 
   -0.50005E+08         0.69726E+05         0.00000E+00
    0.69726E+05        -0.50004E+08         0.00000E+00
    0.00000E+00         0.00000E+00        -0.50005E+08
 
   -0.50008E+08         0.10213E+04         0.00000E+00
    0.10213E+04        -0.50000E+08         0.00000E+00
    0.00000E+00         0.00000E+00        -0.50004E+08
 
   -0.50008E+08         0.30424E+04         0.00000E+00
    0.30424E+04        -0.50000E+08         0.00000E+00
    0.00000E+00         0.00000E+00        -0.50004E+08
 
   -0.50008E+08         0.50523E+04         0.00000E+00
    0.50523E+04        -0.50000E+08         0.00000E+00
    0.00000E+00         0.00000E+00        -0.50004E+08
 
   -0.50008E+08         0.70493E+04         0.00000E+00
    0.70493E+04        -0.50000E+08         0.00000E+00
    0.00000E+00         0.00000E+00        -0.50004E+08
 
   -0.50008E+08         0.90321E+04         0.00000E+00
    0.90321E+04        -0.50000E+08         0.00000E+00
    0.00000E+00         0.00000E+00        -0.50004E+08
 
   -0.50008E+08         0.10999E+05         0.00000E+00
    0.10999E+05        -0.50000E+08         0.00000E+00
    0.00000E+00         0.00000E+00        -0.50004E+08
 
   -0.50008E+08         0.12950E+05         0.00000E+00
    0.12950E+05        -0.50000E+08         0.00000E+00
    0.00000E+00         0.00000E+00        -0.50004E+08
 
   -0.50008E+08         0.14882E+05         0.00000E+00
    0.14882E+05        -0.50000E+08         0.00000E+00
    0.00000E+00         0.00000E+00        -0.50004E+08
 
   -0.50008E+08         0.16796E+05         0.00000E+00
    0.16796E+05        -0.50000E+08         0.00000E+00
    0.00000E+00         0.00000E+00        -0.50004E+08
 
   -0.50007E+08         0.18689E+05         0.00000E+00
    0.18689E+05        -0.50000E+08         0.00000E+00
    0.00000E+00         0.00000E+00        -0.50004E+08
 
   -0.50007E+08         0.20561E+05         0.00000E+00
    0.20561E+05        -0.50000E+08         0.00000E+00
    0.00000E+00         0.00000E+00        -0.50004E+08
 
   -0.50007E+08         0.22411E+05         0.00000E+00
    0.22411E+05        -0.50000E+08         0.00000E+00
    0.00000E+00         0.00000E+00        -0.50004E+08
 
   -0.50007E+08         0.24238E+05         0.00000E+00
    0.24238E+05        -0.50000E+08         0.00000E+00
    0.00000E+00         0.00000E+00        -0.50004E+08
 
   -0.50007E+08         0.26041E+05         0.00000E+00
    0.26041E+05        -0.50000E+08         0.00000E+00
    0.00000E+00         0.00000E+00        -0.50004E+08
 
   -0.50007E+08         0.27820E+05         0.00000E+00
    0.27820E+05        -0.50000E+08         0.00000E+00
    0.00000E+00         0.00000E+00        -0.50004E+08
 
   -0.50007E+08         0.29572E+05         0.00000E+00
    0.29572E+05        -0.50000E+08         0.00000E+00
    0.00000E+00         0.00000E+00        -0.50004E+08
 
   -0.50007E+08         0.31299E+05         0.00000E+00
    0.31299E+05        -0.50000E+08         0.00000E+00
    0.00000E+00         0.00000E+00        -0.50003E+08
 
   -0.50007E+08         0.32998E+05         0.00000E+00
    0.32998E+05        -0.50000E+08         0.00000E+00
    0.00000E+00         0.00000E+00        -0.50003E+08
 
   -0.50007E+08         0.34668E+05         0.00000E+00
    0.34668E+05        -0.50000E+08         0.00000E+00
    0.00000E+00         0.00000E+00        -0.50003E+08
 
   -0.50006E+08         0.36311E+05         0.00000E+00
    0.36311E+05        -0.50000E+08         0.00000E+00
    0.00000E+00         0.00000E+00        -0.50003E+08
 
   -0.50006E+08         0.37923E+05         0.00000E+00
    0.37923E+05        -0.50000E+08         0.00000E+00
    0.00000E+00         0.00000E+00        -0.50003E+08
 
   -0.50006E+08         0.39505E+05         0.00000E+00
    0.39505E+05        -0.50000E+08         0.00000E+00
    0.00000E+00         0.00000E+00        -0.50003E+08
 
   -0.50006E+08         0.41057E+05         0.00000E+00
    0.41057E+05        -0.50000E+08         0.00000E+00
    0.00000E+00         0.00000E+00        -0.50003E+08
 
   -0.50006E+08         0.42576E+05         0.00000E+00
    0.42576E+05        -0.50000E+08         0.00000E+00
    0.00000E+00         0.00000E+00        -0.50003E+08
 
   -0.50006E+08         0.44064E+05         0.00000E+00
    0.44064E+05        -0.50000E+08         0.00000E+00
    0.00000E+00         0.00000E+00        -0.50003E+08
 
   -0.50006E+08         0.45518E+05         0.00000E+00
    0.45518E+05        -0.50000E+08         0.00000E+00
    0.00000E+00         0.00000E+00        -0.50003E+08
 
   -0.50006E+08         0.46938E+05         0.00000E+00
    0.46938E+05        -0.50001E+08         0.00000E+00
    0.00000E+00         0.00000E+00        -0.50003E+08
 
   -0.50005E+08         0.48325E+05         0.00000E+00
    0.48325E+05        -0.50001E+08         0.00000E+00
    0.00000E+00         0.00000E+00        -0.50003E+08
 
   -0.50005E+08         0.49676E+05         0.00000E+00
    0.49676E+05        -0.50001E+08         0.00000E+00
    0.00000E+00         0.00000E+00        -0.50003E+08
 
   -0.50005E+08         0.50992E+05         0.00000E+00
    0.50992E+05        -0.50001E+08         0.00000E+00
    0.00000E+00         0.00000E+00        -0.50003E+08
 
   -0.50005E+08         0.52271E+05         0.00000E+00
    0.52271E+05        -0.50001E+08         0.00000E+00
    0.00000E+00         0.00000E+00        -0.50003E+08
 
   -0.50005E+08         0.53514E+05         0.00000E+00
    0.53514E+05        -0.50001E+08         0.00000E+00
    0.00000E+00         0.00000E+00        -0.50003E+08
 
   -0.50005E+08         0.54720E+05         0.00000E+00
    0.54720E+05        -0.50001E+08         0.00000E+00
    0.00000E+00         0.00000E+00        -0.50003E+08
 
   -0.50004E+08         0.55888E+05         0.00000E+00
    0.55888E+05        -0.50001E+08         0.00000E+00
    0.00000E+00         0.00000E+00        -0.50003E+08
 
   -0.50004E+08         0.57018E+05         0.00000E+00
    0.57018E+05        -0.50001E+08         0.00000E+00
    0.00000E+00         0.00000E+00        -0.50003E+08
 
   -0.50004E+08         0.58110E+05         0.00000E+00
    0.58110E+05        -0.50001E+08         0.00000E+00
    0.00000E+00         0.00000E+00        -0.50003E+08
 
   -0.50004E+08         0.59162E+05         0.00000E+00
    0.59162E+05        -0.50001E+08         0.00000E+00
    0.00000E+00         0.00000E+00        -0.50003E+08
 
   -0.50004E+08         0.60176E+05         0.00000E+00
    0.60176E+05        -0.50001E+08         0.00000E+00
    0.00000E+00         0.00000E+00        -0.50002E+08
 
   -0.50004E+08         0.61149E+05         0.00000E+00
    0.61149E+05        -0.50001E+08         0.00000E+00
    0.00000E+00         0.00000E+00        -0.50002E+08
 
   -0.50004E+08         0.62083E+05         0.00000E+00
    0.62083E+05        -0.50001E+08         0.00000E+00
    0.00000E+00         0.00000E+00        -0.50002E+08
 
   -0.50003E+08         0.62977E+05         0.00000E+00
    0.62977E+05        -0.50001E+08         0.00000E+00
    0.00000E+00         0.00000E+00        -0.50002E+08
 
   -0.50003E+08         0.63830E+05         0.00000E+00
    0.63830E+05        -0.50001E+08         0.00000E+00
    0.00000E+00         0.00000E+00        -0.50002E+08
 
   -0.50003E+08         0.64644E+05         0.00000E+00
    0.64644E+05        -0.50001E+08         0.00000E+00
    0.00000E+00         0.00000E+00        -0.50002E+08
 
   -0.50003E+08         0.65418E+05         0.00000E+00
    0.65418E+05        -0.50001E+08         0.00000E+00
    0.00000E+00         0.00000E+00        -0.50002E+08
 
   -0.50003E+08         0.66152E+05         0.00000E+00
    0.66152E+05        -0.50001E+08         0.00000E+00
    0.00000E+00         0.00000E+00        -0.50002E+08
 
   -0.50003E+08         0.66846E+05         0.00000E+00
    0.66846E+05        -0.50001E+08         0.00000E+00
    0.00000E+00         0.00000E+00        -0.50002E+08
 
   -0.50002E+08         0.67502E+05         0.00000E+00
    0.67502E+05        -0.50002E+08         0.00000E+00
    0.00000E+00         0.00000E+00        -0.50002E+08
 
   -0.50002E+08         0.68120E+05         0.00000E+00
    0.68120E+05        -0.50002E+08         0.00000E+00
    0.00000E+00         0.00000E+00        -0.50002E+08
 
   -0.50002E+08         0.68700E+05         0.00000E+00
    0.68700E+05        -0.50002E+08         0.00000E+00
    0.00000E+00         0.00000E+00        -0.50002E+08
 
   -0.50002E+08         0.69244E+05         0.00000E+00
    0.69244E+05        -0.50002E+08         0.00000E+00
    0.00000E+00         0.00000E+00        -0.50002E+08
 
   -0.49998E+08         0.10199E+04         0.00000E+00
    0.10199E+04        -0.50000E+08         0.00000E+00
    0.00000E+00         0.00000E+00        -0.49999E+08
 
   -0.49998E+08         0.30384E+04         0.00000E+00
    0.30384E+04        -0.50000E+08         0.00000E+00
    0.00000E+00         0.00000E+00        -0.49999E+08
 
   -0.49998E+08         0.50456E+04         0.00000E+00
    0.50456E+04        -0.50000E+08         0.00000E+00
    0.00000E+00         0.00000E+00        -0.49999E+08
 
   -0.49998E+08         0.70400E+04         0.00000E+00
    0.70400E+04        -0.50000E+08         0.00000E+00
    0.00000E+00         0.00000E+00        -0.49999E+08
 
   -0.49998E+08         0.90203E+04         0.00000E+00
    0.90203E+04        -0.50000E+08         0.00000E+00
    0.00000E+00         0.00000E+00        -0.49999E+08
 
   -0.49998E+08         0.10985E+05         0.00000E+00
    0.10985E+05        -0.50000E+08         0.00000E+00
    0.00000E+00         0.00000E+00        -0.49999E+08
 
   -0.49998E+08         0.12933E+05         0.00000E+00
    0.12933E+05        -0.50000E+08         0.00000E+00
    0.00000E+00         0.00000E+00        -0.49999E+08
 
   -0.49998E+08         0.14863E+05         0.00000E+00
    0.14863E+05        -0.50000E+08         0.00000E+00
    0.00000E+00         0.00000E+00        -0.49999E+08
 
   -0.49998E+08         0.16774E+05         0.00000E+00
    0.16774E+05        -0.50000E+08         0.00000E+00
    0.00000E+00         0.00000E+00        -0.49999E+08
 
   -0.49998E+08         0.18665E+05         0.00000E+00
    0.18665E+05        -0.50000E+08         0.00000E+00
    0.00000E+00         0.00000E+00        -0.49999E+08
 
   -0.49998E+08         0.20534E+05         0.00000E+00
    0.20534E+05        -0.50000E+08         0.00000E+00
    0.00000E+00         0.00000E+00        -0.49999E+08
 
   -0.49998E+08         0.22382E+05         0.00000E+00
    0.22382E+05        -0.50000E+08         0.00000E+00
    0.00000E+00         0.00000E+00        -0.49999E+08
 
   -0.49998E+08         0.24207E+05         0.00000E+00
    0.24207E+05        -0.50000E+08         0.00000E+00
    0.00000E+00         0.00000E+00        -0.49999E+08
 
   -0.49998E+08         0.26007E+05         0.00000E+00
    0.26007E+05        -0.50000E+08         0.00000E+00
    0.00000E+00         0.00000E+00        -0.49999E+08
 
   -0.49998E+08         0.27783E+05         0.00000E+00
    0.27783E+05        -0.50000E+08         0.00000E+00
    0.00000E+00         0.00000E+00        -0.49999E+08
 
   -0.49998E+08         0.29533E+05         0.00000E+00
    0.29533E+05        -0.50000E+08         0.00000E+00
    0.00000E+00         0.00000E+00        -0.49999E+08
 
   -0.49998E+08         0.31257E+05         0.00000E+00
    0.31257E+05        -0.50000E+08         0.00000E+00
    0.00000E+00         0.00000E+00        -0.49999E+08
 
   -0.49998E+08         0.32953E+05         0.00000E+00
    0.32953E+05        -0.50000E+08         0.00000E+00
    0.00000E+00         0.00000E+00        -0.49999E+08
 
   -0.49998E+08         0.34621E+05         0.00000E+00
    0.34621E+05        -0.50000E+08         0.00000E+00
    0.00000E+00         0.00000E+00        -0.49999E+08
 
   -0.49998E+08         0.36261E+05         0.00000E+00
    0.36261E+05        -0.50000E+08         0.00000E+00
    0.00000E+00         0.00000E+00        -0.49999E+08
 
   -0.49998E+08         0.37871E+05         0.00000E+00
    0.37871E+05        -0.50000E+08         0.00000E+00
    0.00000E+00         0.00000E+00        -0.49999E+08
 
   -0.49998E+08         0.39451E+05         0.00000E+00
    0.39451E+05        -0.50000E+08         0.00000E+00
    0.00000E+00         0.00000E+00        -0.49999E+08
 
   -0.49998E+08         0.40999E+05         0.00000E+00
    0.40999E+05        -0.50000E+08         0.00000E+00
    0.00000E+00         0.00000E+00        -0.49999E+08
 
   -0.49998E+08         0.42516E+05         0.00000E+00
    0.42516E+05        -0.50000E+08         0.00000E+00
    0.00000E+00         0.00000E+00        -0.49999E+08
 
   -0.49998E+08         0.44001E+05         0.00000E+00
    0.44001E+05        -0.50000E+08         0.00000E+00
    0.00000E+00         0.00000E+00        -0.49999E+08
 
   -0.49998E+08         0.45453E+05         0.00000E+00
    0.45453E+05        -0.50000E+08         0.00000E+00
    0.00000E+00         0.00000E+00        -0.49999E+08
 
   -0.49999E+08         0.46871E+05         0.00000E+00
    0.46871E+05        -0.50000E+08         0.00000E+00
    0.00000E+00         0.00000E+00        -0.49999E+08
 
   -0.49999E+08         0.48254E+05         0.00000E+00
    0.48254E+05        -0.50000E+08         0.00000E+00
    0.00000E+00         0.00000E+00        -0.49999E+08
 
   -0.49999E+08         0.49603E+05         0.00000E+00
    0.49603E+05        -0.50000E+08         0.00000E+00
    0.00000E+00         0.00000E+00        -0.49999E+08
 
   -0.49999E+08         0.50916E+05         0.00000E+00
    0.50916E+05        -0.50000E+08         0.00000E+00
    0.00000E+00         0.00000E+00        -0.49999E+08
 
   -0.49999E+08         0.52194E+05         0.00000E+00
    0.52194E+05        -0.50000E+08         0.00000E+00
    0.00000E+00         0.00000E+00        -0.49999E+08
 
   -0.49999E+08         0.53434E+05         0.00000E+00
    0.53434E+05        -0.50000E+08         0.00000E+00
    0.00000E+00         0.00000E+00        -0.49999E+08
 
   -0.49999E+08         0.54638E+05         0.00000E+00
    0.54638E+05        -0.50000E+08         0.00000E+00
    0.00000E+00         0.00000E+00        -0.49999E+08
 
   -0.49999E+08         0.55804E+05         0.00000E+00
    0.55804E+05        -0.50000E+08         0.00000E+00
    0.00000E+00         0.00000E+00        -0.49999E+08
 
   -0.49999E+08         0.56932E+05         0.00000E+00
    0.56932E+05        -0.50000E+08         0.00000E+00
    0.00000E+00         0.00000E+00        -0.49999E+08
 
   -0.49999E+08         0.58021E+05         0.00000E+00
    0.58021E+05        -0.50000E+08         0.00000E+00
    0.00000E+00         0.00000E+00        -0.49999E+08
 
   -0.49999E+08         0.59071E+05         0.00000E+00
    0.59071E+05        -0.50000E+08         0.00000E+00
    0.00000E+00         0.00000E+00        -0.49999E+08
 
   -0.49999E+08         0.60083E+05         0.00000E+00
    0.60083E+05        -0.50000E+08         0.00000E+00
    0.00000E+00         0.00000E+00        -0.49999E+08
 
   -0.49999E+08         0.61055E+05         0.00000E+00
    0.61055E+05        -0.50000E+08         0.00000E+00
    0.00000E+00         0.00000E+00        -0.49999E+08
 
   -0.49999E+08         0.61987E+05         0.00000E+00
    0.61987E+05        -0.50000E+08         0.00000E+00
    0.00000E+00         0.00000E+00        -0.49999E+08
 
   -0.49999E+08         0.62879E+05         0.00000E+00
    0.62879E+05        -0.50000E+08         0.00000E+00
    0.00000E+00         0.00000E+00        -0.49999E+08
 
   -0.49999E+08         0.63731E+05         0.00000E+00
    0.63731E+05        -0.50000E+08         0.00000E+00
    0.00000E+00         0.00000E+00        -0.49999E+08
 
   -0.49999E+08         0.64544E+05         0.00000E+00
    0.64544E+05        -0.50000E+08         0.00000E+00
    0.00000E+00         0.00000E+00        -0.49999E+08
 
   -0.49999E+08         0.65316E+05         0.00000E+00
    0.65316E+05        -0.50000E+08         0.00000E+00
    0.00000E+00         0.00000E+00        -0.49999E+08
 
   -0.49999E+08         0.66049E+05         0.00000E+00
    0.66049E+05        -0.50000E+08         0.00000E+00
    0.00000E+00         0.00000E+00        -0.49999E+08
 
   -0.49999E+08         0.66743E+05         0.00000E+00
    0.66743E+05        -0.50000E+08         0.00000E+00
    0.00000E+00         0.00000E+00        -0.49999E+08
 
   -0.49999E+08         0.67398E+05         0.00000E+00
    0.67398E+05        -0.50000E+08         0.00000E+00
    0.00000E+00         0.00000E+00        -0.49999E+08
 
   -0.49999E+08         0.68015E+05         0.00000E+00
    0.68015E+05        -0.50000E+08         0.00000E+00
    0.00000E+00         0.00000E+00        -0.49999E+08
 
   -0.49999E+08         0.68596E+05         0.00000E+00
    0.68596E+05        -0.50000E+08         0.00000E+00
    0.00000E+00         0.00000E+00        -0.49999E+08
 
   -0.49999E+08         0.69140E+05         0.00000E+00
    0.69140E+05        -0.49999E+08         0.00000E+00
    0.00000E+00         0.00000E+00        -0.49999E+08
 
   -0.49988E+08         0.10240E+04         0.00000E+00
    0.10240E+04        -0.50000E+08         0.00000E+00
    0.00000E+00         0.00000E+00        -0.49994E+08
 
   -0.49988E+08         0.30506E+04         0.00000E+00
    0.30506E+04        -0.50000E+08         0.00000E+00
    0.00000E+00         0.00000E+00        -0.49994E+08
 
   -0.49988E+08         0.50660E+04         0.00000E+00
    0.50660E+04        -0.50000E+08         0.00000E+00
    0.00000E+00         0.00000E+00        -0.49994E+08
 
   -0.49988E+08         0.70685E+04         0.00000E+00
    0.70685E+04        -0.50000E+08         0.00000E+00
    0.00000E+00         0.00000E+00        -0.49994E+08
 
   -0.49988E+08         0.90568E+04         0.00000E+00
    0.90568E+04        -0.50000E+08         0.00000E+00
    0.00000E+00         0.00000E+00        -0.49994E+08
 
   -0.49988E+08         0.11030E+05         0.00000E+00
    0.11030E+05        -0.50000E+08         0.00000E+00
    0.00000E+00         0.00000E+00        -0.49994E+08
 
   -0.49988E+08         0.12985E+05         0.00000E+00
    0.12985E+05        -0.50000E+08         0.00000E+00
    0.00000E+00         0.00000E+00        -0.49994E+08
 
   -0.49988E+08         0.14923E+05         0.00000E+00
    0.14923E+05        -0.50000E+08         0.00000E+00
    0.00000E+00         0.00000E+00        -0.49994E+08
 
   -0.49989E+08         0.16842E+05         0.00000E+00
    0.16842E+05        -0.50000E+08         0.00000E+00
    0.00000E+00         0.00000E+00        -0.49994E+08
 
   -0.49989E+08         0.18740E+05         0.00000E+00
    0.18740E+05        -0.50000E+08         0.00000E+00
    0.00000E+00         0.00000E+00        -0.49994E+08
 
   -0.49989E+08         0.20618E+05         0.00000E+00
    0.20618E+05        -0.50000E+08         0.00000E+00
    0.00000E+00         0.00000E+00        -0.49994E+08
 
   -0.49989E+08         0.22473E+05         0.00000E+00
    0.22473E+05        -0.50000E+08         0.00000E+00
    0.00000E+00         0.00000E+00        -0.49994E+08
 
   -0.49989E+08         0.24305E+05         0.00000E+00
    0.24305E+05        -0.50000E+08         0.00000E+00
    0.00000E+00         0.00000E+00        -0.49994E+08
 
   -0.49989E+08         0.26112E+05         0.00000E+00
    0.26112E+05        -0.50000E+08         0.00000E+00
    0.00000E+00         0.00000E+00        -0.49994E+08
 
   -0.49989E+08         0.27895E+05         0.00000E+00
    0.27895E+05        -0.50000E+08         0.00000E+00
    0.00000E+00         0.00000E+00        -0.49995E+08
 
   -0.49989E+08         0.29652E+05         0.00000E+00
    0.29652E+05        -0.50000E+08         0.00000E+00
    0.00000E+00         0.00000E+00        -0.49995E+08
 
   -0.49990E+08         0.31383E+05         0.00000E+00
    0.31383E+05        -0.50000E+08         0.00000E+00
    0.00000E+00         0.00000E+00        -0.49995E+08
 
   -0.49990E+08         0.33086E+05         0.00000E+00
    0.33086E+05        -0.50000E+08         0.00000E+00
    0.00000E+00         0.00000E+00        -0.49995E+08
 
   -0.49990E+08         0.34761E+05         0.00000E+00
    0.34761E+05        -0.50000E+08         0.00000E+00
    0.00000E+00         0.00000E+00        -0.49995E+08
 
   -0.49990E+08         0.36406E+05         0.00000E+00
    0.36406E+05        -0.50000E+08         0.00000E+00
    0.00000E+00         0.00000E+00        -0.49995E+08
 
   -0.49990E+08         0.38023E+05         0.00000E+00
    0.38023E+05        -0.49999E+08         0.00000E+00
    0.00000E+00         0.00000E+00        -0.49995E+08
 
   -0.49991E+08         0.39608E+05         0.00000E+00
    0.39608E+05        -0.49999E+08         0.00000E+00
    0.00000E+00         0.00000E+00        -0.49995E+08
 
   -0.49991E+08         0.41163E+05         0.00000E+00
    0.41163E+05        -0.49999E+08         0.00000E+00
    0.00000E+00         0.00000E+00        -0.49995E+08
 
   -0.49991E+08         0.42686E+05         0.00000E+00
    0.42686E+05        -0.49999E+08         0.00000E+00
    0.00000E+00         0.00000E+00        -0.49995E+08
 
   -0.49991E+08         0.44176E+05         0.00000E+00
    0.44176E+05        -0.49999E+08         0.00000E+00
    0.00000E+00         0.00000E+00        -0.49995E+08
 
   -0.49991E+08         0.45633E+05         0.00000E+00
    0.45633E+05        -0.49999E+08         0.00000E+00
    0.00000E+00         0.00000E+00        -0.49995E+08
 
   -0.49991E+08         0.47056E+05         0.00000E+00
    0.47056E+05        -0.49999E+08         0.00000E+00
    0.00000E+00         0.00000E+00        -0.49995E+08
 
   -0.49992E+08         0.48445E+05         0.00000E+00
    0.48445E+05        -0.49999E+08         0.00000E+00
    0.00000E+00         0.00000E+00        -0.49995E+08
 
   -0.49992E+08         0.49799E+05         0.00000E+00
    0.49799E+05        -0.49999E+08         0.00000E+00
    0.00000E+00         0.00000E+00        -0.49995E+08
 
   -0.49992E+08         0.51117E+05         0.00000E+00
    0.51117E+05        -0.49999E+08         0.00000E+00
    0.00000E+00         0.00000E+00        -0.49996E+08
 
   -0.49992E+08         0.52399E+05         0.00000E+00
    0.52399E+05        -0.49999E+08         0.00000E+00
    0.00000E+00         0.00000E+00        -0.49996E+08
 
   -0.49993E+08         0.53644E+05         0.00000E+00
    0.53644E+05        -0.49999E+08         0.00000E+00
    0.00000E+00         0.00000E+00        -0.49996E+08
 
   -0.49993E+08         0.54852E+05         0.00000E+00
    0.54852E+05        -0.49999E+08         0.00000E+00
    0.00000E+00         0.00000E+00        -0.49996E+08
 
   -0.49993E+08         0.56022E+05         0.00000E+00
    0.56022E+05        -0.49999E+08         0.00000E+00
    0.00000E+00         0.00000E+00        -0.49996E+08
 
   -0.49993E+08         0.57154E+05         0.00000E+00
    0.57154E+05        -0.49999E+08         0.00000E+00
    0.00000E+00         0.00000E+00        -0.49996E+08
 
   -0.49993E+08         0.58248E+05         0.00000E+00
    0.58248E+05        -0.49998E+08         0.00000E+00
    0.00000E+00         0.00000E+00        -0.49996E+08
 
   -0.49994E+08         0.59302E+05         0.00000E+00
    0.59302E+05        -0.49998E+08         0.00000E+00
    0.00000E+00         0.00000E+00        -0.49996E+08
 
   -0.49994E+08         0.60317E+05         0.00000E+00
    0.60317E+05        -0.49998E+08         0.00000E+00
    0.00000E+00         0.00000E+00        -0.49996E+08
 
   -0.49994E+08         0.61293E+05         0.00000E+00
    0.61293E+05        -0.49998E+08         0.00000E+00
    0.00000E+00         0.00000E+00        -0.49996E+08
 
   -0.49994E+08         0.62228E+05         0.00000E+00
    0.62228E+05        -0.49998E+08         0.00000E+00
    0.00000E+00         0.00000E+00        -0.49996E+08
 
   -0.49995E+08         0.63124E+05         0.00000E+00
    0.63124E+05        -0.49998E+08         0.00000E+00
    0.00000E+00         0.00000E+00        -0.49996E+08
 
   -0.49995E+08         0.63980E+05         0.00000E+00
    0.63980E+05        -0.49998E+08         0.00000E+00
    0.00000E+00         0.00000E+00        -0.49996E+08
 
   -0.49995E+08         0.64795E+05         0.00000E+00
    0.64795E+05        -0.49998E+08         0.00000E+00
    0.00000E+00         0.00000E+00        -0.49996E+08
 
   -0.49995E+08         0.65571E+05         0.00000E+00
    0.65571E+05        -0.49998E+08         0.00000E+00
    0.00000E+00         0.00000E+00        -0.49997E+08
 
   -0.49996E+08         0.66307E+05         0.00000E+00
    0.66307E+05        -0.49998E+08         0.00000E+00
    0.00000E+00         0.00000E+00        -0.49997E+08
 
   -0.49996E+08         0.67004E+05         0.00000E+00
    0.67004E+05        -0.49998E+08         0.00000E+00
    0.00000E+00         0.00000E+00        -0.49997E+08
 
   -0.49996E+08         0.67662E+05         0.00000E+00
    0.67662E+05        -0.49998E+08         0.00000E+00
    0.00000E+00         0.00000E+00        -0.49997E+08
 
   -0.49996E+08         0.68281E+05         0.00000E+00
    0.68281E+05        -0.49997E+08         0.00000E+00
    0.00000E+00         0.00000E+00        -0.49997E+08
 
   -0.49997E+08         0.68864E+05         0.00000E+00
    0.68864E+05        -0.49997E+08         0.00000E+00
    0.00000E+00         0.00000E+00        -0.49997E+08
 
   -0.49997E+08         0.69411E+05         0.00000E+00
    0.69411E+05        -0.49997E+08         0.00000E+00
    0.00000E+00         0.00000E+00        -0.49997E+08
 
   -0.49978E+08         0.10337E+04         0.00000E+00
    0.10337E+04        -0.50000E+08         0.00000E+00
    0.00000E+00         0.00000E+00        -0.49989E+08
 
   -0.49978E+08         0.30794E+04         0.00000E+00
    0.30794E+04        -0.50000E+08         0.00000E+00
    0.00000E+00         0.00000E+00        -0.49989E+08
 
   -0.49978E+08         0.51138E+04         0.00000E+00
    0.51138E+04        -0.50000E+08         0.00000E+00
    0.00000E+00         0.00000E+00        -0.49989E+08
 
   -0.49978E+08         0.71352E+04         0.00000E+00
    0.71352E+04        -0.50000E+08         0.00000E+00
    0.00000E+00         0.00000E+00        -0.49989E+08
 
   -0.49978E+08         0.91422E+04         0.00000E+00
    0.91422E+04        -0.50000E+08         0.00000E+00
    0.00000E+00         0.00000E+00        -0.49989E+08
 
   -0.49978E+08         0.11134E+05         0.00000E+00
    0.11134E+05        -0.50000E+08         0.00000E+00
    0.00000E+00         0.00000E+00        -0.49989E+08
 
   -0.49979E+08         0.13108E+05         0.00000E+00
    0.13108E+05        -0.50000E+08         0.00000E+00
    0.00000E+00         0.00000E+00        -0.49989E+08
 
   -0.49979E+08         0.15064E+05         0.00000E+00
    0.15064E+05        -0.50000E+08         0.00000E+00
    0.00000E+00         0.00000E+00        -0.49989E+08
 
   -0.49979E+08         0.17001E+05         0.00000E+00
    0.17001E+05        -0.50000E+08         0.00000E+00
    0.00000E+00         0.00000E+00        -0.49989E+08
 
   -0.49979E+08         0.18917E+05         0.00000E+00
    0.18917E+05        -0.50000E+08         0.00000E+00
    0.00000E+00         0.00000E+00        -0.49989E+08
 
   -0.49979E+08         0.20812E+05         0.00000E+00
    0.20812E+05        -0.50000E+08         0.00000E+00
    0.00000E+00         0.00000E+00        -0.49990E+08
 
   -0.49980E+08         0.22684E+05         0.00000E+00
    0.22684E+05        -0.50000E+08         0.00000E+00
    0.00000E+00         0.00000E+00        -0.49990E+08
 
   -0.49980E+08         0.24533E+05         0.00000E+00
    0.24533E+05        -0.50000E+08         0.00000E+00
    0.00000E+00         0.00000E+00        -0.49990E+08
 
   -0.49980E+08         0.26358E+05         0.00000E+00
    0.26358E+05        -0.50000E+08         0.00000E+00
    0.00000E+00         0.00000E+00        -0.49990E+08
 
   -0.49980E+08         0.28158E+05         0.00000E+00
    0.28158E+05        -0.49999E+08         0.00000E+00
    0.00000E+00         0.00000E+00        -0.49990E+08
 
   -0.49981E+08         0.29931E+05         0.00000E+00
    0.29931E+05        -0.49999E+08         0.00000E+00
    0.00000E+00         0.00000E+00        -0.49990E+08
 
   -0.49981E+08         0.31678E+05         0.00000E+00
    0.31678E+05        -0.49999E+08         0.00000E+00
    0.00000E+00         0.00000E+00        -0.49990E+08
 
   -0.49981E+08         0.33397E+05         0.00000E+00
    0.33397E+05        -0.49999E+08         0.00000E+00
    0.00000E+00         0.00000E+00        -0.49990E+08
 
   -0.49982E+08         0.35087E+05         0.00000E+00
    0.35087E+05        -0.49999E+08         0.00000E+00
    0.00000E+00         0.00000E+00        -0.49990E+08
 
   -0.49982E+08         0.36749E+05         0.00000E+00
    0.36749E+05        -0.49999E+08         0.00000E+00
    0.00000E+00         0.00000E+00        -0.49991E+08
 
   -0.49982E+08         0.38380E+05         0.00000E+00
    0.38380E+05        -0.49999E+08         0.00000E+00
    0.00000E+00         0.00000E+00        -0.49991E+08
 
   -0.49983E+08         0.39980E+05         0.00000E+00
    0.39980E+05        -0.49999E+08         0.00000E+00
    0.00000E+00         0.00000E+00        -0.49991E+08
 
   -0.49983E+08         0.41549E+05         0.00000E+00
    0.41549E+05        -0.49999E+08         0.00000E+00
    0.00000E+00         0.00000E+00        -0.49991E+08
 
   -0.49983E+08         0.43086E+05         0.00000E+00
    0.43086E+05        -0.49999E+08         0.00000E+00
    0.00000E+00         0.00000E+00        -0.49991E+08
 
   -0.49984E+08         0.44590E+05         0.00000E+00
    0.44590E+05        -0.49999E+08         0.00000E+00
    0.00000E+00         0.00000E+00        -0.49991E+08
 
   -0.49984E+08         0.46061E+05         0.00000E+00
    0.46061E+05        -0.49999E+08         0.00000E+00
    0.00000E+00         0.00000E+00        -0.49991E+08
 
   -0.49984E+08         0.47497E+05         0.00000E+00
    0.47497E+05        -0.49998E+08         0.00000E+00
    0.00000E+00         0.00000E+00        -0.49991E+08
 
   -0.49985E+08         0.48899E+05         0.00000E+00
    0.48899E+05        -0.49998E+08         0.00000E+00
    0.00000E+00         0.00000E+00        -0.49992E+08
 
   -0.49985E+08         0.50265E+05         0.00000E+00
    0.50265E+05        -0.49998E+08         0.00000E+00
    0.00000E+00         0.00000E+00        -0.49992E+08
 
   -0.49986E+08         0.51595E+05         0.00000E+00
    0.51595E+05        -0.49998E+08         0.00000E+00
    0.00000E+00         0.00000E+00        -0.49992E+08
 
   -0.49986E+08         0.52889E+05         0.00000E+00
    0.52889E+05        -0.49998E+08         0.00000E+00
    0.00000E+00         0.00000E+00        -0.49992E+08
 
   -0.49986E+08         0.54146E+05         0.00000E+00
    0.54146E+05        -0.49998E+08         0.00000E+00
    0.00000E+00         0.00000E+00        -0.49992E+08
 
   -0.49987E+08         0.55365E+05         0.00000E+00
    0.55365E+05        -0.49998E+08         0.00000E+00
    0.00000E+00         0.00000E+00        -0.49992E+08
 
   -0.49987E+08         0.56546E+05         0.00000E+00
    0.56546E+05        -0.49998E+08         0.00000E+00
    0.00000E+00         0.00000E+00        -0.49992E+08
 
   -0.49988E+08         0.57688E+05         0.00000E+00
    0.57688E+05        -0.49997E+08         0.00000E+00
    0.00000E+00         0.00000E+00        -0.49993E+08
 
   -0.49988E+08         0.58792E+05         0.00000E+00
    0.58792E+05        -0.49997E+08         0.00000E+00
    0.00000E+00         0.00000E+00        -0.49993E+08
 
   -0.49989E+08         0.59856E+05         0.00000E+00
    0.59856E+05        -0.49997E+08         0.00000E+00
    0.00000E+00         0.00000E+00        -0.49993E+08
 
   -0.49989E+08         0.60880E+05         0.00000E+00
    0.60880E+05        -0.49997E+08         0.00000E+00
    0.00000E+00         0.00000E+00        -0.49993E+08
 
   -0.49989E+08         0.61865E+05         0.00000E+00
    0.61865E+05        -0.49997E+08         0.00000E+00
    0.00000E+00         0.00000E+00        -0.49993E+08
 
   -0.49990E+08         0.62809E+05         0.00000E+00
    0.62809E+05        -0.49997E+08         0.00000E+00
    0.00000E+00         0.00000E+00        -0.49993E+08
 
   -0.49990E+08         0.63713E+05         0.00000E+00
    0.63713E+05        -0.49997E+08         0.00000E+00
    0.00000E+00         0.00000E+00        -0.49993E+08
 
   -0.49991E+08         0.64576E+05         0.00000E+00
    0.64576E+05        -0.49996E+08         0.00000E+00
    0.00000E+00         0.00000E+00        -0.49993E+08
 
   -0.49991E+08         0.65400E+05         0.00000E+00
    0.65400E+05        -0.49996E+08         0.00000E+00
    0.00000E+00         0.00000E+00        -0.49994E+08
 
   -0.49992E+08         0.66182E+05         0.00000E+00
    0.66182E+05        -0.49996E+08         0.00000E+00
    0.00000E+00         0.00000E+00        -0.49994E+08
 
   -0.49992E+08         0.66925E+05         0.00000E+00
    0.66925E+05        -0.49996E+08         0.00000E+00
    0.00000E+00         0.00000E+00        -0.49994E+08
 
   -0.49992E+08         0.67628E+05         0.00000E+00
    0.67628E+05        -0.49996E+08         0.00000E+00
    0.00000E+00         0.00000E+00        -0.49994E+08
 
   -0.49993E+08         0.68292E+05         0.00000E+00
    0.68292E+05        -0.49996E+08         0.00000E+00
    0.00000E+00         0.00000E+00        -0.49994E+08
 
   -0.49993E+08         0.68918E+05         0.00000E+00
    0.68918E+05        -0.49995E+08         0.00000E+00
    0.00000E+00         0.00000E+00        -0.49994E+08
 
   -0.49994E+08         0.69506E+05         0.00000E+00
    0.69506E+05        -0.49995E+08         0.00000E+00
    0.00000E+00         0.00000E+00        -0.49994E+08
 
   -0.49994E+08         0.70058E+05         0.00000E+00
    0.70058E+05        -0.49995E+08         0.00000E+00
    0.00000E+00         0.00000E+00        -0.49994E+08
 
   -0.49967E+08         0.10490E+04         0.00000E+00
    0.10490E+04        -0.50000E+08         0.00000E+00
    0.00000E+00         0.00000E+00        -0.49984E+08
 
   -0.49967E+08         0.31249E+04         0.00000E+00
    0.31249E+04        -0.50000E+08         0.00000E+00
    0.00000E+00         0.00000E+00        -0.49984E+08
 
   -0.49968E+08         0.51893E+04         0.00000E+00
    0.51893E+04        -0.50000E+08         0.00000E+00
    0.00000E+00         0.00000E+00        -0.49984E+08
 
   -0.49968E+08         0.72405E+04         0.00000E+00
    0.72405E+04        -0.50000E+08         0.00000E+00
    0.00000E+00         0.00000E+00        -0.49984E+08
 
   -0.49968E+08         0.92772E+04         0.00000E+00
    0.92772E+04        -0.50000E+08         0.00000E+00
    0.00000E+00         0.00000E+00        -0.49984E+08
 
   -0.49968E+08         0.11298E+05         0.00000E+00
    0.11298E+05        -0.50000E+08         0.00000E+00
    0.00000E+00         0.00000E+00        -0.49984E+08
 
   -0.49969E+08         0.13301E+05         0.00000E+00
    0.13301E+05        -0.50000E+08         0.00000E+00
    0.00000E+00         0.00000E+00        -0.49984E+08
 
   -0.49969E+08         0.15286E+05         0.00000E+00
    0.15286E+05        -0.50000E+08         0.00000E+00
    0.00000E+00         0.00000E+00        -0.49984E+08
 
   -0.49969E+08         0.17251E+05         0.00000E+00
    0.17251E+05        -0.50000E+08         0.00000E+00
    0.00000E+00         0.00000E+00        -0.49985E+08
 
   -0.49970E+08         0.19196E+05         0.00000E+00
    0.19196E+05        -0.50000E+08         0.00000E+00
    0.00000E+00         0.00000E+00        -0.49985E+08
 
   -0.49970E+08         0.21119E+05         0.00000E+00
    0.21119E+05        -0.50000E+08         0.00000E+00
    0.00000E+00         0.00000E+00        -0.49985E+08
 
   -0.49970E+08         0.23019E+05         0.00000E+00
    0.23019E+05        -0.50000E+08         0.00000E+00
    0.00000E+00         0.00000E+00        -0.49985E+08
 
   -0.49971E+08         0.24895E+05         0.00000E+00
    0.24895E+05        -0.49999E+08         0.00000E+00
    0.00000E+00         0.00000E+00        -0.49985E+08
 
   -0.49971E+08         0.26746E+05         0.00000E+00
    0.26746E+05        -0.49999E+08         0.00000E+00
    0.00000E+00         0.00000E+00        -0.49985E+08
 
   -0.49971E+08         0.28572E+05         0.00000E+00
    0.28572E+05        -0.49999E+08         0.00000E+00
    0.00000E+00         0.00000E+00        -0.49985E+08
 
   -0.49972E+08         0.30372E+05         0.00000E+00
    0.30372E+05        -0.49999E+08         0.00000E+00
    0.00000E+00         0.00000E+00        -0.49986E+08
 
   -0.49972E+08         0.32144E+05         0.00000E+00
    0.32144E+05        -0.49999E+08         0.00000E+00
    0.00000E+00         0.00000E+00        -0.49986E+08
 
   -0.49973E+08         0.33888E+05         0.00000E+00
    0.33888E+05        -0.49999E+08         0.00000E+00
    0.00000E+00         0.00000E+00        -0.49986E+08
 
   -0.49973E+08         0.35604E+05         0.00000E+00
    0.35604E+05        -0.49999E+08         0.00000E+00
    0.00000E+00         0.00000E+00        -0.49986E+08
 
   -0.49974E+08         0.37289E+05         0.00000E+00
    0.37289E+05        -0.49999E+08         0.00000E+00
    0.00000E+00         0.00000E+00        -0.49986E+08
 
   -0.49974E+08         0.38945E+05         0.00000E+00
    0.38945E+05        -0.49999E+08         0.00000E+00
    0.00000E+00         0.00000E+00        -0.49986E+08
 
   -0.49975E+08         0.40569E+05         0.00000E+00
    0.40569E+05        -0.49998E+08         0.00000E+00
    0.00000E+00         0.00000E+00        -0.49987E+08
 
   -0.49975E+08         0.42161E+05         0.00000E+00
    0.42161E+05        -0.49998E+08         0.00000E+00
    0.00000E+00         0.00000E+00        -0.49987E+08
 
   -0.49976E+08         0.43720E+05         0.00000E+00
    0.43720E+05        -0.49998E+08         0.00000E+00
    0.00000E+00         0.00000E+00        -0.49987E+08
 
   -0.49976E+08         0.45246E+05         0.00000E+00
    0.45246E+05        -0.49998E+08         0.00000E+00
    0.00000E+00         0.00000E+00        -0.49987E+08
 
   -0.49977E+08         0.46738E+05         0.00000E+00
    0.46738E+05        -0.49998E+08         0.00000E+00
    0.00000E+00         0.00000E+00        -0.49987E+08
 
   -0.49977E+08         0.48196E+05         0.00000E+00
    0.48196E+05        -0.49998E+08         0.00000E+00
    0.00000E+00         0.00000E+00        -0.49987E+08
 
   -0.49978E+08         0.49618E+05         0.00000E+00
    0.49618E+05        -0.49998E+08         0.00000E+00
    0.00000E+00         0.00000E+00        -0.49988E+08
 
   -0.49978E+08         0.51004E+05         0.00000E+00
    0.51004E+05        -0.49997E+08         0.00000E+00
    0.00000E+00         0.00000E+00        -0.49988E+08
 
   -0.49979E+08         0.52354E+05         0.00000E+00
    0.52354E+05        -0.49997E+08         0.00000E+00
    0.00000E+00         0.00000E+00        -0.49988E+08
 
   -0.49980E+08         0.53667E+05         0.00000E+00
    0.53667E+05        -0.49997E+08         0.00000E+00
    0.00000E+00         0.00000E+00        -0.49988E+08
 
   -0.49980E+08         0.54942E+05         0.00000E+00
    0.54942E+05        -0.49997E+08         0.00000E+00
    0.00000E+00         0.00000E+00        -0.49988E+08
 
   -0.49981E+08         0.56179E+05         0.00000E+00
    0.56179E+05        -0.49997E+08         0.00000E+00
    0.00000E+00         0.00000E+00        -0.49989E+08
 
   -0.49981E+08         0.57377E+05         0.00000E+00
    0.57377E+05        -0.49996E+08         0.00000E+00
    0.00000E+00         0.00000E+00        -0.49989E+08
 
   -0.49982E+08         0.58536E+05         0.00000E+00
    0.58536E+05        -0.49996E+08         0.00000E+00
    0.00000E+00         0.00000E+00        -0.49989E+08
 
   -0.49983E+08         0.59656E+05         0.00000E+00
    0.59656E+05        -0.49996E+08         0.00000E+00
    0.00000E+00         0.00000E+00        -0.49989E+08
 
   -0.49983E+08         0.60735E+05         0.00000E+00
    0.60735E+05        -0.49996E+08         0.00000E+00
    0.00000E+00         0.00000E+00        -0.49989E+08
 
   -0.49984E+08         0.61775E+05         0.00000E+00
    0.61775E+05        -0.49996E+08         0.00000E+00
    0.00000E+00         0.00000E+00        -0.49990E+08
 
   -0.49985E+08         0.62773E+05         0.00000E+00
    0.62773E+05        -0.49995E+08         0.00000E+00
    0.00000E+00         0.00000E+00        -0.49990E+08
 
   -0.49985E+08         0.63731E+05         0.00000E+00
    0.63731E+05        -0.49995E+08         0.00000E+00
    0.00000E+00         0.00000E+00        -0.49990E+08
 
   -0.49986E+08         0.64649E+05         0.00000E+00
    0.64649E+05        -0.49995E+08         0.00000E+00
    0.00000E+00         0.00000E+00        -0.49990E+08
 
   -0.49986E+08         0.65525E+05         0.00000E+00
    0.65525E+05        -0.49995E+08         0.00000E+00
    0.00000E+00         0.00000E+00        -0.49990E+08
 
   -0.49987E+08         0.66360E+05         0.00000E+00
    0.66360E+05        -0.49994E+08         0.00000E+00
    0.00000E+00         0.00000E+00        -0.49991E+08
 
   -0.49988E+08         0.67154E+05         0.00000E+00
    0.67154E+05        -0.49994E+08         0.00000E+00
    0.00000E+00         0.00000E+00        -0.49991E+08
 
   -0.49988E+08         0.67907E+05         0.00000E+00
    0.67907E+05        -0.49994E+08         0.00000E+00
    0.00000E+00         0.00000E+00        -0.49991E+08
 
   -0.49989E+08         0.68621E+05         0.00000E+00
    0.68621E+05        -0.49994E+08         0.00000E+00
    0.00000E+00         0.00000E+00        -0.49991E+08
 
   -0.49990E+08         0.69294E+05         0.00000E+00
    0.69294E+05        -0.49994E+08         0.00000E+00
    0.00000E+00         0.00000E+00        -0.49991E+08
 
   -0.49990E+08         0.69929E+05         0.00000E+00
    0.69929E+05        -0.49993E+08         0.00000E+00
    0.00000E+00         0.00000E+00        -0.49991E+08
 
   -0.49991E+08         0.70526E+05         0.00000E+00
    0.70526E+05        -0.49993E+08         0.00000E+00
    0.00000E+00         0.00000E+00        -0.49992E+08
 
   -0.49991E+08         0.71085E+05         0.00000E+00
    0.71085E+05        -0.49993E+08         0.00000E+00
    0.00000E+00         0.00000E+00        -0.49992E+08
 
   -0.49957E+08         0.10699E+04         0.00000E+00
    0.10699E+04        -0.50000E+08         0.00000E+00
    0.00000E+00         0.00000E+00        -0.49979E+08
 
   -0.49957E+08         0.31873E+04         0.00000E+00
    0.31873E+04        -0.50000E+08         0.00000E+00
    0.00000E+00         0.00000E+00        -0.49979E+08
 
   -0.49957E+08         0.52929E+04         0.00000E+00
    0.52929E+04        -0.50000E+08         0.00000E+00
    0.00000E+00         0.00000E+00        -0.49979E+08
 
   -0.49958E+08         0.73850E+04         0.00000E+00
    0.73850E+04        -0.50000E+08         0.00000E+00
    0.00000E+00         0.00000E+00        -0.49979E+08
 
   -0.49958E+08         0.94622E+04         0.00000E+00
    0.94622E+04        -0.50000E+08         0.00000E+00
    0.00000E+00         0.00000E+00        -0.49979E+08
 
   -0.49958E+08         0.11523E+05         0.00000E+00
    0.11523E+05        -0.50000E+08         0.00000E+00
    0.00000E+00         0.00000E+00        -0.49979E+08
 
   -0.49959E+08         0.13566E+05         0.00000E+00
    0.13566E+05        -0.50000E+08         0.00000E+00
    0.00000E+00         0.00000E+00        -0.49979E+08
 
   -0.49959E+08         0.15591E+05         0.00000E+00
    0.15591E+05        -0.50000E+08         0.00000E+00
    0.00000E+00         0.00000E+00        -0.49979E+08
 
   -0.49959E+08         0.17595E+05         0.00000E+00
    0.17595E+05        -0.50000E+08         0.00000E+00
    0.00000E+00         0.00000E+00        -0.49980E+08
 
   -0.49960E+08         0.19578E+05         0.00000E+00
    0.19578E+05        -0.50000E+08         0.00000E+00
    0.00000E+00         0.00000E+00        -0.49980E+08
 
   -0.49960E+08         0.21539E+05         0.00000E+00
    0.21539E+05        -0.49999E+08         0.00000E+00
    0.00000E+00         0.00000E+00        -0.49980E+08
 
   -0.49961E+08         0.23477E+05         0.00000E+00
    0.23477E+05        -0.49999E+08         0.00000E+00
    0.00000E+00         0.00000E+00        -0.49980E+08
 
   -0.49961E+08         0.25391E+05         0.00000E+00
    0.25391E+05        -0.49999E+08         0.00000E+00
    0.00000E+00         0.00000E+00        -0.49980E+08
 
   -0.49962E+08         0.27279E+05         0.00000E+00
    0.27279E+05        -0.49999E+08         0.00000E+00
    0.00000E+00         0.00000E+00        -0.49980E+08
 
   -0.49962E+08         0.29141E+05         0.00000E+00
    0.29141E+05        -0.49999E+08         0.00000E+00
    0.00000E+00         0.00000E+00        -0.49981E+08
 
   -0.49963E+08         0.30977E+05         0.00000E+00
    0.30977E+05        -0.49999E+08         0.00000E+00
    0.00000E+00         0.00000E+00        -0.49981E+08
 
   -0.49963E+08         0.32784E+05         0.00000E+00
    0.32784E+05        -0.49999E+08         0.00000E+00
    0.00000E+00         0.00000E+00        -0.49981E+08
 
   -0.49964E+08         0.34563E+05         0.00000E+00
    0.34563E+05        -0.49999E+08         0.00000E+00
    0.00000E+00         0.00000E+00        -0.49981E+08
 
   -0.49965E+08         0.36312E+05         0.00000E+00
    0.36312E+05        -0.49998E+08         0.00000E+00
    0.00000E+00         0.00000E+00        -0.49982E+08
 
   -0.49965E+08         0.38032E+05         0.00000E+00
    0.38032E+05        -0.49998E+08         0.00000E+00
    0.00000E+00         0.00000E+00        -0.49982E+08
 
   -0.49966E+08         0.39720E+05         0.00000E+00
    0.39720E+05        -0.49998E+08         0.00000E+00
    0.00000E+00         0.00000E+00        -0.49982E+08
 
   -0.49967E+08         0.41376E+05         0.00000E+00
    0.41376E+05        -0.49998E+08         0.00000E+00
    0.00000E+00         0.00000E+00        -0.49982E+08
 
   -0.49967E+08         0.43000E+05         0.00000E+00
    0.43000E+05        -0.49998E+08         0.00000E+00
    0.00000E+00         0.00000E+00        -0.49982E+08
 
   -0.49968E+08         0.44591E+05         0.00000E+00
    0.44591E+05        -0.49998E+08         0.00000E+00
    0.00000E+00         0.00000E+00        -0.49983E+08
 
   -0.49969E+08         0.46147E+05         0.00000E+00
    0.46147E+05        -0.49997E+08         0.00000E+00
    0.00000E+00         0.00000E+00        -0.49983E+08
 
   -0.49969E+08         0.47669E+05         0.00000E+00
    0.47669E+05        -0.49997E+08         0.00000E+00
    0.00000E+00         0.00000E+00        -0.49983E+08
 
   -0.49970E+08         0.49156E+05         0.00000E+00
    0.49156E+05        -0.49997E+08         0.00000E+00
    0.00000E+00         0.00000E+00        -0.49983E+08
 
   -0.49971E+08         0.50606E+05         0.00000E+00
    0.50606E+05        -0.49997E+08         0.00000E+00
    0.00000E+00         0.00000E+00        -0.49984E+08
 
   -0.49972E+08         0.52020E+05         0.00000E+00
    0.52020E+05        -0.49996E+08         0.00000E+00
    0.00000E+00         0.00000E+00        -0.49984E+08
 
   -0.49972E+08         0.53397E+05         0.00000E+00
    0.53397E+05        -0.49996E+08         0.00000E+00
    0.00000E+00         0.00000E+00        -0.49984E+08
 
   -0.49973E+08         0.54736E+05         0.00000E+00
    0.54736E+05        -0.49996E+08         0.00000E+00
    0.00000E+00         0.00000E+00        -0.49985E+08
 
   -0.49974E+08         0.56037E+05         0.00000E+00
    0.56037E+05        -0.49996E+08         0.00000E+00
    0.00000E+00         0.00000E+00        -0.49985E+08
 
   -0.49975E+08         0.57298E+05         0.00000E+00
    0.57298E+05        -0.49996E+08         0.00000E+00
    0.00000E+00         0.00000E+00        -0.49985E+08
 
   -0.49975E+08         0.58520E+05         0.00000E+00
    0.58520E+05        -0.49995E+08         0.00000E+00
    0.00000E+00         0.00000E+00        -0.49985E+08
 
   -0.49976E+08         0.59702E+05         0.00000E+00
    0.59702E+05        -0.49995E+08         0.00000E+00
    0.00000E+00         0.00000E+00        -0.49986E+08
 
   -0.49977E+08         0.60844E+05         0.00000E+00
    0.60844E+05        -0.49995E+08         0.00000E+00
    0.00000E+00         0.00000E+00        -0.49986E+08
 
   -0.49978E+08         0.61945E+05         0.00000E+00
    0.61945E+05        -0.49994E+08         0.00000E+00
    0.00000E+00         0.00000E+00        -0.49986E+08
 
   -0.49979E+08         0.63006E+05         0.00000E+00
    0.63006E+05        -0.49994E+08         0.00000E+00
    0.00000E+00         0.00000E+00        -0.49986E+08
 
   -0.49980E+08         0.64024E+05         0.00000E+00
    0.64024E+05        -0.49994E+08         0.00000E+00
    0.00000E+00         0.00000E+00        -0.49987E+08
 
   -0.49980E+08         0.65001E+05         0.00000E+00
    0.65001E+05        -0.49994E+08         0.00000E+00
    0.00000E+00         0.00000E+00        -0.49987E+08
 
   -0.49981E+08         0.65936E+05         0.00000E+00
    0.65936E+05        -0.49993E+08         0.00000E+00
    0.00000E+00         0.00000E+00        -0.49987E+08
 
   -0.49982E+08         0.66830E+05         0.00000E+00
    0.66830E+05        -0.49993E+08         0.00000E+00
    0.00000E+00         0.00000E+00        -0.49987E+08
 
   -0.49983E+08         0.67681E+05         0.00000E+00
    0.67681E+05        -0.49993E+08         0.00000E+00
    0.00000E+00         0.00000E+00        -0.49988E+08
 
   -0.49984E+08         0.68491E+05         0.00000E+00
    0.68491E+05        -0.49992E+08         0.00000E+00
    0.00000E+00         0.00000E+00        -0.49988E+08
 
   -0.49985E+08         0.69259E+05         0.00000E+00
    0.69259E+05        -0.49992E+08         0.00000E+00
    0.00000E+00         0.00000E+00        -0.49988E+08
 
   -0.49986E+08         0.69986E+05         0.00000E+00
    0.69986E+05        -0.49992E+08         0.00000E+00
    0.00000E+00         0.00000E+00        -0.49988E+08
 
   -0.49986E+08         0.70673E+05         0.00000E+00
    0.70673E+05        -0.49991E+08         0.00000E+00
    0.00000E+00         0.00000E+00        -0.49989E+08
 
   -0.49987E+08         0.71320E+05         0.00000E+00
    0.71320E+05        -0.49991E+08         0.00000E+00
    0.00000E+00         0.00000E+00        -0.49989E+08
 
   -0.49988E+08         0.71928E+05         0.00000E+00
    0.71928E+05        -0.49991E+08         0.00000E+00
    0.00000E+00         0.00000E+00        -0.49989E+08
 
   -0.49989E+08         0.72498E+05         0.00000E+00
    0.72498E+05        -0.49991E+08         0.00000E+00
    0.00000E+00         0.00000E+00        -0.49989E+08
 
   -0.49946E+08         0.10967E+04         0.00000E+00
    0.10967E+04        -0.50000E+08         0.00000E+00
    0.00000E+00         0.00000E+00        -0.49973E+08
 
   -0.49946E+08         0.32669E+04         0.00000E+00
    0.32669E+04        -0.50000E+08         0.00000E+00
    0.00000E+00         0.00000E+00        -0.49973E+08
 
   -0.49947E+08         0.54249E+04         0.00000E+00
    0.54249E+04        -0.50000E+08         0.00000E+00
    0.00000E+00         0.00000E+00        -0.49974E+08
 
   -0.49947E+08         0.75691E+04         0.00000E+00
    0.75691E+04        -0.50000E+08         0.00000E+00
    0.00000E+00         0.00000E+00        -0.49974E+08
 
   -0.49947E+08         0.96980E+04         0.00000E+00
    0.96980E+04        -0.50000E+08         0.00000E+00
    0.00000E+00         0.00000E+00        -0.49974E+08
 
   -0.49948E+08         0.11810E+05         0.00000E+00
    0.11810E+05        -0.50000E+08         0.00000E+00
    0.00000E+00         0.00000E+00        -0.49974E+08
 
   -0.49948E+08         0.13904E+05         0.00000E+00
    0.13904E+05        -0.50000E+08         0.00000E+00
    0.00000E+00         0.00000E+00        -0.49974E+08
 
   -0.49949E+08         0.15979E+05         0.00000E+00
    0.15979E+05        -0.50000E+08         0.00000E+00
    0.00000E+00         0.00000E+00        -0.49974E+08
 
   -0.49949E+08         0.18033E+05         0.00000E+00
    0.18033E+05        -0.50000E+08         0.00000E+00
    0.00000E+00         0.00000E+00        -0.49974E+08
 
   -0.49950E+08         0.20065E+05         0.00000E+00
    0.20065E+05        -0.49999E+08         0.00000E+00
    0.00000E+00         0.00000E+00        -0.49975E+08
 
   -0.49950E+08         0.22075E+05         0.00000E+00
    0.22075E+05        -0.49999E+08         0.00000E+00
    0.00000E+00         0.00000E+00        -0.49975E+08
 
   -0.49951E+08         0.24061E+05         0.00000E+00
    0.24061E+05        -0.49999E+08         0.00000E+00
    0.00000E+00         0.00000E+00        -0.49975E+08
 
   -0.49952E+08         0.26022E+05         0.00000E+00
    0.26022E+05        -0.49999E+08         0.00000E+00
    0.00000E+00         0.00000E+00        -0.49975E+08
 
   -0.49952E+08         0.27958E+05         0.00000E+00
    0.27958E+05        -0.49999E+08         0.00000E+00
    0.00000E+00         0.00000E+00        -0.49976E+08
 
   -0.49953E+08         0.29866E+05         0.00000E+00
    0.29866E+05        -0.49999E+08         0.00000E+00
    0.00000E+00         0.00000E+00        -0.49976E+08
 
   -0.49954E+08         0.31747E+05         0.00000E+00
    0.31747E+05        -0.49999E+08         0.00000E+00
    0.00000E+00         0.00000E+00        -0.49976E+08
 
   -0.49954E+08         0.33600E+05         0.00000E+00
    0.33600E+05        -0.49998E+08         0.00000E+00
    0.00000E+00         0.00000E+00        -0.49976E+08
 
   -0.49955E+08         0.35423E+05         0.00000E+00
    0.35423E+05        -0.49998E+08         0.00000E+00
    0.00000E+00         0.00000E+00        -0.49977E+08
 
   -0.49956E+08         0.37216E+05         0.00000E+00
    0.37216E+05        -0.49998E+08         0.00000E+00
    0.00000E+00         0.00000E+00        -0.49977E+08
 
   -0.49957E+08         0.38978E+05         0.00000E+00
    0.38978E+05        -0.49998E+08         0.00000E+00
    0.00000E+00         0.00000E+00        -0.49977E+08
 
   -0.49957E+08         0.40709E+05         0.00000E+00
    0.40709E+05        -0.49998E+08         0.00000E+00
    0.00000E+00         0.00000E+00        -0.49978E+08
 
   -0.49958E+08         0.42407E+05         0.00000E+00
    0.42407E+05        -0.49997E+08         0.00000E+00
    0.00000E+00         0.00000E+00        -0.49978E+08
 
   -0.49959E+08         0.44071E+05         0.00000E+00
    0.44071E+05        -0.49997E+08         0.00000E+00
    0.00000E+00         0.00000E+00        -0.49978E+08
 
   -0.49960E+08         0.45702E+05         0.00000E+00
    0.45702E+05        -0.49997E+08         0.00000E+00
    0.00000E+00         0.00000E+00        -0.49978E+08
 
   -0.49961E+08         0.47297E+05         0.00000E+00
    0.47297E+05        -0.49997E+08         0.00000E+00
    0.00000E+00         0.00000E+00        -0.49979E+08
 
   -0.49962E+08         0.48857E+05         0.00000E+00
    0.48857E+05        -0.49996E+08         0.00000E+00
    0.00000E+00         0.00000E+00        -0.49979E+08
 
   -0.49963E+08         0.50381E+05         0.00000E+00
    0.50381E+05        -0.49996E+08         0.00000E+00
    0.00000E+00         0.00000E+00        -0.49979E+08
 
   -0.49964E+08         0.51868E+05         0.00000E+00
    0.51868E+05        -0.49996E+08         0.00000E+00
    0.00000E+00         0.00000E+00        -0.49980E+08
 
   -0.49964E+08         0.53318E+05         0.00000E+00
    0.53318E+05        -0.49996E+08         0.00000E+00
    0.00000E+00         0.00000E+00        -0.49980E+08
 
   -0.49965E+08         0.54729E+05         0.00000E+00
    0.54729E+05        -0.49995E+08         0.00000E+00
    0.00000E+00         0.00000E+00        -0.49980E+08
 
   -0.49966E+08         0.56102E+05         0.00000E+00
    0.56102E+05        -0.49995E+08         0.00000E+00
    0.00000E+00         0.00000E+00        -0.49981E+08
 
   -0.49967E+08         0.57435E+05         0.00000E+00
    0.57435E+05        -0.49995E+08         0.00000E+00
    0.00000E+00         0.00000E+00        -0.49981E+08
 
   -0.49968E+08         0.58729E+05         0.00000E+00
    0.58729E+05        -0.49994E+08         0.00000E+00
    0.00000E+00         0.00000E+00        -0.49981E+08
 
   -0.49969E+08         0.59982E+05         0.00000E+00
    0.59982E+05        -0.49994E+08         0.00000E+00
    0.00000E+00         0.00000E+00        -0.49982E+08
 
   -0.49970E+08         0.61194E+05         0.00000E+00
    0.61194E+05        -0.49994E+08         0.00000E+00
    0.00000E+00         0.00000E+00        -0.49982E+08
 
   -0.49971E+08         0.62364E+05         0.00000E+00
    0.62364E+05        -0.49993E+08         0.00000E+00
    0.00000E+00         0.00000E+00        -0.49982E+08
 
   -0.49972E+08         0.63493E+05         0.00000E+00
    0.63493E+05        -0.49993E+08         0.00000E+00
    0.00000E+00         0.00000E+00        -0.49983E+08
 
   -0.49973E+08         0.64579E+05         0.00000E+00
    0.64579E+05        -0.49993E+08         0.00000E+00
    0.00000E+00         0.00000E+00        -0.49983E+08
 
   -0.49975E+08         0.65623E+05         0.00000E+00
    0.65623E+05        -0.49992E+08         0.00000E+00
    0.00000E+00         0.00000E+00        -0.49983E+08
 
   -0.49976E+08         0.66625E+05         0.00000E+00
    0.66625E+05        -0.49992E+08         0.00000E+00
    0.00000E+00         0.00000E+00        -0.49984E+08
 
   -0.49977E+08         0.67583E+05         0.00000E+00
    0.67583E+05        -0.49992E+08         0.00000E+00
    0.00000E+00         0.00000E+00        -0.49984E+08
 
   -0.49978E+08         0.68499E+05         0.00000E+00
    0.68499E+05        -0.49991E+08         0.00000E+00
    0.00000E+00         0.00000E+00        -0.49984E+08
 
   -0.49979E+08         0.69371E+05         0.00000E+00
    0.69371E+05        -0.49991E+08         0.00000E+00
    0.00000E+00         0.00000E+00        -0.49985E+08
 
   -0.49980E+08         0.70201E+05         0.00000E+00
    0.70201E+05        -0.49991E+08         0.00000E+00
    0.00000E+00         0.00000E+00        -0.49985E+08
 
   -0.49981E+08         0.70988E+05         0.00000E+00
    0.70988E+05        -0.49990E+08         0.00000E+00
    0.00000E+00         0.00000E+00        -0.49985E+08
 
   -0.49982E+08         0.71732E+05         0.00000E+00
    0.71732E+05        -0.49990E+08         0.00000E+00
    0.00000E+00         0.00000E+00        -0.49986E+08
 
   -0.49983E+08         0.72436E+05         0.00000E+00
    0.72436E+05        -0.49989E+08         0.00000E+00
    0.00000E+00         0.00000E+00        -0.49986E+08
 
   -0.49984E+08         0.73098E+05         0.00000E+00
    0.73098E+05        -0.49989E+08         0.00000E+00
    0.00000E+00         0.00000E+00        -0.49986E+08
 
   -0.49985E+08         0.73720E+05         0.00000E+00
    0.73720E+05        -0.49989E+08         0.00000E+00
    0.00000E+00         0.00000E+00        -0.49986E+08
 
   -0.49986E+08         0.74304E+05         0.00000E+00
    0.74304E+05        -0.49988E+08         0.00000E+00
    0.00000E+00         0.00000E+00        -0.49986E+08
 
   -0.49935E+08         0.11293E+04         0.00000E+00
    0.11293E+04        -0.50000E+08         0.00000E+00
    0.00000E+00         0.00000E+00        -0.49968E+08
 
   -0.49935E+08         0.33637E+04         0.00000E+00
    0.33637E+04        -0.50000E+08         0.00000E+00
    0.00000E+00         0.00000E+00        -0.49968E+08
 
   -0.49936E+08         0.55856E+04         0.00000E+00
    0.55856E+04        -0.50000E+08         0.00000E+00
    0.00000E+00         0.00000E+00        -0.49968E+08
 
   -0.49936E+08         0.77932E+04         0.00000E+00
    0.77932E+04        -0.50000E+08         0.00000E+00
    0.00000E+00         0.00000E+00        -0.49968E+08
 
   -0.49937E+08         0.99850E+04         0.00000E+00
    0.99850E+04        -0.50000E+08         0.00000E+00
    0.00000E+00         0.00000E+00        -0.49968E+08
 
   -0.49937E+08         0.12160E+05         0.00000E+00
    0.12160E+05        -0.50000E+08         0.00000E+00
    0.00000E+00         0.00000E+00        -0.49969E+08
 
   -0.49938E+08         0.14315E+05         0.00000E+00
    0.14315E+05        -0.50000E+08         0.00000E+00
    0.00000E+00         0.00000E+00        -0.49969E+08
 
   -0.49938E+08         0.16451E+05         0.00000E+00
    0.16451E+05        -0.50000E+08         0.00000E+00
    0.00000E+00         0.00000E+00        -0.49969E+08
 
   -0.49939E+08         0.18566E+05         0.00000E+00
    0.18566E+05        -0.50000E+08         0.00000E+00
    0.00000E+00         0.00000E+00        -0.49969E+08
 
   -0.49940E+08         0.20659E+05         0.00000E+00
    0.20659E+05        -0.49999E+08         0.00000E+00
    0.00000E+00         0.00000E+00        -0.49970E+08
 
   -0.49940E+08         0.22728E+05         0.00000E+00
    0.22728E+05        -0.49999E+08         0.00000E+00
    0.00000E+00         0.00000E+00        -0.49970E+08
 
   -0.49941E+08         0.24773E+05         0.00000E+00
    0.24773E+05        -0.49999E+08         0.00000E+00
    0.00000E+00         0.00000E+00        -0.49970E+08
 
   -0.49942E+08         0.26792E+05         0.00000E+00
    0.26792E+05        -0.49999E+08         0.00000E+00
    0.00000E+00         0.00000E+00        -0.49970E+08
 
   -0.49943E+08         0.28785E+05         0.00000E+00
    0.28785E+05        -0.49999E+08         0.00000E+00
    0.00000E+00         0.00000E+00        -0.49971E+08
 
   -0.49943E+08         0.30750E+05         0.00000E+00
    0.30750E+05        -0.49999E+08         0.00000E+00
    0.00000E+00         0.00000E+00        -0.49971E+08
 
   -0.49944E+08         0.32687E+05         0.00000E+00
    0.32687E+05        -0.49998E+08         0.00000E+00
    0.00000E+00         0.00000E+00        -0.49971E+08
 
   -0.49945E+08         0.34595E+05         0.00000E+00
    0.34595E+05        -0.49998E+08         0.00000E+00
    0.00000E+00         0.00000E+00        -0.49972E+08
 
   -0.49946E+08         0.36472E+05         0.00000E+00
    0.36472E+05        -0.49998E+08         0.00000E+00
    0.00000E+00         0.00000E+00        -0.49972E+08
 
   -0.49947E+08         0.38319E+05         0.00000E+00
    0.38319E+05        -0.49998E+08         0.00000E+00
    0.00000E+00         0.00000E+00        -0.49972E+08
 
   -0.49948E+08         0.40133E+05         0.00000E+00
    0.40133E+05        -0.49997E+08         0.00000E+00
    0.00000E+00         0.00000E+00        -0.49973E+08
 
   -0.49949E+08         0.41916E+05         0.00000E+00
    0.41916E+05        -0.49997E+08         0.00000E+00
    0.00000E+00         0.00000E+00        -0.49973E+08
 
   -0.49950E+08         0.43664E+05         0.00000E+00
    0.43664E+05        -0.49997E+08         0.00000E+00
    0.00000E+00         0.00000E+00        -0.49973E+08
 
   -0.49951E+08         0.45379E+05         0.00000E+00
    0.45379E+05        -0.49997E+08         0.00000E+00
    0.00000E+00         0.00000E+00        -0.49974E+08
 
   -0.49952E+08         0.47058E+05         0.00000E+00
    0.47058E+05        -0.49996E+08         0.00000E+00
    0.00000E+00         0.00000E+00        -0.49974E+08
 
   -0.49953E+08         0.48702E+05         0.00000E+00
    0.48702E+05        -0.49996E+08         0.00000E+00
    0.00000E+00         0.00000E+00        -0.49974E+08
 
   -0.49954E+08         0.50309E+05         0.00000E+00
    0.50309E+05        -0.49996E+08         0.00000E+00
    0.00000E+00         0.00000E+00        -0.49975E+08
 
   -0.49955E+08         0.51878E+05         0.00000E+00
    0.51878E+05        -0.49995E+08         0.00000E+00
    0.00000E+00         0.00000E+00        -0.49975E+08
 
   -0.49956E+08         0.53410E+05         0.00000E+00
    0.53410E+05        -0.49995E+08         0.00000E+00
    0.00000E+00         0.00000E+00        -0.49976E+08
 
   -0.49957E+08         0.54904E+05         0.00000E+00
    0.54904E+05        -0.49995E+08         0.00000E+00
    0.00000E+00         0.00000E+00        -0.49976E+08
 
   -0.49958E+08         0.56358E+05         0.00000E+00
    0.56358E+05        -0.49994E+08         0.00000E+00
    0.00000E+00         0.00000E+00        -0.49976E+08
 
   -0.49959E+08         0.57772E+05         0.00000E+00
    0.57772E+05        -0.49994E+08         0.00000E+00
    0.00000E+00         0.00000E+00        -0.49977E+08
 
   -0.49961E+08         0.59145E+05         0.00000E+00
    0.59145E+05        -0.49994E+08         0.00000E+00
    0.00000E+00         0.00000E+00        -0.49977E+08
 
   -0.49962E+08         0.60478E+05         0.00000E+00
    0.60478E+05        -0.49993E+08         0.00000E+00
    0.00000E+00         0.00000E+00        -0.49978E+08
 
   -0.49963E+08         0.61769E+05         0.00000E+00
    0.61769E+05        -0.49993E+08         0.00000E+00
    0.00000E+00         0.00000E+00        -0.49978E+08
 
   -0.49964E+08         0.63017E+05         0.00000E+00
    0.63017E+05        -0.49993E+08         0.00000E+00
    0.00000E+00         0.00000E+00        -0.49978E+08
 
   -0.49966E+08         0.64223E+05         0.00000E+00
    0.64223E+05        -0.49992E+08         0.00000E+00
    0.00000E+00         0.00000E+00        -0.49979E+08
 
   -0.49967E+08         0.65386E+05         0.00000E+00
    0.65386E+05        -0.49992E+08         0.00000E+00
    0.00000E+00         0.00000E+00        -0.49979E+08
 
   -0.49968E+08         0.66505E+05         0.00000E+00
    0.66505E+05        -0.49991E+08         0.00000E+00
    0.00000E+00         0.00000E+00        -0.49980E+08
 
   -0.49969E+08         0.67580E+05         0.00000E+00
    0.67580E+05        -0.49991E+08         0.00000E+00
    0.00000E+00         0.00000E+00        -0.49980E+08
 
   -0.49971E+08         0.68612E+05         0.00000E+00
    0.68612E+05        -0.49990E+08         0.00000E+00
    0.00000E+00         0.00000E+00        -0.49980E+08
 
   -0.49972E+08         0.69599E+05         0.00000E+00
    0.69599E+05        -0.49990E+08         0.00000E+00
    0.00000E+00         0.00000E+00        -0.49981E+08
 
   -0.49973E+08         0.70541E+05         0.00000E+00
    0.70541E+05        -0.49990E+08         0.00000E+00
    0.00000E+00         0.00000E+00        -0.49981E+08
 
   -0.49974E+08         0.71439E+05         0.00000E+00
    0.71439E+05        -0.49989E+08         0.00000E+00
    0.00000E+00         0.00000E+00        -0.49982E+08
 
   -0.49976E+08         0.72293E+05         0.00000E+00
    0.72293E+05        -0.49989E+08         0.00000E+00
    0.00000E+00         0.00000E+00        -0.49982E+08
 
   -0.49977E+08         0.73103E+05         0.00000E+00
    0.73103E+05        -0.49988E+08         0.00000E+00
    0.00000E+00         0.00000E+00        -0.49982E+08
 
   -0.49978E+08         0.73870E+05         0.00000E+00
    0.73870E+05        -0.49988E+08         0.00000E+00
    0.00000E+00         0.00000E+00        -0.49983E+08
 
   -0.49980E+08         0.74593E+05         0.00000E+00
    0.74593E+05        -0.49987E+08         0.00000E+00
    0.00000E+00         0.00000E+00        -0.49983E+08
 
   -0.49981E+08         0.75274E+05         0.00000E+00
    0.75274E+05        -0.49987E+08         0.00000E+00
    0.00000E+00         0.00000E+00        -0.49983E+08
 
   -0.49982E+08         0.75914E+05         0.00000E+00
    0.75914E+05        -0.49986E+08         0.00000E+00
    0.00000E+00         0.00000E+00        -0.49983E+08
 
   -0.49983E+08         0.76514E+05         0.00000E+00
    0.76514E+05        -0.49986E+08         0.00000E+00
    0.00000E+00         0.00000E+00        -0.49984E+08
 
   -0.49924E+08         0.11677E+04         0.00000E+00
    0.11677E+04        -0.50000E+08         0.00000E+00
    0.00000E+00         0.00000E+00        -0.49962E+08
 
   -0.49924E+08         0.34781E+04         0.00000E+00
    0.34781E+04        -0.50000E+08         0.00000E+00
    0.00000E+00         0.00000E+00        -0.49962E+08
 
   -0.49924E+08         0.57753E+04         0.00000E+00
    0.57753E+04        -0.50000E+08         0.00000E+00
    0.00000E+00         0.00000E+00        -0.49963E+08
 
   -0.49925E+08         0.80578E+04         0.00000E+00
    0.80578E+04        -0.50000E+08         0.00000E+00
    0.00000E+00         0.00000E+00        -0.49963E+08
 
   -0.49926E+08         0.10324E+05         0.00000E+00
    0.10324E+05        -0.50000E+08         0.00000E+00
    0.00000E+00         0.00000E+00        -0.49963E+08
 
   -0.49926E+08         0.12572E+05         0.00000E+00
    0.12572E+05        -0.50000E+08         0.00000E+00
    0.00000E+00         0.00000E+00        -0.49963E+08
 
   -0.49927E+08         0.14801E+05         0.00000E+00
    0.14801E+05        -0.50000E+08         0.00000E+00
    0.00000E+00         0.00000E+00        -0.49963E+08
 
   -0.49927E+08         0.17010E+05         0.00000E+00
    0.17010E+05        -0.50000E+08         0.00000E+00
    0.00000E+00         0.00000E+00        -0.49964E+08
 
   -0.49928E+08         0.19196E+05         0.00000E+00
    0.19196E+05        -0.49999E+08         0.00000E+00
    0.00000E+00         0.00000E+00        -0.49964E+08
 
   -0.49929E+08         0.21360E+05         0.00000E+00
    0.21360E+05        -0.49999E+08         0.00000E+00
    0.00000E+00         0.00000E+00        -0.49964E+08
 
   -0.49930E+08         0.23499E+05         0.00000E+00
    0.23499E+05        -0.49999E+08         0.00000E+00
    0.00000E+00         0.00000E+00        -0.49965E+08
 
   -0.49931E+08         0.25614E+05         0.00000E+00
    0.25614E+05        -0.49999E+08         0.00000E+00
    0.00000E+00         0.00000E+00        -0.49965E+08
 
   -0.49932E+08         0.27702E+05         0.00000E+00
    0.27702E+05        -0.49999E+08         0.00000E+00
    0.00000E+00         0.00000E+00        -0.49965E+08
 
   -0.49932E+08         0.29762E+05         0.00000E+00
    0.29762E+05        -0.49999E+08         0.00000E+00
    0.00000E+00         0.00000E+00        -0.49966E+08
 
   -0.49933E+08         0.31795E+05         0.00000E+00
    0.31795E+05        -0.49998E+08         0.00000E+00
    0.00000E+00         0.00000E+00        -0.49966E+08
 
   -0.49934E+08         0.33798E+05         0.00000E+00
    0.33798E+05        -0.49998E+08         0.00000E+00
    0.00000E+00         0.00000E+00        -0.49966E+08
 
   -0.49935E+08         0.35771E+05         0.00000E+00
    0.35771E+05        -0.49998E+08         0.00000E+00
    0.00000E+00         0.00000E+00        -0.49967E+08
 
   -0.49936E+08         0.37713E+05         0.00000E+00
    0.37713E+05        -0.49998E+08         0.00000E+00
    0.00000E+00         0.00000E+00        -0.49967E+08
 
   -0.49938E+08         0.39623E+05         0.00000E+00
    0.39623E+05        -0.49997E+08         0.00000E+00
    0.00000E+00         0.00000E+00        -0.49967E+08
 
   -0.49939E+08         0.41501E+05         0.00000E+00
    0.41501E+05        -0.49997E+08         0.00000E+00
    0.00000E+00         0.00000E+00        -0.49968E+08
 
   -0.49940E+08         0.43344E+05         0.00000E+00
    0.43344E+05        -0.49997E+08         0.00000E+00
    0.00000E+00         0.00000E+00        -0.49968E+08
 
   -0.49941E+08         0.45153E+05         0.00000E+00
    0.45153E+05        -0.49996E+08         0.00000E+00
    0.00000E+00         0.00000E+00        -0.49969E+08
 
   -0.49942E+08         0.46927E+05         0.00000E+00
    0.46927E+05        -0.49996E+08         0.00000E+00
    0.00000E+00         0.00000E+00        -0.49969E+08
 
   -0.49943E+08         0.48665E+05         0.00000E+00
    0.48665E+05        -0.49996E+08         0.00000E+00
    0.00000E+00         0.00000E+00        -0.49970E+08
 
   -0.49945E+08         0.50366E+05         0.00000E+00
    0.50366E+05        -0.49995E+08         0.00000E+00
    0.00000E+00         0.00000E+00        -0.49970E+08
 
   -0.49946E+08         0.52029E+05         0.00000E+00
    0.52029E+05        -0.49995E+08         0.00000E+00
    0.00000E+00         0.00000E+00        -0.49970E+08
 
   -0.49947E+08         0.53653E+05         0.00000E+00
    0.53653E+05        -0.49995E+08         0.00000E+00
    0.00000E+00         0.00000E+00        -0.49971E+08
 
   -0.49948E+08         0.55239E+05         0.00000E+00
    0.55239E+05        -0.49994E+08         0.00000E+00
    0.00000E+00         0.00000E+00        -0.49971E+08
 
   -0.49950E+08         0.56784E+05         0.00000E+00
    0.56784E+05        -0.49994E+08         0.00000E+00
    0.00000E+00         0.00000E+00        -0.49972E+08
 
   -0.49951E+08         0.58289E+05         0.00000E+00
    0.58289E+05        -0.49993E+08         0.00000E+00
    0.00000E+00         0.00000E+00        -0.49972E+08
 
   -0.49952E+08         0.59753E+05         0.00000E+00
    0.59753E+05        -0.49993E+08         0.00000E+00
    0.00000E+00         0.00000E+00        -0.49973E+08
 
   -0.49954E+08         0.61175E+05         0.00000E+00
    0.61175E+05        -0.49993E+08         0.00000E+00
    0.00000E+00         0.00000E+00        -0.49973E+08
 
   -0.49955E+08         0.62554E+05         0.00000E+00
    0.62554E+05        -0.49992E+08         0.00000E+00
    0.00000E+00         0.00000E+00        -0.49974E+08
 
   -0.49957E+08         0.63890E+05         0.00000E+00
    0.63890E+05        -0.49992E+08         0.00000E+00
    0.00000E+00         0.00000E+00        -0.49974E+08
 
   -0.49958E+08         0.65183E+05         0.00000E+00
    0.65183E+05        -0.49991E+08         0.00000E+00
    0.00000E+00         0.00000E+00        -0.49975E+08
 
   -0.49960E+08         0.66431E+05         0.00000E+00
    0.66431E+05        -0.49991E+08         0.00000E+00
    0.00000E+00         0.00000E+00        -0.49975E+08
 
   -0.49961E+08         0.67634E+05         0.00000E+00
    0.67634E+05        -0.49990E+08         0.00000E+00
    0.00000E+00         0.00000E+00        -0.49976E+08
 
   -0.49963E+08         0.68793E+05         0.00000E+00
    0.68793E+05        -0.49990E+08         0.00000E+00
    0.00000E+00         0.00000E+00        -0.49976E+08
 
   -0.49964E+08         0.69906E+05         0.00000E+00
    0.69906E+05        -0.49989E+08         0.00000E+00
    0.00000E+00         0.00000E+00        -0.49977E+08
 
   -0.49966E+08         0.70973E+05         0.00000E+00
    0.70973E+05        -0.49989E+08         0.00000E+00
    0.00000E+00         0.00000E+00        -0.49977E+08
 
   -0.49967E+08         0.71994E+05         0.00000E+00
    0.71994E+05        -0.49988E+08         0.00000E+00
    0.00000E+00         0.00000E+00        -0.49977E+08
 
   -0.49969E+08         0.72969E+05         0.00000E+00
    0.72969E+05        -0.49988E+08         0.00000E+00
    0.00000E+00         0.00000E+00        -0.49978E+08
 
   -0.49970E+08         0.73898E+05         0.00000E+00
    0.73898E+05        -0.49987E+08         0.00000E+00
    0.00000E+00         0.00000E+00        -0.49978E+08
 
   -0.49972E+08         0.74782E+05         0.00000E+00
    0.74782E+05        -0.49987E+08         0.00000E+00
    0.00000E+00         0.00000E+00        -0.49979E+08
 
   -0.49973E+08         0.75619E+05         0.00000E+00
    0.75619E+05        -0.49986E+08         0.00000E+00
    0.00000E+00         0.00000E+00        -0.49979E+08
 
   -0.49974E+08         0.76411E+05         0.00000E+00
    0.76411E+05        -0.49986E+08         0.00000E+00
    0.00000E+00         0.00000E+00        -0.49980E+08
 
   -0.49976E+08         0.77159E+05         0.00000E+00
    0.77159E+05        -0.49985E+08         0.00000E+00
    0.00000E+00         0.00000E+00        -0.49980E+08
 
   -0.49977E+08         0.77862E+05         0.00000E+00
    0.77862E+05        -0.49984E+08         0.00000E+00
    0.00000E+00         0.00000E+00        -0.49980E+08
 
   -0.49979E+08         0.78523E+05         0.00000E+00
    0.78523E+05        -0.49984E+08         0.00000E+00
    0.00000E+00         0.00000E+00        -0.49980E+08
 
   -0.49980E+08         0.79142E+05         0.00000E+00
    0.79142E+05        -0.49983E+08         0.00000E+00
    0.00000E+00         0.00000E+00        -0.49981E+08
 
   -0.49912E+08         0.12121E+04         0.00000E+00
    0.12121E+04        -0.50000E+08         0.00000E+00
    0.00000E+00         0.00000E+00        -0.49956E+08
 
   -0.49912E+08         0.36100E+04         0.00000E+00
    0.36100E+04        -0.50000E+08         0.00000E+00
    0.00000E+00         0.00000E+00        -0.49957E+08
 
   -0.49913E+08         0.59942E+04         0.00000E+00
    0.59942E+04        -0.50000E+08         0.00000E+00
    0.00000E+00         0.00000E+00        -0.49957E+08
 
   -0.49913E+08         0.83632E+04         0.00000E+00
    0.83632E+04        -0.50000E+08         0.00000E+00
    0.00000E+00         0.00000E+00        -0.49957E+08
 
   -0.49914E+08         0.10715E+05         0.00000E+00
    0.10715E+05        -0.50000E+08         0.00000E+00
    0.00000E+00         0.00000E+00        -0.49957E+08
 
   -0.49915E+08         0.13049E+05         0.00000E+00
    0.13049E+05        -0.50000E+08         0.00000E+00
    0.00000E+00         0.00000E+00        -0.49957E+08
 
   -0.49915E+08         0.15362E+05         0.00000E+00
    0.15362E+05        -0.50000E+08         0.00000E+00
    0.00000E+00         0.00000E+00        -0.49958E+08
 
   -0.49916E+08         0.17654E+05         0.00000E+00
    0.17654E+05        -0.49999E+08         0.00000E+00
    0.00000E+00         0.00000E+00        -0.49958E+08
 
   -0.49917E+08         0.19924E+05         0.00000E+00
    0.19924E+05        -0.49999E+08         0.00000E+00
    0.00000E+00         0.00000E+00        -0.49958E+08
 
   -0.49918E+08         0.22170E+05         0.00000E+00
    0.22170E+05        -0.49999E+08         0.00000E+00
    0.00000E+00         0.00000E+00        -0.49959E+08
 
   -0.49919E+08         0.24391E+05         0.00000E+00
    0.24391E+05        -0.49999E+08         0.00000E+00
    0.00000E+00         0.00000E+00        -0.49959E+08
 
   -0.49920E+08         0.26586E+05         0.00000E+00
    0.26586E+05        -0.49999E+08         0.00000E+00
    0.00000E+00         0.00000E+00        -0.49959E+08
 
   -0.49921E+08         0.28754E+05         0.00000E+00
    0.28754E+05        -0.49999E+08         0.00000E+00
    0.00000E+00         0.00000E+00        -0.49960E+08
 
   -0.49922E+08         0.30893E+05         0.00000E+00
    0.30893E+05        -0.49998E+08         0.00000E+00
    0.00000E+00         0.00000E+00        -0.49960E+08
 
   -0.49923E+08         0.33004E+05         0.00000E+00
    0.33004E+05        -0.49998E+08         0.00000E+00
    0.00000E+00         0.00000E+00        -0.49961E+08
 
   -0.49924E+08         0.35084E+05         0.00000E+00
    0.35084E+05        -0.49998E+08         0.00000E+00
    0.00000E+00         0.00000E+00        -0.49961E+08
 
   -0.49925E+08         0.37133E+05         0.00000E+00
    0.37133E+05        -0.49998E+08         0.00000E+00
    0.00000E+00         0.00000E+00        -0.49961E+08
 
   -0.49927E+08         0.39150E+05         0.00000E+00
    0.39150E+05        -0.49997E+08         0.00000E+00
    0.00000E+00         0.00000E+00        -0.49962E+08
 
   -0.49928E+08         0.41134E+05         0.00000E+00
    0.41134E+05        -0.49997E+08         0.00000E+00
    0.00000E+00         0.00000E+00        -0.49962E+08
 
   -0.49929E+08         0.43084E+05         0.00000E+00
    0.43084E+05        -0.49997E+08         0.00000E+00
    0.00000E+00         0.00000E+00        -0.49963E+08
 
   -0.49930E+08         0.45000E+05         0.00000E+00
    0.45000E+05        -0.49996E+08         0.00000E+00
    0.00000E+00         0.00000E+00        -0.49963E+08
 
   -0.49932E+08         0.46880E+05         0.00000E+00
    0.46880E+05        -0.49996E+08         0.00000E+00
    0.00000E+00         0.00000E+00        -0.49964E+08
 
   -0.49933E+08         0.48723E+05         0.00000E+00
    0.48723E+05        -0.49996E+08         0.00000E+00
    0.00000E+00         0.00000E+00        -0.49964E+08
 
   -0.49935E+08         0.50529E+05         0.00000E+00
    0.50529E+05        -0.49995E+08         0.00000E+00
    0.00000E+00         0.00000E+00        -0.49965E+08
 
   -0.49936E+08         0.52296E+05         0.00000E+00
    0.52296E+05        -0.49995E+08         0.00000E+00
    0.00000E+00         0.00000E+00        -0.49965E+08
 
   -0.49937E+08         0.54025E+05         0.00000E+00
    0.54025E+05        -0.49994E+08         0.00000E+00
    0.00000E+00         0.00000E+00        -0.49966E+08
 
   -0.49939E+08         0.55714E+05         0.00000E+00
    0.55714E+05        -0.49994E+08         0.00000E+00
    0.00000E+00         0.00000E+00        -0.49966E+08
 
   -0.49940E+08         0.57362E+05         0.00000E+00
    0.57362E+05        -0.49993E+08         0.00000E+00
    0.00000E+00         0.00000E+00        -0.49967E+08
 
   -0.49942E+08         0.58969E+05         0.00000E+00
    0.58969E+05        -0.49993E+08         0.00000E+00
    0.00000E+00         0.00000E+00        -0.49967E+08
 
   -0.49943E+08         0.60534E+05         0.00000E+00
    0.60534E+05        -0.49992E+08         0.00000E+00
    0.00000E+00         0.00000E+00        -0.49968E+08
 
   -0.49945E+08         0.62055E+05         0.00000E+00
    0.62055E+05        -0.49992E+08         0.00000E+00
    0.00000E+00         0.00000E+00        -0.49968E+08
 
   -0.49947E+08         0.63534E+05         0.00000E+00
    0.63534E+05        -0.49991E+08         0.00000E+00
    0.00000E+00         0.00000E+00        -0.49969E+08
 
   -0.49948E+08         0.64968E+05         0.00000E+00
    0.64968E+05        -0.49991E+08         0.00000E+00
    0.00000E+00         0.00000E+00        -0.49970E+08
 
   -0.49950E+08         0.66357E+05         0.00000E+00
    0.66357E+05        -0.49990E+08         0.00000E+00
    0.00000E+00         0.00000E+00        -0.49970E+08
 
   -0.49952E+08         0.67701E+05         0.00000E+00
    0.67701E+05        -0.49990E+08         0.00000E+00
    0.00000E+00         0.00000E+00        -0.49971E+08
 
   -0.49953E+08         0.68999E+05         0.00000E+00
    0.68999E+05        -0.49989E+08         0.00000E+00
    0.00000E+00         0.00000E+00        -0.49971E+08
 
   -0.49955E+08         0.70251E+05         0.00000E+00
    0.70251E+05        -0.49989E+08         0.00000E+00
    0.00000E+00         0.00000E+00        -0.49972E+08
 
   -0.49957E+08         0.71455E+05         0.00000E+00
    0.71455E+05        -0.49988E+08         0.00000E+00
    0.00000E+00         0.00000E+00        -0.49972E+08
 
   -0.49958E+08         0.72613E+05         0.00000E+00
    0.72613E+05        -0.49988E+08         0.00000E+00
    0.00000E+00         0.00000E+00        -0.49973E+08
 
   -0.49960E+08         0.73722E+05         0.00000E+00
    0.73722E+05        -0.49987E+08         0.00000E+00
    0.00000E+00         0.00000E+00        -0.49973E+08
 
   -0.49962E+08         0.74784E+05         0.00000E+00
    0.74784E+05        -0.49986E+08         0.00000E+00
    0.00000E+00         0.00000E+00        -0.49974E+08
 
   -0.49964E+08         0.75797E+05         0.00000E+00
    0.75797E+05        -0.49986E+08         0.00000E+00
    0.00000E+00         0.00000E+00        -0.49975E+08
 
   -0.49965E+08         0.76763E+05         0.00000E+00
    0.76763E+05        -0.49985E+08         0.00000E+00
    0.00000E+00         0.00000E+00        -0.49975E+08
 
   -0.49967E+08         0.77680E+05         0.00000E+00
    0.77680E+05        -0.49985E+08         0.00000E+00
    0.00000E+00         0.00000E+00        -0.49976E+08
 
   -0.49969E+08         0.78550E+05         0.00000E+00
    0.78550E+05        -0.49984E+08         0.00000E+00
    0.00000E+00         0.00000E+00        -0.49976E+08
 
   -0.49971E+08         0.79373E+05         0.00000E+00
    0.79373E+05        -0.49983E+08         0.00000E+00
    0.00000E+00         0.00000E+00        -0.49976E+08
 
   -0.49972E+08         0.80149E+05         0.00000E+00
    0.80149E+05        -0.49983E+08         0.00000E+00
    0.00000E+00         0.00000E+00        -0.49977E+08
 
   -0.49974E+08         0.80879E+05         0.00000E+00
    0.80879E+05        -0.49982E+08         0.00000E+00
    0.00000E+00         0.00000E+00        -0.49977E+08
 
   -0.49975E+08         0.81564E+05         0.00000E+00
    0.81564E+05        -0.49981E+08         0.00000E+00
    0.00000E+00         0.00000E+00        -0.49977E+08
 
   -0.49977E+08         0.82205E+05         0.00000E+00
    0.82205E+05        -0.49981E+08         0.00000E+00
    0.00000E+00         0.00000E+00        -0.49978E+08
 
   -0.49900E+08         0.12623E+04         0.00000E+00
    0.12623E+04        -0.50000E+08         0.00000E+00
    0.00000E+00         0.00000E+00        -0.49950E+08
 
   -0.49900E+08         0.37595E+04         0.00000E+00
    0.37595E+04        -0.50000E+08         0.00000E+00
    0.00000E+00         0.00000E+00        -0.49951E+08
 
   -0.49901E+08         0.62425E+04         0.00000E+00
    0.62425E+04        -0.50000E+08         0.00000E+00
    0.00000E+00         0.00000E+00        -0.49951E+08
 
   -0.49901E+08         0.87096E+04         0.00000E+00
    0.87096E+04        -0.50000E+08         0.00000E+00
    0.00000E+00         0.00000E+00        -0.49951E+08
 
   -0.49902E+08         0.11159E+05         0.00000E+00
    0.11159E+05        -0.50000E+08         0.00000E+00
    0.00000E+00         0.00000E+00        -0.49951E+08
 
   -0.49903E+08         0.13589E+05         0.00000E+00
    0.13589E+05        -0.50000E+08         0.00000E+00
    0.00000E+00         0.00000E+00        -0.49952E+08
 
   -0.49904E+08         0.15999E+05         0.00000E+00
    0.15999E+05        -0.50000E+08         0.00000E+00
    0.00000E+00         0.00000E+00        -0.49952E+08
 
   -0.49905E+08         0.18386E+05         0.00000E+00
    0.18386E+05        -0.49999E+08         0.00000E+00
    0.00000E+00         0.00000E+00        -0.49952E+08
 
   -0.49906E+08         0.20751E+05         0.00000E+00
    0.20751E+05        -0.49999E+08         0.00000E+00
    0.00000E+00         0.00000E+00        -0.49953E+08
 
   -0.49907E+08         0.23090E+05         0.00000E+00
    0.23090E+05        -0.49999E+08         0.00000E+00
    0.00000E+00         0.00000E+00        -0.49953E+08
 
   -0.49908E+08         0.25404E+05         0.00000E+00
    0.25404E+05        -0.49999E+08         0.00000E+00
    0.00000E+00         0.00000E+00        -0.49953E+08
 
   -0.49909E+08         0.27691E+05         0.00000E+00
    0.27691E+05        -0.49999E+08         0.00000E+00
    0.00000E+00         0.00000E+00        -0.49954E+08
 
   -0.49910E+08         0.29950E+05         0.00000E+00
    0.29950E+05        -0.49998E+08         0.00000E+00
    0.00000E+00         0.00000E+00        -0.49954E+08
 
   -0.49911E+08         0.32180E+05         0.00000E+00
    0.32180E+05        -0.49998E+08         0.00000E+00
    0.00000E+00         0.00000E+00        -0.49955E+08
 
   -0.49912E+08         0.34379E+05         0.00000E+00
    0.34379E+05        -0.49998E+08         0.00000E+00
    0.00000E+00         0.00000E+00        -0.49955E+08
 
   -0.49914E+08         0.36548E+05         0.00000E+00
    0.36548E+05        -0.49998E+08         0.00000E+00
    0.00000E+00         0.00000E+00        -0.49956E+08
 
   -0.49915E+08         0.38684E+05         0.00000E+00
    0.38684E+05        -0.49997E+08         0.00000E+00
    0.00000E+00         0.00000E+00        -0.49956E+08
 
   -0.49916E+08         0.40787E+05         0.00000E+00
    0.40787E+05        -0.49997E+08         0.00000E+00
    0.00000E+00         0.00000E+00        -0.49957E+08
 
   -0.49918E+08         0.42856E+05         0.00000E+00
    0.42856E+05        -0.49997E+08         0.00000E+00
    0.00000E+00         0.00000E+00        -0.49957E+08
 
   -0.49919E+08         0.44890E+05         0.00000E+00
    0.44890E+05        -0.49996E+08         0.00000E+00
    0.00000E+00         0.00000E+00        -0.49958E+08
 
   -0.49921E+08         0.46888E+05         0.00000E+00
    0.46888E+05        -0.49996E+08         0.00000E+00
    0.00000E+00         0.00000E+00        -0.49958E+08
 
   -0.49922E+08         0.48849E+05         0.00000E+00
    0.48849E+05        -0.49995E+08         0.00000E+00
    0.00000E+00         0.00000E+00        -0.49959E+08
 
   -0.49924E+08         0.50772E+05         0.00000E+00
    0.50772E+05        -0.49995E+08         0.00000E+00
    0.00000E+00         0.00000E+00        -0.49959E+08
 
   -0.49925E+08         0.52656E+05         0.00000E+00
    0.52656E+05        -0.49994E+08         0.00000E+00
    0.00000E+00         0.00000E+00        -0.49960E+08
 
   -0.49927E+08         0.54501E+05         0.00000E+00
    0.54501E+05        -0.49994E+08         0.00000E+00
    0.00000E+00         0.00000E+00        -0.49961E+08
 
   -0.49929E+08         0.56305E+05         0.00000E+00
    0.56305E+05        -0.49994E+08         0.00000E+00
    0.00000E+00         0.00000E+00        -0.49961E+08
 
   -0.49930E+08         0.58068E+05         0.00000E+00
    0.58068E+05        -0.49993E+08         0.00000E+00
    0.00000E+00         0.00000E+00        -0.49962E+08
 
   -0.49932E+08         0.59789E+05         0.00000E+00
    0.59789E+05        -0.49993E+08         0.00000E+00
    0.00000E+00         0.00000E+00        -0.49962E+08
 
   -0.49934E+08         0.61466E+05         0.00000E+00
    0.61466E+05        -0.49992E+08         0.00000E+00
    0.00000E+00         0.00000E+00        -0.49963E+08
 
   -0.49936E+08         0.63100E+05         0.00000E+00
    0.63100E+05        -0.49991E+08         0.00000E+00
    0.00000E+00         0.00000E+00        -0.49964E+08
 
   -0.49937E+08         0.64690E+05         0.00000E+00
    0.64690E+05        -0.49991E+08         0.00000E+00
    0.00000E+00         0.00000E+00        -0.49964E+08
 
   -0.49939E+08         0.66234E+05         0.00000E+00
    0.66234E+05        -0.49990E+08         0.00000E+00
    0.00000E+00         0.00000E+00        -0.49965E+08
 
   -0.49941E+08         0.67732E+05         0.00000E+00
    0.67732E+05        -0.49990E+08         0.00000E+00
    0.00000E+00         0.00000E+00        -0.49965E+08
 
   -0.49943E+08         0.69183E+05         0.00000E+00
    0.69183E+05        -0.49989E+08         0.00000E+00
    0.00000E+00         0.00000E+00        -0.49966E+08
 
   -0.49945E+08         0.70587E+05         0.00000E+00
    0.70587E+05        -0.49989E+08         0.00000E+00
    0.00000E+00         0.00000E+00        -0.49967E+08
 
   -0.49947E+08         0.71942E+05         0.00000E+00
    0.71942E+05        -0.49988E+08         0.00000E+00
    0.00000E+00         0.00000E+00        -0.49967E+08
 
   -0.49949E+08         0.73250E+05         0.00000E+00
    0.73250E+05        -0.49987E+08         0.00000E+00
    0.00000E+00         0.00000E+00        -0.49968E+08
 
   -0.49951E+08         0.74508E+05         0.00000E+00
    0.74508E+05        -0.49987E+08         0.00000E+00
    0.00000E+00         0.00000E+00        -0.49969E+08
 
   -0.49953E+08         0.75716E+05         0.00000E+00
    0.75716E+05        -0.49986E+08         0.00000E+00
    0.00000E+00         0.00000E+00        -0.49969E+08
 
   -0.49955E+08         0.76875E+05         0.00000E+00
    0.76875E+05        -0.49985E+08         0.00000E+00
    0.00000E+00         0.00000E+00        -0.49970E+08
 
   -0.49957E+08         0.77984E+05         0.00000E+00
    0.77984E+05        -0.49985E+08         0.00000E+00
    0.00000E+00         0.00000E+00        -0.49970E+08
 
   -0.49959E+08         0.79042E+05         0.00000E+00
    0.79042E+05        -0.49984E+08         0.00000E+00
    0.00000E+00         0.00000E+00        -0.49971E+08
 
   -0.49961E+08         0.80050E+05         0.00000E+00
    0.80050E+05        -0.49983E+08         0.00000E+00
    0.00000E+00         0.00000E+00        -0.49972E+08
 
   -0.49963E+08         0.81007E+05         0.00000E+00
    0.81007E+05        -0.49983E+08         0.00000E+00
    0.00000E+00         0.00000E+00        -0.49972E+08
 
   -0.49965E+08         0.81915E+05         0.00000E+00
    0.81915E+05        -0.49982E+08         0.00000E+00
    0.00000E+00         0.00000E+00        -0.49973E+08
 
   -0.49966E+08         0.82773E+05         0.00000E+00
    0.82773E+05        -0.49981E+08         0.00000E+00
    0.00000E+00         0.00000E+00        -0.49973E+08
 
   -0.49968E+08         0.83582E+05         0.00000E+00
    0.83582E+05        -0.49980E+08         0.00000E+00
    0.00000E+00         0.00000E+00        -0.49974E+08
 
   -0.49970E+08         0.84342E+05         0.00000E+00
    0.84342E+05        -0.49980E+08         0.00000E+00
    0.00000E+00         0.00000E+00        -0.49974E+08
 
   -0.49972E+08         0.85055E+05         0.00000E+00
    0.85055E+05        -0.49979E+08         0.00000E+00
    0.00000E+00         0.00000E+00        -0.49974E+08
 
   -0.49974E+08         0.85723E+05         0.00000E+00
    0.85723E+05        -0.49978E+08         0.00000E+00
    0.00000E+00         0.00000E+00        -0.49975E+08
 
   -0.49887E+08         0.13185E+04         0.00000E+00
    0.13185E+04        -0.50000E+08         0.00000E+00
    0.00000E+00         0.00000E+00        -0.49944E+08
 
   -0.49887E+08         0.39267E+04         0.00000E+00
    0.39267E+04        -0.50000E+08         0.00000E+00
    0.00000E+00         0.00000E+00        -0.49944E+08
 
   -0.49888E+08         0.65202E+04         0.00000E+00
    0.65202E+04        -0.50000E+08         0.00000E+00
    0.00000E+00         0.00000E+00        -0.49944E+08
 
   -0.49889E+08         0.90970E+04         0.00000E+00
    0.90970E+04        -0.50000E+08         0.00000E+00
    0.00000E+00         0.00000E+00        -0.49945E+08
 
   -0.49890E+08         0.11656E+05         0.00000E+00
    0.11656E+05        -0.50000E+08         0.00000E+00
    0.00000E+00         0.00000E+00        -0.49945E+08
 
   -0.49890E+08         0.14194E+05         0.00000E+00
    0.14194E+05        -0.50000E+08         0.00000E+00
    0.00000E+00         0.00000E+00        -0.49945E+08
 
   -0.49891E+08         0.16712E+05         0.00000E+00
    0.16712E+05        -0.50000E+08         0.00000E+00
    0.00000E+00         0.00000E+00        -0.49946E+08
 
   -0.49892E+08         0.19206E+05         0.00000E+00
    0.19206E+05        -0.49999E+08         0.00000E+00
    0.00000E+00         0.00000E+00        -0.49946E+08
 
   -0.49894E+08         0.21677E+05         0.00000E+00
    0.21677E+05        -0.49999E+08         0.00000E+00
    0.00000E+00         0.00000E+00        -0.49947E+08
 
   -0.49895E+08         0.24122E+05         0.00000E+00
    0.24122E+05        -0.49999E+08         0.00000E+00
    0.00000E+00         0.00000E+00        -0.49947E+08
 
   -0.49896E+08         0.26540E+05         0.00000E+00
    0.26540E+05        -0.49999E+08         0.00000E+00
    0.00000E+00         0.00000E+00        -0.49947E+08
 
   -0.49897E+08         0.28931E+05         0.00000E+00
    0.28931E+05        -0.49998E+08         0.00000E+00
    0.00000E+00         0.00000E+00        -0.49948E+08
 
   -0.49899E+08         0.31293E+05         0.00000E+00
    0.31293E+05        -0.49998E+08         0.00000E+00
    0.00000E+00         0.00000E+00        -0.49948E+08
 
   -0.49900E+08         0.33624E+05         0.00000E+00
    0.33624E+05        -0.49998E+08         0.00000E+00
    0.00000E+00         0.00000E+00        -0.49949E+08
 
   -0.49901E+08         0.35924E+05         0.00000E+00
    0.35924E+05        -0.49998E+08         0.00000E+00
    0.00000E+00         0.00000E+00        -0.49949E+08
 
   -0.49903E+08         0.38193E+05         0.00000E+00
    0.38193E+05        -0.49997E+08         0.00000E+00
    0.00000E+00         0.00000E+00        -0.49950E+08
 
   -0.49904E+08         0.40428E+05         0.00000E+00
    0.40428E+05        -0.49997E+08         0.00000E+00
    0.00000E+00         0.00000E+00        -0.49951E+08
 
   -0.49906E+08         0.42628E+05         0.00000E+00
    0.42628E+05        -0.49997E+08         0.00000E+00
    0.00000E+00         0.00000E+00        -0.49951E+08
 
   -0.49907E+08         0.44793E+05         0.00000E+00
    0.44793E+05        -0.49996E+08         0.00000E+00
    0.00000E+00         0.00000E+00        -0.49952E+08
 
   -0.49909E+08         0.46922E+05         0.00000E+00
    0.46922E+05        -0.49996E+08         0.00000E+00
    0.00000E+00         0.00000E+00        -0.49952E+08
 
   -0.49911E+08         0.49014E+05         0.00000E+00
    0.49014E+05        -0.49995E+08         0.00000E+00
    0.00000E+00         0.00000E+00        -0.49953E+08
 
   -0.49912E+08         0.51067E+05         0.00000E+00
    0.51067E+05        -0.49995E+08         0.00000E+00
    0.00000E+00         0.00000E+00        -0.49954E+08
 
   -0.49914E+08         0.53081E+05         0.00000E+00
    0.53081E+05        -0.49994E+08         0.00000E+00
    0.00000E+00         0.00000E+00        -0.49954E+08
 
   -0.49916E+08         0.55055E+05         0.00000E+00
    0.55055E+05        -0.49994E+08         0.00000E+00
    0.00000E+00         0.00000E+00        -0.49955E+08
 
   -0.49918E+08         0.56988E+05         0.00000E+00
    0.56988E+05        -0.49993E+08         0.00000E+00
    0.00000E+00         0.00000E+00        -0.49955E+08
 
   -0.49920E+08         0.58878E+05         0.00000E+00
    0.58878E+05        -0.49993E+08         0.00000E+00
    0.00000E+00         0.00000E+00        -0.49956E+08
 
   -0.49921E+08         0.60726E+05         0.00000E+00
    0.60726E+05        -0.49992E+08         0.00000E+00
    0.00000E+00         0.00000E+00        -0.49957E+08
 
   -0.49923E+08         0.62529E+05         0.00000E+00
    0.62529E+05        -0.49992E+08         0.00000E+00
    0.00000E+00         0.00000E+00        -0.49957E+08
 
   -0.49925E+08         0.64288E+05         0.00000E+00
    0.64288E+05        -0.49991E+08         0.00000E+00
    0.00000E+00         0.00000E+00        -0.49958E+08
 
   -0.49927E+08         0.66001E+05         0.00000E+00
    0.66001E+05        -0.49990E+08         0.00000E+00
    0.00000E+00         0.00000E+00        -0.49959E+08
 
   -0.49929E+08         0.67668E+05         0.00000E+00
    0.67668E+05        -0.49990E+08         0.00000E+00
    0.00000E+00         0.00000E+00        -0.49960E+08
 
   -0.49931E+08         0.69287E+05         0.00000E+00
    0.69287E+05        -0.49989E+08         0.00000E+00
    0.00000E+00         0.00000E+00        -0.49960E+08
 
   -0.49934E+08         0.70858E+05         0.00000E+00
    0.70858E+05        -0.49989E+08         0.00000E+00
    0.00000E+00         0.00000E+00        -0.49961E+08
 
   -0.49936E+08         0.72381E+05         0.00000E+00
    0.72381E+05        -0.49988E+08         0.00000E+00
    0.00000E+00         0.00000E+00        -0.49962E+08
 
   -0.49938E+08         0.73853E+05         0.00000E+00
    0.73853E+05        -0.49987E+08         0.00000E+00
    0.00000E+00         0.00000E+00        -0.49962E+08
 
   -0.49940E+08         0.75276E+05         0.00000E+00
    0.75276E+05        -0.49986E+08         0.00000E+00
    0.00000E+00         0.00000E+00        -0.49963E+08
 
   -0.49942E+08         0.76647E+05         0.00000E+00
    0.76647E+05        -0.49986E+08         0.00000E+00
    0.00000E+00         0.00000E+00        -0.49964E+08
 
   -0.49944E+08         0.77967E+05         0.00000E+00
    0.77967E+05        -0.49985E+08         0.00000E+00
    0.00000E+00         0.00000E+00        -0.49965E+08
 
   -0.49947E+08         0.79235E+05         0.00000E+00
    0.79235E+05        -0.49984E+08         0.00000E+00
    0.00000E+00         0.00000E+00        -0.49965E+08
 
   -0.49949E+08         0.80451E+05         0.00000E+00
    0.80451E+05        -0.49984E+08         0.00000E+00
    0.00000E+00         0.00000E+00        -0.49966E+08
 
   -0.49951E+08         0.81613E+05         0.00000E+00
    0.81613E+05        -0.49983E+08         0.00000E+00
    0.00000E+00         0.00000E+00        -0.49967E+08
 
   -0.49953E+08         0.82723E+05         0.00000E+00
    0.82723E+05        -0.49982E+08         0.00000E+00
    0.00000E+00         0.00000E+00        -0.49967E+08
 
   -0.49956E+08         0.83780E+05         0.00000E+00
    0.83780E+05        -0.49981E+08         0.00000E+00
    0.00000E+00         0.00000E+00        -0.49968E+08
 
   -0.49958E+08         0.84784E+05         0.00000E+00
    0.84784E+05        -0.49980E+08         0.00000E+00
    0.00000E+00         0.00000E+00        -0.49969E+08
 
   -0.49960E+08         0.85735E+05         0.00000E+00
    0.85735E+05        -0.49980E+08         0.00000E+00
    0.00000E+00         0.00000E+00        -0.49969E+08
 
   -0.49962E+08         0.86634E+05         0.00000E+00
    0.86634E+05        -0.49979E+08         0.00000E+00
    0.00000E+00         0.00000E+00        -0.49970E+08
 
   -0.49964E+08         0.87480E+05         0.00000E+00
    0.87480E+05        -0.49978E+08         0.00000E+00
    0.00000E+00         0.00000E+00        -0.49970E+08
 
   -0.49967E+08         0.88276E+05         0.00000E+00
    0.88276E+05        -0.49977E+08         0.00000E+00
    0.00000E+00         0.00000E+00        -0.49971E+08
 
   -0.49969E+08         0.89022E+05         0.00000E+00
    0.89022E+05        -0.49976E+08         0.00000E+00
    0.00000E+00         0.00000E+00        -0.49971E+08
 
   -0.49971E+08         0.89720E+05         0.00000E+00
    0.89720E+05        -0.49975E+08         0.00000E+00
    0.00000E+00         0.00000E+00        -0.49971E+08
 
   -0.49873E+08         0.13804E+04         0.00000E+00
    0.13804E+04        -0.50000E+08         0.00000E+00
    0.00000E+00         0.00000E+00        -0.49938E+08
 
   -0.49874E+08         0.41114E+04         0.00000E+00
    0.41114E+04        -0.50000E+08         0.00000E+00
    0.00000E+00         0.00000E+00        -0.49938E+08
 
   -0.49875E+08         0.68271E+04         0.00000E+00
    0.68271E+04        -0.50000E+08         0.00000E+00
    0.00000E+00         0.00000E+00        -0.49938E+08
 
   -0.49876E+08         0.95256E+04         0.00000E+00
    0.95256E+04        -0.50000E+08         0.00000E+00
    0.00000E+00         0.00000E+00        -0.49938E+08
 
   -0.49877E+08         0.12205E+05         0.00000E+00
    0.12205E+05        -0.50000E+08         0.00000E+00
    0.00000E+00         0.00000E+00        -0.49939E+08
 
   -0.49878E+08         0.14864E+05         0.00000E+00
    0.14864E+05        -0.50000E+08         0.00000E+00
    0.00000E+00         0.00000E+00        -0.49939E+08
 
   -0.49879E+08         0.17501E+05         0.00000E+00
    0.17501E+05        -0.49999E+08         0.00000E+00
    0.00000E+00         0.00000E+00        -0.49939E+08
 
   -0.49880E+08         0.20115E+05         0.00000E+00
    0.20115E+05        -0.49999E+08         0.00000E+00
    0.00000E+00         0.00000E+00        -0.49940E+08
 
   -0.49881E+08         0.22704E+05         0.00000E+00
    0.22704E+05        -0.49999E+08         0.00000E+00
    0.00000E+00         0.00000E+00        -0.49940E+08
 
   -0.49882E+08         0.25266E+05         0.00000E+00
    0.25266E+05        -0.49999E+08         0.00000E+00
    0.00000E+00         0.00000E+00        -0.49941E+08
 
   -0.49884E+08         0.27801E+05         0.00000E+00
    0.27801E+05        -0.49999E+08         0.00000E+00
    0.00000E+00         0.00000E+00        -0.49941E+08
 
   -0.49885E+08         0.30308E+05         0.00000E+00
    0.30308E+05        -0.49998E+08         0.00000E+00
    0.00000E+00         0.00000E+00        -0.49942E+08
 
   -0.49886E+08         0.32784E+05         0.00000E+00
    0.32784E+05        -0.49998E+08         0.00000E+00
    0.00000E+00         0.00000E+00        -0.49942E+08
 
   -0.49888E+08         0.35229E+05         0.00000E+00
    0.35229E+05        -0.49998E+08         0.00000E+00
    0.00000E+00         0.00000E+00        -0.49943E+08
 
   -0.49890E+08         0.37643E+05         0.00000E+00
    0.37643E+05        -0.49997E+08         0.00000E+00
    0.00000E+00         0.00000E+00        -0.49943E+08
 
   -0.49891E+08         0.40023E+05         0.00000E+00
    0.40023E+05        -0.49997E+08         0.00000E+00
    0.00000E+00         0.00000E+00        -0.49944E+08
 
   -0.49893E+08         0.42368E+05         0.00000E+00
    0.42368E+05        -0.49997E+08         0.00000E+00
    0.00000E+00         0.00000E+00        -0.49945E+08
 
   -0.49895E+08         0.44678E+05         0.00000E+00
    0.44678E+05        -0.49996E+08         0.00000E+00
    0.00000E+00         0.00000E+00        -0.49945E+08
 
   -0.49896E+08         0.46952E+05         0.00000E+00
    0.46952E+05        -0.49996E+08         0.00000E+00
    0.00000E+00         0.00000E+00        -0.49946E+08
 
   -0.49898E+08         0.49188E+05         0.00000E+00
    0.49188E+05        -0.49995E+08         0.00000E+00
    0.00000E+00         0.00000E+00        -0.49947E+08
 
   -0.49900E+08         0.51385E+05         0.00000E+00
    0.51385E+05        -0.49995E+08         0.00000E+00
    0.00000E+00         0.00000E+00        -0.49947E+08
 
   -0.49902E+08         0.53543E+05         0.00000E+00
    0.53543E+05        -0.49994E+08         0.00000E+00
    0.00000E+00         0.00000E+00        -0.49948E+08
 
   -0.49904E+08         0.55659E+05         0.00000E+00
    0.55659E+05        -0.49994E+08         0.00000E+00
    0.00000E+00         0.00000E+00        -0.49949E+08
 
   -0.49906E+08         0.57734E+05         0.00000E+00
    0.57734E+05        -0.49993E+08         0.00000E+00
    0.00000E+00         0.00000E+00        -0.49949E+08
 
   -0.49908E+08         0.59766E+05         0.00000E+00
    0.59766E+05        -0.49993E+08         0.00000E+00
    0.00000E+00         0.00000E+00        -0.49950E+08
 
   -0.49910E+08         0.61755E+05         0.00000E+00
    0.61755E+05        -0.49992E+08         0.00000E+00
    0.00000E+00         0.00000E+00        -0.49951E+08
 
   -0.49912E+08         0.63698E+05         0.00000E+00
    0.63698E+05        -0.49991E+08         0.00000E+00
    0.00000E+00         0.00000E+00        -0.49952E+08
 
   -0.49914E+08         0.65596E+05         0.00000E+00
    0.65596E+05        -0.49991E+08         0.00000E+00
    0.00000E+00         0.00000E+00        -0.49952E+08
 
   -0.49916E+08         0.67447E+05         0.00000E+00
    0.67447E+05        -0.49990E+08         0.00000E+00
    0.00000E+00         0.00000E+00        -0.49953E+08
 
   -0.49919E+08         0.69250E+05         0.00000E+00
    0.69250E+05        -0.49989E+08         0.00000E+00
    0.00000E+00         0.00000E+00        -0.49954E+08
 
   -0.49921E+08         0.71005E+05         0.00000E+00
    0.71005E+05        -0.49989E+08         0.00000E+00
    0.00000E+00         0.00000E+00        -0.49955E+08
 
   -0.49923E+08         0.72710E+05         0.00000E+00
    0.72710E+05        -0.49988E+08         0.00000E+00
    0.00000E+00         0.00000E+00        -0.49956E+08
 
   -0.49926E+08         0.74364E+05         0.00000E+00
    0.74364E+05        -0.49987E+08         0.00000E+00
    0.00000E+00         0.00000E+00        -0.49956E+08
 
   -0.49928E+08         0.75968E+05         0.00000E+00
    0.75968E+05        -0.49987E+08         0.00000E+00
    0.00000E+00         0.00000E+00        -0.49957E+08
 
   -0.49930E+08         0.77519E+05         0.00000E+00
    0.77519E+05        -0.49986E+08         0.00000E+00
    0.00000E+00         0.00000E+00        -0.49958E+08
 
   -0.49933E+08         0.79017E+05         0.00000E+00
    0.79017E+05        -0.49985E+08         0.00000E+00
    0.00000E+00         0.00000E+00        -0.49959E+08
 
   -0.49935E+08         0.80462E+05         0.00000E+00
    0.80462E+05        -0.49984E+08         0.00000E+00
    0.00000E+00         0.00000E+00        -0.49960E+08
 
   -0.49938E+08         0.81853E+05         0.00000E+00
    0.81853E+05        -0.49983E+08         0.00000E+00
    0.00000E+00         0.00000E+00        -0.49960E+08
 
   -0.49940E+08         0.83189E+05         0.00000E+00
    0.83189E+05        -0.49983E+08         0.00000E+00
    0.00000E+00         0.00000E+00        -0.49961E+08
 
   -0.49943E+08         0.84470E+05         0.00000E+00
    0.84470E+05        -0.49982E+08         0.00000E+00
    0.00000E+00         0.00000E+00        -0.49962E+08
 
   -0.49945E+08         0.85695E+05         0.00000E+00
    0.85695E+05        -0.49981E+08         0.00000E+00
    0.00000E+00         0.00000E+00        -0.49963E+08
 
   -0.49948E+08         0.86864E+05         0.00000E+00
    0.86864E+05        -0.49980E+08         0.00000E+00
    0.00000E+00         0.00000E+00        -0.49963E+08
 
   -0.49950E+08         0.87977E+05         0.00000E+00
    0.87977E+05        -0.49979E+08         0.00000E+00
    0.00000E+00         0.00000E+00        -0.49964E+08
 
   -0.49953E+08         0.89034E+05         0.00000E+00
    0.89034E+05        -0.49978E+08         0.00000E+00
    0.00000E+00         0.00000E+00        -0.49965E+08
 
   -0.49955E+08         0.90035E+05         0.00000E+00
    0.90035E+05        -0.49977E+08         0.00000E+00
    0.00000E+00         0.00000E+00        -0.49966E+08
 
   -0.49958E+08         0.90981E+05         0.00000E+00
    0.90981E+05        -0.49976E+08         0.00000E+00
    0.00000E+00         0.00000E+00        -0.49966E+08
 
   -0.49960E+08         0.91871E+05         0.00000E+00
    0.91871E+05        -0.49975E+08         0.00000E+00
    0.00000E+00         0.00000E+00        -0.49967E+08
 
   -0.49963E+08         0.92708E+05         0.00000E+00
    0.92708E+05        -0.49975E+08         0.00000E+00
    0.00000E+00         0.00000E+00        -0.49967E+08
 
   -0.49965E+08         0.93491E+05         0.00000E+00
    0.93491E+05        -0.49974E+08         0.00000E+00
    0.00000E+00         0.00000E+00        -0.49968E+08
 
   -0.49967E+08         0.94223E+05         0.00000E+00
    0.94223E+05        -0.49973E+08         0.00000E+00
    0.00000E+00         0.00000E+00        -0.49968E+08
 
   -0.49859E+08         0.14482E+04         0.00000E+00
    0.14482E+04        -0.50000E+08         0.00000E+00
    0.00000E+00         0.00000E+00        -0.49931E+08
 
   -0.49860E+08         0.43136E+04         0.00000E+00
    0.43136E+04        -0.50000E+08         0.00000E+00
    0.00000E+00         0.00000E+00        -0.49931E+08
 
   -0.49861E+08         0.71633E+04         0.00000E+00
    0.71633E+04        -0.50000E+08         0.00000E+00
    0.00000E+00         0.00000E+00        -0.49931E+08
 
   -0.49862E+08         0.99953E+04         0.00000E+00
    0.99953E+04        -0.50000E+08         0.00000E+00
    0.00000E+00         0.00000E+00        -0.49931E+08
 
   -0.49863E+08         0.12808E+05         0.00000E+00
    0.12808E+05        -0.50000E+08         0.00000E+00
    0.00000E+00         0.00000E+00        -0.49932E+08
 
   -0.49864E+08         0.15599E+05         0.00000E+00
    0.15599E+05        -0.50000E+08         0.00000E+00
    0.00000E+00         0.00000E+00        -0.49932E+08
 
   -0.49865E+08         0.18368E+05         0.00000E+00
    0.18368E+05        -0.49999E+08         0.00000E+00
    0.00000E+00         0.00000E+00        -0.49933E+08
 
   -0.49866E+08         0.21113E+05         0.00000E+00
    0.21113E+05        -0.49999E+08         0.00000E+00
    0.00000E+00         0.00000E+00        -0.49933E+08
 
   -0.49868E+08         0.23832E+05         0.00000E+00
    0.23832E+05        -0.49999E+08         0.00000E+00
    0.00000E+00         0.00000E+00        -0.49934E+08
 
   -0.49869E+08         0.26524E+05         0.00000E+00
    0.26524E+05        -0.49999E+08         0.00000E+00
    0.00000E+00         0.00000E+00        -0.49934E+08
 
   -0.49871E+08         0.29188E+05         0.00000E+00
    0.29188E+05        -0.49998E+08         0.00000E+00
    0.00000E+00         0.00000E+00        -0.49935E+08
 
   -0.49872E+08         0.31823E+05         0.00000E+00
    0.31823E+05        -0.49998E+08         0.00000E+00
    0.00000E+00         0.00000E+00        -0.49935E+08
 
   -0.49874E+08         0.34427E+05         0.00000E+00
    0.34427E+05        -0.49998E+08         0.00000E+00
    0.00000E+00         0.00000E+00        -0.49936E+08
 
   -0.49876E+08         0.36999E+05         0.00000E+00
    0.36999E+05        -0.49997E+08         0.00000E+00
    0.00000E+00         0.00000E+00        -0.49937E+08
 
   -0.49877E+08         0.39538E+05         0.00000E+00
    0.39538E+05        -0.49997E+08         0.00000E+00
    0.00000E+00         0.00000E+00        -0.49937E+08
 
   -0.49879E+08         0.42042E+05         0.00000E+00
    0.42042E+05        -0.49997E+08         0.00000E+00
    0.00000E+00         0.00000E+00        -0.49938E+08
 
   -0.49881E+08         0.44511E+05         0.00000E+00
    0.44511E+05        -0.49996E+08         0.00000E+00
    0.00000E+00         0.00000E+00        -0.49939E+08
 
   -0.49883E+08         0.46943E+05         0.00000E+00
    0.46943E+05        -0.49996E+08         0.00000E+00
    0.00000E+00         0.00000E+00        -0.49939E+08
 
   -0.49885E+08         0.49338E+05         0.00000E+00
    0.49338E+05        -0.49995E+08         0.00000E+00
    0.00000E+00         0.00000E+00        -0.49940E+08
 
   -0.49887E+08         0.51693E+05         0.00000E+00
    0.51693E+05        -0.49995E+08         0.00000E+00
    0.00000E+00         0.00000E+00        -0.49941E+08
 
   -0.49889E+08         0.54009E+05         0.00000E+00
    0.54009E+05        -0.49994E+08         0.00000E+00
    0.00000E+00         0.00000E+00        -0.49942E+08
 
   -0.49891E+08         0.56283E+05         0.00000E+00
    0.56283E+05        -0.49994E+08         0.00000E+00
    0.00000E+00         0.00000E+00        -0.49942E+08
 
   -0.49893E+08         0.58515E+05         0.00000E+00
    0.58515E+05        -0.49993E+08         0.00000E+00
    0.00000E+00         0.00000E+00        -0.49943E+08
 
   -0.49895E+08         0.60704E+05         0.00000E+00
    0.60704E+05        -0.49992E+08         0.00000E+00
    0.00000E+00         0.00000E+00        -0.49944E+08
 
   -0.49898E+08         0.62848E+05         0.00000E+00
    0.62848E+05        -0.49992E+08         0.00000E+00
    0.00000E+00         0.00000E+00        -0.49945E+08
 
   -0.49900E+08         0.64946E+05         0.00000E+00
    0.64946E+05        -0.49991E+08         0.00000E+00
    0.00000E+00         0.00000E+00        -0.49946E+08
 
   -0.49902E+08         0.66998E+05         0.00000E+00
    0.66998E+05        -0.49991E+08         0.00000E+00
    0.00000E+00         0.00000E+00        -0.49946E+08
 
   -0.49905E+08         0.69001E+05         0.00000E+00
    0.69001E+05        -0.49990E+08         0.00000E+00
    0.00000E+00         0.00000E+00        -0.49947E+08
 
   -0.49907E+08         0.70956E+05         0.00000E+00
    0.70956E+05        -0.49989E+08         0.00000E+00
    0.00000E+00         0.00000E+00        -0.49948E+08
 
   -0.49910E+08         0.72861E+05         0.00000E+00
    0.72861E+05        -0.49988E+08         0.00000E+00
    0.00000E+00         0.00000E+00        -0.49949E+08
 
   -0.49912E+08         0.74716E+05         0.00000E+00
    0.74716E+05        -0.49988E+08         0.00000E+00
    0.00000E+00         0.00000E+00        -0.49950E+08
 
   -0.49915E+08         0.76518E+05         0.00000E+00
    0.76518E+05        -0.49987E+08         0.00000E+00
    0.00000E+00         0.00000E+00        -0.49951E+08
 
   -0.49917E+08         0.78267E+05         0.00000E+00
    0.78267E+05        -0.49986E+08         0.00000E+00
    0.00000E+00         0.00000E+00        -0.49952E+08
 
   -0.49920E+08         0.79963E+05         0.00000E+00
    0.79963E+05        -0.49985E+08         0.00000E+00
    0.00000E+00         0.00000E+00        -0.49952E+08
 
   -0.49923E+08         0.81603E+05         0.00000E+00
    0.81603E+05        -0.49984E+08         0.00000E+00
    0.00000E+00         0.00000E+00        -0.49953E+08
 
   -0.49925E+08         0.83188E+05         0.00000E+00
    0.83188E+05        -0.49983E+08         0.00000E+00
    0.00000E+00         0.00000E+00        -0.49954E+08
 
   -0.49928E+08         0.84717E+05         0.00000E+00
    0.84717E+05        -0.49983E+08         0.00000E+00
    0.00000E+00         0.00000E+00        -0.49955E+08
 
   -0.49931E+08         0.86188E+05         0.00000E+00
    0.86188E+05        -0.49982E+08         0.00000E+00
    0.00000E+00         0.00000E+00        -0.49956E+08
 
   -0.49933E+08         0.87602E+05         0.00000E+00
    0.87602E+05        -0.49981E+08         0.00000E+00
    0.00000E+00         0.00000E+00        -0.49957E+08
 
   -0.49936E+08         0.88957E+05         0.00000E+00
    0.88957E+05        -0.49980E+08         0.00000E+00
    0.00000E+00         0.00000E+00        -0.49958E+08
 
   -0.49939E+08         0.90254E+05         0.00000E+00
    0.90254E+05        -0.49979E+08         0.00000E+00
    0.00000E+00         0.00000E+00        -0.49959E+08
 
   -0.49942E+08         0.91491E+05         0.00000E+00
    0.91491E+05        -0.49978E+08         0.00000E+00
    0.00000E+00         0.00000E+00        -0.49959E+08
 
   -0.49945E+08         0.92668E+05         0.00000E+00
    0.92668E+05        -0.49977E+08         0.00000E+00
    0.00000E+00         0.00000E+00        -0.49960E+08
 
   -0.49948E+08         0.93786E+05         0.00000E+00
    0.93786E+05        -0.49976E+08         0.00000E+00
    0.00000E+00         0.00000E+00        -0.49961E+08
 
   -0.49950E+08         0.94845E+05         0.00000E+00
    0.94845E+05        -0.49975E+08         0.00000E+00
    0.00000E+00         0.00000E+00        -0.49962E+08
 
   -0.49953E+08         0.95844E+05         0.00000E+00
    0.95844E+05        -0.49974E+08         0.00000E+00
    0.00000E+00         0.00000E+00        -0.49962E+08
 
   -0.49956E+08         0.96785E+05         0.00000E+00
    0.96785E+05        -0.49973E+08         0.00000E+00
    0.00000E+00         0.00000E+00        -0.49963E+08
 
   -0.49958E+08         0.97669E+05         0.00000E+00
    0.97669E+05        -0.49972E+08         0.00000E+00
    0.00000E+00         0.00000E+00        -0.49964E+08
 
   -0.49961E+08         0.98495E+05         0.00000E+00
    0.98495E+05        -0.49971E+08         0.00000E+00
    0.00000E+00         0.00000E+00        -0.49964E+08
 
   -0.49963E+08         0.99267E+05         0.00000E+00
    0.99267E+05        -0.49970E+08         0.00000E+00
    0.00000E+00         0.00000E+00        -0.49965E+08
 
   -0.49845E+08         0.15216E+04         0.00000E+00
    0.15216E+04        -0.50000E+08         0.00000E+00
    0.00000E+00         0.00000E+00        -0.49923E+08
 
   -0.49845E+08         0.45331E+04         0.00000E+00
    0.45331E+04        -0.50000E+08         0.00000E+00
    0.00000E+00         0.00000E+00        -0.49924E+08
 
   -0.49846E+08         0.75286E+04         0.00000E+00
    0.75286E+04        -0.50000E+08         0.00000E+00
    0.00000E+00         0.00000E+00        -0.49924E+08
 
   -0.49847E+08         0.10506E+05         0.00000E+00
    0.10506E+05        -0.50000E+08         0.00000E+00
    0.00000E+00         0.00000E+00        -0.49924E+08
 
   -0.49849E+08         0.13464E+05         0.00000E+00
    0.13464E+05        -0.50000E+08         0.00000E+00
    0.00000E+00         0.00000E+00        -0.49925E+08
 
   -0.49850E+08         0.16400E+05         0.00000E+00
    0.16400E+05        -0.50000E+08         0.00000E+00
    0.00000E+00         0.00000E+00        -0.49925E+08
 
   -0.49851E+08         0.19313E+05         0.00000E+00
    0.19313E+05        -0.49999E+08         0.00000E+00
    0.00000E+00         0.00000E+00        -0.49926E+08
 
   -0.49852E+08         0.22201E+05         0.00000E+00
    0.22201E+05        -0.49999E+08         0.00000E+00
    0.00000E+00         0.00000E+00        -0.49926E+08
 
   -0.49854E+08         0.25064E+05         0.00000E+00
    0.25064E+05        -0.49999E+08         0.00000E+00
    0.00000E+00         0.00000E+00        -0.49927E+08
 
   -0.49855E+08         0.27898E+05         0.00000E+00
    0.27898E+05        -0.49999E+08         0.00000E+00
    0.00000E+00         0.00000E+00        -0.49927E+08
 
   -0.49857E+08         0.30704E+05         0.00000E+00
    0.30704E+05        -0.49998E+08         0.00000E+00
    0.00000E+00         0.00000E+00        -0.49928E+08
 
   -0.49859E+08         0.33480E+05         0.00000E+00
    0.33480E+05        -0.49998E+08         0.00000E+00
    0.00000E+00         0.00000E+00        -0.49929E+08
 
   -0.49861E+08         0.36224E+05         0.00000E+00
    0.36224E+05        -0.49998E+08         0.00000E+00
    0.00000E+00         0.00000E+00        -0.49929E+08
 
   -0.49862E+08         0.38936E+05         0.00000E+00
    0.38936E+05        -0.49997E+08         0.00000E+00
    0.00000E+00         0.00000E+00        -0.49930E+08
 
   -0.49864E+08         0.41614E+05         0.00000E+00
    0.41614E+05        -0.49997E+08         0.00000E+00
    0.00000E+00         0.00000E+00        -0.49931E+08
 
   -0.49866E+08         0.44256E+05         0.00000E+00
    0.44256E+05        -0.49996E+08         0.00000E+00
    0.00000E+00         0.00000E+00        -0.49931E+08
 
   -0.49868E+08         0.46861E+05         0.00000E+00
    0.46861E+05        -0.49996E+08         0.00000E+00
    0.00000E+00         0.00000E+00        -0.49932E+08
 
   -0.49870E+08         0.49429E+05         0.00000E+00
    0.49429E+05        -0.49995E+08         0.00000E+00
    0.00000E+00         0.00000E+00        -0.49933E+08
 
   -0.49873E+08         0.51958E+05         0.00000E+00
    0.51958E+05        -0.49995E+08         0.00000E+00
    0.00000E+00         0.00000E+00        -0.49934E+08
 
   -0.49875E+08         0.54447E+05         0.00000E+00
    0.54447E+05        -0.49994E+08         0.00000E+00
    0.00000E+00         0.00000E+00        -0.49935E+08
 
   -0.49877E+08         0.56894E+05         0.00000E+00
    0.56894E+05        -0.49994E+08         0.00000E+00
    0.00000E+00         0.00000E+00        -0.49935E+08
 
   -0.49879E+08         0.59299E+05         0.00000E+00
    0.59299E+05        -0.49993E+08         0.00000E+00
    0.00000E+00         0.00000E+00        -0.49936E+08
 
   -0.49882E+08         0.61659E+05         0.00000E+00
    0.61659E+05        -0.49992E+08         0.00000E+00
    0.00000E+00         0.00000E+00        -0.49937E+08
 
   -0.49884E+08         0.63975E+05         0.00000E+00
    0.63975E+05        -0.49992E+08         0.00000E+00
    0.00000E+00         0.00000E+00        -0.49938E+08
 
   -0.49887E+08         0.66244E+05         0.00000E+00
    0.66244E+05        -0.49991E+08         0.00000E+00
    0.00000E+00         0.00000E+00        -0.49939E+08
 
   -0.49889E+08         0.68466E+05         0.00000E+00
    0.68466E+05        -0.49990E+08         0.00000E+00
    0.00000E+00         0.00000E+00        -0.49940E+08
 
   -0.49892E+08         0.70638E+05         0.00000E+00
    0.70638E+05        -0.49990E+08         0.00000E+00
    0.00000E+00         0.00000E+00        -0.49941E+08
 
   -0.49894E+08         0.72761E+05         0.00000E+00
    0.72761E+05        -0.49989E+08         0.00000E+00
    0.00000E+00         0.00000E+00        -0.49942E+08
 
   -0.49897E+08         0.74833E+05         0.00000E+00
    0.74833E+05        -0.49988E+08         0.00000E+00
    0.00000E+00         0.00000E+00        -0.49943E+08
 
   -0.49900E+08         0.76853E+05         0.00000E+00
    0.76853E+05        -0.49987E+08         0.00000E+00
    0.00000E+00         0.00000E+00        -0.49943E+08
 
   -0.49903E+08         0.78819E+05         0.00000E+00
    0.78819E+05        -0.49986E+08         0.00000E+00
    0.00000E+00         0.00000E+00        -0.49944E+08
 
   -0.49905E+08         0.80731E+05         0.00000E+00
    0.80731E+05        -0.49985E+08         0.00000E+00
    0.00000E+00         0.00000E+00        -0.49945E+08
 
   -0.49908E+08         0.82587E+05         0.00000E+00
    0.82587E+05        -0.49985E+08         0.00000E+00
    0.00000E+00         0.00000E+00        -0.49946E+08
 
   -0.49911E+08         0.84387E+05         0.00000E+00
    0.84387E+05        -0.49984E+08         0.00000E+00
    0.00000E+00         0.00000E+00        -0.49947E+08
 
   -0.49914E+08         0.86128E+05         0.00000E+00
    0.86128E+05        -0.49983E+08         0.00000E+00
    0.00000E+00         0.00000E+00        -0.49948E+08
 
   -0.49917E+08         0.87812E+05         0.00000E+00
    0.87812E+05        -0.49982E+08         0.00000E+00
    0.00000E+00         0.00000E+00        -0.49949E+08
 
   -0.49920E+08         0.89435E+05         0.00000E+00
    0.89435E+05        -0.49981E+08         0.00000E+00
    0.00000E+00         0.00000E+00        -0.49950E+08
 
   -0.49923E+08         0.90998E+05         0.00000E+00
    0.90998E+05        -0.49980E+08         0.00000E+00
    0.00000E+00         0.00000E+00        -0.49951E+08
 
   -0.49926E+08         0.92500E+05         0.00000E+00
    0.92500E+05        -0.49979E+08         0.00000E+00
    0.00000E+00         0.00000E+00        -0.49952E+08
 
   -0.49929E+08         0.93940E+05         0.00000E+00
    0.93940E+05        -0.49978E+08         0.00000E+00
    0.00000E+00         0.00000E+00        -0.49953E+08
 
   -0.49933E+08         0.95318E+05         0.00000E+00
    0.95318E+05        -0.49977E+08         0.00000E+00
    0.00000E+00         0.00000E+00        -0.49954E+08
 
   -0.49936E+08         0.96633E+05         0.00000E+00
    0.96633E+05        -0.49976E+08         0.00000E+00
    0.00000E+00         0.00000E+00        -0.49955E+08
 
   -0.49939E+08         0.97884E+05         0.00000E+00
    0.97884E+05        -0.49975E+08         0.00000E+00
    0.00000E+00         0.00000E+00        -0.49956E+08
 
   -0.49942E+08         0.99072E+05         0.00000E+00
    0.99072E+05        -0.49973E+08         0.00000E+00
    0.00000E+00         0.00000E+00        -0.49957E+08
 
   -0.49945E+08         0.10020E+06         0.00000E+00
    0.10020E+06        -0.49972E+08         0.00000E+00
    0.00000E+00         0.00000E+00        -0.49958E+08
 
   -0.49948E+08         0.10126E+06         0.00000E+00
    0.10126E+06        -0.49971E+08         0.00000E+00
    0.00000E+00         0.00000E+00        -0.49959E+08
 
   -0.49951E+08         0.10226E+06         0.00000E+00
    0.10226E+06        -0.49970E+08         0.00000E+00
    0.00000E+00         0.00000E+00        -0.49959E+08
 
   -0.49954E+08         0.10319E+06         0.00000E+00
    0.10319E+06        -0.49969E+08         0.00000E+00
    0.00000E+00         0.00000E+00        -0.49960E+08
 
   -0.49957E+08         0.10407E+06         0.00000E+00
    0.10407E+06        -0.49968E+08         0.00000E+00
    0.00000E+00         0.00000E+00        -0.49960E+08
 
   -0.49960E+08         0.10489E+06         0.00000E+00
    0.10489E+06        -0.49966E+08         0.00000E+00
    0.00000E+00         0.00000E+00        -0.49961E+08
 
   -0.49829E+08         0.16006E+04         0.00000E+00
    0.16006E+04        -0.50000E+08         0.00000E+00
    0.00000E+00         0.00000E+00        -0.49916E+08
 
   -0.49830E+08         0.47699E+04         0.00000E+00
    0.47699E+04        -0.50000E+08         0.00000E+00
    0.00000E+00         0.00000E+00        -0.49916E+08
 
   -0.49831E+08         0.79230E+04         0.00000E+00
    0.79230E+04        -0.50000E+08         0.00000E+00
    0.00000E+00         0.00000E+00        -0.49916E+08
 
   -0.49832E+08         0.11058E+05         0.00000E+00
    0.11058E+05        -0.50000E+08         0.00000E+00
    0.00000E+00         0.00000E+00        -0.49917E+08
 
   -0.49833E+08         0.14173E+05         0.00000E+00
    0.14173E+05        -0.50000E+08         0.00000E+00
    0.00000E+00         0.00000E+00        -0.49917E+08
 
   -0.49835E+08         0.17266E+05         0.00000E+00
    0.17266E+05        -0.50000E+08         0.00000E+00
    0.00000E+00         0.00000E+00        -0.49918E+08
 
   -0.49836E+08         0.20336E+05         0.00000E+00
    0.20336E+05        -0.49999E+08         0.00000E+00
    0.00000E+00         0.00000E+00        -0.49918E+08
 
   -0.49838E+08         0.23381E+05         0.00000E+00
    0.23381E+05        -0.49999E+08         0.00000E+00
    0.00000E+00         0.00000E+00        -0.49919E+08
 
   -0.49839E+08         0.26400E+05         0.00000E+00
    0.26400E+05        -0.49999E+08         0.00000E+00
    0.00000E+00         0.00000E+00        -0.49919E+08
 
   -0.49841E+08         0.29391E+05         0.00000E+00
    0.29391E+05        -0.49999E+08         0.00000E+00
    0.00000E+00         0.00000E+00        -0.49920E+08
 
   -0.49843E+08         0.32352E+05         0.00000E+00
    0.32352E+05        -0.49998E+08         0.00000E+00
    0.00000E+00         0.00000E+00        -0.49921E+08
 
   -0.49845E+08         0.35283E+05         0.00000E+00
    0.35283E+05        -0.49998E+08         0.00000E+00
    0.00000E+00         0.00000E+00        -0.49921E+08
 
   -0.49847E+08         0.38181E+05         0.00000E+00
    0.38181E+05        -0.49997E+08         0.00000E+00
    0.00000E+00         0.00000E+00        -0.49922E+08
 
   -0.49849E+08         0.41046E+05         0.00000E+00
    0.41046E+05        -0.49997E+08         0.00000E+00
    0.00000E+00         0.00000E+00        -0.49923E+08
 
   -0.49851E+08         0.43877E+05         0.00000E+00
    0.43877E+05        -0.49997E+08         0.00000E+00
    0.00000E+00         0.00000E+00        -0.49924E+08
 
   -0.49853E+08         0.46671E+05         0.00000E+00
    0.46671E+05        -0.49996E+08         0.00000E+00
    0.00000E+00         0.00000E+00        -0.49924E+08
 
   -0.49855E+08         0.49428E+05         0.00000E+00
    0.49428E+05        -0.49996E+08         0.00000E+00
    0.00000E+00         0.00000E+00        -0.49925E+08
 
   -0.49857E+08         0.52145E+05         0.00000E+00
    0.52145E+05        -0.49995E+08         0.00000E+00
    0.00000E+00         0.00000E+00        -0.49926E+08
 
   -0.49860E+08         0.54823E+05         0.00000E+00
    0.54823E+05        -0.49994E+08         0.00000E+00
    0.00000E+00         0.00000E+00        -0.49927E+08
 
   -0.49862E+08         0.57459E+05         0.00000E+00
    0.57459E+05        -0.49994E+08         0.00000E+00
    0.00000E+00         0.00000E+00        -0.49928E+08
 
   -0.49865E+08         0.60052E+05         0.00000E+00
    0.60052E+05        -0.49993E+08         0.00000E+00
    0.00000E+00         0.00000E+00        -0.49929E+08
 
   -0.49867E+08         0.62602E+05         0.00000E+00
    0.62602E+05        -0.49992E+08         0.00000E+00
    0.00000E+00         0.00000E+00        -0.49930E+08
 
   -0.49870E+08         0.65105E+05         0.00000E+00
    0.65105E+05        -0.49992E+08         0.00000E+00
    0.00000E+00         0.00000E+00        -0.49931E+08
 
   -0.49872E+08         0.67562E+05         0.00000E+00
    0.67562E+05        -0.49991E+08         0.00000E+00
    0.00000E+00         0.00000E+00        -0.49932E+08
 
   -0.49875E+08         0.69970E+05         0.00000E+00
    0.69970E+05        -0.49990E+08         0.00000E+00
    0.00000E+00         0.00000E+00        -0.49933E+08
 
   -0.49878E+08         0.72329E+05         0.00000E+00
    0.72329E+05        -0.49989E+08         0.00000E+00
    0.00000E+00         0.00000E+00        -0.49934E+08
 
   -0.49881E+08         0.74638E+05         0.00000E+00
    0.74638E+05        -0.49989E+08         0.00000E+00
    0.00000E+00         0.00000E+00        -0.49935E+08
 
   -0.49884E+08         0.76894E+05         0.00000E+00
    0.76894E+05        -0.49988E+08         0.00000E+00
    0.00000E+00         0.00000E+00        -0.49936E+08
 
   -0.49887E+08         0.79096E+05         0.00000E+00
    0.79096E+05        -0.49987E+08         0.00000E+00
    0.00000E+00         0.00000E+00        -0.49937E+08
 
   -0.49890E+08         0.81244E+05         0.00000E+00
    0.81244E+05        -0.49986E+08         0.00000E+00
    0.00000E+00         0.00000E+00        -0.49938E+08
 
   -0.49893E+08         0.83336E+05         0.00000E+00
    0.83336E+05        -0.49985E+08         0.00000E+00
    0.00000E+00         0.00000E+00        -0.49939E+08
 
   -0.49896E+08         0.85371E+05         0.00000E+00
    0.85371E+05        -0.49984E+08         0.00000E+00
    0.00000E+00         0.00000E+00        -0.49940E+08
 
   -0.49899E+08         0.87347E+05         0.00000E+00
    0.87347E+05        -0.49983E+08         0.00000E+00
    0.00000E+00         0.00000E+00        -0.49941E+08
 
   -0.49902E+08         0.89264E+05         0.00000E+00
    0.89264E+05        -0.49982E+08         0.00000E+00
    0.00000E+00         0.00000E+00        -0.49942E+08
 
   -0.49905E+08         0.91120E+05         0.00000E+00
    0.91120E+05        -0.49981E+08         0.00000E+00
    0.00000E+00         0.00000E+00        -0.49943E+08
 
   -0.49909E+08         0.92914E+05         0.00000E+00
    0.92914E+05        -0.49980E+08         0.00000E+00
    0.00000E+00         0.00000E+00        -0.49944E+08
 
   -0.49912E+08         0.94645E+05         0.00000E+00
    0.94645E+05        -0.49979E+08         0.00000E+00
    0.00000E+00         0.00000E+00        -0.49945E+08
 
   -0.49915E+08         0.96312E+05         0.00000E+00
    0.96312E+05        -0.49978E+08         0.00000E+00
    0.00000E+00         0.00000E+00        -0.49946E+08
 
   -0.49919E+08         0.97914E+05         0.00000E+00
    0.97914E+05        -0.49977E+08         0.00000E+00
    0.00000E+00         0.00000E+00        -0.49947E+08
 
   -0.49922E+08         0.99450E+05         0.00000E+00
    0.99450E+05        -0.49976E+08         0.00000E+00
    0.00000E+00         0.00000E+00        -0.49949E+08
 
   -0.49926E+08         0.10092E+06         0.00000E+00
    0.10092E+06        -0.49974E+08         0.00000E+00
    0.00000E+00         0.00000E+00        -0.49950E+08
 
   -0.49929E+08         0.10232E+06         0.00000E+00
    0.10232E+06        -0.49973E+08         0.00000E+00
    0.00000E+00         0.00000E+00        -0.49951E+08
 
   -0.49932E+08         0.10366E+06         0.00000E+00
    0.10366E+06        -0.49972E+08         0.00000E+00
    0.00000E+00         0.00000E+00        -0.49952E+08
 
   -0.49936E+08         0.10493E+06         0.00000E+00
    0.10493E+06        -0.49971E+08         0.00000E+00
    0.00000E+00         0.00000E+00        -0.49953E+08
 
   -0.49939E+08         0.10613E+06         0.00000E+00
    0.10613E+06        -0.49970E+08         0.00000E+00
    0.00000E+00         0.00000E+00        -0.49954E+08
 
   -0.49943E+08         0.10726E+06         0.00000E+00
    0.10726E+06        -0.49968E+08         0.00000E+00
    0.00000E+00         0.00000E+00        -0.49954E+08
 
   -0.49946E+08         0.10833E+06         0.00000E+00
    0.10833E+06        -0.49967E+08         0.00000E+00
    0.00000E+00         0.00000E+00        -0.49955E+08
 
   -0.49949E+08         0.10933E+06         0.00000E+00
    0.10933E+06        -0.49966E+08         0.00000E+00
    0.00000E+00         0.00000E+00        -0.49956E+08
 
   -0.49953E+08         0.11026E+06         0.00000E+00
    0.11026E+06        -0.49964E+08         0.00000E+00
    0.00000E+00         0.00000E+00        -0.49956E+08
 
   -0.49956E+08         0.11113E+06         0.00000E+00
    0.11113E+06        -0.49963E+08         0.00000E+00
    0.00000E+00         0.00000E+00        -0.49957E+08
 
   -0.49813E+08         0.16852E+04         0.00000E+00
    0.16852E+04        -0.50000E+08         0.00000E+00
    0.00000E+00         0.00000E+00        -0.49908E+08
 
   -0.49814E+08         0.50241E+04         0.00000E+00
    0.50241E+04        -0.50000E+08         0.00000E+00
    0.00000E+00         0.00000E+00        -0.49908E+08
 
   -0.49815E+08         0.83470E+04         0.00000E+00
    0.83470E+04        -0.50000E+08         0.00000E+00
    0.00000E+00         0.00000E+00        -0.49908E+08
 
   -0.49816E+08         0.11652E+05         0.00000E+00
    0.11652E+05        -0.50000E+08         0.00000E+00
    0.00000E+00         0.00000E+00        -0.49909E+08
 
   -0.49817E+08         0.14937E+05         0.00000E+00
    0.14937E+05        -0.50000E+08         0.00000E+00
    0.00000E+00         0.00000E+00        -0.49909E+08
 
   -0.49819E+08         0.18201E+05         0.00000E+00
    0.18201E+05        -0.49999E+08         0.00000E+00
    0.00000E+00         0.00000E+00        -0.49910E+08
 
   -0.49820E+08         0.21441E+05         0.00000E+00
    0.21441E+05        -0.49999E+08         0.00000E+00
    0.00000E+00         0.00000E+00        -0.49910E+08
 
   -0.49822E+08         0.24656E+05         0.00000E+00
    0.24656E+05        -0.49999E+08         0.00000E+00
    0.00000E+00         0.00000E+00        -0.49911E+08
 
   -0.49824E+08         0.27845E+05         0.00000E+00
    0.27845E+05        -0.49999E+08         0.00000E+00
    0.00000E+00         0.00000E+00        -0.49912E+08
 
   -0.49826E+08         0.31006E+05         0.00000E+00
    0.31006E+05        -0.49998E+08         0.00000E+00
    0.00000E+00         0.00000E+00        -0.49912E+08
 
   -0.49828E+08         0.34137E+05         0.00000E+00
    0.34137E+05        -0.49998E+08         0.00000E+00
    0.00000E+00         0.00000E+00        -0.49913E+08
 
   -0.49830E+08         0.37237E+05         0.00000E+00
    0.37237E+05        -0.49998E+08         0.00000E+00
    0.00000E+00         0.00000E+00        -0.49914E+08
 
   -0.49832E+08         0.40304E+05         0.00000E+00
    0.40304E+05        -0.49997E+08         0.00000E+00
    0.00000E+00         0.00000E+00        -0.49915E+08
 
   -0.49834E+08         0.43338E+05         0.00000E+00
    0.43338E+05        -0.49997E+08         0.00000E+00
    0.00000E+00         0.00000E+00        -0.49915E+08
 
   -0.49836E+08         0.46336E+05         0.00000E+00
    0.46336E+05        -0.49996E+08         0.00000E+00
    0.00000E+00         0.00000E+00        -0.49916E+08
 
   -0.49838E+08         0.49297E+05         0.00000E+00
    0.49297E+05        -0.49996E+08         0.00000E+00
    0.00000E+00         0.00000E+00        -0.49917E+08
 
   -0.49841E+08         0.52220E+05         0.00000E+00
    0.52220E+05        -0.49995E+08         0.00000E+00
    0.00000E+00         0.00000E+00        -0.49918E+08
 
   -0.49843E+08         0.55103E+05         0.00000E+00
    0.55103E+05        -0.49995E+08         0.00000E+00
    0.00000E+00         0.00000E+00        -0.49919E+08
 
   -0.49846E+08         0.57945E+05         0.00000E+00
    0.57945E+05        -0.49994E+08         0.00000E+00
    0.00000E+00         0.00000E+00        -0.49920E+08
 
   -0.49849E+08         0.60744E+05         0.00000E+00
    0.60744E+05        -0.49993E+08         0.00000E+00
    0.00000E+00         0.00000E+00        -0.49921E+08
 
   -0.49851E+08         0.63498E+05         0.00000E+00
    0.63498E+05        -0.49993E+08         0.00000E+00
    0.00000E+00         0.00000E+00        -0.49922E+08
 
   -0.49854E+08         0.66207E+05         0.00000E+00
    0.66207E+05        -0.49992E+08         0.00000E+00
    0.00000E+00         0.00000E+00        -0.49923E+08
 
   -0.49857E+08         0.68869E+05         0.00000E+00
    0.68869E+05        -0.49991E+08         0.00000E+00
    0.00000E+00         0.00000E+00        -0.49924E+08
 
   -0.49860E+08         0.71482E+05         0.00000E+00
    0.71482E+05        -0.49990E+08         0.00000E+00
    0.00000E+00         0.00000E+00        -0.49925E+08
 
   -0.49863E+08         0.74046E+05         0.00000E+00
    0.74046E+05        -0.49989E+08         0.00000E+00
    0.00000E+00         0.00000E+00        -0.49926E+08
 
   -0.49866E+08         0.76557E+05         0.00000E+00
    0.76557E+05        -0.49989E+08         0.00000E+00
    0.00000E+00         0.00000E+00        -0.49927E+08
 
   -0.49869E+08         0.79016E+05         0.00000E+00
    0.79016E+05        -0.49988E+08         0.00000E+00
    0.00000E+00         0.00000E+00        -0.49928E+08
 
   -0.49872E+08         0.81420E+05         0.00000E+00
    0.81420E+05        -0.49987E+08         0.00000E+00
    0.00000E+00         0.00000E+00        -0.49929E+08
 
   -0.49875E+08         0.83769E+05         0.00000E+00
    0.83769E+05        -0.49986E+08         0.00000E+00
    0.00000E+00         0.00000E+00        -0.49931E+08
 
   -0.49879E+08         0.86060E+05         0.00000E+00
    0.86060E+05        -0.49985E+08         0.00000E+00
    0.00000E+00         0.00000E+00        -0.49932E+08
 
   -0.49882E+08         0.88292E+05         0.00000E+00
    0.88292E+05        -0.49984E+08         0.00000E+00
    0.00000E+00         0.00000E+00        -0.49933E+08
 
   -0.49885E+08         0.90464E+05         0.00000E+00
    0.90464E+05        -0.49983E+08         0.00000E+00
    0.00000E+00         0.00000E+00        -0.49934E+08
 
   -0.49889E+08         0.92575E+05         0.00000E+00
    0.92575E+05        -0.49982E+08         0.00000E+00
    0.00000E+00         0.00000E+00        -0.49935E+08
 
   -0.49892E+08         0.94623E+05         0.00000E+00
    0.94623E+05        -0.49981E+08         0.00000E+00
    0.00000E+00         0.00000E+00        -0.49936E+08
 
   -0.49896E+08         0.96607E+05         0.00000E+00
    0.96607E+05        -0.49979E+08         0.00000E+00
    0.00000E+00         0.00000E+00        -0.49938E+08
 
   -0.49900E+08         0.98525E+05         0.00000E+00
    0.98525E+05        -0.49978E+08         0.00000E+00
    0.00000E+00         0.00000E+00        -0.49939E+08
 
   -0.49903E+08         0.10038E+06         0.00000E+00
    0.10038E+06        -0.49977E+08         0.00000E+00
    0.00000E+00         0.00000E+00        -0.49940E+08
 
   -0.49907E+08         0.10216E+06         0.00000E+00
    0.10216E+06        -0.49976E+08         0.00000E+00
    0.00000E+00         0.00000E+00        -0.49941E+08
 
   -0.49911E+08         0.10388E+06         0.00000E+00
    0.10388E+06        -0.49975E+08         0.00000E+00
    0.00000E+00         0.00000E+00        -0.49942E+08
 
   -0.49914E+08         0.10552E+06         0.00000E+00
    0.10552E+06        -0.49973E+08         0.00000E+00
    0.00000E+00         0.00000E+00        -0.49943E+08
 
   -0.49918E+08         0.10710E+06         0.00000E+00
    0.10710E+06        -0.49972E+08         0.00000E+00
    0.00000E+00         0.00000E+00        -0.49945E+08
 
   -0.49922E+08         0.10860E+06         0.00000E+00
    0.10860E+06        -0.49971E+08         0.00000E+00
    0.00000E+00         0.00000E+00        -0.49946E+08
 
   -0.49926E+08         0.11003E+06         0.00000E+00
    0.11003E+06        -0.49969E+08         0.00000E+00
    0.00000E+00         0.00000E+00        -0.49947E+08
 
   -0.49930E+08         0.11139E+06         0.00000E+00
    0.11139E+06        -0.49968E+08         0.00000E+00
    0.00000E+00         0.00000E+00        -0.49948E+08
 
   -0.49933E+08         0.11268E+06         0.00000E+00
    0.11268E+06        -0.49967E+08         0.00000E+00
    0.00000E+00         0.00000E+00        -0.49949E+08
 
   -0.49937E+08         0.11389E+06         0.00000E+00
    0.11389E+06        -0.49965E+08         0.00000E+00
    0.00000E+00         0.00000E+00        -0.49950E+08
 
   -0.49941E+08         0.11504E+06         0.00000E+00
    0.11504E+06        -0.49964E+08         0.00000E+00
    0.00000E+00         0.00000E+00        -0.49951E+08
 
   -0.49944E+08         0.11611E+06         0.00000E+00
    0.11611E+06        -0.49963E+08         0.00000E+00
    0.00000E+00         0.00000E+00        -0.49952E+08
 
   -0.49948E+08         0.11711E+06         0.00000E+00
    0.11711E+06        -0.49961E+08         0.00000E+00
    0.00000E+00         0.00000E+00        -0.49952E+08
 
   -0.49951E+08         0.11804E+06         0.00000E+00
    0.11804E+06        -0.49960E+08         0.00000E+00
    0.00000E+00         0.00000E+00        -0.49953E+08
 
   -0.49796E+08         0.17754E+04         0.00000E+00
    0.17754E+04        -0.50000E+08         0.00000E+00
    0.00000E+00         0.00000E+00        -0.49899E+08
 
   -0.49797E+08         0.52963E+04         0.00000E+00
    0.52963E+04        -0.50000E+08         0.00000E+00
    0.00000E+00         0.00000E+00        -0.49899E+08
 
   -0.49798E+08         0.88018E+04         0.00000E+00
    0.88018E+04        -0.50000E+08         0.00000E+00
    0.00000E+00         0.00000E+00        -0.49900E+08
 
   -0.49799E+08         0.12290E+05         0.00000E+00
    0.12290E+05        -0.50000E+08         0.00000E+00
    0.00000E+00         0.00000E+00        -0.49900E+08
 
   -0.49801E+08         0.15759E+05         0.00000E+00
    0.15759E+05        -0.50000E+08         0.00000E+00
    0.00000E+00         0.00000E+00        -0.49901E+08
 
   -0.49802E+08         0.19206E+05         0.00000E+00
    0.19206E+05        -0.49999E+08         0.00000E+00
    0.00000E+00         0.00000E+00        -0.49901E+08
 
   -0.49804E+08         0.22631E+05         0.00000E+00
    0.22631E+05        -0.49999E+08         0.00000E+00
    0.00000E+00         0.00000E+00        -0.49902E+08
 
   -0.49806E+08         0.26031E+05         0.00000E+00
    0.26031E+05        -0.49999E+08         0.00000E+00
    0.00000E+00         0.00000E+00        -0.49903E+08
 
   -0.49808E+08         0.29405E+05         0.00000E+00
    0.29405E+05        -0.49999E+08         0.00000E+00
    0.00000E+00         0.00000E+00        -0.49903E+08
 
   -0.49810E+08         0.32751E+05         0.00000E+00
    0.32751E+05        -0.49998E+08         0.00000E+00
    0.00000E+00         0.00000E+00        -0.49904E+08
 
   -0.49812E+08         0.36067E+05         0.00000E+00
    0.36067E+05        -0.49998E+08         0.00000E+00
    0.00000E+00         0.00000E+00        -0.49905E+08
 
   -0.49814E+08         0.39352E+05         0.00000E+00
    0.39352E+05        -0.49997E+08         0.00000E+00
    0.00000E+00         0.00000E+00        -0.49906E+08
 
   -0.49816E+08         0.42604E+05         0.00000E+00
    0.42604E+05        -0.49997E+08         0.00000E+00
    0.00000E+00         0.00000E+00        -0.49907E+08
 
   -0.49818E+08         0.45822E+05         0.00000E+00
    0.45822E+05        -0.49997E+08         0.00000E+00
    0.00000E+00         0.00000E+00        -0.49908E+08
 
   -0.49821E+08         0.49004E+05         0.00000E+00
    0.49004E+05        -0.49996E+08         0.00000E+00
    0.00000E+00         0.00000E+00        -0.49908E+08
 
   -0.49823E+08         0.52148E+05         0.00000E+00
    0.52148E+05        -0.49995E+08         0.00000E+00
    0.00000E+00         0.00000E+00        -0.49909E+08
 
   -0.49826E+08         0.55254E+05         0.00000E+00
    0.55254E+05        -0.49995E+08         0.00000E+00
    0.00000E+00         0.00000E+00        -0.49910E+08
 
   -0.49829E+08         0.58318E+05         0.00000E+00
    0.58318E+05        -0.49994E+08         0.00000E+00
    0.00000E+00         0.00000E+00        -0.49911E+08
 
   -0.49831E+08         0.61340E+05         0.00000E+00
    0.61340E+05        -0.49993E+08         0.00000E+00
    0.00000E+00         0.00000E+00        -0.49912E+08
 
   -0.49834E+08         0.64318E+05         0.00000E+00
    0.64318E+05        -0.49993E+08         0.00000E+00
    0.00000E+00         0.00000E+00        -0.49913E+08
 
   -0.49837E+08         0.67251E+05         0.00000E+00
    0.67251E+05        -0.49992E+08         0.00000E+00
    0.00000E+00         0.00000E+00        -0.49915E+08
 
   -0.49840E+08         0.70136E+05         0.00000E+00
    0.70136E+05        -0.49991E+08         0.00000E+00
    0.00000E+00         0.00000E+00        -0.49916E+08
 
   -0.49843E+08         0.72973E+05         0.00000E+00
    0.72973E+05        -0.49990E+08         0.00000E+00
    0.00000E+00         0.00000E+00        -0.49917E+08
 
   -0.49846E+08         0.75759E+05         0.00000E+00
    0.75759E+05        -0.49989E+08         0.00000E+00
    0.00000E+00         0.00000E+00        -0.49918E+08
 
   -0.49850E+08         0.78493E+05         0.00000E+00
    0.78493E+05        -0.49989E+08         0.00000E+00
    0.00000E+00         0.00000E+00        -0.49919E+08
 
   -0.49853E+08         0.81173E+05         0.00000E+00
    0.81173E+05        -0.49988E+08         0.00000E+00
    0.00000E+00         0.00000E+00        -0.49920E+08
 
   -0.49856E+08         0.83798E+05         0.00000E+00
    0.83798E+05        -0.49987E+08         0.00000E+00
    0.00000E+00         0.00000E+00        -0.49921E+08
 
   -0.49860E+08         0.86367E+05         0.00000E+00
    0.86367E+05        -0.49986E+08         0.00000E+00
    0.00000E+00         0.00000E+00        -0.49923E+08
 
   -0.49863E+08         0.88877E+05         0.00000E+00
    0.88877E+05        -0.49985E+08         0.00000E+00
    0.00000E+00         0.00000E+00        -0.49924E+08
 
   -0.49867E+08         0.91327E+05         0.00000E+00
    0.91327E+05        -0.49983E+08         0.00000E+00
    0.00000E+00         0.00000E+00        -0.49925E+08
 
   -0.49871E+08         0.93715E+05         0.00000E+00
    0.93715E+05        -0.49982E+08         0.00000E+00
    0.00000E+00         0.00000E+00        -0.49926E+08
 
   -0.49874E+08         0.96040E+05         0.00000E+00
    0.96040E+05        -0.49981E+08         0.00000E+00
    0.00000E+00         0.00000E+00        -0.49928E+08
 
   -0.49878E+08         0.98301E+05         0.00000E+00
    0.98301E+05        -0.49980E+08         0.00000E+00
    0.00000E+00         0.00000E+00        -0.49929E+08
 
   -0.49882E+08         0.10050E+06         0.00000E+00
    0.10050E+06        -0.49979E+08         0.00000E+00
    0.00000E+00         0.00000E+00        -0.49930E+08
 
   -0.49886E+08         0.10262E+06         0.00000E+00
    0.10262E+06        -0.49978E+08         0.00000E+00
    0.00000E+00         0.00000E+00        -0.49932E+08
 
   -0.49890E+08         0.10468E+06         0.00000E+00
    0.10468E+06        -0.49976E+08         0.00000E+00
    0.00000E+00         0.00000E+00        -0.49933E+08
 
   -0.49894E+08         0.10667E+06         0.00000E+00
    0.10667E+06        -0.49975E+08         0.00000E+00
    0.00000E+00         0.00000E+00        -0.49934E+08
 
   -0.49898E+08         0.10858E+06         0.00000E+00
    0.10858E+06        -0.49974E+08         0.00000E+00
    0.00000E+00         0.00000E+00        -0.49935E+08
 
   -0.49902E+08         0.11043E+06         0.00000E+00
    0.11043E+06        -0.49972E+08         0.00000E+00
    0.00000E+00         0.00000E+00        -0.49937E+08
 
   -0.49906E+08         0.11219E+06         0.00000E+00
    0.11219E+06        -0.49971E+08         0.00000E+00
    0.00000E+00         0.00000E+00        -0.49938E+08
 
   -0.49910E+08         0.11389E+06         0.00000E+00
    0.11389E+06        -0.49970E+08         0.00000E+00
    0.00000E+00         0.00000E+00        -0.49939E+08
 
   -0.49914E+08         0.11551E+06         0.00000E+00
    0.11551E+06        -0.49968E+08         0.00000E+00
    0.00000E+00         0.00000E+00        -0.49941E+08
 
   -0.49919E+08         0.11705E+06         0.00000E+00
    0.11705E+06        -0.49967E+08         0.00000E+00
    0.00000E+00         0.00000E+00        -0.49942E+08
 
   -0.49923E+08         0.11851E+06         0.00000E+00
    0.11851E+06        -0.49965E+08         0.00000E+00
    0.00000E+00         0.00000E+00        -0.49943E+08
 
   -0.49927E+08         0.11990E+06         0.00000E+00
    0.11990E+06        -0.49964E+08         0.00000E+00
    0.00000E+00         0.00000E+00        -0.49944E+08
 
   -0.49931E+08         0.12121E+06         0.00000E+00
    0.12121E+06        -0.49962E+08         0.00000E+00
    0.00000E+00         0.00000E+00        -0.49945E+08
 
   -0.49935E+08         0.12244E+06         0.00000E+00
    0.12244E+06        -0.49961E+08         0.00000E+00
    0.00000E+00         0.00000E+00        -0.49946E+08
 
   -0.49939E+08         0.12360E+06         0.00000E+00
    0.12360E+06        -0.49959E+08         0.00000E+00
    0.00000E+00         0.00000E+00        -0.49947E+08
 
   -0.49943E+08         0.12468E+06         0.00000E+00
    0.12468E+06        -0.49957E+08         0.00000E+00
    0.00000E+00         0.00000E+00        -0.49948E+08
 
   -0.49947E+08         0.12568E+06         0.00000E+00
    0.12568E+06        -0.49956E+08         0.00000E+00
    0.00000E+00         0.00000E+00        -0.49948E+08
 
   -0.49778E+08         0.18717E+04         0.00000E+00
    0.18717E+04        -0.50000E+08         0.00000E+00
    0.00000E+00         0.00000E+00        -0.49890E+08
 
   -0.49779E+08         0.55878E+04         0.00000E+00
    0.55878E+04        -0.50000E+08         0.00000E+00
    0.00000E+00         0.00000E+00        -0.49890E+08
 
   -0.49780E+08         0.92896E+04         0.00000E+00
    0.92896E+04        -0.50000E+08         0.00000E+00
    0.00000E+00         0.00000E+00        -0.49891E+08
 
   -0.49781E+08         0.12975E+05         0.00000E+00
    0.12975E+05        -0.50000E+08         0.00000E+00
    0.00000E+00         0.00000E+00        -0.49891E+08
 
   -0.49783E+08         0.16642E+05         0.00000E+00
    0.16642E+05        -0.50000E+08         0.00000E+00
    0.00000E+00         0.00000E+00        -0.49892E+08
 
   -0.49784E+08         0.20289E+05         0.00000E+00
    0.20289E+05        -0.49999E+08         0.00000E+00
    0.00000E+00         0.00000E+00        -0.49892E+08
 
   -0.49786E+08         0.23914E+05         0.00000E+00
    0.23914E+05        -0.49999E+08         0.00000E+00
    0.00000E+00         0.00000E+00        -0.49893E+08
 
   -0.49788E+08         0.27515E+05         0.00000E+00
    0.27515E+05        -0.49999E+08         0.00000E+00
    0.00000E+00         0.00000E+00        -0.49894E+08
 
   -0.49790E+08         0.31090E+05         0.00000E+00
    0.31090E+05        -0.49999E+08         0.00000E+00
    0.00000E+00         0.00000E+00        -0.49895E+08
 
   -0.49792E+08         0.34637E+05         0.00000E+00
    0.34637E+05        -0.49998E+08         0.00000E+00
    0.00000E+00         0.00000E+00        -0.49895E+08
 
   -0.49795E+08         0.38155E+05         0.00000E+00
    0.38155E+05        -0.49998E+08         0.00000E+00
    0.00000E+00         0.00000E+00        -0.49896E+08
 
   -0.49797E+08         0.41643E+05         0.00000E+00
    0.41643E+05        -0.49997E+08         0.00000E+00
    0.00000E+00         0.00000E+00        -0.49897E+08
 
   -0.49799E+08         0.45097E+05         0.00000E+00
    0.45097E+05        -0.49997E+08         0.00000E+00
    0.00000E+00         0.00000E+00        -0.49898E+08
 
   -0.49802E+08         0.48516E+05         0.00000E+00
    0.48516E+05        -0.49996E+08         0.00000E+00
    0.00000E+00         0.00000E+00        -0.49899E+08
 
   -0.49804E+08         0.51900E+05         0.00000E+00
    0.51900E+05        -0.49996E+08         0.00000E+00
    0.00000E+00         0.00000E+00        -0.49900E+08
 
   -0.49807E+08         0.55245E+05         0.00000E+00
    0.55245E+05        -0.49995E+08         0.00000E+00
    0.00000E+00         0.00000E+00        -0.49901E+08
 
   -0.49810E+08         0.58550E+05         0.00000E+00
    0.58550E+05        -0.49994E+08         0.00000E+00
    0.00000E+00         0.00000E+00        -0.49902E+08
 
   -0.49813E+08         0.61813E+05         0.00000E+00
    0.61813E+05        -0.49994E+08         0.00000E+00
    0.00000E+00         0.00000E+00        -0.49903E+08
 
   -0.49816E+08         0.65034E+05         0.00000E+00
    0.65034E+05        -0.49993E+08         0.00000E+00
    0.00000E+00         0.00000E+00        -0.49904E+08
 
   -0.49819E+08         0.68208E+05         0.00000E+00
    0.68208E+05        -0.49992E+08         0.00000E+00
    0.00000E+00         0.00000E+00        -0.49906E+08
 
   -0.49822E+08         0.71336E+05         0.00000E+00
    0.71336E+05        -0.49991E+08         0.00000E+00
    0.00000E+00         0.00000E+00        -0.49907E+08
 
   -0.49825E+08         0.74415E+05         0.00000E+00
    0.74415E+05        -0.49990E+08         0.00000E+00
    0.00000E+00         0.00000E+00        -0.49908E+08
 
   -0.49829E+08         0.77444E+05         0.00000E+00
    0.77444E+05        -0.49990E+08         0.00000E+00
    0.00000E+00         0.00000E+00        -0.49909E+08
 
   -0.49832E+08         0.80420E+05         0.00000E+00
    0.80420E+05        -0.49989E+08         0.00000E+00
    0.00000E+00         0.00000E+00        -0.49910E+08
 
   -0.49836E+08         0.83342E+05         0.00000E+00
    0.83342E+05        -0.49988E+08         0.00000E+00
    0.00000E+00         0.00000E+00        -0.49912E+08
 
   -0.49839E+08         0.86208E+05         0.00000E+00
    0.86208E+05        -0.49987E+08         0.00000E+00
    0.00000E+00         0.00000E+00        -0.49913E+08
 
   -0.49843E+08         0.89017E+05         0.00000E+00
    0.89017E+05        -0.49985E+08         0.00000E+00
    0.00000E+00         0.00000E+00        -0.49914E+08
 
   -0.49847E+08         0.91766E+05         0.00000E+00
    0.91766E+05        -0.49984E+08         0.00000E+00
    0.00000E+00         0.00000E+00        -0.49915E+08
 
   -0.49850E+08         0.94454E+05         0.00000E+00
    0.94454E+05        -0.49983E+08         0.00000E+00
    0.00000E+00         0.00000E+00        -0.49917E+08
 
   -0.49854E+08         0.97079E+05         0.00000E+00
    0.97079E+05        -0.49982E+08         0.00000E+00
    0.00000E+00         0.00000E+00        -0.49918E+08
 
   -0.49858E+08         0.99640E+05         0.00000E+00
    0.99640E+05        -0.49981E+08         0.00000E+00
    0.00000E+00         0.00000E+00        -0.49920E+08
 
   -0.49862E+08         0.10213E+06         0.00000E+00
    0.10213E+06        -0.49980E+08         0.00000E+00
    0.00000E+00         0.00000E+00        -0.49921E+08
 
   -0.49867E+08         0.10456E+06         0.00000E+00
    0.10456E+06        -0.49978E+08         0.00000E+00
    0.00000E+00         0.00000E+00        -0.49922E+08
 
   -0.49871E+08         0.10692E+06         0.00000E+00
    0.10692E+06        -0.49977E+08         0.00000E+00
    0.00000E+00         0.00000E+00        -0.49924E+08
 
   -0.49875E+08         0.10920E+06         0.00000E+00
    0.10920E+06        -0.49976E+08         0.00000E+00
    0.00000E+00         0.00000E+00        -0.49925E+08
 
   -0.49879E+08         0.11142E+06         0.00000E+00
    0.11142E+06        -0.49974E+08         0.00000E+00
    0.00000E+00         0.00000E+00        -0.49927E+08
 
   -0.49884E+08         0.11355E+06         0.00000E+00
    0.11355E+06        -0.49973E+08         0.00000E+00
    0.00000E+00         0.00000E+00        -0.49928E+08
 
   -0.49888E+08         0.11562E+06         0.00000E+00
    0.11562E+06        -0.49971E+08         0.00000E+00
    0.00000E+00         0.00000E+00        -0.49929E+08
 
   -0.49893E+08         0.11760E+06         0.00000E+00
    0.11760E+06        -0.49970E+08         0.00000E+00
    0.00000E+00         0.00000E+00        -0.49931E+08
 
   -0.49897E+08         0.11951E+06         0.00000E+00
    0.11951E+06        -0.49968E+08         0.00000E+00
    0.00000E+00         0.00000E+00        -0.49932E+08
 
   -0.49902E+08         0.12134E+06         0.00000E+00
    0.12134E+06        -0.49967E+08         0.00000E+00
    0.00000E+00         0.00000E+00        -0.49934E+08
 
   -0.49906E+08         0.12308E+06         0.00000E+00
    0.12308E+06        -0.49965E+08         0.00000E+00
    0.00000E+00         0.00000E+00        -0.49935E+08
 
   -0.49911E+08         0.12475E+06         0.00000E+00
    0.12475E+06        -0.49964E+08         0.00000E+00
    0.00000E+00         0.00000E+00        -0.49936E+08
 
   -0.49915E+08         0.12633E+06         0.00000E+00
    0.12633E+06        -0.49962E+08         0.00000E+00
    0.00000E+00         0.00000E+00        -0.49938E+08
 
   -0.49920E+08         0.12783E+06         0.00000E+00
    0.12783E+06        -0.49960E+08         0.00000E+00
    0.00000E+00         0.00000E+00        -0.49939E+08
 
   -0.49924E+08         0.12925E+06         0.00000E+00
    0.12925E+06        -0.49959E+08         0.00000E+00
    0.00000E+00         0.00000E+00        -0.49940E+08
 
   -0.49929E+08         0.13059E+06         0.00000E+00
    0.13059E+06        -0.49957E+08         0.00000E+00
    0.00000E+00         0.00000E+00        -0.49941E+08
 
   -0.49933E+08         0.13184E+06         0.00000E+00
    0.13184E+06        -0.49955E+08         0.00000E+00
    0.00000E+00         0.00000E+00        -0.49942E+08
 
   -0.49937E+08         0.13301E+06         0.00000E+00
    0.13301E+06        -0.49953E+08         0.00000E+00
    0.00000E+00         0.00000E+00        -0.49943E+08
 
   -0.49942E+08         0.13410E+06         0.00000E+00
    0.13410E+06        -0.49952E+08         0.00000E+00
    0.00000E+00         0.00000E+00        -0.49943E+08
 
   -0.49758E+08         0.19747E+04         0.00000E+00
    0.19747E+04        -0.50000E+08         0.00000E+00
    0.00000E+00         0.00000E+00        -0.49881E+08
 
   -0.49760E+08         0.59011E+04         0.00000E+00
    0.59011E+04        -0.50000E+08         0.00000E+00
    0.00000E+00         0.00000E+00        -0.49881E+08
 
   -0.49761E+08         0.98148E+04         0.00000E+00
    0.98148E+04        -0.50000E+08         0.00000E+00
    0.00000E+00         0.00000E+00        -0.49881E+08
 
   -0.49762E+08         0.13714E+05         0.00000E+00
    0.13714E+05        -0.50000E+08         0.00000E+00
    0.00000E+00         0.00000E+00        -0.49882E+08
 
   -0.49764E+08         0.17596E+05         0.00000E+00
    0.17596E+05        -0.50000E+08         0.00000E+00
    0.00000E+00         0.00000E+00        -0.49882E+08
 
   -0.49766E+08         0.21459E+05         0.00000E+00
    0.21459E+05        -0.49999E+08         0.00000E+00
    0.00000E+00         0.00000E+00        -0.49883E+08
 
   -0.49768E+08         0.25302E+05         0.00000E+00
    0.25302E+05        -0.49999E+08         0.00000E+00
    0.00000E+00         0.00000E+00        -0.49884E+08
 
   -0.49770E+08         0.29121E+05         0.00000E+00
    0.29121E+05        -0.49999E+08         0.00000E+00
    0.00000E+00         0.00000E+00        -0.49885E+08
 
   -0.49772E+08         0.32916E+05         0.00000E+00
    0.32916E+05        -0.49998E+08         0.00000E+00
    0.00000E+00         0.00000E+00        -0.49885E+08
 
   -0.49774E+08         0.36684E+05         0.00000E+00
    0.36684E+05        -0.49998E+08         0.00000E+00
    0.00000E+00         0.00000E+00        -0.49886E+08
 
   -0.49777E+08         0.40423E+05         0.00000E+00
    0.40423E+05        -0.49998E+08         0.00000E+00
    0.00000E+00         0.00000E+00        -0.49887E+08
 
   -0.49779E+08         0.44131E+05         0.00000E+00
    0.44131E+05        -0.49997E+08         0.00000E+00
    0.00000E+00         0.00000E+00        -0.49888E+08
 
   -0.49782E+08         0.47806E+05         0.00000E+00
    0.47806E+05        -0.49997E+08         0.00000E+00
    0.00000E+00         0.00000E+00        -0.49889E+08
 
   -0.49784E+08         0.51447E+05         0.00000E+00
    0.51447E+05        -0.49996E+08         0.00000E+00
    0.00000E+00         0.00000E+00        -0.49890E+08
 
   -0.49787E+08         0.55051E+05         0.00000E+00
    0.55051E+05        -0.49995E+08         0.00000E+00
    0.00000E+00         0.00000E+00        -0.49891E+08
 
   -0.49790E+08         0.58615E+05         0.00000E+00
    0.58615E+05        -0.49995E+08         0.00000E+00
    0.00000E+00         0.00000E+00        -0.49892E+08
 
   -0.49793E+08         0.62140E+05         0.00000E+00
    0.62140E+05        -0.49994E+08         0.00000E+00
    0.00000E+00         0.00000E+00        -0.49894E+08
 
   -0.49796E+08         0.65621E+05         0.00000E+00
    0.65621E+05        -0.49993E+08         0.00000E+00
    0.00000E+00         0.00000E+00        -0.49895E+08
 
   -0.49799E+08         0.69058E+05         0.00000E+00
    0.69058E+05        -0.49992E+08         0.00000E+00
    0.00000E+00         0.00000E+00        -0.49896E+08
 
   -0.49803E+08         0.72448E+05         0.00000E+00
    0.72448E+05        -0.49991E+08         0.00000E+00
    0.00000E+00         0.00000E+00        -0.49897E+08
 
   -0.49806E+08         0.75790E+05         0.00000E+00
    0.75790E+05        -0.49991E+08         0.00000E+00
    0.00000E+00         0.00000E+00        -0.49898E+08
 
   -0.49810E+08         0.79081E+05         0.00000E+00
    0.79081E+05        -0.49990E+08         0.00000E+00
    0.00000E+00         0.00000E+00        -0.49900E+08
 
   -0.49813E+08         0.82320E+05         0.00000E+00
    0.82320E+05        -0.49989E+08         0.00000E+00
    0.00000E+00         0.00000E+00        -0.49901E+08
 
   -0.49817E+08         0.85504E+05         0.00000E+00
    0.85504E+05        -0.49988E+08         0.00000E+00
    0.00000E+00         0.00000E+00        -0.49902E+08
 
   -0.49821E+08         0.88632E+05         0.00000E+00
    0.88632E+05        -0.49986E+08         0.00000E+00
    0.00000E+00         0.00000E+00        -0.49904E+08
 
   -0.49825E+08         0.91702E+05         0.00000E+00
    0.91702E+05        -0.49985E+08         0.00000E+00
    0.00000E+00         0.00000E+00        -0.49905E+08
 
   -0.49829E+08         0.94711E+05         0.00000E+00
    0.94711E+05        -0.49984E+08         0.00000E+00
    0.00000E+00         0.00000E+00        -0.49906E+08
 
   -0.49833E+08         0.97658E+05         0.00000E+00
    0.97658E+05        -0.49983E+08         0.00000E+00
    0.00000E+00         0.00000E+00        -0.49908E+08
 
   -0.49837E+08         0.10054E+06         0.00000E+00
    0.10054E+06        -0.49982E+08         0.00000E+00
    0.00000E+00         0.00000E+00        -0.49909E+08
 
   -0.49841E+08         0.10336E+06         0.00000E+00
    0.10336E+06        -0.49980E+08         0.00000E+00
    0.00000E+00         0.00000E+00        -0.49911E+08
 
   -0.49845E+08         0.10611E+06         0.00000E+00
    0.10611E+06        -0.49979E+08         0.00000E+00
    0.00000E+00         0.00000E+00        -0.49912E+08
 
   -0.49850E+08         0.10879E+06         0.00000E+00
    0.10879E+06        -0.49978E+08         0.00000E+00
    0.00000E+00         0.00000E+00        -0.49914E+08
 
   -0.49854E+08         0.11140E+06         0.00000E+00
    0.11140E+06        -0.49976E+08         0.00000E+00
    0.00000E+00         0.00000E+00        -0.49915E+08
 
   -0.49859E+08         0.11393E+06         0.00000E+00
    0.11393E+06        -0.49975E+08         0.00000E+00
    0.00000E+00         0.00000E+00        -0.49917E+08
 
   -0.49863E+08         0.11639E+06         0.00000E+00
    0.11639E+06        -0.49973E+08         0.00000E+00
    0.00000E+00         0.00000E+00        -0.49918E+08
 
   -0.49868E+08         0.11878E+06         0.00000E+00
    0.11878E+06        -0.49972E+08         0.00000E+00
    0.00000E+00         0.00000E+00        -0.49920E+08
 
   -0.49873E+08         0.12108E+06         0.00000E+00
    0.12108E+06        -0.49970E+08         0.00000E+00
    0.00000E+00         0.00000E+00        -0.49921E+08
 
   -0.49878E+08         0.12331E+06         0.00000E+00
    0.12331E+06        -0.49969E+08         0.00000E+00
    0.00000E+00         0.00000E+00        -0.49923E+08
 
   -0.49882E+08         0.12545E+06         0.00000E+00
    0.12545E+06        -0.49967E+08         0.00000E+00
    0.00000E+00         0.00000E+00        -0.49924E+08
 
   -0.49887E+08         0.12752E+06         0.00000E+00
    0.12752E+06        -0.49965E+08         0.00000E+00
    0.00000E+00         0.00000E+00        -0.49926E+08
 
   -0.49892E+08         0.12949E+06         0.00000E+00
    0.12949E+06        -0.49964E+08         0.00000E+00
    0.00000E+00         0.00000E+00        -0.49927E+08
 
   -0.49897E+08         0.13138E+06         0.00000E+00
    0.13138E+06        -0.49962E+08         0.00000E+00
    0.00000E+00         0.00000E+00        -0.49929E+08
 
   -0.49902E+08         0.13319E+06         0.00000E+00
    0.13319E+06        -0.49960E+08         0.00000E+00
    0.00000E+00         0.00000E+00        -0.49930E+08
 
   -0.49907E+08         0.13491E+06         0.00000E+00
    0.13491E+06        -0.49958E+08         0.00000E+00
    0.00000E+00         0.00000E+00        -0.49932E+08
 
   -0.49912E+08         0.13654E+06         0.00000E+00
    0.13654E+06        -0.49957E+08         0.00000E+00
    0.00000E+00         0.00000E+00        -0.49933E+08
 
   -0.49917E+08         0.13808E+06         0.00000E+00
    0.13808E+06        -0.49955E+08         0.00000E+00
    0.00000E+00         0.00000E+00        -0.49934E+08
 
   -0.49922E+08         0.13953E+06         0.00000E+00
    0.13953E+06        -0.49953E+08         0.00000E+00
    0.00000E+00         0.00000E+00        -0.49935E+08
 
   -0.49927E+08         0.14090E+06         0.00000E+00
    0.14090E+06        -0.49951E+08         0.00000E+00
    0.00000E+00         0.00000E+00        -0.49936E+08
 
   -0.49931E+08         0.14218E+06         0.00000E+00
    0.14218E+06        -0.49949E+08         0.00000E+00
    0.00000E+00         0.00000E+00        -0.49937E+08
 
   -0.49936E+08         0.14337E+06         0.00000E+00
    0.14337E+06        -0.49947E+08         0.00000E+00
    0.00000E+00         0.00000E+00        -0.49938E+08
 
   -0.49738E+08         0.20858E+04         0.00000E+00
    0.20858E+04        -0.50000E+08         0.00000E+00
    0.00000E+00         0.00000E+00        -0.49871E+08
 
   -0.49739E+08         0.62403E+04         0.00000E+00
    0.62403E+04        -0.50000E+08         0.00000E+00
    0.00000E+00         0.00000E+00        -0.49871E+08
 
   -0.49741E+08         0.10385E+05         0.00000E+00
    0.10385E+05        -0.50000E+08         0.00000E+00
    0.00000E+00         0.00000E+00        -0.49871E+08
 
   -0.49742E+08         0.14516E+05         0.00000E+00
    0.14516E+05        -0.50000E+08         0.00000E+00
    0.00000E+00         0.00000E+00        -0.49872E+08
 
   -0.49744E+08         0.18634E+05         0.00000E+00
    0.18634E+05        -0.50000E+08         0.00000E+00
    0.00000E+00         0.00000E+00        -0.49872E+08
 
   -0.49746E+08         0.22734E+05         0.00000E+00
    0.22734E+05        -0.49999E+08         0.00000E+00
    0.00000E+00         0.00000E+00        -0.49873E+08
 
   -0.49748E+08         0.26815E+05         0.00000E+00
    0.26815E+05        -0.49999E+08         0.00000E+00
    0.00000E+00         0.00000E+00        -0.49874E+08
 
   -0.49750E+08         0.30874E+05         0.00000E+00
    0.30874E+05        -0.49999E+08         0.00000E+00
    0.00000E+00         0.00000E+00        -0.49875E+08
 
   -0.49752E+08         0.34909E+05         0.00000E+00
    0.34909E+05        -0.49998E+08         0.00000E+00
    0.00000E+00         0.00000E+00        -0.49876E+08
 
   -0.49755E+08         0.38919E+05         0.00000E+00
    0.38919E+05        -0.49998E+08         0.00000E+00
    0.00000E+00         0.00000E+00        -0.49877E+08
 
   -0.49757E+08         0.42900E+05         0.00000E+00
    0.42900E+05        -0.49997E+08         0.00000E+00
    0.00000E+00         0.00000E+00        -0.49877E+08
 
   -0.49760E+08         0.46851E+05         0.00000E+00
    0.46851E+05        -0.49997E+08         0.00000E+00
    0.00000E+00         0.00000E+00        -0.49879E+08
 
   -0.49763E+08         0.50769E+05         0.00000E+00
    0.50769E+05        -0.49996E+08         0.00000E+00
    0.00000E+00         0.00000E+00        -0.49880E+08
 
   -0.49766E+08         0.54651E+05         0.00000E+00
    0.54651E+05        -0.49996E+08         0.00000E+00
    0.00000E+00         0.00000E+00        -0.49881E+08
 
   -0.49769E+08         0.58497E+05         0.00000E+00
    0.58497E+05        -0.49995E+08         0.00000E+00
    0.00000E+00         0.00000E+00        -0.49882E+08
 
   -0.49772E+08         0.62303E+05         0.00000E+00
    0.62303E+05        -0.49994E+08         0.00000E+00
    0.00000E+00         0.00000E+00        -0.49883E+08
 
   -0.49775E+08         0.66067E+05         0.00000E+00
    0.66067E+05        -0.49993E+08         0.00000E+00
    0.00000E+00         0.00000E+00        -0.49884E+08
 
   -0.49778E+08         0.69787E+05         0.00000E+00
    0.69787E+05        -0.49992E+08         0.00000E+00
    0.00000E+00         0.00000E+00        -0.49885E+08
 
   -0.49782E+08         0.73461E+05         0.00000E+00
    0.73461E+05        -0.49992E+08         0.00000E+00
    0.00000E+00         0.00000E+00        -0.49887E+08
 
   -0.49785E+08         0.77087E+05         0.00000E+00
    0.77087E+05        -0.49991E+08         0.00000E+00
    0.00000E+00         0.00000E+00        -0.49888E+08
 
   -0.49789E+08         0.80662E+05         0.00000E+00
    0.80662E+05        -0.49990E+08         0.00000E+00
    0.00000E+00         0.00000E+00        -0.49889E+08
 
   -0.49793E+08         0.84184E+05         0.00000E+00
    0.84184E+05        -0.49989E+08         0.00000E+00
    0.00000E+00         0.00000E+00        -0.49891E+08
 
   -0.49797E+08         0.87652E+05         0.00000E+00
    0.87652E+05        -0.49987E+08         0.00000E+00
    0.00000E+00         0.00000E+00        -0.49892E+08
 
   -0.49801E+08         0.91063E+05         0.00000E+00
    0.91063E+05        -0.49986E+08         0.00000E+00
    0.00000E+00         0.00000E+00        -0.49893E+08
 
   -0.49805E+08         0.94414E+05         0.00000E+00
    0.94414E+05        -0.49985E+08         0.00000E+00
    0.00000E+00         0.00000E+00        -0.49895E+08
 
   -0.49809E+08         0.97705E+05         0.00000E+00
    0.97705E+05        -0.49984E+08         0.00000E+00
    0.00000E+00         0.00000E+00        -0.49896E+08
 
   -0.49813E+08         0.10093E+06         0.00000E+00
    0.10093E+06        -0.49983E+08         0.00000E+00
    0.00000E+00         0.00000E+00        -0.49898E+08
 
   -0.49817E+08         0.10410E+06         0.00000E+00
    0.10410E+06        -0.49981E+08         0.00000E+00
    0.00000E+00         0.00000E+00        -0.49899E+08
 
   -0.49822E+08         0.10719E+06         0.00000E+00
    0.10719E+06        -0.49980E+08         0.00000E+00
    0.00000E+00         0.00000E+00        -0.49901E+08
 
   -0.49827E+08         0.11022E+06         0.00000E+00
    0.11022E+06        -0.49979E+08         0.00000E+00
    0.00000E+00         0.00000E+00        -0.49902E+08
 
   -0.49831E+08         0.11317E+06         0.00000E+00
    0.11317E+06        -0.49977E+08         0.00000E+00
    0.00000E+00         0.00000E+00        -0.49904E+08
 
   -0.49836E+08         0.11605E+06         0.00000E+00
    0.11605E+06        -0.49976E+08         0.00000E+00
    0.00000E+00         0.00000E+00        -0.49906E+08
 
   -0.49841E+08         0.11886E+06         0.00000E+00
    0.11886E+06        -0.49974E+08         0.00000E+00
    0.00000E+00         0.00000E+00        -0.49907E+08
 
   -0.49846E+08         0.12159E+06         0.00000E+00
    0.12159E+06        -0.49972E+08         0.00000E+00
    0.00000E+00         0.00000E+00        -0.49909E+08
 
   -0.49851E+08         0.12424E+06         0.00000E+00
    0.12424E+06        -0.49971E+08         0.00000E+00
    0.00000E+00         0.00000E+00        -0.49911E+08
 
   -0.49856E+08         0.12682E+06         0.00000E+00
    0.12682E+06        -0.49969E+08         0.00000E+00
    0.00000E+00         0.00000E+00        -0.49912E+08
 
   -0.49861E+08         0.12930E+06         0.00000E+00
    0.12930E+06        -0.49967E+08         0.00000E+00
    0.00000E+00         0.00000E+00        -0.49914E+08
 
   -0.49866E+08         0.13171E+06         0.00000E+00
    0.13171E+06        -0.49966E+08         0.00000E+00
    0.00000E+00         0.00000E+00        -0.49916E+08
 
   -0.49871E+08         0.13403E+06         0.00000E+00
    0.13403E+06        -0.49964E+08         0.00000E+00
    0.00000E+00         0.00000E+00        -0.49917E+08
 
   -0.49877E+08         0.13626E+06         0.00000E+00
    0.13626E+06        -0.49962E+08         0.00000E+00
    0.00000E+00         0.00000E+00        -0.49919E+08
 
   -0.49882E+08         0.13840E+06         0.00000E+00
    0.13840E+06        -0.49960E+08         0.00000E+00
    0.00000E+00         0.00000E+00        -0.49921E+08
 
   -0.49888E+08         0.14046E+06         0.00000E+00
    0.14046E+06        -0.49958E+08         0.00000E+00
    0.00000E+00         0.00000E+00        -0.49922E+08
 
   -0.49893E+08         0.14242E+06         0.00000E+00
    0.14242E+06        -0.49957E+08         0.00000E+00
    0.00000E+00         0.00000E+00        -0.49924E+08
 
   -0.49898E+08         0.14429E+06         0.00000E+00
    0.14429E+06        -0.49955E+08         0.00000E+00
    0.00000E+00         0.00000E+00        -0.49925E+08
 
   -0.49904E+08         0.14607E+06         0.00000E+00
    0.14607E+06        -0.49953E+08         0.00000E+00
    0.00000E+00         0.00000E+00        -0.49927E+08
 
   -0.49909E+08         0.14775E+06         0.00000E+00
    0.14775E+06        -0.49951E+08         0.00000E+00
    0.00000E+00         0.00000E+00        -0.49928E+08
 
   -0.49915E+08         0.14934E+06         0.00000E+00
    0.14934E+06        -0.49949E+08         0.00000E+00
    0.00000E+00         0.00000E+00        -0.49929E+08
 
   -0.49920E+08         0.15084E+06         0.00000E+00
    0.15084E+06        -0.49946E+08         0.00000E+00
    0.00000E+00         0.00000E+00        -0.49930E+08
 
   -0.49925E+08         0.15224E+06         0.00000E+00
    0.15224E+06        -0.49944E+08         0.00000E+00
    0.00000E+00         0.00000E+00        -0.49931E+08
 
   -0.49930E+08         0.15355E+06         0.00000E+00
    0.15355E+06        -0.49942E+08         0.00000E+00
    0.00000E+00         0.00000E+00        -0.49932E+08
 
   -0.49717E+08         0.22070E+04         0.00000E+00
    0.22070E+04        -0.50000E+08         0.00000E+00
    0.00000E+00         0.00000E+00        -0.49860E+08
 
   -0.49718E+08         0.66121E+04         0.00000E+00
    0.66121E+04        -0.50000E+08         0.00000E+00
    0.00000E+00         0.00000E+00        -0.49860E+08
 
   -0.49719E+08         0.11010E+05         0.00000E+00
    0.11010E+05        -0.50000E+08         0.00000E+00
    0.00000E+00         0.00000E+00        -0.49861E+08
 
   -0.49721E+08         0.15399E+05         0.00000E+00
    0.15399E+05        -0.50000E+08         0.00000E+00
    0.00000E+00         0.00000E+00        -0.49861E+08
 
   -0.49723E+08         0.19775E+05         0.00000E+00
    0.19775E+05        -0.49999E+08         0.00000E+00
    0.00000E+00         0.00000E+00        -0.49862E+08
 
   -0.49725E+08         0.24137E+05         0.00000E+00
    0.24137E+05        -0.49999E+08         0.00000E+00
    0.00000E+00         0.00000E+00        -0.49863E+08
 
   -0.49727E+08         0.28481E+05         0.00000E+00
    0.28481E+05        -0.49999E+08         0.00000E+00
    0.00000E+00         0.00000E+00        -0.49863E+08
 
   -0.49729E+08         0.32805E+05         0.00000E+00
    0.32805E+05        -0.49999E+08         0.00000E+00
    0.00000E+00         0.00000E+00        -0.49864E+08
 
   -0.49732E+08         0.37107E+05         0.00000E+00
    0.37107E+05        -0.49998E+08         0.00000E+00
    0.00000E+00         0.00000E+00        -0.49865E+08
 
   -0.49734E+08         0.41383E+05         0.00000E+00
    0.41383E+05        -0.49998E+08         0.00000E+00
    0.00000E+00         0.00000E+00        -0.49866E+08
 
   -0.49737E+08         0.45632E+05         0.00000E+00
    0.45632E+05        -0.49997E+08         0.00000E+00
    0.00000E+00         0.00000E+00        -0.49867E+08
 
   -0.49740E+08         0.49850E+05         0.00000E+00
    0.49850E+05        -0.49996E+08         0.00000E+00
    0.00000E+00         0.00000E+00        -0.49868E+08
 
   -0.49743E+08         0.54035E+05         0.00000E+00
    0.54035E+05        -0.49996E+08         0.00000E+00
    0.00000E+00         0.00000E+00        -0.49869E+08
 
   -0.49746E+08         0.58184E+05         0.00000E+00
    0.58184E+05        -0.49995E+08         0.00000E+00
    0.00000E+00         0.00000E+00        -0.49870E+08
 
   -0.49749E+08         0.62295E+05         0.00000E+00
    0.62295E+05        -0.49994E+08         0.00000E+00
    0.00000E+00         0.00000E+00        -0.49872E+08
 
   -0.49752E+08         0.66366E+05         0.00000E+00
    0.66366E+05        -0.49993E+08         0.00000E+00
    0.00000E+00         0.00000E+00        -0.49873E+08
 
   -0.49756E+08         0.70392E+05         0.00000E+00
    0.70392E+05        -0.49993E+08         0.00000E+00
    0.00000E+00         0.00000E+00        -0.49874E+08
 
   -0.49759E+08         0.74373E+05         0.00000E+00
    0.74373E+05        -0.49992E+08         0.00000E+00
    0.00000E+00         0.00000E+00        -0.49875E+08
 
   -0.49763E+08         0.78306E+05         0.00000E+00
    0.78306E+05        -0.49991E+08         0.00000E+00
    0.00000E+00         0.00000E+00        -0.49877E+08
 
   -0.49767E+08         0.82188E+05         0.00000E+00
    0.82188E+05        -0.49990E+08         0.00000E+00
    0.00000E+00         0.00000E+00        -0.49878E+08
 
   -0.49771E+08         0.86017E+05         0.00000E+00
    0.86017E+05        -0.49988E+08         0.00000E+00
    0.00000E+00         0.00000E+00        -0.49880E+08
 
   -0.49775E+08         0.89791E+05         0.00000E+00
    0.89791E+05        -0.49987E+08         0.00000E+00
    0.00000E+00         0.00000E+00        -0.49881E+08
 
   -0.49779E+08         0.93507E+05         0.00000E+00
    0.93507E+05        -0.49986E+08         0.00000E+00
    0.00000E+00         0.00000E+00        -0.49882E+08
 
   -0.49783E+08         0.97163E+05         0.00000E+00
    0.97163E+05        -0.49985E+08         0.00000E+00
    0.00000E+00         0.00000E+00        -0.49884E+08
 
   -0.49787E+08         0.10076E+06         0.00000E+00
    0.10076E+06        -0.49984E+08         0.00000E+00
    0.00000E+00         0.00000E+00        -0.49885E+08
 
   -0.49792E+08         0.10429E+06         0.00000E+00
    0.10429E+06        -0.49982E+08         0.00000E+00
    0.00000E+00         0.00000E+00        -0.49887E+08
 
   -0.49797E+08         0.10775E+06         0.00000E+00
    0.10775E+06        -0.49981E+08         0.00000E+00
    0.00000E+00         0.00000E+00        -0.49889E+08
 
   -0.49801E+08         0.11114E+06         0.00000E+00
    0.11114E+06        -0.49979E+08         0.00000E+00
    0.00000E+00         0.00000E+00        -0.49890E+08
 
   -0.49806E+08         0.11447E+06         0.00000E+00
    0.11447E+06        -0.49978E+08         0.00000E+00
    0.00000E+00         0.00000E+00        -0.49892E+08
 
   -0.49811E+08         0.11772E+06         0.00000E+00
    0.11772E+06        -0.49976E+08         0.00000E+00
    0.00000E+00         0.00000E+00        -0.49894E+08
 
   -0.49816E+08         0.12089E+06         0.00000E+00
    0.12089E+06        -0.49975E+08         0.00000E+00
    0.00000E+00         0.00000E+00        -0.49895E+08
 
   -0.49821E+08         0.12399E+06         0.00000E+00
    0.12399E+06        -0.49973E+08         0.00000E+00
    0.00000E+00         0.00000E+00        -0.49897E+08
 
   -0.49826E+08         0.12701E+06         0.00000E+00
    0.12701E+06        -0.49971E+08         0.00000E+00
    0.00000E+00         0.00000E+00        -0.49899E+08
 
   -0.49832E+08         0.12995E+06         0.00000E+00
    0.12995E+06        -0.49970E+08         0.00000E+00
    0.00000E+00         0.00000E+00        -0.49901E+08
 
   -0.49837E+08         0.13281E+06         0.00000E+00
    0.13281E+06        -0.49968E+08         0.00000E+00
    0.00000E+00         0.00000E+00        -0.49902E+08
 
   -0.49843E+08         0.13558E+06         0.00000E+00
    0.13558E+06        -0.49966E+08         0.00000E+00
    0.00000E+00         0.00000E+00        -0.49904E+08
 
   -0.49848E+08         0.13827E+06         0.00000E+00
    0.13827E+06        -0.49964E+08         0.00000E+00
    0.00000E+00         0.00000E+00        -0.49906E+08
 
   -0.49854E+08         0.14087E+06         0.00000E+00
    0.14087E+06        -0.49962E+08         0.00000E+00
    0.00000E+00         0.00000E+00        -0.49908E+08
 
   -0.49860E+08         0.14338E+06         0.00000E+00
    0.14338E+06        -0.49960E+08         0.00000E+00
    0.00000E+00         0.00000E+00        -0.49910E+08
 
   -0.49865E+08         0.14580E+06         0.00000E+00
    0.14580E+06        -0.49958E+08         0.00000E+00
    0.00000E+00         0.00000E+00        -0.49911E+08
 
   -0.49871E+08         0.14812E+06         0.00000E+00
    0.14812E+06        -0.49956E+08         0.00000E+00
    0.00000E+00         0.00000E+00        -0.49913E+08
 
   -0.49877E+08         0.15035E+06         0.00000E+00
    0.15035E+06        -0.49954E+08         0.00000E+00
    0.00000E+00         0.00000E+00        -0.49915E+08
 
   -0.49883E+08         0.15249E+06         0.00000E+00
    0.15249E+06        -0.49952E+08         0.00000E+00
    0.00000E+00         0.00000E+00        -0.49917E+08
 
   -0.49889E+08         0.15453E+06         0.00000E+00
    0.15453E+06        -0.49950E+08         0.00000E+00
    0.00000E+00         0.00000E+00        -0.49918E+08
 
   -0.49895E+08         0.15647E+06         0.00000E+00
    0.15647E+06        -0.49948E+08         0.00000E+00
    0.00000E+00         0.00000E+00        -0.49920E+08
 
   -0.49901E+08         0.15831E+06         0.00000E+00
    0.15831E+06        -0.49946E+08         0.00000E+00
    0.00000E+00         0.00000E+00        -0.49921E+08
 
   -0.49907E+08         0.16006E+06         0.00000E+00
    0.16006E+06        -0.49944E+08         0.00000E+00
    0.00000E+00         0.00000E+00        -0.49923E+08
 
   -0.49912E+08         0.16171E+06         0.00000E+00
    0.16171E+06        -0.49941E+08         0.00000E+00
    0.00000E+00         0.00000E+00        -0.49924E+08
 
   -0.49918E+08         0.16326E+06         0.00000E+00
    0.16326E+06        -0.49939E+08         0.00000E+00
    0.00000E+00         0.00000E+00        -0.49925E+08
 
   -0.49923E+08         0.16471E+06         0.00000E+00
    0.16471E+06        -0.49937E+08         0.00000E+00
    0.00000E+00         0.00000E+00        -0.49926E+08
 
   -0.49694E+08         0.23418E+04         0.00000E+00
    0.23418E+04        -0.50000E+08         0.00000E+00
    0.00000E+00         0.00000E+00        -0.49849E+08
 
   -0.49695E+08         0.70266E+04         0.00000E+00
    0.70266E+04        -0.50000E+08         0.00000E+00
    0.00000E+00         0.00000E+00        -0.49849E+08
 
   -0.49697E+08         0.11708E+05         0.00000E+00
    0.11708E+05        -0.50000E+08         0.00000E+00
    0.00000E+00         0.00000E+00        -0.49849E+08
 
   -0.49698E+08         0.16384E+05         0.00000E+00
    0.16384E+05        -0.50000E+08         0.00000E+00
    0.00000E+00         0.00000E+00        -0.49850E+08
 
   -0.49700E+08         0.21050E+05         0.00000E+00
    0.21050E+05        -0.49999E+08         0.00000E+00
    0.00000E+00         0.00000E+00        -0.49851E+08
 
   -0.49702E+08         0.25705E+05         0.00000E+00
    0.25705E+05        -0.49999E+08         0.00000E+00
    0.00000E+00         0.00000E+00        -0.49851E+08
 
   -0.49705E+08         0.30343E+05         0.00000E+00
    0.30343E+05        -0.49999E+08         0.00000E+00
    0.00000E+00         0.00000E+00        -0.49852E+08
 
   -0.49707E+08         0.34964E+05         0.00000E+00
    0.34964E+05        -0.49998E+08         0.00000E+00
    0.00000E+00         0.00000E+00        -0.49853E+08
 
   -0.49709E+08         0.39562E+05         0.00000E+00
    0.39562E+05        -0.49998E+08         0.00000E+00
    0.00000E+00         0.00000E+00        -0.49854E+08
 
   -0.49712E+08         0.44136E+05         0.00000E+00
    0.44136E+05        -0.49997E+08         0.00000E+00
    0.00000E+00         0.00000E+00        -0.49855E+08
 
   -0.49715E+08         0.48682E+05         0.00000E+00
    0.48682E+05        -0.49997E+08         0.00000E+00
    0.00000E+00         0.00000E+00        -0.49856E+08
 
   -0.49718E+08         0.53197E+05         0.00000E+00
    0.53197E+05        -0.49996E+08         0.00000E+00
    0.00000E+00         0.00000E+00        -0.49857E+08
 
   -0.49721E+08         0.57678E+05         0.00000E+00
    0.57678E+05        -0.49995E+08         0.00000E+00
    0.00000E+00         0.00000E+00        -0.49858E+08
 
   -0.49724E+08         0.62122E+05         0.00000E+00
    0.62122E+05        -0.49994E+08         0.00000E+00
    0.00000E+00         0.00000E+00        -0.49859E+08
 
   -0.49728E+08         0.66526E+05         0.00000E+00
    0.66526E+05        -0.49994E+08         0.00000E+00
    0.00000E+00         0.00000E+00        -0.49861E+08
 
   -0.49731E+08         0.70887E+05         0.00000E+00
    0.70887E+05        -0.49993E+08         0.00000E+00
    0.00000E+00         0.00000E+00        -0.49862E+08
 
   -0.49735E+08         0.75201E+05         0.00000E+00
    0.75201E+05        -0.49992E+08         0.00000E+00
    0.00000E+00         0.00000E+00        -0.49863E+08
 
   -0.49739E+08         0.79467E+05         0.00000E+00
    0.79467E+05        -0.49991E+08         0.00000E+00
    0.00000E+00         0.00000E+00        -0.49865E+08
 
   -0.49743E+08         0.83682E+05         0.00000E+00
    0.83682E+05        -0.49989E+08         0.00000E+00
    0.00000E+00         0.00000E+00        -0.49866E+08
 
   -0.49747E+08         0.87842E+05         0.00000E+00
    0.87842E+05        -0.49988E+08         0.00000E+00
    0.00000E+00         0.00000E+00        -0.49868E+08
 
   -0.49751E+08         0.91946E+05         0.00000E+00
    0.91946E+05        -0.49987E+08         0.00000E+00
    0.00000E+00         0.00000E+00        -0.49869E+08
 
   -0.49755E+08         0.95991E+05         0.00000E+00
    0.95991E+05        -0.49986E+08         0.00000E+00
    0.00000E+00         0.00000E+00        -0.49871E+08
 
   -0.49760E+08         0.99974E+05         0.00000E+00
    0.99974E+05        -0.49984E+08         0.00000E+00
    0.00000E+00         0.00000E+00        -0.49872E+08
 
   -0.49764E+08         0.10389E+06         0.00000E+00
    0.10389E+06        -0.49983E+08         0.00000E+00
    0.00000E+00         0.00000E+00        -0.49874E+08
 
   -0.49769E+08         0.10775E+06         0.00000E+00
    0.10775E+06        -0.49982E+08         0.00000E+00
    0.00000E+00         0.00000E+00        -0.49875E+08
 
   -0.49774E+08         0.11153E+06         0.00000E+00
    0.11153E+06        -0.49980E+08         0.00000E+00
    0.00000E+00         0.00000E+00        -0.49877E+08
 
   -0.49779E+08         0.11524E+06         0.00000E+00
    0.11524E+06        -0.49979E+08         0.00000E+00
    0.00000E+00         0.00000E+00        -0.49879E+08
 
   -0.49784E+08         0.11888E+06         0.00000E+00
    0.11888E+06        -0.49977E+08         0.00000E+00
    0.00000E+00         0.00000E+00        -0.49880E+08
 
   -0.49789E+08         0.12245E+06         0.00000E+00
    0.12245E+06        -0.49975E+08         0.00000E+00
    0.00000E+00         0.00000E+00        -0.49882E+08
 
   -0.49794E+08         0.12594E+06         0.00000E+00
    0.12594E+06        -0.49974E+08         0.00000E+00
    0.00000E+00         0.00000E+00        -0.49884E+08
 
   -0.49800E+08         0.12935E+06         0.00000E+00
    0.12935E+06        -0.49972E+08         0.00000E+00
    0.00000E+00         0.00000E+00        -0.49886E+08
 
   -0.49805E+08         0.13268E+06         0.00000E+00
    0.13268E+06        -0.49970E+08         0.00000E+00
    0.00000E+00         0.00000E+00        -0.49888E+08
 
   -0.49811E+08         0.13592E+06         0.00000E+00
    0.13592E+06        -0.49968E+08         0.00000E+00
    0.00000E+00         0.00000E+00        -0.49889E+08
 
   -0.49817E+08         0.13908E+06         0.00000E+00
    0.13908E+06        -0.49966E+08         0.00000E+00
    0.00000E+00         0.00000E+00        -0.49891E+08
 
   -0.49823E+08         0.14216E+06         0.00000E+00
    0.14216E+06        -0.49964E+08         0.00000E+00
    0.00000E+00         0.00000E+00        -0.49893E+08
 
   -0.49828E+08         0.14515E+06         0.00000E+00
    0.14515E+06        -0.49962E+08         0.00000E+00
    0.00000E+00         0.00000E+00        -0.49895E+08
 
   -0.49835E+08         0.14804E+06         0.00000E+00
    0.14804E+06        -0.49960E+08         0.00000E+00
    0.00000E+00         0.00000E+00        -0.49897E+08
 
   -0.49841E+08         0.15085E+06         0.00000E+00
    0.15085E+06        -0.49958E+08         0.00000E+00
    0.00000E+00         0.00000E+00        -0.49899E+08
 
   -0.49847E+08         0.15356E+06         0.00000E+00
    0.15356E+06        -0.49956E+08         0.00000E+00
    0.00000E+00         0.00000E+00        -0.49901E+08
 
   -0.49853E+08         0.15618E+06         0.00000E+00
    0.15618E+06        -0.49954E+08         0.00000E+00
    0.00000E+00         0.00000E+00        -0.49903E+08
 
   -0.49859E+08         0.15870E+06         0.00000E+00
    0.15870E+06        -0.49952E+08         0.00000E+00
    0.00000E+00         0.00000E+00        -0.49905E+08
 
   -0.49866E+08         0.16113E+06         0.00000E+00
    0.16113E+06        -0.49950E+08         0.00000E+00
    0.00000E+00         0.00000E+00        -0.49907E+08
 
   -0.49872E+08         0.16345E+06         0.00000E+00
    0.16345E+06        -0.49947E+08         0.00000E+00
    0.00000E+00         0.00000E+00        -0.49909E+08
 
   -0.49879E+08         0.16568E+06         0.00000E+00
    0.16568E+06        -0.49945E+08         0.00000E+00
    0.00000E+00         0.00000E+00        -0.49910E+08
 
   -0.49885E+08         0.16780E+06         0.00000E+00
    0.16780E+06        -0.49943E+08         0.00000E+00
    0.00000E+00         0.00000E+00        -0.49912E+08
 
   -0.49891E+08         0.16983E+06         0.00000E+00
    0.16983E+06        -0.49940E+08         0.00000E+00
    0.00000E+00         0.00000E+00        -0.49914E+08
 
   -0.49898E+08         0.17175E+06         0.00000E+00
    0.17175E+06        -0.49938E+08         0.00000E+00
    0.00000E+00         0.00000E+00        -0.49915E+08
 
   -0.49904E+08         0.17357E+06         0.00000E+00
    0.17357E+06        -0.49936E+08         0.00000E+00
    0.00000E+00         0.00000E+00        -0.49916E+08
 
   -0.49910E+08         0.17529E+06         0.00000E+00
    0.17529E+06        -0.49933E+08         0.00000E+00
    0.00000E+00         0.00000E+00        -0.49918E+08
 
   -0.49916E+08         0.17690E+06         0.00000E+00
    0.17690E+06        -0.49931E+08         0.00000E+00
    0.00000E+00         0.00000E+00        -0.49918E+08
 
   -0.49670E+08         0.24950E+04         0.00000E+00
    0.24950E+04        -0.50000E+08         0.00000E+00
    0.00000E+00         0.00000E+00        -0.49836E+08
 
   -0.49671E+08         0.74986E+04         0.00000E+00
    0.74986E+04        -0.50000E+08         0.00000E+00
    0.00000E+00         0.00000E+00        -0.49837E+08
 
   -0.49673E+08         0.12503E+05         0.00000E+00
    0.12503E+05        -0.50000E+08         0.00000E+00
    0.00000E+00         0.00000E+00        -0.49837E+08
 
   -0.49674E+08         0.17506E+05         0.00000E+00
    0.17506E+05        -0.50000E+08         0.00000E+00
    0.00000E+00         0.00000E+00        -0.49838E+08
 
   -0.49676E+08         0.22503E+05         0.00000E+00
    0.22503E+05        -0.49999E+08         0.00000E+00
    0.00000E+00         0.00000E+00        -0.49838E+08
 
   -0.49678E+08         0.27489E+05         0.00000E+00
    0.27489E+05        -0.49999E+08         0.00000E+00
    0.00000E+00         0.00000E+00        -0.49839E+08
 
   -0.49681E+08         0.32462E+05         0.00000E+00
    0.32462E+05        -0.49999E+08         0.00000E+00
    0.00000E+00         0.00000E+00        -0.49840E+08
 
   -0.49683E+08         0.37418E+05         0.00000E+00
    0.37418E+05        -0.49998E+08         0.00000E+00
    0.00000E+00         0.00000E+00        -0.49841E+08
 
   -0.49686E+08         0.42352E+05         0.00000E+00
    0.42352E+05        -0.49998E+08         0.00000E+00
    0.00000E+00         0.00000E+00        -0.49842E+08
 
   -0.49688E+08         0.47261E+05         0.00000E+00
    0.47261E+05        -0.49997E+08         0.00000E+00
    0.00000E+00         0.00000E+00        -0.49843E+08
 
   -0.49691E+08         0.52140E+05         0.00000E+00
    0.52140E+05        -0.49996E+08         0.00000E+00
    0.00000E+00         0.00000E+00        -0.49844E+08
 
   -0.49695E+08         0.56988E+05         0.00000E+00
    0.56988E+05        -0.49995E+08         0.00000E+00
    0.00000E+00         0.00000E+00        -0.49845E+08
 
   -0.49698E+08         0.61798E+05         0.00000E+00
    0.61798E+05        -0.49995E+08         0.00000E+00
    0.00000E+00         0.00000E+00        -0.49846E+08
 
   -0.49701E+08         0.66569E+05         0.00000E+00
    0.66569E+05        -0.49994E+08         0.00000E+00
    0.00000E+00         0.00000E+00        -0.49848E+08
 
   -0.49705E+08         0.71296E+05         0.00000E+00
    0.71296E+05        -0.49993E+08         0.00000E+00
    0.00000E+00         0.00000E+00        -0.49849E+08
 
   -0.49709E+08         0.75977E+05         0.00000E+00
    0.75977E+05        -0.49992E+08         0.00000E+00
    0.00000E+00         0.00000E+00        -0.49850E+08
 
   -0.49713E+08         0.80607E+05         0.00000E+00
    0.80607E+05        -0.49990E+08         0.00000E+00
    0.00000E+00         0.00000E+00        -0.49852E+08
 
   -0.49717E+08         0.85185E+05         0.00000E+00
    0.85185E+05        -0.49989E+08         0.00000E+00
    0.00000E+00         0.00000E+00        -0.49853E+08
 
   -0.49721E+08         0.89706E+05         0.00000E+00
    0.89706E+05        -0.49988E+08         0.00000E+00
    0.00000E+00         0.00000E+00        -0.49854E+08
 
   -0.49725E+08         0.94167E+05         0.00000E+00
    0.94167E+05        -0.49987E+08         0.00000E+00
    0.00000E+00         0.00000E+00        -0.49856E+08
 
   -0.49730E+08         0.98567E+05         0.00000E+00
    0.98567E+05        -0.49985E+08         0.00000E+00
    0.00000E+00         0.00000E+00        -0.49858E+08
 
   -0.49734E+08         0.10290E+06         0.00000E+00
    0.10290E+06        -0.49984E+08         0.00000E+00
    0.00000E+00         0.00000E+00        -0.49859E+08
 
   -0.49739E+08         0.10717E+06         0.00000E+00
    0.10717E+06        -0.49982E+08         0.00000E+00
    0.00000E+00         0.00000E+00        -0.49861E+08
 
   -0.49744E+08         0.11137E+06         0.00000E+00
    0.11137E+06        -0.49981E+08         0.00000E+00
    0.00000E+00         0.00000E+00        -0.49862E+08
 
   -0.49749E+08         0.11550E+06         0.00000E+00
    0.11550E+06        -0.49979E+08         0.00000E+00
    0.00000E+00         0.00000E+00        -0.49864E+08
 
   -0.49754E+08         0.11955E+06         0.00000E+00
    0.11955E+06        -0.49978E+08         0.00000E+00
    0.00000E+00         0.00000E+00        -0.49866E+08
 
   -0.49760E+08         0.12352E+06         0.00000E+00
    0.12352E+06        -0.49976E+08         0.00000E+00
    0.00000E+00         0.00000E+00        -0.49868E+08
 
   -0.49765E+08         0.12742E+06         0.00000E+00
    0.12742E+06        -0.49974E+08         0.00000E+00
    0.00000E+00         0.00000E+00        -0.49870E+08
 
   -0.49771E+08         0.13124E+06         0.00000E+00
    0.13124E+06        -0.49972E+08         0.00000E+00
    0.00000E+00         0.00000E+00        -0.49871E+08
 
   -0.49777E+08         0.13498E+06         0.00000E+00
    0.13498E+06        -0.49970E+08         0.00000E+00
    0.00000E+00         0.00000E+00        -0.49873E+08
 
   -0.49782E+08         0.13863E+06         0.00000E+00
    0.13863E+06        -0.49969E+08         0.00000E+00
    0.00000E+00         0.00000E+00        -0.49875E+08
 
   -0.49788E+08         0.14220E+06         0.00000E+00
    0.14220E+06        -0.49967E+08         0.00000E+00
    0.00000E+00         0.00000E+00        -0.49877E+08
 
   -0.49794E+08         0.14568E+06         0.00000E+00
    0.14568E+06        -0.49965E+08         0.00000E+00
    0.00000E+00         0.00000E+00        -0.49879E+08
 
   -0.49801E+08         0.14907E+06         0.00000E+00
    0.14907E+06        -0.49962E+08         0.00000E+00
    0.00000E+00         0.00000E+00        -0.49881E+08
 
   -0.49807E+08         0.15237E+06         0.00000E+00
    0.15237E+06        -0.49960E+08         0.00000E+00
    0.00000E+00         0.00000E+00        -0.49883E+08
 
   -0.49813E+08         0.15558E+06         0.00000E+00
    0.15558E+06        -0.49958E+08         0.00000E+00
    0.00000E+00         0.00000E+00        -0.49885E+08
 
   -0.49820E+08         0.15869E+06         0.00000E+00
    0.15869E+06        -0.49956E+08         0.00000E+00
    0.00000E+00         0.00000E+00        -0.49887E+08
 
   -0.49826E+08         0.16171E+06         0.00000E+00
    0.16171E+06        -0.49954E+08         0.00000E+00
    0.00000E+00         0.00000E+00        -0.49890E+08
 
   -0.49833E+08         0.16464E+06         0.00000E+00
    0.16464E+06        -0.49951E+08         0.00000E+00
    0.00000E+00         0.00000E+00        -0.49892E+08
 
   -0.49840E+08         0.16747E+06         0.00000E+00
    0.16747E+06        -0.49949E+08         0.00000E+00
    0.00000E+00         0.00000E+00        -0.49894E+08
 
   -0.49847E+08         0.17020E+06         0.00000E+00
    0.17020E+06        -0.49947E+08         0.00000E+00
    0.00000E+00         0.00000E+00        -0.49896E+08
 
   -0.49853E+08         0.17283E+06         0.00000E+00
    0.17283E+06        -0.49944E+08         0.00000E+00
    0.00000E+00         0.00000E+00        -0.49898E+08
 
   -0.49860E+08         0.17535E+06         0.00000E+00
    0.17535E+06        -0.49942E+08         0.00000E+00
    0.00000E+00         0.00000E+00        -0.49900E+08
 
   -0.49867E+08         0.17778E+06         0.00000E+00
    0.17778E+06        -0.49939E+08         0.00000E+00
    0.00000E+00         0.00000E+00        -0.49902E+08
 
   -0.49874E+08         0.18011E+06         0.00000E+00
    0.18011E+06        -0.49937E+08         0.00000E+00
    0.00000E+00         0.00000E+00        -0.49903E+08
 
   -0.49881E+08         0.18233E+06         0.00000E+00
    0.18233E+06        -0.49934E+08         0.00000E+00
    0.00000E+00         0.00000E+00        -0.49905E+08
 
   -0.49888E+08         0.18444E+06         0.00000E+00
    0.18444E+06        -0.49932E+08         0.00000E+00
    0.00000E+00         0.00000E+00        -0.49907E+08
 
   -0.49895E+08         0.18646E+06         0.00000E+00
    0.18646E+06        -0.49929E+08         0.00000E+00
    0.00000E+00         0.00000E+00        -0.49908E+08
 
   -0.49901E+08         0.18837E+06         0.00000E+00
    0.18837E+06        -0.49926E+08         0.00000E+00
    0.00000E+00         0.00000E+00        -0.49909E+08
 
   -0.49908E+08         0.19017E+06         0.00000E+00
    0.19017E+06        -0.49924E+08         0.00000E+00
    0.00000E+00         0.00000E+00        -0.49910E+08
 
   -0.49644E+08         0.26737E+04         0.00000E+00
    0.26737E+04        -0.50000E+08         0.00000E+00
    0.00000E+00         0.00000E+00        -0.49823E+08
 
   -0.49645E+08         0.80486E+04         0.00000E+00
    0.80486E+04        -0.50000E+08         0.00000E+00
    0.00000E+00         0.00000E+00        -0.49824E+08
 
   -0.49647E+08         0.13430E+05         0.00000E+00
    0.13430E+05        -0.50000E+08         0.00000E+00
    0.00000E+00         0.00000E+00        -0.49824E+08
 
   -0.49648E+08         0.18812E+05         0.00000E+00
    0.18812E+05        -0.50000E+08         0.00000E+00
    0.00000E+00         0.00000E+00        -0.49825E+08
 
   -0.49650E+08         0.24191E+05         0.00000E+00
    0.24191E+05        -0.49999E+08         0.00000E+00
    0.00000E+00         0.00000E+00        -0.49825E+08
 
   -0.49652E+08         0.29562E+05         0.00000E+00
    0.29562E+05        -0.49999E+08         0.00000E+00
    0.00000E+00         0.00000E+00        -0.49826E+08
 
   -0.49655E+08         0.34920E+05         0.00000E+00
    0.34920E+05        -0.49998E+08         0.00000E+00
    0.00000E+00         0.00000E+00        -0.49827E+08
 
   -0.49657E+08         0.40260E+05         0.00000E+00
    0.40260E+05        -0.49998E+08         0.00000E+00
    0.00000E+00         0.00000E+00        -0.49828E+08
 
   -0.49660E+08         0.45577E+05         0.00000E+00
    0.45577E+05        -0.49997E+08         0.00000E+00
    0.00000E+00         0.00000E+00        -0.49829E+08
 
   -0.49663E+08         0.50868E+05         0.00000E+00
    0.50868E+05        -0.49996E+08         0.00000E+00
    0.00000E+00         0.00000E+00        -0.49830E+08
 
   -0.49666E+08         0.56126E+05         0.00000E+00
    0.56126E+05        -0.49996E+08         0.00000E+00
    0.00000E+00         0.00000E+00        -0.49831E+08
 
   -0.49670E+08         0.61348E+05         0.00000E+00
    0.61348E+05        -0.49995E+08         0.00000E+00
    0.00000E+00         0.00000E+00        -0.49832E+08
 
   -0.49673E+08         0.66529E+05         0.00000E+00
    0.66529E+05        -0.49994E+08         0.00000E+00
    0.00000E+00         0.00000E+00        -0.49833E+08
 
   -0.49677E+08         0.71665E+05         0.00000E+00
    0.71665E+05        -0.49993E+08         0.00000E+00
    0.00000E+00         0.00000E+00        -0.49835E+08
 
   -0.49681E+08         0.76751E+05         0.00000E+00
    0.76751E+05        -0.49991E+08         0.00000E+00
    0.00000E+00         0.00000E+00        -0.49836E+08
 
   -0.49685E+08         0.81785E+05         0.00000E+00
    0.81785E+05        -0.49990E+08         0.00000E+00
    0.00000E+00         0.00000E+00        -0.49837E+08
 
   -0.49689E+08         0.86762E+05         0.00000E+00
    0.86762E+05        -0.49989E+08         0.00000E+00
    0.00000E+00         0.00000E+00        -0.49839E+08
 
   -0.49693E+08         0.91679E+05         0.00000E+00
    0.91679E+05        -0.49988E+08         0.00000E+00
    0.00000E+00         0.00000E+00        -0.49840E+08
 
   -0.49698E+08         0.96532E+05         0.00000E+00
    0.96532E+05        -0.49986E+08         0.00000E+00
    0.00000E+00         0.00000E+00        -0.49842E+08
 
   -0.49702E+08         0.10132E+06         0.00000E+00
    0.10132E+06        -0.49985E+08         0.00000E+00
    0.00000E+00         0.00000E+00        -0.49844E+08
 
   -0.49707E+08         0.10603E+06         0.00000E+00
    0.10603E+06        -0.49983E+08         0.00000E+00
    0.00000E+00         0.00000E+00        -0.49845E+08
 
   -0.49712E+08         0.11068E+06         0.00000E+00
    0.11068E+06        -0.49981E+08         0.00000E+00
    0.00000E+00         0.00000E+00        -0.49847E+08
 
   -0.49717E+08         0.11525E+06         0.00000E+00
    0.11525E+06        -0.49980E+08         0.00000E+00
    0.00000E+00         0.00000E+00        -0.49849E+08
 
   -0.49723E+08         0.11974E+06         0.00000E+00
    0.11974E+06        -0.49978E+08         0.00000E+00
    0.00000E+00         0.00000E+00        -0.49850E+08
 
   -0.49728E+08         0.12415E+06         0.00000E+00
    0.12415E+06        -0.49976E+08         0.00000E+00
    0.00000E+00         0.00000E+00        -0.49852E+08
 
   -0.49734E+08         0.12848E+06         0.00000E+00
    0.12848E+06        -0.49974E+08         0.00000E+00
    0.00000E+00         0.00000E+00        -0.49854E+08
 
   -0.49739E+08         0.13273E+06         0.00000E+00
    0.13273E+06        -0.49972E+08         0.00000E+00
    0.00000E+00         0.00000E+00        -0.49856E+08
 
   -0.49745E+08         0.13689E+06         0.00000E+00
    0.13689E+06        -0.49971E+08         0.00000E+00
    0.00000E+00         0.00000E+00        -0.49858E+08
 
   -0.49751E+08         0.14097E+06         0.00000E+00
    0.14097E+06        -0.49968E+08         0.00000E+00
    0.00000E+00         0.00000E+00        -0.49860E+08
 
   -0.49757E+08         0.14495E+06         0.00000E+00
    0.14495E+06        -0.49966E+08         0.00000E+00
    0.00000E+00         0.00000E+00        -0.49862E+08
 
   -0.49764E+08         0.14885E+06         0.00000E+00
    0.14885E+06        -0.49964E+08         0.00000E+00
    0.00000E+00         0.00000E+00        -0.49864E+08
 
   -0.49770E+08         0.15266E+06         0.00000E+00
    0.15266E+06        -0.49962E+08         0.00000E+00
    0.00000E+00         0.00000E+00        -0.49866E+08
 
   -0.49777E+08         0.15637E+06         0.00000E+00
    0.15637E+06        -0.49960E+08         0.00000E+00
    0.00000E+00         0.00000E+00        -0.49868E+08
 
   -0.49783E+08         0.15999E+06         0.00000E+00
    0.15999E+06        -0.49958E+08         0.00000E+00
    0.00000E+00         0.00000E+00        -0.49870E+08
 
   -0.49790E+08         0.16352E+06         0.00000E+00
    0.16352E+06        -0.49955E+08         0.00000E+00
    0.00000E+00         0.00000E+00        -0.49872E+08
 
   -0.49797E+08         0.16695E+06         0.00000E+00
    0.16695E+06        -0.49953E+08         0.00000E+00
    0.00000E+00         0.00000E+00        -0.49875E+08
 
   -0.49804E+08         0.17029E+06         0.00000E+00
    0.17029E+06        -0.49951E+08         0.00000E+00
    0.00000E+00         0.00000E+00        -0.49877E+08
 
   -0.49811E+08         0.17353E+06         0.00000E+00
    0.17353E+06        -0.49948E+08         0.00000E+00
    0.00000E+00         0.00000E+00        -0.49879E+08
 
   -0.49818E+08         0.17667E+06         0.00000E+00
    0.17667E+06        -0.49946E+08         0.00000E+00
    0.00000E+00         0.00000E+00        -0.49881E+08
 
   -0.49825E+08         0.17971E+06         0.00000E+00
    0.17971E+06        -0.49943E+08         0.00000E+00
    0.00000E+00         0.00000E+00        -0.49883E+08
 
   -0.49833E+08         0.18265E+06         0.00000E+00
    0.18265E+06        -0.49941E+08         0.00000E+00
    0.00000E+00         0.00000E+00        -0.49886E+08
 
   -0.49840E+08         0.18549E+06         0.00000E+00
    0.18549E+06        -0.49938E+08         0.00000E+00
    0.00000E+00         0.00000E+00        -0.49888E+08
 
   -0.49847E+08         0.18823E+06         0.00000E+00
    0.18823E+06        -0.49935E+08         0.00000E+00
    0.00000E+00         0.00000E+00        -0.49890E+08
 
   -0.49855E+08         0.19087E+06         0.00000E+00
    0.19087E+06        -0.49933E+08         0.00000E+00
    0.00000E+00         0.00000E+00        -0.49892E+08
 
   -0.49862E+08         0.19341E+06         0.00000E+00
    0.19341E+06        -0.49930E+08         0.00000E+00
    0.00000E+00         0.00000E+00        -0.49894E+08
 
   -0.49870E+08         0.19584E+06         0.00000E+00
    0.19584E+06        -0.49927E+08         0.00000E+00
    0.00000E+00         0.00000E+00        -0.49896E+08
 
   -0.49877E+08         0.19817E+06         0.00000E+00
    0.19817E+06        -0.49924E+08         0.00000E+00
    0.00000E+00         0.00000E+00        -0.49897E+08
 
   -0.49884E+08         0.20040E+06         0.00000E+00
    0.20040E+06        -0.49921E+08         0.00000E+00
    0.00000E+00         0.00000E+00        -0.49899E+08
 
   -0.49891E+08         0.20252E+06         0.00000E+00
    0.20252E+06        -0.49918E+08         0.00000E+00
    0.00000E+00         0.00000E+00        -0.49900E+08
 
   -0.49898E+08         0.20455E+06         0.00000E+00
    0.20455E+06        -0.49915E+08         0.00000E+00
    0.00000E+00         0.00000E+00        -0.49901E+08
 
   -0.49616E+08         0.28876E+04         0.00000E+00
    0.28876E+04        -0.50000E+08         0.00000E+00
    0.00000E+00         0.00000E+00        -0.49809E+08
 
   -0.49617E+08         0.87050E+04         0.00000E+00
    0.87050E+04        -0.50000E+08         0.00000E+00
    0.00000E+00         0.00000E+00        -0.49810E+08
 
   -0.49619E+08         0.14533E+05         0.00000E+00
    0.14533E+05        -0.50000E+08         0.00000E+00
    0.00000E+00         0.00000E+00        -0.49810E+08
 
   -0.49620E+08         0.20365E+05         0.00000E+00
    0.20365E+05        -0.49999E+08         0.00000E+00
    0.00000E+00         0.00000E+00        -0.49811E+08
 
   -0.49622E+08         0.26195E+05         0.00000E+00
    0.26195E+05        -0.49999E+08         0.00000E+00
    0.00000E+00         0.00000E+00        -0.49811E+08
 
   -0.49625E+08         0.32018E+05         0.00000E+00
    0.32018E+05        -0.49999E+08         0.00000E+00
    0.00000E+00         0.00000E+00        -0.49812E+08
 
   -0.49627E+08         0.37826E+05         0.00000E+00
    0.37826E+05        -0.49998E+08         0.00000E+00
    0.00000E+00         0.00000E+00        -0.49813E+08
 
   -0.49630E+08         0.43614E+05         0.00000E+00
    0.43614E+05        -0.49997E+08         0.00000E+00
    0.00000E+00         0.00000E+00        -0.49814E+08
 
   -0.49632E+08         0.49376E+05         0.00000E+00
    0.49376E+05        -0.49997E+08         0.00000E+00
    0.00000E+00         0.00000E+00        -0.49815E+08
 
   -0.49636E+08         0.55105E+05         0.00000E+00
    0.55105E+05        -0.49996E+08         0.00000E+00
    0.00000E+00         0.00000E+00        -0.49816E+08
 
   -0.49639E+08         0.60797E+05         0.00000E+00
    0.60797E+05        -0.49995E+08         0.00000E+00
    0.00000E+00         0.00000E+00        -0.49817E+08
 
   -0.49642E+08         0.66445E+05         0.00000E+00
    0.66445E+05        -0.49994E+08         0.00000E+00
    0.00000E+00         0.00000E+00        -0.49818E+08
 
   -0.49646E+08         0.72045E+05         0.00000E+00
    0.72045E+05        -0.49992E+08         0.00000E+00
    0.00000E+00         0.00000E+00        -0.49819E+08
 
   -0.49650E+08         0.77591E+05         0.00000E+00
    0.77591E+05        -0.49991E+08         0.00000E+00
    0.00000E+00         0.00000E+00        -0.49821E+08
 
   -0.49654E+08         0.83079E+05         0.00000E+00
    0.83079E+05        -0.49990E+08         0.00000E+00
    0.00000E+00         0.00000E+00        -0.49822E+08
 
   -0.49659E+08         0.88504E+05         0.00000E+00
    0.88504E+05        -0.49988E+08         0.00000E+00
    0.00000E+00         0.00000E+00        -0.49824E+08
 
   -0.49663E+08         0.93861E+05         0.00000E+00
    0.93861E+05        -0.49987E+08         0.00000E+00
    0.00000E+00         0.00000E+00        -0.49825E+08
 
   -0.49668E+08         0.99148E+05         0.00000E+00
    0.99148E+05        -0.49985E+08         0.00000E+00
    0.00000E+00         0.00000E+00        -0.49827E+08
 
   -0.49673E+08         0.10436E+06         0.00000E+00
    0.10436E+06        -0.49984E+08         0.00000E+00
    0.00000E+00         0.00000E+00        -0.49828E+08
 
   -0.49678E+08         0.10949E+06         0.00000E+00
    0.10949E+06        -0.49982E+08         0.00000E+00
    0.00000E+00         0.00000E+00        -0.49830E+08
 
   -0.49683E+08         0.11455E+06         0.00000E+00
    0.11455E+06        -0.49980E+08         0.00000E+00
    0.00000E+00         0.00000E+00        -0.49832E+08
 
   -0.49688E+08         0.11952E+06         0.00000E+00
    0.11952E+06        -0.49978E+08         0.00000E+00
    0.00000E+00         0.00000E+00        -0.49833E+08
 
   -0.49694E+08         0.12440E+06         0.00000E+00
    0.12440E+06        -0.49976E+08         0.00000E+00
    0.00000E+00         0.00000E+00        -0.49835E+08
 
   -0.49700E+08         0.12919E+06         0.00000E+00
    0.12919E+06        -0.49974E+08         0.00000E+00
    0.00000E+00         0.00000E+00        -0.49837E+08
 
   -0.49706E+08         0.13390E+06         0.00000E+00
    0.13390E+06        -0.49972E+08         0.00000E+00
    0.00000E+00         0.00000E+00        -0.49839E+08
 
   -0.49712E+08         0.13851E+06         0.00000E+00
    0.13851E+06        -0.49970E+08         0.00000E+00
    0.00000E+00         0.00000E+00        -0.49841E+08
 
   -0.49718E+08         0.14303E+06         0.00000E+00
    0.14303E+06        -0.49968E+08         0.00000E+00
    0.00000E+00         0.00000E+00        -0.49843E+08
 
   -0.49724E+08         0.14745E+06         0.00000E+00
    0.14745E+06        -0.49966E+08         0.00000E+00
    0.00000E+00         0.00000E+00        -0.49845E+08
 
   -0.49731E+08         0.15178E+06         0.00000E+00
    0.15178E+06        -0.49964E+08         0.00000E+00
    0.00000E+00         0.00000E+00        -0.49847E+08
 
   -0.49737E+08         0.15602E+06         0.00000E+00
    0.15602E+06        -0.49961E+08         0.00000E+00
    0.00000E+00         0.00000E+00        -0.49849E+08
 
   -0.49744E+08         0.16015E+06         0.00000E+00
    0.16015E+06        -0.49959E+08         0.00000E+00
    0.00000E+00         0.00000E+00        -0.49851E+08
 
   -0.49751E+08         0.16419E+06         0.00000E+00
    0.16419E+06        -0.49957E+08         0.00000E+00
    0.00000E+00         0.00000E+00        -0.49854E+08
 
   -0.49758E+08         0.16813E+06         0.00000E+00
    0.16813E+06        -0.49954E+08         0.00000E+00
    0.00000E+00         0.00000E+00        -0.49856E+08
 
   -0.49765E+08         0.17197E+06         0.00000E+00
    0.17197E+06        -0.49952E+08         0.00000E+00
    0.00000E+00         0.00000E+00        -0.49858E+08
 
   -0.49772E+08         0.17571E+06         0.00000E+00
    0.17571E+06        -0.49949E+08         0.00000E+00
    0.00000E+00         0.00000E+00        -0.49860E+08
 
   -0.49779E+08         0.17936E+06         0.00000E+00
    0.17936E+06        -0.49947E+08         0.00000E+00
    0.00000E+00         0.00000E+00        -0.49863E+08
 
   -0.49787E+08         0.18291E+06         0.00000E+00
    0.18291E+06        -0.49944E+08         0.00000E+00
    0.00000E+00         0.00000E+00        -0.49865E+08
 
   -0.49794E+08         0.18635E+06         0.00000E+00
    0.18635E+06        -0.49941E+08         0.00000E+00
    0.00000E+00         0.00000E+00        -0.49867E+08
 
   -0.49802E+08         0.18970E+06         0.00000E+00
    0.18970E+06        -0.49939E+08         0.00000E+00
    0.00000E+00         0.00000E+00        -0.49870E+08
 
   -0.49810E+08         0.19295E+06         0.00000E+00
    0.19295E+06        -0.49936E+08         0.00000E+00
    0.00000E+00         0.00000E+00        -0.49872E+08
 
   -0.49818E+08         0.19610E+06         0.00000E+00
    0.19610E+06        -0.49933E+08         0.00000E+00
    0.00000E+00         0.00000E+00        -0.49874E+08
 
   -0.49825E+08         0.19915E+06         0.00000E+00
    0.19915E+06        -0.49930E+08         0.00000E+00
    0.00000E+00         0.00000E+00        -0.49877E+08
 
   -0.49833E+08         0.20211E+06         0.00000E+00
    0.20211E+06        -0.49927E+08         0.00000E+00
    0.00000E+00         0.00000E+00        -0.49879E+08
 
   -0.49841E+08         0.20496E+06         0.00000E+00
    0.20496E+06        -0.49925E+08         0.00000E+00
    0.00000E+00         0.00000E+00        -0.49881E+08
 
   -0.49849E+08         0.20771E+06         0.00000E+00
    0.20771E+06        -0.49922E+08         0.00000E+00
    0.00000E+00         0.00000E+00        -0.49883E+08
 
   -0.49857E+08         0.21037E+06         0.00000E+00
    0.21037E+06        -0.49919E+08         0.00000E+00
    0.00000E+00         0.00000E+00        -0.49885E+08
 
   -0.49865E+08         0.21293E+06         0.00000E+00
    0.21293E+06        -0.49916E+08         0.00000E+00
    0.00000E+00         0.00000E+00        -0.49887E+08
 
   -0.49873E+08         0.21539E+06         0.00000E+00
    0.21539E+06        -0.49913E+08         0.00000E+00
    0.00000E+00         0.00000E+00        -0.49889E+08
 
   -0.49880E+08         0.21775E+06         0.00000E+00
    0.21775E+06        -0.49909E+08         0.00000E+00
    0.00000E+00         0.00000E+00        -0.49890E+08
 
   -0.49888E+08         0.22002E+06         0.00000E+00
    0.22002E+06        -0.49906E+08         0.00000E+00
    0.00000E+00         0.00000E+00        -0.49891E+08
 
   -0.49586E+08         0.31497E+04         0.00000E+00
    0.31497E+04        -0.50000E+08         0.00000E+00
    0.00000E+00         0.00000E+00        -0.49794E+08
 
   -0.49587E+08         0.95051E+04         0.00000E+00
    0.95051E+04        -0.50000E+08         0.00000E+00
    0.00000E+00         0.00000E+00        -0.49794E+08
 
   -0.49588E+08         0.15874E+05         0.00000E+00
    0.15874E+05        -0.50000E+08         0.00000E+00
    0.00000E+00         0.00000E+00        -0.49795E+08
 
   -0.49590E+08         0.22248E+05         0.00000E+00
    0.22248E+05        -0.49999E+08         0.00000E+00
    0.00000E+00         0.00000E+00        -0.49795E+08
 
   -0.49592E+08         0.28620E+05         0.00000E+00
    0.28620E+05        -0.49999E+08         0.00000E+00
    0.00000E+00         0.00000E+00        -0.49796E+08
 
   -0.49594E+08         0.34982E+05         0.00000E+00
    0.34982E+05        -0.49998E+08         0.00000E+00
    0.00000E+00         0.00000E+00        -0.49797E+08
 
   -0.49597E+08         0.41324E+05         0.00000E+00
    0.41324E+05        -0.49998E+08         0.00000E+00
    0.00000E+00         0.00000E+00        -0.49797E+08
 
   -0.49599E+08         0.47641E+05         0.00000E+00
    0.47641E+05        -0.49997E+08         0.00000E+00
    0.00000E+00         0.00000E+00        -0.49798E+08
 
   -0.49603E+08         0.53923E+05         0.00000E+00
    0.53923E+05        -0.49996E+08         0.00000E+00
    0.00000E+00         0.00000E+00        -0.49799E+08
 
   -0.49606E+08         0.60165E+05         0.00000E+00
    0.60165E+05        -0.49995E+08         0.00000E+00
    0.00000E+00         0.00000E+00        -0.49800E+08
 
   -0.49609E+08         0.66358E+05         0.00000E+00
    0.66358E+05        -0.49994E+08         0.00000E+00
    0.00000E+00         0.00000E+00        -0.49802E+08
 
   -0.49613E+08         0.72496E+05         0.00000E+00
    0.72496E+05        -0.49992E+08         0.00000E+00
    0.00000E+00         0.00000E+00        -0.49803E+08
 
   -0.49617E+08         0.78572E+05         0.00000E+00
    0.78572E+05        -0.49991E+08         0.00000E+00
    0.00000E+00         0.00000E+00        -0.49804E+08
 
   -0.49621E+08         0.84582E+05         0.00000E+00
    0.84582E+05        -0.49989E+08         0.00000E+00
    0.00000E+00         0.00000E+00        -0.49805E+08
 
   -0.49626E+08         0.90518E+05         0.00000E+00
    0.90518E+05        -0.49988E+08         0.00000E+00
    0.00000E+00         0.00000E+00        -0.49807E+08
 
   -0.49631E+08         0.96377E+05         0.00000E+00
    0.96377E+05        -0.49986E+08         0.00000E+00
    0.00000E+00         0.00000E+00        -0.49808E+08
 
   -0.49635E+08         0.10215E+06         0.00000E+00
    0.10215E+06        -0.49984E+08         0.00000E+00
    0.00000E+00         0.00000E+00        -0.49810E+08
 
   -0.49641E+08         0.10784E+06         0.00000E+00
    0.10784E+06        -0.49983E+08         0.00000E+00
    0.00000E+00         0.00000E+00        -0.49812E+08
 
   -0.49646E+08         0.11344E+06         0.00000E+00
    0.11344E+06        -0.49981E+08         0.00000E+00
    0.00000E+00         0.00000E+00        -0.49813E+08
 
   -0.49651E+08         0.11894E+06         0.00000E+00
    0.11894E+06        -0.49979E+08         0.00000E+00
    0.00000E+00         0.00000E+00        -0.49815E+08
 
   -0.49657E+08         0.12435E+06         0.00000E+00
    0.12435E+06        -0.49977E+08         0.00000E+00
    0.00000E+00         0.00000E+00        -0.49817E+08
 
   -0.49663E+08         0.12966E+06         0.00000E+00
    0.12966E+06        -0.49974E+08         0.00000E+00
    0.00000E+00         0.00000E+00        -0.49819E+08
 
   -0.49669E+08         0.13486E+06         0.00000E+00
    0.13486E+06        -0.49972E+08         0.00000E+00
    0.00000E+00         0.00000E+00        -0.49821E+08
 
   -0.49675E+08         0.13996E+06         0.00000E+00
    0.13996E+06        -0.49970E+08         0.00000E+00
    0.00000E+00         0.00000E+00        -0.49823E+08
 
   -0.49682E+08         0.14496E+06         0.00000E+00
    0.14496E+06        -0.49968E+08         0.00000E+00
    0.00000E+00         0.00000E+00        -0.49825E+08
 
   -0.49688E+08         0.14985E+06         0.00000E+00
    0.14985E+06        -0.49965E+08         0.00000E+00
    0.00000E+00         0.00000E+00        -0.49827E+08
 
   -0.49695E+08         0.15463E+06         0.00000E+00
    0.15463E+06        -0.49963E+08         0.00000E+00
    0.00000E+00         0.00000E+00        -0.49829E+08
 
   -0.49702E+08         0.15931E+06         0.00000E+00
    0.15931E+06        -0.49960E+08         0.00000E+00
    0.00000E+00         0.00000E+00        -0.49831E+08
 
   -0.49709E+08         0.16388E+06         0.00000E+00
    0.16388E+06        -0.49958E+08         0.00000E+00
    0.00000E+00         0.00000E+00        -0.49833E+08
 
   -0.49716E+08         0.16834E+06         0.00000E+00
    0.16834E+06        -0.49955E+08         0.00000E+00
    0.00000E+00         0.00000E+00        -0.49835E+08
 
   -0.49723E+08         0.17269E+06         0.00000E+00
    0.17269E+06        -0.49953E+08         0.00000E+00
    0.00000E+00         0.00000E+00        -0.49838E+08
 
   -0.49730E+08         0.17694E+06         0.00000E+00
    0.17694E+06        -0.49950E+08         0.00000E+00
    0.00000E+00         0.00000E+00        -0.49840E+08
 
   -0.49738E+08         0.18109E+06         0.00000E+00
    0.18109E+06        -0.49947E+08         0.00000E+00
    0.00000E+00         0.00000E+00        -0.49842E+08
 
   -0.49745E+08         0.18513E+06         0.00000E+00
    0.18513E+06        -0.49944E+08         0.00000E+00
    0.00000E+00         0.00000E+00        -0.49845E+08
 
   -0.49753E+08         0.18906E+06         0.00000E+00
    0.18906E+06        -0.49942E+08         0.00000E+00
    0.00000E+00         0.00000E+00        -0.49847E+08
 
   -0.49761E+08         0.19289E+06         0.00000E+00
    0.19289E+06        -0.49939E+08         0.00000E+00
    0.00000E+00         0.00000E+00        -0.49850E+08
 
   -0.49769E+08         0.19663E+06         0.00000E+00
    0.19663E+06        -0.49936E+08         0.00000E+00
    0.00000E+00         0.00000E+00        -0.49852E+08
 
   -0.49777E+08         0.20026E+06         0.00000E+00
    0.20026E+06        -0.49933E+08         0.00000E+00
    0.00000E+00         0.00000E+00        -0.49854E+08
 
   -0.49785E+08         0.20379E+06         0.00000E+00
    0.20379E+06        -0.49930E+08         0.00000E+00
    0.00000E+00         0.00000E+00        -0.49857E+08
 
   -0.49793E+08         0.20723E+06         0.00000E+00
    0.20723E+06        -0.49927E+08         0.00000E+00
    0.00000E+00         0.00000E+00        -0.49859E+08
 
   -0.49802E+08         0.21057E+06         0.00000E+00
    0.21057E+06        -0.49924E+08         0.00000E+00
    0.00000E+00         0.00000E+00        -0.49862E+08
 
   -0.49810E+08         0.21382E+06         0.00000E+00
    0.21382E+06        -0.49921E+08         0.00000E+00
    0.00000E+00         0.00000E+00        -0.49864E+08
 
   -0.49818E+08         0.21697E+06         0.00000E+00
    0.21697E+06        -0.49918E+08         0.00000E+00
    0.00000E+00         0.00000E+00        -0.49867E+08
 
   -0.49827E+08         0.22004E+06         0.00000E+00
    0.22004E+06        -0.49915E+08         0.00000E+00
    0.00000E+00         0.00000E+00        -0.49869E+08
 
   -0.49835E+08         0.22301E+06         0.00000E+00
    0.22301E+06        -0.49912E+08         0.00000E+00
    0.00000E+00         0.00000E+00        -0.49871E+08
 
   -0.49844E+08         0.22589E+06         0.00000E+00
    0.22589E+06        -0.49909E+08         0.00000E+00
    0.00000E+00         0.00000E+00        -0.49873E+08
 
   -0.49852E+08         0.22868E+06         0.00000E+00
    0.22868E+06        -0.49906E+08         0.00000E+00
    0.00000E+00         0.00000E+00        -0.49875E+08
 
   -0.49860E+08         0.23138E+06         0.00000E+00
    0.23138E+06        -0.49902E+08         0.00000E+00
    0.00000E+00         0.00000E+00        -0.49877E+08
 
   -0.49868E+08         0.23400E+06         0.00000E+00
    0.23400E+06        -0.49899E+08         0.00000E+00
    0.00000E+00         0.00000E+00        -0.49878E+08
 
   -0.49876E+08         0.23652E+06         0.00000E+00
    0.23652E+06        -0.49896E+08         0.00000E+00
    0.00000E+00         0.00000E+00        -0.49880E+08
 
   -0.49552E+08         0.34770E+04         0.00000E+00
    0.34770E+04        -0.50000E+08         0.00000E+00
    0.00000E+00         0.00000E+00        -0.49777E+08
 
   -0.49553E+08         0.10497E+05         0.00000E+00
    0.10497E+05        -0.50000E+08         0.00000E+00
    0.00000E+00         0.00000E+00        -0.49777E+08
 
   -0.49555E+08         0.17531E+05         0.00000E+00
    0.17531E+05        -0.50000E+08         0.00000E+00
    0.00000E+00         0.00000E+00        -0.49778E+08
 
   -0.49556E+08         0.24569E+05         0.00000E+00
    0.24569E+05        -0.49999E+08         0.00000E+00
    0.00000E+00         0.00000E+00        -0.49778E+08
 
   -0.49558E+08         0.31599E+05         0.00000E+00
    0.31599E+05        -0.49999E+08         0.00000E+00
    0.00000E+00         0.00000E+00        -0.49779E+08
 
   -0.49561E+08         0.38612E+05         0.00000E+00
    0.38612E+05        -0.49998E+08         0.00000E+00
    0.00000E+00         0.00000E+00        -0.49780E+08
 
   -0.49563E+08         0.45596E+05         0.00000E+00
    0.45596E+05        -0.49997E+08         0.00000E+00
    0.00000E+00         0.00000E+00        -0.49780E+08
 
   -0.49566E+08         0.52543E+05         0.00000E+00
    0.52543E+05        -0.49996E+08         0.00000E+00
    0.00000E+00         0.00000E+00        -0.49781E+08
 
   -0.49570E+08         0.59442E+05         0.00000E+00
    0.59442E+05        -0.49995E+08         0.00000E+00
    0.00000E+00         0.00000E+00        -0.49782E+08
 
   -0.49573E+08         0.66285E+05         0.00000E+00
    0.66285E+05        -0.49993E+08         0.00000E+00
    0.00000E+00         0.00000E+00        -0.49783E+08
 
   -0.49577E+08         0.73063E+05         0.00000E+00
    0.73063E+05        -0.49992E+08         0.00000E+00
    0.00000E+00         0.00000E+00        -0.49785E+08
 
   -0.49581E+08         0.79767E+05         0.00000E+00
    0.79767E+05        -0.49991E+08         0.00000E+00
    0.00000E+00         0.00000E+00        -0.49786E+08
 
   -0.49586E+08         0.86390E+05         0.00000E+00
    0.86390E+05        -0.49989E+08         0.00000E+00
    0.00000E+00         0.00000E+00        -0.49787E+08
 
   -0.49590E+08         0.92926E+05         0.00000E+00
    0.92926E+05        -0.49987E+08         0.00000E+00
    0.00000E+00         0.00000E+00        -0.49789E+08
 
   -0.49595E+08         0.99367E+05         0.00000E+00
    0.99367E+05        -0.49985E+08         0.00000E+00
    0.00000E+00         0.00000E+00        -0.49790E+08
 
   -0.49600E+08         0.10571E+06         0.00000E+00
    0.10571E+06        -0.49983E+08         0.00000E+00
    0.00000E+00         0.00000E+00        -0.49792E+08
 
   -0.49606E+08         0.11194E+06         0.00000E+00
    0.11194E+06        -0.49981E+08         0.00000E+00
    0.00000E+00         0.00000E+00        -0.49793E+08
 
   -0.49611E+08         0.11807E+06         0.00000E+00
    0.11807E+06        -0.49979E+08         0.00000E+00
    0.00000E+00         0.00000E+00        -0.49795E+08
 
   -0.49617E+08         0.12408E+06         0.00000E+00
    0.12408E+06        -0.49977E+08         0.00000E+00
    0.00000E+00         0.00000E+00        -0.49797E+08
 
   -0.49623E+08         0.12997E+06         0.00000E+00
    0.12997E+06        -0.49974E+08         0.00000E+00
    0.00000E+00         0.00000E+00        -0.49799E+08
 
   -0.49629E+08         0.13575E+06         0.00000E+00
    0.13575E+06        -0.49972E+08         0.00000E+00
    0.00000E+00         0.00000E+00        -0.49801E+08
 
   -0.49636E+08         0.14140E+06         0.00000E+00
    0.14140E+06        -0.49969E+08         0.00000E+00
    0.00000E+00         0.00000E+00        -0.49803E+08
 
   -0.49642E+08         0.14693E+06         0.00000E+00
    0.14693E+06        -0.49967E+08         0.00000E+00
    0.00000E+00         0.00000E+00        -0.49805E+08
 
   -0.49649E+08         0.15233E+06         0.00000E+00
    0.15233E+06        -0.49964E+08         0.00000E+00
    0.00000E+00         0.00000E+00        -0.49807E+08
 
   -0.49656E+08         0.15761E+06         0.00000E+00
    0.15761E+06        -0.49962E+08         0.00000E+00
    0.00000E+00         0.00000E+00        -0.49809E+08
 
   -0.49663E+08         0.16276E+06         0.00000E+00
    0.16276E+06        -0.49959E+08         0.00000E+00
    0.00000E+00         0.00000E+00        -0.49811E+08
 
   -0.49670E+08         0.16779E+06         0.00000E+00
    0.16779E+06        -0.49956E+08         0.00000E+00
    0.00000E+00         0.00000E+00        -0.49813E+08
 
   -0.49678E+08         0.17269E+06         0.00000E+00
    0.17269E+06        -0.49953E+08         0.00000E+00
    0.00000E+00         0.00000E+00        -0.49815E+08
 
   -0.49685E+08         0.17747E+06         0.00000E+00
    0.17747E+06        -0.49950E+08         0.00000E+00
    0.00000E+00         0.00000E+00        -0.49818E+08
 
   -0.49693E+08         0.18213E+06         0.00000E+00
    0.18213E+06        -0.49947E+08         0.00000E+00
    0.00000E+00         0.00000E+00        -0.49820E+08
 
   -0.49701E+08         0.18667E+06         0.00000E+00
    0.18667E+06        -0.49944E+08         0.00000E+00
    0.00000E+00         0.00000E+00        -0.49823E+08
 
   -0.49709E+08         0.19109E+06         0.00000E+00
    0.19109E+06        -0.49941E+08         0.00000E+00
    0.00000E+00         0.00000E+00        -0.49825E+08
 
   -0.49717E+08         0.19540E+06         0.00000E+00
    0.19540E+06        -0.49938E+08         0.00000E+00
    0.00000E+00         0.00000E+00        -0.49828E+08
 
   -0.49725E+08         0.19959E+06         0.00000E+00
    0.19959E+06        -0.49935E+08         0.00000E+00
    0.00000E+00         0.00000E+00        -0.49830E+08
 
   -0.49733E+08         0.20368E+06         0.00000E+00
    0.20368E+06        -0.49932E+08         0.00000E+00
    0.00000E+00         0.00000E+00        -0.49833E+08
 
   -0.49742E+08         0.20766E+06         0.00000E+00
    0.20766E+06        -0.49929E+08         0.00000E+00
    0.00000E+00         0.00000E+00        -0.49835E+08
 
   -0.49750E+08         0.21153E+06         0.00000E+00
    0.21153E+06        -0.49926E+08         0.00000E+00
    0.00000E+00         0.00000E+00        -0.49838E+08
 
   -0.49759E+08         0.21531E+06         0.00000E+00
    0.21531E+06        -0.49923E+08         0.00000E+00
    0.00000E+00         0.00000E+00        -0.49840E+08
 
   -0.49767E+08         0.21899E+06         0.00000E+00
    0.21899E+06        -0.49920E+08         0.00000E+00
    0.00000E+00         0.00000E+00        -0.49843E+08
 
   -0.49776E+08         0.22258E+06         0.00000E+00
    0.22258E+06        -0.49917E+08         0.00000E+00
    0.00000E+00         0.00000E+00        -0.49846E+08
 
   -0.49785E+08         0.22607E+06         0.00000E+00
    0.22607E+06        -0.49914E+08         0.00000E+00
    0.00000E+00         0.00000E+00        -0.49848E+08
 
   -0.49794E+08         0.22948E+06         0.00000E+00
    0.22948E+06        -0.49910E+08         0.00000E+00
    0.00000E+00         0.00000E+00        -0.49851E+08
 
   -0.49802E+08         0.23281E+06         0.00000E+00
    0.23281E+06        -0.49907E+08         0.00000E+00
    0.00000E+00         0.00000E+00        -0.49853E+08
 
   -0.49811E+08         0.23605E+06         0.00000E+00
    0.23605E+06        -0.49904E+08         0.00000E+00
    0.00000E+00         0.00000E+00        -0.49856E+08
 
   -0.49820E+08         0.23922E+06         0.00000E+00
    0.23922E+06        -0.49901E+08         0.00000E+00
    0.00000E+00         0.00000E+00        -0.49858E+08
 
   -0.49829E+08         0.24231E+06         0.00000E+00
    0.24231E+06        -0.49897E+08         0.00000E+00
    0.00000E+00         0.00000E+00        -0.49860E+08
 
   -0.49838E+08         0.24533E+06         0.00000E+00
    0.24533E+06        -0.49894E+08         0.00000E+00
    0.00000E+00         0.00000E+00        -0.49862E+08
 
   -0.49846E+08         0.24827E+06         0.00000E+00
    0.24827E+06        -0.49890E+08         0.00000E+00
    0.00000E+00         0.00000E+00        -0.49864E+08
 
   -0.49855E+08         0.25114E+06         0.00000E+00
    0.25114E+06        -0.49887E+08         0.00000E+00
    0.00000E+00         0.00000E+00        -0.49865E+08
 
   -0.49863E+08         0.25395E+06         0.00000E+00
    0.25395E+06        -0.49883E+08         0.00000E+00
    0.00000E+00         0.00000E+00        -0.49867E+08
 
   -0.49515E+08         0.38907E+04         0.00000E+00
    0.38907E+04        -0.50000E+08         0.00000E+00
    0.00000E+00         0.00000E+00        -0.49758E+08
 
   -0.49516E+08         0.11741E+05         0.00000E+00
    0.11741E+05        -0.50000E+08         0.00000E+00
    0.00000E+00         0.00000E+00        -0.49759E+08
 
   -0.49517E+08         0.19601E+05         0.00000E+00
    0.19601E+05        -0.49999E+08         0.00000E+00
    0.00000E+00         0.00000E+00        -0.49759E+08
 
   -0.49519E+08         0.27457E+05         0.00000E+00
    0.27457E+05        -0.49999E+08         0.00000E+00
    0.00000E+00         0.00000E+00        -0.49759E+08
 
   -0.49521E+08         0.35296E+05         0.00000E+00
    0.35296E+05        -0.49998E+08         0.00000E+00
    0.00000E+00         0.00000E+00        -0.49760E+08
 
   -0.49524E+08         0.43102E+05         0.00000E+00
    0.43102E+05        -0.49997E+08         0.00000E+00
    0.00000E+00         0.00000E+00        -0.49761E+08
 
   -0.49527E+08         0.50864E+05         0.00000E+00
    0.50864E+05        -0.49996E+08         0.00000E+00
    0.00000E+00         0.00000E+00        -0.49762E+08
 
   -0.49530E+08         0.58569E+05         0.00000E+00
    0.58569E+05        -0.49995E+08         0.00000E+00
    0.00000E+00         0.00000E+00        -0.49763E+08
 
   -0.49534E+08         0.66204E+05         0.00000E+00
    0.66204E+05        -0.49993E+08         0.00000E+00
    0.00000E+00         0.00000E+00        -0.49764E+08
 
   -0.49537E+08         0.73759E+05         0.00000E+00
    0.73759E+05        -0.49992E+08         0.00000E+00
    0.00000E+00         0.00000E+00        -0.49765E+08
 
   -0.49542E+08         0.81222E+05         0.00000E+00
    0.81222E+05        -0.49990E+08         0.00000E+00
    0.00000E+00         0.00000E+00        -0.49766E+08
 
   -0.49546E+08         0.88585E+05         0.00000E+00
    0.88585E+05        -0.49988E+08         0.00000E+00
    0.00000E+00         0.00000E+00        -0.49767E+08
 
   -0.49551E+08         0.95838E+05         0.00000E+00
    0.95838E+05        -0.49986E+08         0.00000E+00
    0.00000E+00         0.00000E+00        -0.49769E+08
 
   -0.49556E+08         0.10297E+06         0.00000E+00
    0.10297E+06        -0.49984E+08         0.00000E+00
    0.00000E+00         0.00000E+00        -0.49770E+08
 
   -0.49562E+08         0.10998E+06         0.00000E+00
    0.10998E+06        -0.49982E+08         0.00000E+00
    0.00000E+00         0.00000E+00        -0.49772E+08
 
   -0.49568E+08         0.11686E+06         0.00000E+00
    0.11686E+06        -0.49979E+08         0.00000E+00
    0.00000E+00         0.00000E+00        -0.49774E+08
 
   -0.49574E+08         0.12360E+06         0.00000E+00
    0.12360E+06        -0.49977E+08         0.00000E+00
    0.00000E+00         0.00000E+00        -0.49775E+08
 
   -0.49580E+08         0.13020E+06         0.00000E+00
    0.13020E+06        -0.49974E+08         0.00000E+00
    0.00000E+00         0.00000E+00        -0.49777E+08
 
   -0.49586E+08         0.13665E+06         0.00000E+00
    0.13665E+06        -0.49972E+08         0.00000E+00
    0.00000E+00         0.00000E+00        -0.49779E+08
 
   -0.49593E+08         0.14295E+06         0.00000E+00
    0.14295E+06        -0.49969E+08         0.00000E+00
    0.00000E+00         0.00000E+00        -0.49781E+08
 
   -0.49600E+08         0.14910E+06         0.00000E+00
    0.14910E+06        -0.49966E+08         0.00000E+00
    0.00000E+00         0.00000E+00        -0.49783E+08
 
   -0.49607E+08         0.15510E+06         0.00000E+00
    0.15510E+06        -0.49963E+08         0.00000E+00
    0.00000E+00         0.00000E+00        -0.49785E+08
 
   -0.49614E+08         0.16095E+06         0.00000E+00
    0.16095E+06        -0.49960E+08         0.00000E+00
    0.00000E+00         0.00000E+00        -0.49787E+08
 
   -0.49622E+08         0.16664E+06         0.00000E+00
    0.16664E+06        -0.49957E+08         0.00000E+00
    0.00000E+00         0.00000E+00        -0.49789E+08
 
   -0.49629E+08         0.17217E+06         0.00000E+00
    0.17217E+06        -0.49954E+08         0.00000E+00
    0.00000E+00         0.00000E+00        -0.49792E+08
 
   -0.49637E+08         0.17756E+06         0.00000E+00
    0.17756E+06        -0.49951E+08         0.00000E+00
    0.00000E+00         0.00000E+00        -0.49794E+08
 
   -0.49645E+08         0.18279E+06         0.00000E+00
    0.18279E+06        -0.49948E+08         0.00000E+00
    0.00000E+00         0.00000E+00        -0.49796E+08
 
   -0.49653E+08         0.18788E+06         0.00000E+00
    0.18788E+06        -0.49944E+08         0.00000E+00
    0.00000E+00         0.00000E+00        -0.49799E+08
 
   -0.49661E+08         0.19283E+06         0.00000E+00
    0.19283E+06        -0.49941E+08         0.00000E+00
    0.00000E+00         0.00000E+00        -0.49801E+08
 
   -0.49670E+08         0.19763E+06         0.00000E+00
    0.19763E+06        -0.49938E+08         0.00000E+00
    0.00000E+00         0.00000E+00        -0.49804E+08
 
   -0.49678E+08         0.20230E+06         0.00000E+00
    0.20230E+06        -0.49935E+08         0.00000E+00
    0.00000E+00         0.00000E+00        -0.49806E+08
 
   -0.49687E+08         0.20683E+06         0.00000E+00
    0.20683E+06        -0.49931E+08         0.00000E+00
    0.00000E+00         0.00000E+00        -0.49809E+08
 
   -0.49695E+08         0.21124E+06         0.00000E+00
    0.21124E+06        -0.49928E+08         0.00000E+00
    0.00000E+00         0.00000E+00        -0.49811E+08
 
   -0.49704E+08         0.21552E+06         0.00000E+00
    0.21552E+06        -0.49925E+08         0.00000E+00
    0.00000E+00         0.00000E+00        -0.49814E+08
 
   -0.49713E+08         0.21969E+06         0.00000E+00
    0.21969E+06        -0.49921E+08         0.00000E+00
    0.00000E+00         0.00000E+00        -0.49817E+08
 
   -0.49722E+08         0.22375E+06         0.00000E+00
    0.22375E+06        -0.49918E+08         0.00000E+00
    0.00000E+00         0.00000E+00        -0.49820E+08
 
   -0.49731E+08         0.22770E+06         0.00000E+00
    0.22770E+06        -0.49915E+08         0.00000E+00
    0.00000E+00         0.00000E+00        -0.49822E+08
 
   -0.49740E+08         0.23156E+06         0.00000E+00
    0.23156E+06        -0.49911E+08         0.00000E+00
    0.00000E+00         0.00000E+00        -0.49825E+08
 
   -0.49749E+08         0.23532E+06         0.00000E+00
    0.23532E+06        -0.49908E+08         0.00000E+00
    0.00000E+00         0.00000E+00        -0.49828E+08
 
   -0.49758E+08         0.23899E+06         0.00000E+00
    0.23899E+06        -0.49904E+08         0.00000E+00
    0.00000E+00         0.00000E+00        -0.49830E+08
 
   -0.49767E+08         0.24258E+06         0.00000E+00
    0.24258E+06        -0.49901E+08         0.00000E+00
    0.00000E+00         0.00000E+00        -0.49833E+08
 
   -0.49776E+08         0.24610E+06         0.00000E+00
    0.24610E+06        -0.49898E+08         0.00000E+00
    0.00000E+00         0.00000E+00        -0.49836E+08
 
   -0.49786E+08         0.24954E+06         0.00000E+00
    0.24954E+06        -0.49894E+08         0.00000E+00
    0.00000E+00         0.00000E+00        -0.49838E+08
 
   -0.49795E+08         0.25292E+06         0.00000E+00
    0.25292E+06        -0.49891E+08         0.00000E+00
    0.00000E+00         0.00000E+00        -0.49841E+08
 
   -0.49804E+08         0.25624E+06         0.00000E+00
    0.25624E+06        -0.49887E+08         0.00000E+00
    0.00000E+00         0.00000E+00        -0.49843E+08
 
   -0.49813E+08         0.25951E+06         0.00000E+00
    0.25951E+06        -0.49884E+08         0.00000E+00
    0.00000E+00         0.00000E+00        -0.49845E+08
 
   -0.49822E+08         0.26272E+06         0.00000E+00
    0.26272E+06        -0.49880E+08         0.00000E+00
    0.00000E+00         0.00000E+00        -0.49847E+08
 
   -0.49831E+08         0.26588E+06         0.00000E+00
    0.26588E+06        -0.49877E+08         0.00000E+00
    0.00000E+00         0.00000E+00        -0.49849E+08
 
   -0.49840E+08         0.26901E+06         0.00000E+00
    0.26901E+06        -0.49873E+08         0.00000E+00
    0.00000E+00         0.00000E+00        -0.49851E+08
 
   -0.49848E+08         0.27209E+06         0.00000E+00
    0.27209E+06        -0.49869E+08         0.00000E+00
    0.00000E+00         0.00000E+00        -0.49852E+08
 
   -0.49474E+08         0.44171E+04         0.00000E+00
    0.44171E+04        -0.50000E+08         0.00000E+00
    0.00000E+00         0.00000E+00        -0.49737E+08
 
   -0.49474E+08         0.13310E+05         0.00000E+00
    0.13310E+05        -0.50000E+08         0.00000E+00
    0.00000E+00         0.00000E+00        -0.49737E+08
 
   -0.49476E+08         0.22201E+05         0.00000E+00
    0.22201E+05        -0.49999E+08         0.00000E+00
    0.00000E+00         0.00000E+00        -0.49738E+08
 
   -0.49478E+08         0.31074E+05         0.00000E+00
    0.31074E+05        -0.49999E+08         0.00000E+00
    0.00000E+00         0.00000E+00        -0.49738E+08
 
   -0.49480E+08         0.39908E+05         0.00000E+00
    0.39908E+05        -0.49998E+08         0.00000E+00
    0.00000E+00         0.00000E+00        -0.49739E+08
 
   -0.49483E+08         0.48687E+05         0.00000E+00
    0.48687E+05        -0.49997E+08         0.00000E+00
    0.00000E+00         0.00000E+00        -0.49740E+08
 
   -0.49486E+08         0.57395E+05         0.00000E+00
    0.57395E+05        -0.49995E+08         0.00000E+00
    0.00000E+00         0.00000E+00        -0.49741E+08
 
   -0.49489E+08         0.66014E+05         0.00000E+00
    0.66014E+05        -0.49994E+08         0.00000E+00
    0.00000E+00         0.00000E+00        -0.49742E+08
 
   -0.49493E+08         0.74531E+05         0.00000E+00
    0.74531E+05        -0.49992E+08         0.00000E+00
    0.00000E+00         0.00000E+00        -0.49743E+08
 
   -0.49498E+08         0.82931E+05         0.00000E+00
    0.82931E+05        -0.49990E+08         0.00000E+00
    0.00000E+00         0.00000E+00        -0.49744E+08
 
   -0.49503E+08         0.91203E+05         0.00000E+00
    0.91203E+05        -0.49988E+08         0.00000E+00
    0.00000E+00         0.00000E+00        -0.49745E+08
 
   -0.49508E+08         0.99333E+05         0.00000E+00
    0.99333E+05        -0.49986E+08         0.00000E+00
    0.00000E+00         0.00000E+00        -0.49747E+08
 
   -0.49514E+08         0.10731E+06         0.00000E+00
    0.10731E+06        -0.49983E+08         0.00000E+00
    0.00000E+00         0.00000E+00        -0.49748E+08
 
   -0.49519E+08         0.11513E+06         0.00000E+00
    0.11513E+06        -0.49980E+08         0.00000E+00
    0.00000E+00         0.00000E+00        -0.49750E+08
 
   -0.49526E+08         0.12278E+06         0.00000E+00
    0.12278E+06        -0.49978E+08         0.00000E+00
    0.00000E+00         0.00000E+00        -0.49752E+08
 
   -0.49532E+08         0.13026E+06         0.00000E+00
    0.13026E+06        -0.49975E+08         0.00000E+00
    0.00000E+00         0.00000E+00        -0.49753E+08
 
   -0.49539E+08         0.13755E+06         0.00000E+00
    0.13755E+06        -0.49972E+08         0.00000E+00
    0.00000E+00         0.00000E+00        -0.49755E+08
 
   -0.49546E+08         0.14466E+06         0.00000E+00
    0.14466E+06        -0.49969E+08         0.00000E+00
    0.00000E+00         0.00000E+00        -0.49757E+08
 
   -0.49553E+08         0.15158E+06         0.00000E+00
    0.15158E+06        -0.49966E+08         0.00000E+00
    0.00000E+00         0.00000E+00        -0.49759E+08
 
   -0.49561E+08         0.15830E+06         0.00000E+00
    0.15830E+06        -0.49962E+08         0.00000E+00
    0.00000E+00         0.00000E+00        -0.49762E+08
 
   -0.49569E+08         0.16483E+06         0.00000E+00
    0.16483E+06        -0.49959E+08         0.00000E+00
    0.00000E+00         0.00000E+00        -0.49764E+08
 
   -0.49577E+08         0.17117E+06         0.00000E+00
    0.17117E+06        -0.49955E+08         0.00000E+00
    0.00000E+00         0.00000E+00        -0.49766E+08
 
   -0.49585E+08         0.17731E+06         0.00000E+00
    0.17731E+06        -0.49952E+08         0.00000E+00
    0.00000E+00         0.00000E+00        -0.49768E+08
 
   -0.49593E+08         0.18326E+06         0.00000E+00
    0.18326E+06        -0.49948E+08         0.00000E+00
    0.00000E+00         0.00000E+00        -0.49771E+08
 
   -0.49602E+08         0.18902E+06         0.00000E+00
    0.18902E+06        -0.49945E+08         0.00000E+00
    0.00000E+00         0.00000E+00        -0.49773E+08
 
   -0.49610E+08         0.19459E+06         0.00000E+00
    0.19459E+06        -0.49941E+08         0.00000E+00
    0.00000E+00         0.00000E+00        -0.49776E+08
 
   -0.49619E+08         0.19998E+06         0.00000E+00
    0.19998E+06        -0.49937E+08         0.00000E+00
    0.00000E+00         0.00000E+00        -0.49778E+08
 
   -0.49628E+08         0.20519E+06         0.00000E+00
    0.20519E+06        -0.49934E+08         0.00000E+00
    0.00000E+00         0.00000E+00        -0.49781E+08
 
   -0.49637E+08         0.21023E+06         0.00000E+00
    0.21023E+06        -0.49930E+08         0.00000E+00
    0.00000E+00         0.00000E+00        -0.49783E+08
 
   -0.49646E+08         0.21510E+06         0.00000E+00
    0.21510E+06        -0.49926E+08         0.00000E+00
    0.00000E+00         0.00000E+00        -0.49786E+08
 
   -0.49655E+08         0.21981E+06         0.00000E+00
    0.21981E+06        -0.49923E+08         0.00000E+00
    0.00000E+00         0.00000E+00        -0.49789E+08
 
   -0.49664E+08         0.22438E+06         0.00000E+00
    0.22438E+06        -0.49919E+08         0.00000E+00
    0.00000E+00         0.00000E+00        -0.49791E+08
 
   -0.49674E+08         0.22879E+06         0.00000E+00
    0.22879E+06        -0.49915E+08         0.00000E+00
    0.00000E+00         0.00000E+00        -0.49794E+08
 
   -0.49683E+08         0.23308E+06         0.00000E+00
    0.23308E+06        -0.49911E+08         0.00000E+00
    0.00000E+00         0.00000E+00        -0.49797E+08
 
   -0.49692E+08         0.23723E+06         0.00000E+00
    0.23723E+06        -0.49908E+08         0.00000E+00
    0.00000E+00         0.00000E+00        -0.49800E+08
 
   -0.49702E+08         0.24127E+06         0.00000E+00
    0.24127E+06        -0.49904E+08         0.00000E+00
    0.00000E+00         0.00000E+00        -0.49803E+08
 
   -0.49711E+08         0.24520E+06         0.00000E+00
    0.24520E+06        -0.49901E+08         0.00000E+00
    0.00000E+00         0.00000E+00        -0.49805E+08
 
   -0.49721E+08         0.24904E+06         0.00000E+00
    0.24904E+06        -0.49897E+08         0.00000E+00
    0.00000E+00         0.00000E+00        -0.49808E+08
 
   -0.49730E+08         0.25278E+06         0.00000E+00
    0.25278E+06        -0.49893E+08         0.00000E+00
    0.00000E+00         0.00000E+00        -0.49811E+08
 
   -0.49740E+08         0.25644E+06         0.00000E+00
    0.25644E+06        -0.49890E+08         0.00000E+00
    0.00000E+00         0.00000E+00        -0.49814E+08
 
   -0.49749E+08         0.26003E+06         0.00000E+00
    0.26003E+06        -0.49886E+08         0.00000E+00
    0.00000E+00         0.00000E+00        -0.49817E+08
 
   -0.49759E+08         0.26357E+06         0.00000E+00
    0.26357E+06        -0.49883E+08         0.00000E+00
    0.00000E+00         0.00000E+00        -0.49819E+08
 
   -0.49768E+08         0.26705E+06         0.00000E+00
    0.26705E+06        -0.49879E+08         0.00000E+00
    0.00000E+00         0.00000E+00        -0.49822E+08
 
   -0.49778E+08         0.27048E+06         0.00000E+00
    0.27048E+06        -0.49875E+08         0.00000E+00
    0.00000E+00         0.00000E+00        -0.49825E+08
 
   -0.49787E+08         0.27389E+06         0.00000E+00
    0.27389E+06        -0.49872E+08         0.00000E+00
    0.00000E+00         0.00000E+00        -0.49827E+08
 
   -0.49797E+08         0.27726E+06         0.00000E+00
    0.27726E+06        -0.49868E+08         0.00000E+00
    0.00000E+00         0.00000E+00        -0.49829E+08
 
   -0.49806E+08         0.28062E+06         0.00000E+00
    0.28062E+06        -0.49865E+08         0.00000E+00
    0.00000E+00         0.00000E+00        -0.49831E+08
 
   -0.49815E+08         0.28396E+06         0.00000E+00
    0.28396E+06        -0.49861E+08         0.00000E+00
    0.00000E+00         0.00000E+00        -0.49833E+08
 
   -0.49824E+08         0.28729E+06         0.00000E+00
    0.28729E+06        -0.49857E+08         0.00000E+00
    0.00000E+00         0.00000E+00        -0.49835E+08
 
   -0.49832E+08         0.29063E+06         0.00000E+00
    0.29063E+06        -0.49854E+08         0.00000E+00
    0.00000E+00         0.00000E+00        -0.49836E+08
 
   -0.49426E+08         0.50873E+04         0.00000E+00
    0.50873E+04        -0.50000E+08         0.00000E+00
    0.00000E+00         0.00000E+00        -0.49713E+08
 
   -0.49427E+08         0.15289E+05         0.00000E+00
    0.15289E+05        -0.50000E+08         0.00000E+00
    0.00000E+00         0.00000E+00        -0.49713E+08
 
   -0.49428E+08         0.25469E+05         0.00000E+00
    0.25469E+05        -0.49999E+08         0.00000E+00
    0.00000E+00         0.00000E+00        -0.49714E+08
 
   -0.49430E+08         0.35602E+05         0.00000E+00
    0.35602E+05        -0.49998E+08         0.00000E+00
    0.00000E+00         0.00000E+00        -0.49714E+08
 
   -0.49433E+08         0.45665E+05         0.00000E+00
    0.45665E+05        -0.49997E+08         0.00000E+00
    0.00000E+00         0.00000E+00        -0.49715E+08
 
   -0.49436E+08         0.55635E+05         0.00000E+00
    0.55635E+05        -0.49996E+08         0.00000E+00
    0.00000E+00         0.00000E+00        -0.49716E+08
 
   -0.49440E+08         0.65492E+05         0.00000E+00
    0.65492E+05        -0.49994E+08         0.00000E+00
    0.00000E+00         0.00000E+00        -0.49717E+08
 
   -0.49444E+08         0.75216E+05         0.00000E+00
    0.75216E+05        -0.49992E+08         0.00000E+00
    0.00000E+00         0.00000E+00        -0.49718E+08
 
   -0.49449E+08         0.84789E+05         0.00000E+00
    0.84789E+05        -0.49990E+08         0.00000E+00
    0.00000E+00         0.00000E+00        -0.49719E+08
 
   -0.49454E+08         0.94195E+05         0.00000E+00
    0.94195E+05        -0.49988E+08         0.00000E+00
    0.00000E+00         0.00000E+00        -0.49721E+08
 
   -0.49459E+08         0.10342E+06         0.00000E+00
    0.10342E+06        -0.49985E+08         0.00000E+00
    0.00000E+00         0.00000E+00        -0.49722E+08
 
   -0.49466E+08         0.11245E+06         0.00000E+00
    0.11245E+06        -0.49982E+08         0.00000E+00
    0.00000E+00         0.00000E+00        -0.49724E+08
 
   -0.49472E+08         0.12126E+06         0.00000E+00
    0.12126E+06        -0.49979E+08         0.00000E+00
    0.00000E+00         0.00000E+00        -0.49726E+08
 
   -0.49479E+08         0.12986E+06         0.00000E+00
    0.12986E+06        -0.49976E+08         0.00000E+00
    0.00000E+00         0.00000E+00        -0.49727E+08
 
   -0.49486E+08         0.13824E+06         0.00000E+00
    0.13824E+06        -0.49973E+08         0.00000E+00
    0.00000E+00         0.00000E+00        -0.49729E+08
 
   -0.49494E+08         0.14638E+06         0.00000E+00
    0.14638E+06        -0.49969E+08         0.00000E+00
    0.00000E+00         0.00000E+00        -0.49731E+08
 
   -0.49502E+08         0.15427E+06         0.00000E+00
    0.15427E+06        -0.49966E+08         0.00000E+00
    0.00000E+00         0.00000E+00        -0.49734E+08
 
   -0.49510E+08         0.16193E+06         0.00000E+00
    0.16193E+06        -0.49962E+08         0.00000E+00
    0.00000E+00         0.00000E+00        -0.49736E+08
 
   -0.49518E+08         0.16933E+06         0.00000E+00
    0.16933E+06        -0.49958E+08         0.00000E+00
    0.00000E+00         0.00000E+00        -0.49738E+08
 
   -0.49527E+08         0.17649E+06         0.00000E+00
    0.17649E+06        -0.49954E+08         0.00000E+00
    0.00000E+00         0.00000E+00        -0.49740E+08
 
   -0.49536E+08         0.18339E+06         0.00000E+00
    0.18339E+06        -0.49950E+08         0.00000E+00
    0.00000E+00         0.00000E+00        -0.49743E+08
 
   -0.49545E+08         0.19005E+06         0.00000E+00
    0.19005E+06        -0.49946E+08         0.00000E+00
    0.00000E+00         0.00000E+00        -0.49745E+08
 
   -0.49554E+08         0.19645E+06         0.00000E+00
    0.19645E+06        -0.49942E+08         0.00000E+00
    0.00000E+00         0.00000E+00        -0.49748E+08
 
   -0.49563E+08         0.20262E+06         0.00000E+00
    0.20262E+06        -0.49938E+08         0.00000E+00
    0.00000E+00         0.00000E+00        -0.49751E+08
 
   -0.49573E+08         0.20855E+06         0.00000E+00
    0.20855E+06        -0.49934E+08         0.00000E+00
    0.00000E+00         0.00000E+00        -0.49753E+08
 
   -0.49583E+08         0.21424E+06         0.00000E+00
    0.21424E+06        -0.49929E+08         0.00000E+00
    0.00000E+00         0.00000E+00        -0.49756E+08
 
   -0.49592E+08         0.21971E+06         0.00000E+00
    0.21971E+06        -0.49925E+08         0.00000E+00
    0.00000E+00         0.00000E+00        -0.49759E+08
 
   -0.49602E+08         0.22496E+06         0.00000E+00
    0.22496E+06        -0.49921E+08         0.00000E+00
    0.00000E+00         0.00000E+00        -0.49762E+08
 
   -0.49612E+08         0.22999E+06         0.00000E+00
    0.22999E+06        -0.49917E+08         0.00000E+00
    0.00000E+00         0.00000E+00        -0.49764E+08
 
   -0.49622E+08         0.23483E+06         0.00000E+00
    0.23483E+06        -0.49913E+08         0.00000E+00
    0.00000E+00         0.00000E+00        -0.49767E+08
 
   -0.49632E+08         0.23949E+06         0.00000E+00
    0.23949E+06        -0.49908E+08         0.00000E+00
    0.00000E+00         0.00000E+00        -0.49770E+08
 
   -0.49642E+08         0.24396E+06         0.00000E+00
    0.24396E+06        -0.49904E+08         0.00000E+00
    0.00000E+00         0.00000E+00        -0.49773E+08
 
   -0.49652E+08         0.24827E+06         0.00000E+00
    0.24827E+06        -0.49900E+08         0.00000E+00
    0.00000E+00         0.00000E+00        -0.49776E+08
 
   -0.49662E+08         0.25242E+06         0.00000E+00
    0.25242E+06        -0.49896E+08         0.00000E+00
    0.00000E+00         0.00000E+00        -0.49779E+08
 
   -0.49672E+08         0.25643E+06         0.00000E+00
    0.25643E+06        -0.49892E+08         0.00000E+00
    0.00000E+00         0.00000E+00        -0.49782E+08
 
   -0.49682E+08         0.26032E+06         0.00000E+00
    0.26032E+06        -0.49888E+08         0.00000E+00
    0.00000E+00         0.00000E+00        -0.49785E+08
 
   -0.49692E+08         0.26409E+06         0.00000E+00
    0.26409E+06        -0.49884E+08         0.00000E+00
    0.00000E+00         0.00000E+00        -0.49788E+08
 
   -0.49702E+08         0.26777E+06         0.00000E+00
    0.26777E+06        -0.49880E+08         0.00000E+00
    0.00000E+00         0.00000E+00        -0.49791E+08
 
   -0.49712E+08         0.27136E+06         0.00000E+00
    0.27136E+06        -0.49876E+08         0.00000E+00
    0.00000E+00         0.00000E+00        -0.49794E+08
 
   -0.49722E+08         0.27487E+06         0.00000E+00
    0.27487E+06        -0.49872E+08         0.00000E+00
    0.00000E+00         0.00000E+00        -0.49796E+08
 
   -0.49732E+08         0.27834E+06         0.00000E+00
    0.27834E+06        -0.49869E+08         0.00000E+00
    0.00000E+00         0.00000E+00        -0.49799E+08
 
   -0.49742E+08         0.28176E+06         0.00000E+00
    0.28176E+06        -0.49865E+08         0.00000E+00
    0.00000E+00         0.00000E+00        -0.49802E+08
 
   -0.49751E+08         0.28515E+06         0.00000E+00
    0.28515E+06        -0.49861E+08         0.00000E+00
    0.00000E+00         0.00000E+00        -0.49805E+08
 
   -0.49761E+08         0.28853E+06         0.00000E+00
    0.28853E+06        -0.49858E+08         0.00000E+00
    0.00000E+00         0.00000E+00        -0.49807E+08
 
   -0.49770E+08         0.29190E+06         0.00000E+00
    0.29190E+06        -0.49854E+08         0.00000E+00
    0.00000E+00         0.00000E+00        -0.49810E+08
 
   -0.49780E+08         0.29528E+06         0.00000E+00
    0.29528E+06        -0.49850E+08         0.00000E+00
    0.00000E+00         0.00000E+00        -0.49812E+08
 
   -0.49789E+08         0.29869E+06         0.00000E+00
    0.29869E+06        -0.49847E+08         0.00000E+00
    0.00000E+00         0.00000E+00        -0.49814E+08
 
   -0.49798E+08         0.30212E+06         0.00000E+00
    0.30212E+06        -0.49843E+08         0.00000E+00
    0.00000E+00         0.00000E+00        -0.49816E+08
 
   -0.49807E+08         0.30560E+06         0.00000E+00
    0.30560E+06        -0.49840E+08         0.00000E+00
    0.00000E+00         0.00000E+00        -0.49818E+08
 
   -0.49815E+08         0.30912E+06         0.00000E+00
    0.30912E+06        -0.49836E+08         0.00000E+00
    0.00000E+00         0.00000E+00        -0.49819E+08
 
   -0.49371E+08         0.59366E+04         0.00000E+00
    0.59366E+04        -0.50000E+08         0.00000E+00
    0.00000E+00         0.00000E+00        -0.49686E+08
 
   -0.49372E+08         0.17776E+05         0.00000E+00
    0.17776E+05        -0.50000E+08         0.00000E+00
    0.00000E+00         0.00000E+00        -0.49686E+08
 
   -0.49374E+08         0.29557E+05         0.00000E+00
    0.29557E+05        -0.49999E+08         0.00000E+00
    0.00000E+00         0.00000E+00        -0.49686E+08
 
   -0.49376E+08         0.41247E+05         0.00000E+00
    0.41247E+05        -0.49998E+08         0.00000E+00
    0.00000E+00         0.00000E+00        -0.49687E+08
 
   -0.49379E+08         0.52818E+05         0.00000E+00
    0.52818E+05        -0.49996E+08         0.00000E+00
    0.00000E+00         0.00000E+00        -0.49688E+08
 
   -0.49383E+08         0.64241E+05         0.00000E+00
    0.64241E+05        -0.49995E+08         0.00000E+00
    0.00000E+00         0.00000E+00        -0.49689E+08
 
   -0.49387E+08         0.75491E+05         0.00000E+00
    0.75491E+05        -0.49993E+08         0.00000E+00
    0.00000E+00         0.00000E+00        -0.49690E+08
 
   -0.49393E+08         0.86544E+05         0.00000E+00
    0.86544E+05        -0.49990E+08         0.00000E+00
    0.00000E+00         0.00000E+00        -0.49691E+08
 
   -0.49398E+08         0.97379E+05         0.00000E+00
    0.97379E+05        -0.49988E+08         0.00000E+00
    0.00000E+00         0.00000E+00        -0.49693E+08
 
   -0.49404E+08         0.10798E+06         0.00000E+00
    0.10798E+06        -0.49985E+08         0.00000E+00
    0.00000E+00         0.00000E+00        -0.49695E+08
 
   -0.49411E+08         0.11832E+06         0.00000E+00
    0.11832E+06        -0.49982E+08         0.00000E+00
    0.00000E+00         0.00000E+00        -0.49696E+08
 
   -0.49418E+08         0.12839E+06         0.00000E+00
    0.12839E+06        -0.49978E+08         0.00000E+00
    0.00000E+00         0.00000E+00        -0.49698E+08
 
   -0.49426E+08         0.13817E+06         0.00000E+00
    0.13817E+06        -0.49974E+08         0.00000E+00
    0.00000E+00         0.00000E+00        -0.49700E+08
 
   -0.49434E+08         0.14766E+06         0.00000E+00
    0.14766E+06        -0.49971E+08         0.00000E+00
    0.00000E+00         0.00000E+00        -0.49702E+08
 
   -0.49443E+08         0.15685E+06         0.00000E+00
    0.15685E+06        -0.49967E+08         0.00000E+00
    0.00000E+00         0.00000E+00        -0.49705E+08
 
   -0.49452E+08         0.16572E+06         0.00000E+00
    0.16572E+06        -0.49963E+08         0.00000E+00
    0.00000E+00         0.00000E+00        -0.49707E+08
 
   -0.49461E+08         0.17428E+06         0.00000E+00
    0.17428E+06        -0.49958E+08         0.00000E+00
    0.00000E+00         0.00000E+00        -0.49710E+08
 
   -0.49471E+08         0.18251E+06         0.00000E+00
    0.18251E+06        -0.49954E+08         0.00000E+00
    0.00000E+00         0.00000E+00        -0.49712E+08
 
   -0.49481E+08         0.19042E+06         0.00000E+00
    0.19042E+06        -0.49949E+08         0.00000E+00
    0.00000E+00         0.00000E+00        -0.49715E+08
 
   -0.49491E+08         0.19800E+06         0.00000E+00
    0.19800E+06        -0.49945E+08         0.00000E+00
    0.00000E+00         0.00000E+00        -0.49718E+08
 
   -0.49501E+08         0.20527E+06         0.00000E+00
    0.20527E+06        -0.49940E+08         0.00000E+00
    0.00000E+00         0.00000E+00        -0.49720E+08
 
   -0.49511E+08         0.21221E+06         0.00000E+00
    0.21221E+06        -0.49935E+08         0.00000E+00
    0.00000E+00         0.00000E+00        -0.49723E+08
 
   -0.49522E+08         0.21884E+06         0.00000E+00
    0.21884E+06        -0.49930E+08         0.00000E+00
    0.00000E+00         0.00000E+00        -0.49726E+08
 
   -0.49533E+08         0.22516E+06         0.00000E+00
    0.22516E+06        -0.49925E+08         0.00000E+00
    0.00000E+00         0.00000E+00        -0.49729E+08
 
   -0.49544E+08         0.23118E+06         0.00000E+00
    0.23118E+06        -0.49921E+08         0.00000E+00
    0.00000E+00         0.00000E+00        -0.49732E+08
 
   -0.49555E+08         0.23691E+06         0.00000E+00
    0.23691E+06        -0.49916E+08         0.00000E+00
    0.00000E+00         0.00000E+00        -0.49735E+08
 
   -0.49566E+08         0.24235E+06         0.00000E+00
    0.24235E+06        -0.49911E+08         0.00000E+00
    0.00000E+00         0.00000E+00        -0.49738E+08
 
   -0.49577E+08         0.24753E+06         0.00000E+00
    0.24753E+06        -0.49906E+08         0.00000E+00
    0.00000E+00         0.00000E+00        -0.49741E+08
 
   -0.49588E+08         0.25245E+06         0.00000E+00
    0.25245E+06        -0.49901E+08         0.00000E+00
    0.00000E+00         0.00000E+00        -0.49744E+08
 
   -0.49599E+08         0.25712E+06         0.00000E+00
    0.25712E+06        -0.49896E+08         0.00000E+00
    0.00000E+00         0.00000E+00        -0.49748E+08
 
   -0.49610E+08         0.26157E+06         0.00000E+00
    0.26157E+06        -0.49892E+08         0.00000E+00
    0.00000E+00         0.00000E+00        -0.49751E+08
 
   -0.49621E+08         0.26580E+06         0.00000E+00
    0.26580E+06        -0.49887E+08         0.00000E+00
    0.00000E+00         0.00000E+00        -0.49754E+08
 
   -0.49632E+08         0.26984E+06         0.00000E+00
    0.26984E+06        -0.49883E+08         0.00000E+00
    0.00000E+00         0.00000E+00        -0.49757E+08
 
   -0.49642E+08         0.27370E+06         0.00000E+00
    0.27370E+06        -0.49878E+08         0.00000E+00
    0.00000E+00         0.00000E+00        -0.49760E+08
 
   -0.49653E+08         0.27740E+06         0.00000E+00
    0.27740E+06        -0.49874E+08         0.00000E+00
    0.00000E+00         0.00000E+00        -0.49763E+08
 
   -0.49664E+08         0.28096E+06         0.00000E+00
    0.28096E+06        -0.49869E+08         0.00000E+00
    0.00000E+00         0.00000E+00        -0.49766E+08
 
   -0.49674E+08         0.28440E+06         0.00000E+00
    0.28440E+06        -0.49865E+08         0.00000E+00
    0.00000E+00         0.00000E+00        -0.49769E+08
 
   -0.49685E+08         0.28774E+06         0.00000E+00
    0.28774E+06        -0.49861E+08         0.00000E+00
    0.00000E+00         0.00000E+00        -0.49772E+08
 
   -0.49695E+08         0.29099E+06         0.00000E+00
    0.29099E+06        -0.49857E+08         0.00000E+00
    0.00000E+00         0.00000E+00        -0.49775E+08
 
   -0.49705E+08         0.29419E+06         0.00000E+00
    0.29419E+06        -0.49853E+08         0.00000E+00
    0.00000E+00         0.00000E+00        -0.49778E+08
 
   -0.49715E+08         0.29734E+06         0.00000E+00
    0.29734E+06        -0.49849E+08         0.00000E+00
    0.00000E+00         0.00000E+00        -0.49781E+08
 
   -0.49725E+08         0.30047E+06         0.00000E+00
    0.30047E+06        -0.49845E+08         0.00000E+00
    0.00000E+00         0.00000E+00        -0.49784E+08
 
   -0.49735E+08         0.30360E+06         0.00000E+00
    0.30360E+06        -0.49841E+08         0.00000E+00
    0.00000E+00         0.00000E+00        -0.49787E+08
 
   -0.49744E+08         0.30675E+06         0.00000E+00
    0.30675E+06        -0.49838E+08         0.00000E+00
    0.00000E+00         0.00000E+00        -0.49789E+08
 
   -0.49754E+08         0.30993E+06         0.00000E+00
    0.30993E+06        -0.49834E+08         0.00000E+00
    0.00000E+00         0.00000E+00        -0.49792E+08
 
   -0.49763E+08         0.31317E+06         0.00000E+00
    0.31317E+06        -0.49831E+08         0.00000E+00
    0.00000E+00         0.00000E+00        -0.49794E+08
 
   -0.49772E+08         0.31648E+06         0.00000E+00
    0.31648E+06        -0.49827E+08         0.00000E+00
    0.00000E+00         0.00000E+00        -0.49796E+08
 
   -0.49780E+08         0.31988E+06         0.00000E+00
    0.31988E+06        -0.49824E+08         0.00000E+00
    0.00000E+00         0.00000E+00        -0.49798E+08
 
   -0.49789E+08         0.32337E+06         0.00000E+00
    0.32337E+06        -0.49820E+08         0.00000E+00
    0.00000E+00         0.00000E+00        -0.49799E+08
 
   -0.49797E+08         0.32699E+06         0.00000E+00
    0.32699E+06        -0.49817E+08         0.00000E+00
    0.00000E+00         0.00000E+00        -0.49801E+08
 
   -0.49307E+08         0.70032E+04         0.00000E+00
    0.70032E+04        -0.50000E+08         0.00000E+00
    0.00000E+00         0.00000E+00        -0.49654E+08
 
   -0.49308E+08         0.20872E+05         0.00000E+00
    0.20872E+05        -0.50000E+08         0.00000E+00
    0.00000E+00         0.00000E+00        -0.49654E+08
 
   -0.49310E+08         0.34625E+05         0.00000E+00
    0.34625E+05        -0.49999E+08         0.00000E+00
    0.00000E+00         0.00000E+00        -0.49655E+08
 
   -0.49313E+08         0.48224E+05         0.00000E+00
    0.48224E+05        -0.49997E+08         0.00000E+00
    0.00000E+00         0.00000E+00        -0.49656E+08
 
   -0.49317E+08         0.61630E+05         0.00000E+00
    0.61630E+05        -0.49996E+08         0.00000E+00
    0.00000E+00         0.00000E+00        -0.49657E+08
 
   -0.49322E+08         0.74811E+05         0.00000E+00
    0.74811E+05        -0.49993E+08         0.00000E+00
    0.00000E+00         0.00000E+00        -0.49658E+08
 
   -0.49328E+08         0.87736E+05         0.00000E+00
    0.87736E+05        -0.49991E+08         0.00000E+00
    0.00000E+00         0.00000E+00        -0.49659E+08
 
   -0.49334E+08         0.10038E+06         0.00000E+00
    0.10038E+06        -0.49988E+08         0.00000E+00
    0.00000E+00         0.00000E+00        -0.49661E+08
 
   -0.49341E+08         0.11270E+06         0.00000E+00
    0.11270E+06        -0.49985E+08         0.00000E+00
    0.00000E+00         0.00000E+00        -0.49663E+08
 
   -0.49349E+08         0.12470E+06         0.00000E+00
    0.12470E+06        -0.49981E+08         0.00000E+00
    0.00000E+00         0.00000E+00        -0.49665E+08
 
   -0.49357E+08         0.13635E+06         0.00000E+00
    0.13635E+06        -0.49977E+08         0.00000E+00
    0.00000E+00         0.00000E+00        -0.49667E+08
 
   -0.49366E+08         0.14762E+06         0.00000E+00
    0.14762E+06        -0.49973E+08         0.00000E+00
    0.00000E+00         0.00000E+00        -0.49670E+08
 
   -0.49375E+08         0.15851E+06         0.00000E+00
    0.15851E+06        -0.49969E+08         0.00000E+00
    0.00000E+00         0.00000E+00        -0.49672E+08
 
   -0.49385E+08         0.16901E+06         0.00000E+00
    0.16901E+06        -0.49965E+08         0.00000E+00
    0.00000E+00         0.00000E+00        -0.49675E+08
 
   -0.49396E+08         0.17910E+06         0.00000E+00
    0.17910E+06        -0.49960E+08         0.00000E+00
    0.00000E+00         0.00000E+00        -0.49678E+08
 
   -0.49406E+08         0.18878E+06         0.00000E+00
    0.18878E+06        -0.49955E+08         0.00000E+00
    0.00000E+00         0.00000E+00        -0.49681E+08
 
   -0.49417E+08         0.19805E+06         0.00000E+00
    0.19805E+06        -0.49950E+08         0.00000E+00
    0.00000E+00         0.00000E+00        -0.49684E+08
 
   -0.49429E+08         0.20689E+06         0.00000E+00
    0.20689E+06        -0.49944E+08         0.00000E+00
    0.00000E+00         0.00000E+00        -0.49687E+08
 
   -0.49441E+08         0.21532E+06         0.00000E+00
    0.21532E+06        -0.49939E+08         0.00000E+00
    0.00000E+00         0.00000E+00        -0.49690E+08
 
   -0.49453E+08         0.22333E+06         0.00000E+00
    0.22333E+06        -0.49934E+08         0.00000E+00
    0.00000E+00         0.00000E+00        -0.49693E+08
 
   -0.49465E+08         0.23093E+06         0.00000E+00
    0.23093E+06        -0.49928E+08         0.00000E+00
    0.00000E+00         0.00000E+00        -0.49696E+08
 
   -0.49477E+08         0.23811E+06         0.00000E+00
    0.23811E+06        -0.49923E+08         0.00000E+00
    0.00000E+00         0.00000E+00        -0.49700E+08
 
   -0.49489E+08         0.24490E+06         0.00000E+00
    0.24490E+06        -0.49917E+08         0.00000E+00
    0.00000E+00         0.00000E+00        -0.49703E+08
 
   -0.49502E+08         0.25130E+06         0.00000E+00
    0.25130E+06        -0.49911E+08         0.00000E+00
    0.00000E+00         0.00000E+00        -0.49707E+08
 
   -0.49514E+08         0.25732E+06         0.00000E+00
    0.25732E+06        -0.49906E+08         0.00000E+00
    0.00000E+00         0.00000E+00        -0.49710E+08
 
   -0.49527E+08         0.26297E+06         0.00000E+00
    0.26297E+06        -0.49900E+08         0.00000E+00
    0.00000E+00         0.00000E+00        -0.49714E+08
 
   -0.49539E+08         0.26827E+06         0.00000E+00
    0.26827E+06        -0.49895E+08         0.00000E+00
    0.00000E+00         0.00000E+00        -0.49717E+08
 
   -0.49552E+08         0.27324E+06         0.00000E+00
    0.27324E+06        -0.49889E+08         0.00000E+00
    0.00000E+00         0.00000E+00        -0.49721E+08
 
   -0.49564E+08         0.27789E+06         0.00000E+00
    0.27789E+06        -0.49884E+08         0.00000E+00
    0.00000E+00         0.00000E+00        -0.49724E+08
 
   -0.49577E+08         0.28224E+06         0.00000E+00
    0.28224E+06        -0.49878E+08         0.00000E+00
    0.00000E+00         0.00000E+00        -0.49728E+08
 
   -0.49589E+08         0.28630E+06         0.00000E+00
    0.28630E+06        -0.49873E+08         0.00000E+00
    0.00000E+00         0.00000E+00        -0.49731E+08
 
   -0.49601E+08         0.29012E+06         0.00000E+00
    0.29012E+06        -0.49868E+08         0.00000E+00
    0.00000E+00         0.00000E+00        -0.49734E+08
 
   -0.49613E+08         0.29369E+06         0.00000E+00
    0.29369E+06        -0.49863E+08         0.00000E+00
    0.00000E+00         0.00000E+00        -0.49738E+08
 
   -0.49625E+08         0.29706E+06         0.00000E+00
    0.29706E+06        -0.49858E+08         0.00000E+00
    0.00000E+00         0.00000E+00        -0.49741E+08
 
   -0.49636E+08         0.30023E+06         0.00000E+00
    0.30023E+06        -0.49853E+08         0.00000E+00
    0.00000E+00         0.00000E+00        -0.49745E+08
 
   -0.49648E+08         0.30325E+06         0.00000E+00
    0.30325E+06        -0.49848E+08         0.00000E+00
    0.00000E+00         0.00000E+00        -0.49748E+08
 
   -0.49659E+08         0.30613E+06         0.00000E+00
    0.30613E+06        -0.49844E+08         0.00000E+00
    0.00000E+00         0.00000E+00        -0.49751E+08
 
   -0.49670E+08         0.30890E+06         0.00000E+00
    0.30890E+06        -0.49839E+08         0.00000E+00
    0.00000E+00         0.00000E+00        -0.49754E+08
 
   -0.49680E+08         0.31159E+06         0.00000E+00
    0.31159E+06        -0.49835E+08         0.00000E+00
    0.00000E+00         0.00000E+00        -0.49757E+08
 
   -0.49691E+08         0.31422E+06         0.00000E+00
    0.31422E+06        -0.49831E+08         0.00000E+00
    0.00000E+00         0.00000E+00        -0.49760E+08
 
   -0.49701E+08         0.31683E+06         0.00000E+00
    0.31683E+06        -0.49827E+08         0.00000E+00
    0.00000E+00         0.00000E+00        -0.49763E+08
 
   -0.49711E+08         0.31944E+06         0.00000E+00
    0.31944E+06        -0.49823E+08         0.00000E+00
    0.00000E+00         0.00000E+00        -0.49766E+08
 
   -0.49720E+08         0.32207E+06         0.00000E+00
    0.32207E+06        -0.49819E+08         0.00000E+00
    0.00000E+00         0.00000E+00        -0.49769E+08
 
   -0.49730E+08         0.32476E+06         0.00000E+00
    0.32476E+06        -0.49816E+08         0.00000E+00
    0.00000E+00         0.00000E+00        -0.49771E+08
 
   -0.49739E+08         0.32753E+06         0.00000E+00
    0.32753E+06        -0.49812E+08         0.00000E+00
    0.00000E+00         0.00000E+00        -0.49773E+08
 
   -0.49747E+08         0.33041E+06         0.00000E+00
    0.33041E+06        -0.49809E+08         0.00000E+00
    0.00000E+00         0.00000E+00        -0.49776E+08
 
   -0.49756E+08         0.33342E+06         0.00000E+00
    0.33342E+06        -0.49806E+08         0.00000E+00
    0.00000E+00         0.00000E+00        -0.49778E+08
 
   -0.49764E+08         0.33658E+06         0.00000E+00
    0.33658E+06        -0.49802E+08         0.00000E+00
    0.00000E+00         0.00000E+00        -0.49779E+08
 
   -0.49771E+08         0.33992E+06         0.00000E+00
    0.33992E+06        -0.49799E+08         0.00000E+00
    0.00000E+00         0.00000E+00        -0.49781E+08
 
   -0.49779E+08         0.34345E+06         0.00000E+00
    0.34345E+06        -0.49796E+08         0.00000E+00
    0.00000E+00         0.00000E+00        -0.49782E+08
 
   -0.49231E+08         0.83256E+04         0.00000E+00
    0.83256E+04        -0.50000E+08         0.00000E+00
    0.00000E+00         0.00000E+00        -0.49617E+08
 
   -0.49233E+08         0.24677E+05         0.00000E+00
    0.24677E+05        -0.49999E+08         0.00000E+00
    0.00000E+00         0.00000E+00        -0.49617E+08
 
   -0.49236E+08         0.40830E+05         0.00000E+00
    0.40830E+05        -0.49998E+08         0.00000E+00
    0.00000E+00         0.00000E+00        -0.49618E+08
 
   -0.49240E+08         0.56736E+05         0.00000E+00
    0.56736E+05        -0.49997E+08         0.00000E+00
    0.00000E+00         0.00000E+00        -0.49619E+08
 
   -0.49245E+08         0.72350E+05         0.00000E+00
    0.72350E+05        -0.49995E+08         0.00000E+00
    0.00000E+00         0.00000E+00        -0.49621E+08
 
   -0.49252E+08         0.87632E+05         0.00000E+00
    0.87632E+05        -0.49992E+08         0.00000E+00
    0.00000E+00         0.00000E+00        -0.49622E+08
 
   -0.49259E+08         0.10254E+06         0.00000E+00
    0.10254E+06        -0.49989E+08         0.00000E+00
    0.00000E+00         0.00000E+00        -0.49624E+08
 
   -0.49267E+08         0.11706E+06         0.00000E+00
    0.11706E+06        -0.49986E+08         0.00000E+00
    0.00000E+00         0.00000E+00        -0.49627E+08
 
   -0.49276E+08         0.13114E+06         0.00000E+00
    0.13114E+06        -0.49982E+08         0.00000E+00
    0.00000E+00         0.00000E+00        -0.49629E+08
 
   -0.49286E+08         0.14476E+06         0.00000E+00
    0.14476E+06        -0.49978E+08         0.00000E+00
    0.00000E+00         0.00000E+00        -0.49632E+08
 
   -0.49296E+08         0.15791E+06         0.00000E+00
    0.15791E+06        -0.49973E+08         0.00000E+00
    0.00000E+00         0.00000E+00        -0.49635E+08
 
   -0.49307E+08         0.17057E+06         0.00000E+00
    0.17057E+06        -0.49968E+08         0.00000E+00
    0.00000E+00         0.00000E+00        -0.49638E+08
 
   -0.49319E+08         0.18271E+06         0.00000E+00
    0.18271E+06        -0.49963E+08         0.00000E+00
    0.00000E+00         0.00000E+00        -0.49641E+08
 
   -0.49331E+08         0.19434E+06         0.00000E+00
    0.19434E+06        -0.49958E+08         0.00000E+00
    0.00000E+00         0.00000E+00        -0.49644E+08
 
   -0.49344E+08         0.20543E+06         0.00000E+00
    0.20543E+06        -0.49952E+08         0.00000E+00
    0.00000E+00         0.00000E+00        -0.49648E+08
 
   -0.49357E+08         0.21599E+06         0.00000E+00
    0.21599E+06        -0.49946E+08         0.00000E+00
    0.00000E+00         0.00000E+00        -0.49652E+08
 
   -0.49370E+08         0.22601E+06         0.00000E+00
    0.22601E+06        -0.49940E+08         0.00000E+00
    0.00000E+00         0.00000E+00        -0.49655E+08
 
   -0.49384E+08         0.23550E+06         0.00000E+00
    0.23550E+06        -0.49934E+08         0.00000E+00
    0.00000E+00         0.00000E+00        -0.49659E+08
 
   -0.49398E+08         0.24445E+06         0.00000E+00
    0.24445E+06        -0.49928E+08         0.00000E+00
    0.00000E+00         0.00000E+00        -0.49663E+08
 
   -0.49413E+08         0.25286E+06         0.00000E+00
    0.25286E+06        -0.49922E+08         0.00000E+00
    0.00000E+00         0.00000E+00        -0.49667E+08
 
   -0.49427E+08         0.26075E+06         0.00000E+00
    0.26075E+06        -0.49915E+08         0.00000E+00
    0.00000E+00         0.00000E+00        -0.49671E+08
 
   -0.49442E+08         0.26813E+06         0.00000E+00
    0.26813E+06        -0.49909E+08         0.00000E+00
    0.00000E+00         0.00000E+00        -0.49675E+08
 
   -0.49456E+08         0.27500E+06         0.00000E+00
    0.27500E+06        -0.49902E+08         0.00000E+00
    0.00000E+00         0.00000E+00        -0.49679E+08
 
   -0.49471E+08         0.28139E+06         0.00000E+00
    0.28139E+06        -0.49896E+08         0.00000E+00
    0.00000E+00         0.00000E+00        -0.49683E+08
 
   -0.49486E+08         0.28729E+06         0.00000E+00
    0.28729E+06        -0.49890E+08         0.00000E+00
    0.00000E+00         0.00000E+00        -0.49688E+08
 
   -0.49500E+08         0.29274E+06         0.00000E+00
    0.29274E+06        -0.49883E+08         0.00000E+00
    0.00000E+00         0.00000E+00        -0.49692E+08
 
   -0.49515E+08         0.29776E+06         0.00000E+00
    0.29776E+06        -0.49877E+08         0.00000E+00
    0.00000E+00         0.00000E+00        -0.49696E+08
 
   -0.49529E+08         0.30235E+06         0.00000E+00
    0.30235E+06        -0.49871E+08         0.00000E+00
    0.00000E+00         0.00000E+00        -0.49700E+08
 
   -0.49543E+08         0.30655E+06         0.00000E+00
    0.30655E+06        -0.49864E+08         0.00000E+00
    0.00000E+00         0.00000E+00        -0.49704E+08
 
   -0.49557E+08         0.31038E+06         0.00000E+00
    0.31038E+06        -0.49858E+08         0.00000E+00
    0.00000E+00         0.00000E+00        -0.49708E+08
 
   -0.49571E+08         0.31387E+06         0.00000E+00
    0.31387E+06        -0.49853E+08         0.00000E+00
    0.00000E+00         0.00000E+00        -0.49712E+08
 
   -0.49584E+08         0.31704E+06         0.00000E+00
    0.31704E+06        -0.49847E+08         0.00000E+00
    0.00000E+00         0.00000E+00        -0.49716E+08
 
   -0.49597E+08         0.31993E+06         0.00000E+00
    0.31993E+06        -0.49841E+08         0.00000E+00
    0.00000E+00         0.00000E+00        -0.49719E+08
 
   -0.49610E+08         0.32256E+06         0.00000E+00
    0.32256E+06        -0.49836E+08         0.00000E+00
    0.00000E+00         0.00000E+00        -0.49723E+08
 
   -0.49623E+08         0.32496E+06         0.00000E+00
    0.32496E+06        -0.49831E+08         0.00000E+00
    0.00000E+00         0.00000E+00        -0.49727E+08
 
   -0.49635E+08         0.32717E+06         0.00000E+00
    0.32717E+06        -0.49826E+08         0.00000E+00
    0.00000E+00         0.00000E+00        -0.49730E+08
 
   -0.49647E+08         0.32922E+06         0.00000E+00
    0.32922E+06        -0.49821E+08         0.00000E+00
    0.00000E+00         0.00000E+00        -0.49734E+08
 
   -0.49658E+08         0.33115E+06         0.00000E+00
    0.33115E+06        -0.49816E+08         0.00000E+00
    0.00000E+00         0.00000E+00        -0.49737E+08
 
   -0.49669E+08         0.33299E+06         0.00000E+00
    0.33299E+06        -0.49812E+08         0.00000E+00
    0.00000E+00         0.00000E+00        -0.49740E+08
 
   -0.49680E+08         0.33477E+06         0.00000E+00
    0.33477E+06        -0.49807E+08         0.00000E+00
    0.00000E+00         0.00000E+00        -0.49743E+08
 
   -0.49690E+08         0.33654E+06         0.00000E+00
    0.33654E+06        -0.49803E+08         0.00000E+00
    0.00000E+00         0.00000E+00        -0.49746E+08
 
   -0.49700E+08         0.33833E+06         0.00000E+00
    0.33833E+06        -0.49800E+08         0.00000E+00
    0.00000E+00         0.00000E+00        -0.49749E+08
 
   -0.49709E+08         0.34017E+06         0.00000E+00
    0.34017E+06        -0.49796E+08         0.00000E+00
    0.00000E+00         0.00000E+00        -0.49751E+08
 
   -0.49718E+08         0.34211E+06         0.00000E+00
    0.34211E+06        -0.49792E+08         0.00000E+00
    0.00000E+00         0.00000E+00        -0.49754E+08
 
   -0.49726E+08         0.34417E+06         0.00000E+00
    0.34417E+06        -0.49789E+08         0.00000E+00
    0.00000E+00         0.00000E+00        -0.49756E+08
 
   -0.49734E+08         0.34640E+06         0.00000E+00
    0.34640E+06        -0.49786E+08         0.00000E+00
    0.00000E+00         0.00000E+00        -0.49758E+08
 
   -0.49741E+08         0.34882E+06         0.00000E+00
    0.34882E+06        -0.49783E+08         0.00000E+00
    0.00000E+00         0.00000E+00        -0.49760E+08
 
   -0.49749E+08         0.35148E+06         0.00000E+00
    0.35148E+06        -0.49780E+08         0.00000E+00
    0.00000E+00         0.00000E+00        -0.49761E+08
 
   -0.49755E+08         0.35439E+06         0.00000E+00
    0.35439E+06        -0.49778E+08         0.00000E+00
    0.00000E+00         0.00000E+00        -0.49763E+08
 
   -0.49761E+08         0.35758E+06         0.00000E+00
    0.35758E+06        -0.49775E+08         0.00000E+00
    0.00000E+00         0.00000E+00        -0.49764E+08
 
   -0.49141E+08         0.99382E+04         0.00000E+00
    0.99382E+04        -0.50000E+08         0.00000E+00
    0.00000E+00         0.00000E+00        -0.49573E+08
 
   -0.49144E+08         0.29278E+05         0.00000E+00
    0.29278E+05        -0.49999E+08         0.00000E+00
    0.00000E+00         0.00000E+00        -0.49574E+08
 
   -0.49149E+08         0.48302E+05         0.00000E+00
    0.48302E+05        -0.49998E+08         0.00000E+00
    0.00000E+00         0.00000E+00        -0.49575E+08
 
   -0.49155E+08         0.66953E+05         0.00000E+00
    0.66953E+05        -0.49996E+08         0.00000E+00
    0.00000E+00         0.00000E+00        -0.49577E+08
 
   -0.49162E+08         0.85177E+05         0.00000E+00
    0.85177E+05        -0.49994E+08         0.00000E+00
    0.00000E+00         0.00000E+00        -0.49579E+08
 
   -0.49170E+08         0.10293E+06         0.00000E+00
    0.10293E+06        -0.49991E+08         0.00000E+00
    0.00000E+00         0.00000E+00        -0.49581E+08
 
   -0.49180E+08         0.12016E+06         0.00000E+00
    0.12016E+06        -0.49987E+08         0.00000E+00
    0.00000E+00         0.00000E+00        -0.49584E+08
 
   -0.49190E+08         0.13684E+06         0.00000E+00
    0.13684E+06        -0.49983E+08         0.00000E+00
    0.00000E+00         0.00000E+00        -0.49587E+08
 
   -0.49202E+08         0.15294E+06         0.00000E+00
    0.15294E+06        -0.49978E+08         0.00000E+00
    0.00000E+00         0.00000E+00        -0.49591E+08
 
   -0.49214E+08         0.16843E+06         0.00000E+00
    0.16843E+06        -0.49973E+08         0.00000E+00
    0.00000E+00         0.00000E+00        -0.49594E+08
 
   -0.49228E+08         0.18329E+06         0.00000E+00
    0.18329E+06        -0.49968E+08         0.00000E+00
    0.00000E+00         0.00000E+00        -0.49598E+08
 
   -0.49242E+08         0.19750E+06         0.00000E+00
    0.19750E+06        -0.49963E+08         0.00000E+00
    0.00000E+00         0.00000E+00        -0.49602E+08
 
   -0.49256E+08         0.21104E+06         0.00000E+00
    0.21104E+06        -0.49957E+08         0.00000E+00
    0.00000E+00         0.00000E+00        -0.49607E+08
 
   -0.49271E+08         0.22391E+06         0.00000E+00
    0.22391E+06        -0.49950E+08         0.00000E+00
    0.00000E+00         0.00000E+00        -0.49611E+08
 
   -0.49287E+08         0.23610E+06         0.00000E+00
    0.23610E+06        -0.49944E+08         0.00000E+00
    0.00000E+00         0.00000E+00        -0.49616E+08
 
   -0.49303E+08         0.24761E+06         0.00000E+00
    0.24761E+06        -0.49937E+08         0.00000E+00
    0.00000E+00         0.00000E+00        -0.49620E+08
 
   -0.49320E+08         0.25843E+06         0.00000E+00
    0.25843E+06        -0.49930E+08         0.00000E+00
    0.00000E+00         0.00000E+00        -0.49625E+08
 
   -0.49337E+08         0.26857E+06         0.00000E+00
    0.26857E+06        -0.49923E+08         0.00000E+00
    0.00000E+00         0.00000E+00        -0.49630E+08
 
   -0.49354E+08         0.27804E+06         0.00000E+00
    0.27804E+06        -0.49916E+08         0.00000E+00
    0.00000E+00         0.00000E+00        -0.49635E+08
 
   -0.49371E+08         0.28683E+06         0.00000E+00
    0.28683E+06        -0.49909E+08         0.00000E+00
    0.00000E+00         0.00000E+00        -0.49640E+08
 
   -0.49388E+08         0.29497E+06         0.00000E+00
    0.29497E+06        -0.49902E+08         0.00000E+00
    0.00000E+00         0.00000E+00        -0.49645E+08
 
   -0.49406E+08         0.30247E+06         0.00000E+00
    0.30247E+06        -0.49894E+08         0.00000E+00
    0.00000E+00         0.00000E+00        -0.49650E+08
 
   -0.49423E+08         0.30934E+06         0.00000E+00
    0.30934E+06        -0.49887E+08         0.00000E+00
    0.00000E+00         0.00000E+00        -0.49655E+08
 
   -0.49441E+08         0.31560E+06         0.00000E+00
    0.31560E+06        -0.49880E+08         0.00000E+00
    0.00000E+00         0.00000E+00        -0.49660E+08
 
   -0.49458E+08         0.32127E+06         0.00000E+00
    0.32127E+06        -0.49873E+08         0.00000E+00
    0.00000E+00         0.00000E+00        -0.49665E+08
 
   -0.49475E+08         0.32638E+06         0.00000E+00
    0.32638E+06        -0.49865E+08         0.00000E+00
    0.00000E+00         0.00000E+00        -0.49670E+08
 
   -0.49492E+08         0.33094E+06         0.00000E+00
    0.33094E+06        -0.49858E+08         0.00000E+00
    0.00000E+00         0.00000E+00        -0.49675E+08
 
   -0.49508E+08         0.33499E+06         0.00000E+00
    0.33499E+06        -0.49851E+08         0.00000E+00
    0.00000E+00         0.00000E+00        -0.49680E+08
 
   -0.49525E+08         0.33855E+06         0.00000E+00
    0.33855E+06        -0.49845E+08         0.00000E+00
    0.00000E+00         0.00000E+00        -0.49685E+08
 
   -0.49541E+08         0.34166E+06         0.00000E+00
    0.34166E+06        -0.49838E+08         0.00000E+00
    0.00000E+00         0.00000E+00        -0.49689E+08
 
   -0.49556E+08         0.34434E+06         0.00000E+00
    0.34434E+06        -0.49831E+08         0.00000E+00
    0.00000E+00         0.00000E+00        -0.49694E+08
 
   -0.49571E+08         0.34664E+06         0.00000E+00
    0.34664E+06        -0.49825E+08         0.00000E+00
    0.00000E+00         0.00000E+00        -0.49698E+08
 
   -0.49586E+08         0.34857E+06         0.00000E+00
    0.34857E+06        -0.49819E+08         0.00000E+00
    0.00000E+00         0.00000E+00        -0.49703E+08
 
   -0.49600E+08         0.35020E+06         0.00000E+00
    0.35020E+06        -0.49813E+08         0.00000E+00
    0.00000E+00         0.00000E+00        -0.49707E+08
 
   -0.49614E+08         0.35154E+06         0.00000E+00
    0.35154E+06        -0.49808E+08         0.00000E+00
    0.00000E+00         0.00000E+00        -0.49711E+08
 
   -0.49627E+08         0.35265E+06         0.00000E+00
    0.35265E+06        -0.49802E+08         0.00000E+00
    0.00000E+00         0.00000E+00        -0.49715E+08
 
   -0.49640E+08         0.35356E+06         0.00000E+00
    0.35356E+06        -0.49797E+08         0.00000E+00
    0.00000E+00         0.00000E+00        -0.49718E+08
 
   -0.49652E+08         0.35433E+06         0.00000E+00
    0.35433E+06        -0.49792E+08         0.00000E+00
    0.00000E+00         0.00000E+00        -0.49722E+08
 
   -0.49663E+08         0.35498E+06         0.00000E+00
    0.35498E+06        -0.49788E+08         0.00000E+00
    0.00000E+00         0.00000E+00        -0.49725E+08
 
   -0.49674E+08         0.35557E+06         0.00000E+00
    0.35557E+06        -0.49783E+08         0.00000E+00
    0.00000E+00         0.00000E+00        -0.49728E+08
 
   -0.49684E+08         0.35615E+06         0.00000E+00
    0.35615E+06        -0.49779E+08         0.00000E+00
    0.00000E+00         0.00000E+00        -0.49731E+08
 
   -0.49693E+08         0.35676E+06         0.00000E+00
    0.35676E+06        -0.49776E+08         0.00000E+00
    0.00000E+00         0.00000E+00        -0.49734E+08
 
   -0.49702E+08         0.35744E+06         0.00000E+00
    0.35744E+06        -0.49772E+08         0.00000E+00
    0.00000E+00         0.00000E+00        -0.49737E+08
 
   -0.49710E+08         0.35825E+06         0.00000E+00
    0.35825E+06        -0.49769E+08         0.00000E+00
    0.00000E+00         0.00000E+00        -0.49739E+08
 
   -0.49718E+08         0.35923E+06         0.00000E+00
    0.35923E+06        -0.49766E+08         0.00000E+00
    0.00000E+00         0.00000E+00        -0.49741E+08
 
   -0.49725E+08         0.36043E+06         0.00000E+00
    0.36043E+06        -0.49763E+08         0.00000E+00
    0.00000E+00         0.00000E+00        -0.49743E+08
 
   -0.49731E+08         0.36189E+06         0.00000E+00
    0.36189E+06        -0.49761E+08         0.00000E+00
    0.00000E+00         0.00000E+00        -0.49744E+08
 
   -0.49737E+08         0.36366E+06         0.00000E+00
    0.36366E+06        -0.49759E+08         0.00000E+00
    0.00000E+00         0.00000E+00        -0.49746E+08
 
   -0.49742E+08         0.36577E+06         0.00000E+00
    0.36577E+06        -0.49757E+08         0.00000E+00
    0.00000E+00         0.00000E+00        -0.49747E+08
 
   -0.49746E+08         0.36827E+06         0.00000E+00
    0.36827E+06        -0.49755E+08         0.00000E+00
    0.00000E+00         0.00000E+00        -0.49748E+08
 
   -0.49035E+08         0.11865E+05         0.00000E+00
    0.11865E+05        -0.50000E+08         0.00000E+00
    0.00000E+00         0.00000E+00        -0.49522E+08
 
   -0.49040E+08         0.34726E+05         0.00000E+00
    0.34726E+05        -0.49999E+08         0.00000E+00
    0.00000E+00         0.00000E+00        -0.49523E+08
 
   -0.49047E+08         0.57114E+05         0.00000E+00
    0.57114E+05        -0.49998E+08         0.00000E+00
    0.00000E+00         0.00000E+00        -0.49525E+08
 
   -0.49055E+08         0.78960E+05         0.00000E+00
    0.78960E+05        -0.49995E+08         0.00000E+00
    0.00000E+00         0.00000E+00        -0.49528E+08
 
   -0.49065E+08         0.10020E+06         0.00000E+00
    0.10020E+06        -0.49993E+08         0.00000E+00
    0.00000E+00         0.00000E+00        -0.49531E+08
 
   -0.49076E+08         0.12079E+06         0.00000E+00
    0.12079E+06        -0.49989E+08         0.00000E+00
    0.00000E+00         0.00000E+00        -0.49534E+08
 
   -0.49089E+08         0.14068E+06         0.00000E+00
    0.14068E+06        -0.49985E+08         0.00000E+00
    0.00000E+00         0.00000E+00        -0.49538E+08
 
   -0.49103E+08         0.15983E+06         0.00000E+00
    0.15983E+06        -0.49980E+08         0.00000E+00
    0.00000E+00         0.00000E+00        -0.49543E+08
 
   -0.49118E+08         0.17821E+06         0.00000E+00
    0.17821E+06        -0.49975E+08         0.00000E+00
    0.00000E+00         0.00000E+00        -0.49547E+08
 
   -0.49134E+08         0.19579E+06         0.00000E+00
    0.19579E+06        -0.49969E+08         0.00000E+00
    0.00000E+00         0.00000E+00        -0.49552E+08
 
   -0.49151E+08         0.21254E+06         0.00000E+00
    0.21254E+06        -0.49963E+08         0.00000E+00
    0.00000E+00         0.00000E+00        -0.49558E+08
 
   -0.49168E+08         0.22846E+06         0.00000E+00
    0.22846E+06        -0.49957E+08         0.00000E+00
    0.00000E+00         0.00000E+00        -0.49563E+08
 
   -0.49187E+08         0.24354E+06         0.00000E+00
    0.24354E+06        -0.49950E+08         0.00000E+00
    0.00000E+00         0.00000E+00        -0.49569E+08
 
   -0.49206E+08         0.25776E+06         0.00000E+00
    0.25776E+06        -0.49943E+08         0.00000E+00
    0.00000E+00         0.00000E+00        -0.49575E+08
 
   -0.49225E+08         0.27112E+06         0.00000E+00
    0.27112E+06        -0.49936E+08         0.00000E+00
    0.00000E+00         0.00000E+00        -0.49581E+08
 
   -0.49245E+08         0.28362E+06         0.00000E+00
    0.28362E+06        -0.49928E+08         0.00000E+00
    0.00000E+00         0.00000E+00        -0.49587E+08
 
   -0.49266E+08         0.29526E+06         0.00000E+00
    0.29526E+06        -0.49921E+08         0.00000E+00
    0.00000E+00         0.00000E+00        -0.49593E+08
 
   -0.49286E+08         0.30607E+06         0.00000E+00
    0.30607E+06        -0.49913E+08         0.00000E+00
    0.00000E+00         0.00000E+00        -0.49600E+08
 
   -0.49307E+08         0.31603E+06         0.00000E+00
    0.31603E+06        -0.49905E+08         0.00000E+00
    0.00000E+00         0.00000E+00        -0.49606E+08
 
   -0.49328E+08         0.32517E+06         0.00000E+00
    0.32517E+06        -0.49897E+08         0.00000E+00
    0.00000E+00         0.00000E+00        -0.49612E+08
 
   -0.49349E+08         0.33350E+06         0.00000E+00
    0.33350E+06        -0.49889E+08         0.00000E+00
    0.00000E+00         0.00000E+00        -0.49619E+08
 
   -0.49370E+08         0.34104E+06         0.00000E+00
    0.34104E+06        -0.49881E+08         0.00000E+00
    0.00000E+00         0.00000E+00        -0.49625E+08
 
   -0.49391E+08         0.34782E+06         0.00000E+00
    0.34782E+06        -0.49872E+08         0.00000E+00
    0.00000E+00         0.00000E+00        -0.49632E+08
 
   -0.49411E+08         0.35385E+06         0.00000E+00
    0.35385E+06        -0.49864E+08         0.00000E+00
    0.00000E+00         0.00000E+00        -0.49638E+08
 
   -0.49432E+08         0.35916E+06         0.00000E+00
    0.35916E+06        -0.49856E+08         0.00000E+00
    0.00000E+00         0.00000E+00        -0.49644E+08
 
   -0.49452E+08         0.36377E+06         0.00000E+00
    0.36377E+06        -0.49848E+08         0.00000E+00
    0.00000E+00         0.00000E+00        -0.49650E+08
 
   -0.49472E+08         0.36773E+06         0.00000E+00
    0.36773E+06        -0.49841E+08         0.00000E+00
    0.00000E+00         0.00000E+00        -0.49656E+08
 
   -0.49491E+08         0.37105E+06         0.00000E+00
    0.37105E+06        -0.49833E+08         0.00000E+00
    0.00000E+00         0.00000E+00        -0.49662E+08
 
   -0.49510E+08         0.37378E+06         0.00000E+00
    0.37378E+06        -0.49826E+08         0.00000E+00
    0.00000E+00         0.00000E+00        -0.49668E+08
 
   -0.49528E+08         0.37595E+06         0.00000E+00
    0.37595E+06        -0.49818E+08         0.00000E+00
    0.00000E+00         0.00000E+00        -0.49673E+08
 
   -0.49546E+08         0.37760E+06         0.00000E+00
    0.37760E+06        -0.49811E+08         0.00000E+00
    0.00000E+00         0.00000E+00        -0.49679E+08
 
   -0.49563E+08         0.37877E+06         0.00000E+00
    0.37877E+06        -0.49805E+08         0.00000E+00
    0.00000E+00         0.00000E+00        -0.49684E+08
 
   -0.49580E+08         0.37950E+06         0.00000E+00
    0.37950E+06        -0.49798E+08         0.00000E+00
    0.00000E+00         0.00000E+00        -0.49689E+08
 
   -0.49596E+08         0.37983E+06         0.00000E+00
    0.37983E+06        -0.49792E+08         0.00000E+00
    0.00000E+00         0.00000E+00        -0.49694E+08
 
   -0.49611E+08         0.37982E+06         0.00000E+00
    0.37982E+06        -0.49786E+08         0.00000E+00
    0.00000E+00         0.00000E+00        -0.49698E+08
 
   -0.49625E+08         0.37951E+06         0.00000E+00
    0.37951E+06        -0.49780E+08         0.00000E+00
    0.00000E+00         0.00000E+00        -0.49703E+08
 
   -0.49639E+08         0.37895E+06         0.00000E+00
    0.37895E+06        -0.49775E+08         0.00000E+00
    0.00000E+00         0.00000E+00        -0.49707E+08
 
   -0.49652E+08         0.37819E+06         0.00000E+00
    0.37819E+06        -0.49770E+08         0.00000E+00
    0.00000E+00         0.00000E+00        -0.49711E+08
 
   -0.49664E+08         0.37729E+06         0.00000E+00
    0.37729E+06        -0.49765E+08         0.00000E+00
    0.00000E+00         0.00000E+00        -0.49714E+08
 
   -0.49675E+08         0.37630E+06         0.00000E+00
    0.37630E+06        -0.49761E+08         0.00000E+00
    0.00000E+00         0.00000E+00        -0.49718E+08
 
   -0.49685E+08         0.37528E+06         0.00000E+00
    0.37528E+06        -0.49757E+08         0.00000E+00
    0.00000E+00         0.00000E+00        -0.49721E+08
 
   -0.49694E+08         0.37429E+06         0.00000E+00
    0.37429E+06        -0.49753E+08         0.00000E+00
    0.00000E+00         0.00000E+00        -0.49724E+08
 
   -0.49702E+08         0.37338E+06         0.00000E+00
    0.37338E+06        -0.49750E+08         0.00000E+00
    0.00000E+00         0.00000E+00        -0.49726E+08
 
   -0.49710E+08         0.37261E+06         0.00000E+00
    0.37261E+06        -0.49747E+08         0.00000E+00
    0.00000E+00         0.00000E+00        -0.49728E+08
 
   -0.49716E+08         0.37204E+06         0.00000E+00
    0.37204E+06        -0.49745E+08         0.00000E+00
    0.00000E+00         0.00000E+00        -0.49730E+08
 
   -0.49722E+08         0.37174E+06         0.00000E+00
    0.37174E+06        -0.49743E+08         0.00000E+00
    0.00000E+00         0.00000E+00        -0.49732E+08
 
   -0.49726E+08         0.37176E+06         0.00000E+00
    0.37176E+06        -0.49741E+08         0.00000E+00
    0.00000E+00         0.00000E+00        -0.49733E+08
 
   -0.49730E+08         0.37215E+06         0.00000E+00
    0.37215E+06        -0.49740E+08         0.00000E+00
    0.00000E+00         0.00000E+00        -0.49734E+08
 
   -0.49733E+08         0.37298E+06         0.00000E+00
    0.37298E+06        -0.49738E+08         0.00000E+00
    0.00000E+00         0.00000E+00        -0.49735E+08
 
   -0.49735E+08         0.37430E+06         0.00000E+00
    0.37430E+06        -0.49738E+08         0.00000E+00
    0.00000E+00         0.00000E+00        -0.49736E+08
 
   -0.48910E+08         0.14111E+05         0.00000E+00
    0.14111E+05        -0.50000E+08         0.00000E+00
    0.00000E+00         0.00000E+00        -0.49463E+08
 
   -0.48917E+08         0.41016E+05         0.00000E+00
    0.41016E+05        -0.49999E+08         0.00000E+00
    0.00000E+00         0.00000E+00        -0.49465E+08
 
   -0.48927E+08         0.67241E+05         0.00000E+00
    0.67241E+05        -0.49997E+08         0.00000E+00
    0.00000E+00         0.00000E+00        -0.49468E+08
 
   -0.48939E+08         0.92710E+05         0.00000E+00
    0.92710E+05        -0.49995E+08         0.00000E+00
    0.00000E+00         0.00000E+00        -0.49471E+08
 
   -0.48952E+08         0.11736E+06         0.00000E+00
    0.11736E+06        -0.49992E+08         0.00000E+00
    0.00000E+00         0.00000E+00        -0.49476E+08
 
   -0.48967E+08         0.14112E+06         0.00000E+00
    0.14112E+06        -0.49988E+08         0.00000E+00
    0.00000E+00         0.00000E+00        -0.49481E+08
 
   -0.48984E+08         0.16396E+06         0.00000E+00
    0.16396E+06        -0.49983E+08         0.00000E+00
    0.00000E+00         0.00000E+00        -0.49486E+08
 
   -0.49002E+08         0.18583E+06         0.00000E+00
    0.18583E+06        -0.49978E+08         0.00000E+00
    0.00000E+00         0.00000E+00        -0.49492E+08
 
   -0.49022E+08         0.20670E+06         0.00000E+00
    0.20670E+06        -0.49972E+08         0.00000E+00
    0.00000E+00         0.00000E+00        -0.49499E+08
 
   -0.49042E+08         0.22655E+06         0.00000E+00
    0.22655E+06        -0.49966E+08         0.00000E+00
    0.00000E+00         0.00000E+00        -0.49505E+08
 
   -0.49064E+08         0.24536E+06         0.00000E+00
    0.24536E+06        -0.49959E+08         0.00000E+00
    0.00000E+00         0.00000E+00        -0.49513E+08
 
   -0.49086E+08         0.26311E+06         0.00000E+00
    0.26311E+06        -0.49952E+08         0.00000E+00
    0.00000E+00         0.00000E+00        -0.49520E+08
 
   -0.49110E+08         0.27980E+06         0.00000E+00
    0.27980E+06        -0.49945E+08         0.00000E+00
    0.00000E+00         0.00000E+00        -0.49528E+08
 
   -0.49133E+08         0.29544E+06         0.00000E+00
    0.29544E+06        -0.49937E+08         0.00000E+00
    0.00000E+00         0.00000E+00        -0.49536E+08
 
   -0.49158E+08         0.31001E+06         0.00000E+00
    0.31001E+06        -0.49929E+08         0.00000E+00
    0.00000E+00         0.00000E+00        -0.49544E+08
 
   -0.49183E+08         0.32353E+06         0.00000E+00
    0.32353E+06        -0.49921E+08         0.00000E+00
    0.00000E+00         0.00000E+00        -0.49552E+08
 
   -0.49208E+08         0.33601E+06         0.00000E+00
    0.33601E+06        -0.49912E+08         0.00000E+00
    0.00000E+00         0.00000E+00        -0.49560E+08
 
   -0.49233E+08         0.34745E+06         0.00000E+00
    0.34745E+06        -0.49904E+08         0.00000E+00
    0.00000E+00         0.00000E+00        -0.49569E+08
 
   -0.49258E+08         0.35788E+06         0.00000E+00
    0.35788E+06        -0.49895E+08         0.00000E+00
    0.00000E+00         0.00000E+00        -0.49577E+08
 
   -0.49284E+08         0.36732E+06         0.00000E+00
    0.36732E+06        -0.49886E+08         0.00000E+00
    0.00000E+00         0.00000E+00        -0.49585E+08
 
   -0.49309E+08         0.37578E+06         0.00000E+00
    0.37578E+06        -0.49878E+08         0.00000E+00
    0.00000E+00         0.00000E+00        -0.49593E+08
 
   -0.49334E+08         0.38330E+06         0.00000E+00
    0.38330E+06        -0.49869E+08         0.00000E+00
    0.00000E+00         0.00000E+00        -0.49602E+08
 
   -0.49359E+08         0.38989E+06         0.00000E+00
    0.38989E+06        -0.49860E+08         0.00000E+00
    0.00000E+00         0.00000E+00        -0.49610E+08
 
   -0.49384E+08         0.39558E+06         0.00000E+00
    0.39558E+06        -0.49851E+08         0.00000E+00
    0.00000E+00         0.00000E+00        -0.49618E+08
 
   -0.49408E+08         0.40041E+06         0.00000E+00
    0.40041E+06        -0.49843E+08         0.00000E+00
    0.00000E+00         0.00000E+00        -0.49626E+08
 
   -0.49432E+08         0.40441E+06         0.00000E+00
    0.40441E+06        -0.49834E+08         0.00000E+00
    0.00000E+00         0.00000E+00        -0.49633E+08
 
   -0.49456E+08         0.40761E+06         0.00000E+00
    0.40761E+06        -0.49826E+08         0.00000E+00
    0.00000E+00         0.00000E+00        -0.49641E+08
 
   -0.49478E+08         0.41006E+06         0.00000E+00
    0.41006E+06        -0.49818E+08         0.00000E+00
    0.00000E+00         0.00000E+00        -0.49648E+08
 
   -0.49500E+08         0.41178E+06         0.00000E+00
    0.41178E+06        -0.49810E+08         0.00000E+00
    0.00000E+00         0.00000E+00        -0.49655E+08
 
   -0.49522E+08         0.41283E+06         0.00000E+00
    0.41283E+06        -0.49802E+08         0.00000E+00
    0.00000E+00         0.00000E+00        -0.49662E+08
 
   -0.49542E+08         0.41324E+06         0.00000E+00
    0.41324E+06        -0.49795E+08         0.00000E+00
    0.00000E+00         0.00000E+00        -0.49669E+08
 
   -0.49562E+08         0.41306E+06         0.00000E+00
    0.41306E+06        -0.49788E+08         0.00000E+00
    0.00000E+00         0.00000E+00        -0.49675E+08
 
   -0.49581E+08         0.41233E+06         0.00000E+00
    0.41233E+06        -0.49781E+08         0.00000E+00
    0.00000E+00         0.00000E+00        -0.49681E+08
 
   -0.49599E+08         0.41112E+06         0.00000E+00
    0.41112E+06        -0.49774E+08         0.00000E+00
    0.00000E+00         0.00000E+00        -0.49687E+08
 
   -0.49616E+08         0.40947E+06         0.00000E+00
    0.40947E+06        -0.49768E+08         0.00000E+00
    0.00000E+00         0.00000E+00        -0.49692E+08
 
   -0.49632E+08         0.40743E+06         0.00000E+00
    0.40743E+06        -0.49762E+08         0.00000E+00
    0.00000E+00         0.00000E+00        -0.49697E+08
 
   -0.49647E+08         0.40506E+06         0.00000E+00
    0.40506E+06        -0.49757E+08         0.00000E+00
    0.00000E+00         0.00000E+00        -0.49702E+08
 
   -0.49660E+08         0.40243E+06         0.00000E+00
    0.40243E+06        -0.49752E+08         0.00000E+00
    0.00000E+00         0.00000E+00        -0.49706E+08
 
   -0.49673E+08         0.39959E+06         0.00000E+00
    0.39959E+06        -0.49747E+08         0.00000E+00
    0.00000E+00         0.00000E+00        -0.49710E+08
 
   -0.49684E+08         0.39661E+06         0.00000E+00
    0.39661E+06        -0.49743E+08         0.00000E+00
    0.00000E+00         0.00000E+00        -0.49714E+08
 
   -0.49695E+08         0.39355E+06         0.00000E+00
    0.39355E+06        -0.49739E+08         0.00000E+00
    0.00000E+00         0.00000E+00        -0.49717E+08
 
   -0.49704E+08         0.39049E+06         0.00000E+00
    0.39049E+06        -0.49736E+08         0.00000E+00
    0.00000E+00         0.00000E+00        -0.49720E+08
 
   -0.49711E+08         0.38749E+06         0.00000E+00
    0.38749E+06        -0.49733E+08         0.00000E+00
    0.00000E+00         0.00000E+00        -0.49723E+08
 
   -0.49718E+08         0.38462E+06         0.00000E+00
    0.38462E+06        -0.49730E+08         0.00000E+00
    0.00000E+00         0.00000E+00        -0.49725E+08
 
   -0.49723E+08         0.38196E+06         0.00000E+00
    0.38196E+06        -0.49729E+08         0.00000E+00
    0.00000E+00         0.00000E+00        -0.49727E+08
 
   -0.49727E+08         0.37959E+06         0.00000E+00
    0.37959E+06        -0.49727E+08         0.00000E+00
    0.00000E+00         0.00000E+00        -0.49728E+08
 
   -0.49730E+08         0.37757E+06         0.00000E+00
    0.37757E+06        -0.49726E+08         0.00000E+00
    0.00000E+00         0.00000E+00        -0.49729E+08
 
   -0.49732E+08         0.37599E+06         0.00000E+00
    0.37599E+06        -0.49726E+08         0.00000E+00
    0.00000E+00         0.00000E+00        -0.49730E+08
 
   -0.49732E+08         0.37490E+06         0.00000E+00
    0.37490E+06        -0.49726E+08         0.00000E+00
    0.00000E+00         0.00000E+00        -0.49730E+08
 
   -0.49731E+08         0.37440E+06         0.00000E+00
    0.37440E+06        -0.49726E+08         0.00000E+00
    0.00000E+00         0.00000E+00        -0.49730E+08
 
   -0.48762E+08         0.16649E+05         0.00000E+00
    0.16649E+05        -0.50000E+08         0.00000E+00
    0.00000E+00         0.00000E+00        -0.49394E+08
 
   -0.48773E+08         0.48049E+05         0.00000E+00
    0.48049E+05        -0.49999E+08         0.00000E+00
    0.00000E+00         0.00000E+00        -0.49397E+08
 
   -0.48787E+08         0.78508E+05         0.00000E+00
    0.78508E+05        -0.49997E+08         0.00000E+00
    0.00000E+00         0.00000E+00        -0.49401E+08
 
   -0.48804E+08         0.10794E+06         0.00000E+00
    0.10794E+06        -0.49994E+08         0.00000E+00
    0.00000E+00         0.00000E+00        -0.49407E+08
 
   -0.48822E+08         0.13629E+06         0.00000E+00
    0.13629E+06        -0.49991E+08         0.00000E+00
    0.00000E+00         0.00000E+00        -0.49413E+08
 
   -0.48843E+08         0.16348E+06         0.00000E+00
    0.16348E+06        -0.49987E+08         0.00000E+00
    0.00000E+00         0.00000E+00        -0.49420E+08
 
   -0.48865E+08         0.18947E+06         0.00000E+00
    0.18947E+06        -0.49982E+08         0.00000E+00
    0.00000E+00         0.00000E+00        -0.49427E+08
 
   -0.48889E+08         0.21423E+06         0.00000E+00
    0.21423E+06        -0.49976E+08         0.00000E+00
    0.00000E+00         0.00000E+00        -0.49436E+08
 
   -0.48914E+08         0.23773E+06         0.00000E+00
    0.23773E+06        -0.49970E+08         0.00000E+00
    0.00000E+00         0.00000E+00        -0.49445E+08
 
   -0.48940E+08         0.25995E+06         0.00000E+00
    0.25995E+06        -0.49963E+08         0.00000E+00
    0.00000E+00         0.00000E+00        -0.49454E+08
 
   -0.48968E+08         0.28088E+06         0.00000E+00
    0.28088E+06        -0.49956E+08         0.00000E+00
    0.00000E+00         0.00000E+00        -0.49464E+08
 
   -0.48996E+08         0.30051E+06         0.00000E+00
    0.30051E+06        -0.49949E+08         0.00000E+00
    0.00000E+00         0.00000E+00        -0.49474E+08
 
   -0.49025E+08         0.31885E+06         0.00000E+00
    0.31885E+06        -0.49941E+08         0.00000E+00
    0.00000E+00         0.00000E+00        -0.49484E+08
 
   -0.49055E+08         0.33590E+06         0.00000E+00
    0.33590E+06        -0.49933E+08         0.00000E+00
    0.00000E+00         0.00000E+00        -0.49495E+08
 
   -0.49085E+08         0.35168E+06         0.00000E+00
    0.35168E+06        -0.49924E+08         0.00000E+00
    0.00000E+00         0.00000E+00        -0.49505E+08
 
   -0.49115E+08         0.36619E+06         0.00000E+00
    0.36619E+06        -0.49916E+08         0.00000E+00
    0.00000E+00         0.00000E+00        -0.49516E+08
 
   -0.49146E+08         0.37946E+06         0.00000E+00
    0.37946E+06        -0.49907E+08         0.00000E+00
    0.00000E+00         0.00000E+00        -0.49527E+08
 
   -0.49177E+08         0.39151E+06         0.00000E+00
    0.39151E+06        -0.49898E+08         0.00000E+00
    0.00000E+00         0.00000E+00        -0.49538E+08
 
   -0.49208E+08         0.40236E+06         0.00000E+00
    0.40236E+06        -0.49889E+08         0.00000E+00
    0.00000E+00         0.00000E+00        -0.49549E+08
 
   -0.49239E+08         0.41203E+06         0.00000E+00
    0.41203E+06        -0.49880E+08         0.00000E+00
    0.00000E+00         0.00000E+00        -0.49559E+08
 
   -0.49269E+08         0.42056E+06         0.00000E+00
    0.42056E+06        -0.49871E+08         0.00000E+00
    0.00000E+00         0.00000E+00        -0.49570E+08
 
   -0.49299E+08         0.42797E+06         0.00000E+00
    0.42797E+06        -0.49862E+08         0.00000E+00
    0.00000E+00         0.00000E+00        -0.49581E+08
 
   -0.49329E+08         0.43431E+06         0.00000E+00
    0.43431E+06        -0.49853E+08         0.00000E+00
    0.00000E+00         0.00000E+00        -0.49591E+08
 
   -0.49359E+08         0.43959E+06         0.00000E+00
    0.43959E+06        -0.49844E+08         0.00000E+00
    0.00000E+00         0.00000E+00        -0.49601E+08
 
   -0.49388E+08         0.44386E+06         0.00000E+00
    0.44386E+06        -0.49835E+08         0.00000E+00
    0.00000E+00         0.00000E+00        -0.49611E+08
 
   -0.49416E+08         0.44715E+06         0.00000E+00
    0.44715E+06        -0.49826E+08         0.00000E+00
    0.00000E+00         0.00000E+00        -0.49621E+08
 
   -0.49444E+08         0.44951E+06         0.00000E+00
    0.44951E+06        -0.49818E+08         0.00000E+00
    0.00000E+00         0.00000E+00        -0.49631E+08
 
   -0.49470E+08         0.45097E+06         0.00000E+00
    0.45097E+06        -0.49809E+08         0.00000E+00
    0.00000E+00         0.00000E+00        -0.49640E+08
 
   -0.49496E+08         0.45158E+06         0.00000E+00
    0.45158E+06        -0.49801E+08         0.00000E+00
    0.00000E+00         0.00000E+00        -0.49649E+08
 
   -0.49521E+08         0.45137E+06         0.00000E+00
    0.45137E+06        -0.49793E+08         0.00000E+00
    0.00000E+00         0.00000E+00        -0.49657E+08
 
   -0.49545E+08         0.45040E+06         0.00000E+00
    0.45040E+06        -0.49786E+08         0.00000E+00
    0.00000E+00         0.00000E+00        -0.49665E+08
 
   -0.49568E+08         0.44872E+06         0.00000E+00
    0.44872E+06        -0.49778E+08         0.00000E+00
    0.00000E+00         0.00000E+00        -0.49673E+08
 
   -0.49590E+08         0.44637E+06         0.00000E+00
    0.44637E+06        -0.49771E+08         0.00000E+00
    0.00000E+00         0.00000E+00        -0.49681E+08
 
   -0.49611E+08         0.44341E+06         0.00000E+00
    0.44341E+06        -0.49765E+08         0.00000E+00
    0.00000E+00         0.00000E+00        -0.49688E+08
 
   -0.49630E+08         0.43989E+06         0.00000E+00
    0.43989E+06        -0.49758E+08         0.00000E+00
    0.00000E+00         0.00000E+00        -0.49694E+08
 
   -0.49648E+08         0.43587E+06         0.00000E+00
    0.43587E+06        -0.49752E+08         0.00000E+00
    0.00000E+00         0.00000E+00        -0.49700E+08
 
   -0.49664E+08         0.43142E+06         0.00000E+00
    0.43142E+06        -0.49747E+08         0.00000E+00
    0.00000E+00         0.00000E+00        -0.49706E+08
 
   -0.49680E+08         0.42659E+06         0.00000E+00
    0.42659E+06        -0.49742E+08         0.00000E+00
    0.00000E+00         0.00000E+00        -0.49711E+08
 
   -0.49693E+08         0.42146E+06         0.00000E+00
    0.42146E+06        -0.49737E+08         0.00000E+00
    0.00000E+00         0.00000E+00        -0.49716E+08
 
   -0.49705E+08         0.41609E+06         0.00000E+00
    0.41609E+06        -0.49733E+08         0.00000E+00
    0.00000E+00         0.00000E+00        -0.49720E+08
 
   -0.49716E+08         0.41057E+06         0.00000E+00
    0.41057E+06        -0.49730E+08         0.00000E+00
    0.00000E+00         0.00000E+00        -0.49724E+08
 
   -0.49725E+08         0.40496E+06         0.00000E+00
    0.40496E+06        -0.49727E+08         0.00000E+00
    0.00000E+00         0.00000E+00        -0.49727E+08
 
   -0.49732E+08         0.39936E+06         0.00000E+00
    0.39936E+06        -0.49724E+08         0.00000E+00
    0.00000E+00         0.00000E+00        -0.49730E+08
 
   -0.49738E+08         0.39383E+06         0.00000E+00
    0.39383E+06        -0.49722E+08         0.00000E+00
    0.00000E+00         0.00000E+00        -0.49732E+08
 
   -0.49742E+08         0.38847E+06         0.00000E+00
    0.38847E+06        -0.49721E+08         0.00000E+00
    0.00000E+00         0.00000E+00        -0.49734E+08
 
   -0.49745E+08         0.38338E+06         0.00000E+00
    0.38338E+06        -0.49721E+08         0.00000E+00
    0.00000E+00         0.00000E+00        -0.49735E+08
 
   -0.49745E+08         0.37863E+06         0.00000E+00
    0.37863E+06        -0.49721E+08         0.00000E+00
    0.00000E+00         0.00000E+00        -0.49736E+08
 
   -0.49745E+08         0.37432E+06         0.00000E+00
    0.37432E+06        -0.49721E+08         0.00000E+00
    0.00000E+00         0.00000E+00        -0.49736E+08
 
   -0.49742E+08         0.37055E+06         0.00000E+00
    0.37055E+06        -0.49722E+08         0.00000E+00
    0.00000E+00         0.00000E+00        -0.49736E+08
 
   -0.49738E+08         0.36741E+06         0.00000E+00
    0.36741E+06        -0.49724E+08         0.00000E+00
    0.00000E+00         0.00000E+00        -0.49736E+08
 
   -0.48591E+08         0.19408E+05         0.00000E+00
    0.19408E+05        -0.50000E+08         0.00000E+00
    0.00000E+00         0.00000E+00        -0.49316E+08
 
   -0.48607E+08         0.55597E+05         0.00000E+00
    0.55597E+05        -0.49999E+08         0.00000E+00
    0.00000E+00         0.00000E+00        -0.49320E+08
 
   -0.48627E+08         0.90528E+05         0.00000E+00
    0.90528E+05        -0.49997E+08         0.00000E+00
    0.00000E+00         0.00000E+00        -0.49326E+08
 
   -0.48649E+08         0.12411E+06         0.00000E+00
    0.12411E+06        -0.49994E+08         0.00000E+00
    0.00000E+00         0.00000E+00        -0.49333E+08
 
   -0.48674E+08         0.15629E+06         0.00000E+00
    0.15629E+06        -0.49990E+08         0.00000E+00
    0.00000E+00         0.00000E+00        -0.49342E+08
 
   -0.48701E+08         0.18699E+06         0.00000E+00
    0.18699E+06        -0.49986E+08         0.00000E+00
    0.00000E+00         0.00000E+00        -0.49352E+08
 
   -0.48730E+08         0.21619E+06         0.00000E+00
    0.21619E+06        -0.49981E+08         0.00000E+00
    0.00000E+00         0.00000E+00        -0.49362E+08
 
   -0.48761E+08         0.24385E+06         0.00000E+00
    0.24385E+06        -0.49975E+08         0.00000E+00
    0.00000E+00         0.00000E+00        -0.49374E+08
 
   -0.48793E+08         0.26996E+06         0.00000E+00
    0.26996E+06        -0.49969E+08         0.00000E+00
    0.00000E+00         0.00000E+00        -0.49386E+08
 
   -0.48827E+08         0.29451E+06         0.00000E+00
    0.29451E+06        -0.49962E+08         0.00000E+00
    0.00000E+00         0.00000E+00        -0.49398E+08
 
   -0.48861E+08         0.31750E+06         0.00000E+00
    0.31750E+06        -0.49955E+08         0.00000E+00
    0.00000E+00         0.00000E+00        -0.49411E+08
 
   -0.48897E+08         0.33894E+06         0.00000E+00
    0.33894E+06        -0.49948E+08         0.00000E+00
    0.00000E+00         0.00000E+00        -0.49425E+08
 
   -0.48933E+08         0.35883E+06         0.00000E+00
    0.35883E+06        -0.49940E+08         0.00000E+00
    0.00000E+00         0.00000E+00        -0.49438E+08
 
   -0.48969E+08         0.37721E+06         0.00000E+00
    0.37721E+06        -0.49932E+08         0.00000E+00
    0.00000E+00         0.00000E+00        -0.49452E+08
 
   -0.49006E+08         0.39409E+06         0.00000E+00
    0.39409E+06        -0.49924E+08         0.00000E+00
    0.00000E+00         0.00000E+00        -0.49466E+08
 
   -0.49044E+08         0.40950E+06         0.00000E+00
    0.40950E+06        -0.49915E+08         0.00000E+00
    0.00000E+00         0.00000E+00        -0.49480E+08
 
   -0.49081E+08         0.42346E+06         0.00000E+00
    0.42346E+06        -0.49907E+08         0.00000E+00
    0.00000E+00         0.00000E+00        -0.49495E+08
 
   -0.49119E+08         0.43602E+06         0.00000E+00
    0.43602E+06        -0.49898E+08         0.00000E+00
    0.00000E+00         0.00000E+00        -0.49509E+08
 
   -0.49156E+08         0.44720E+06         0.00000E+00
    0.44720E+06        -0.49889E+08         0.00000E+00
    0.00000E+00         0.00000E+00        -0.49523E+08
 
   -0.49193E+08         0.45703E+06         0.00000E+00
    0.45703E+06        -0.49881E+08         0.00000E+00
    0.00000E+00         0.00000E+00        -0.49537E+08
 
   -0.49229E+08         0.46556E+06         0.00000E+00
    0.46556E+06        -0.49872E+08         0.00000E+00
    0.00000E+00         0.00000E+00        -0.49551E+08
 
   -0.49266E+08         0.47283E+06         0.00000E+00
    0.47283E+06        -0.49863E+08         0.00000E+00
    0.00000E+00         0.00000E+00        -0.49564E+08
 
   -0.49301E+08         0.47886E+06         0.00000E+00
    0.47886E+06        -0.49854E+08         0.00000E+00
    0.00000E+00         0.00000E+00        -0.49578E+08
 
   -0.49336E+08         0.48370E+06         0.00000E+00
    0.48370E+06        -0.49845E+08         0.00000E+00
    0.00000E+00         0.00000E+00        -0.49591E+08
 
   -0.49370E+08         0.48739E+06         0.00000E+00
    0.48739E+06        -0.49837E+08         0.00000E+00
    0.00000E+00         0.00000E+00        -0.49604E+08
 
   -0.49404E+08         0.48997E+06         0.00000E+00
    0.48997E+06        -0.49828E+08         0.00000E+00
    0.00000E+00         0.00000E+00        -0.49616E+08
 
   -0.49436E+08         0.49147E+06         0.00000E+00
    0.49147E+06        -0.49820E+08         0.00000E+00
    0.00000E+00         0.00000E+00        -0.49628E+08
 
   -0.49468E+08         0.49194E+06         0.00000E+00
    0.49194E+06        -0.49812E+08         0.00000E+00
    0.00000E+00         0.00000E+00        -0.49640E+08
 
   -0.49498E+08         0.49143E+06         0.00000E+00
    0.49143E+06        -0.49804E+08         0.00000E+00
    0.00000E+00         0.00000E+00        -0.49651E+08
 
   -0.49527E+08         0.48997E+06         0.00000E+00
    0.48997E+06        -0.49796E+08         0.00000E+00
    0.00000E+00         0.00000E+00        -0.49662E+08
 
   -0.49555E+08         0.48761E+06         0.00000E+00
    0.48761E+06        -0.49789E+08         0.00000E+00
    0.00000E+00         0.00000E+00        -0.49672E+08
 
   -0.49582E+08         0.48440E+06         0.00000E+00
    0.48440E+06        -0.49782E+08         0.00000E+00
    0.00000E+00         0.00000E+00        -0.49682E+08
 
   -0.49607E+08         0.48038E+06         0.00000E+00
    0.48038E+06        -0.49775E+08         0.00000E+00
    0.00000E+00         0.00000E+00        -0.49691E+08
 
   -0.49631E+08         0.47561E+06         0.00000E+00
    0.47561E+06        -0.49769E+08         0.00000E+00
    0.00000E+00         0.00000E+00        -0.49700E+08
 
   -0.49654E+08         0.47014E+06         0.00000E+00
    0.47014E+06        -0.49762E+08         0.00000E+00
    0.00000E+00         0.00000E+00        -0.49708E+08
 
   -0.49674E+08         0.46402E+06         0.00000E+00
    0.46402E+06        -0.49757E+08         0.00000E+00
    0.00000E+00         0.00000E+00        -0.49716E+08
 
   -0.49693E+08         0.45732E+06         0.00000E+00
    0.45732E+06        -0.49751E+08         0.00000E+00
    0.00000E+00         0.00000E+00        -0.49723E+08
 
   -0.49710E+08         0.45010E+06         0.00000E+00
    0.45010E+06        -0.49746E+08         0.00000E+00
    0.00000E+00         0.00000E+00        -0.49729E+08
 
   -0.49726E+08         0.44243E+06         0.00000E+00
    0.44243E+06        -0.49742E+08         0.00000E+00
    0.00000E+00         0.00000E+00        -0.49735E+08
 
   -0.49739E+08         0.43438E+06         0.00000E+00
    0.43438E+06        -0.49738E+08         0.00000E+00
    0.00000E+00         0.00000E+00        -0.49740E+08
 
   -0.49751E+08         0.42603E+06         0.00000E+00
    0.42603E+06        -0.49735E+08         0.00000E+00
    0.00000E+00         0.00000E+00        -0.49744E+08
 
   -0.49760E+08         0.41746E+06         0.00000E+00
    0.41746E+06        -0.49732E+08         0.00000E+00
    0.00000E+00         0.00000E+00        -0.49748E+08
 
   -0.49768E+08         0.40875E+06         0.00000E+00
    0.40875E+06        -0.49731E+08         0.00000E+00
    0.00000E+00         0.00000E+00        -0.49751E+08
 
   -0.49773E+08         0.40001E+06         0.00000E+00
    0.40001E+06        -0.49729E+08         0.00000E+00
    0.00000E+00         0.00000E+00        -0.49754E+08
 
   -0.49777E+08         0.39132E+06         0.00000E+00
    0.39132E+06        -0.49729E+08         0.00000E+00
    0.00000E+00         0.00000E+00        -0.49756E+08
 
   -0.49778E+08         0.38280E+06         0.00000E+00
    0.38280E+06        -0.49729E+08         0.00000E+00
    0.00000E+00         0.00000E+00        -0.49757E+08
 
   -0.49777E+08         0.37454E+06         0.00000E+00
    0.37454E+06        -0.49730E+08         0.00000E+00
    0.00000E+00         0.00000E+00        -0.49758E+08
 
   -0.49773E+08         0.36666E+06         0.00000E+00
    0.36666E+06        -0.49731E+08         0.00000E+00
    0.00000E+00         0.00000E+00        -0.49758E+08
 
   -0.49768E+08         0.35928E+06         0.00000E+00
    0.35928E+06        -0.49734E+08         0.00000E+00
    0.00000E+00         0.00000E+00        -0.49758E+08
 
   -0.49761E+08         0.35251E+06         0.00000E+00
    0.35251E+06        -0.49737E+08         0.00000E+00
    0.00000E+00         0.00000E+00        -0.49757E+08
 
   -0.48394E+08         0.22257E+05         0.00000E+00
    0.22257E+05        -0.50000E+08         0.00000E+00
    0.00000E+00         0.00000E+00        -0.49227E+08
 
   -0.48418E+08         0.63261E+05         0.00000E+00
    0.63261E+05        -0.49999E+08         0.00000E+00
    0.00000E+00         0.00000E+00        -0.49234E+08
 
   -0.48445E+08         0.10263E+06         0.00000E+00
    0.10263E+06        -0.49997E+08         0.00000E+00
    0.00000E+00         0.00000E+00        -0.49242E+08
 
   -0.48475E+08         0.14029E+06         0.00000E+00
    0.14029E+06        -0.49994E+08         0.00000E+00
    0.00000E+00         0.00000E+00        -0.49252E+08
 
   -0.48508E+08         0.17616E+06         0.00000E+00
    0.17616E+06        -0.49991E+08         0.00000E+00
    0.00000E+00         0.00000E+00        -0.49264E+08
 
   -0.48543E+08         0.21021E+06         0.00000E+00
    0.21021E+06        -0.49987E+08         0.00000E+00
    0.00000E+00         0.00000E+00        -0.49277E+08
 
   -0.48581E+08         0.24241E+06         0.00000E+00
    0.24241E+06        -0.49982E+08         0.00000E+00
    0.00000E+00         0.00000E+00        -0.49291E+08
 
   -0.48620E+08         0.27275E+06         0.00000E+00
    0.27275E+06        -0.49976E+08         0.00000E+00
    0.00000E+00         0.00000E+00        -0.49306E+08
 
   -0.48661E+08         0.30123E+06         0.00000E+00
    0.30123E+06        -0.49971E+08         0.00000E+00
    0.00000E+00         0.00000E+00        -0.49322E+08
 
   -0.48703E+08         0.32785E+06         0.00000E+00
    0.32785E+06        -0.49965E+08         0.00000E+00
    0.00000E+00         0.00000E+00        -0.49339E+08
 
   -0.48746E+08         0.35263E+06         0.00000E+00
    0.35263E+06        -0.49958E+08         0.00000E+00
    0.00000E+00         0.00000E+00        -0.49356E+08
 
   -0.48790E+08         0.37560E+06         0.00000E+00
    0.37560E+06        -0.49951E+08         0.00000E+00
    0.00000E+00         0.00000E+00        -0.49374E+08
 
   -0.48834E+08         0.39679E+06         0.00000E+00
    0.39679E+06        -0.49944E+08         0.00000E+00
    0.00000E+00         0.00000E+00        -0.49392E+08
 
   -0.48879E+08         0.41623E+06         0.00000E+00
    0.41623E+06        -0.49937E+08         0.00000E+00
    0.00000E+00         0.00000E+00        -0.49410E+08
 
   -0.48924E+08         0.43398E+06         0.00000E+00
    0.43398E+06        -0.49930E+08         0.00000E+00
    0.00000E+00         0.00000E+00        -0.49428E+08
 
   -0.48969E+08         0.45006E+06         0.00000E+00
    0.45006E+06        -0.49922E+08         0.00000E+00
    0.00000E+00         0.00000E+00        -0.49447E+08
 
   -0.49014E+08         0.46453E+06         0.00000E+00
    0.46453E+06        -0.49915E+08         0.00000E+00
    0.00000E+00         0.00000E+00        -0.49465E+08
 
   -0.49058E+08         0.47742E+06         0.00000E+00
    0.47742E+06        -0.49907E+08         0.00000E+00
    0.00000E+00         0.00000E+00        -0.49484E+08
 
   -0.49103E+08         0.48880E+06         0.00000E+00
    0.48880E+06        -0.49899E+08         0.00000E+00
    0.00000E+00         0.00000E+00        -0.49502E+08
 
   -0.49147E+08         0.49869E+06         0.00000E+00
    0.49869E+06        -0.49892E+08         0.00000E+00
    0.00000E+00         0.00000E+00        -0.49520E+08
 
   -0.49190E+08         0.50716E+06         0.00000E+00
    0.50716E+06        -0.49884E+08         0.00000E+00
    0.00000E+00         0.00000E+00        -0.49537E+08
 
   -0.49233E+08         0.51423E+06         0.00000E+00
    0.51423E+06        -0.49876E+08         0.00000E+00
    0.00000E+00         0.00000E+00        -0.49555E+08
 
   -0.49275E+08         0.51997E+06         0.00000E+00
    0.51997E+06        -0.49869E+08         0.00000E+00
    0.00000E+00         0.00000E+00        -0.49572E+08
 
   -0.49316E+08         0.52441E+06         0.00000E+00
    0.52441E+06        -0.49861E+08         0.00000E+00
    0.00000E+00         0.00000E+00        -0.49589E+08
 
   -0.49356E+08         0.52758E+06         0.00000E+00
    0.52758E+06        -0.49854E+08         0.00000E+00
    0.00000E+00         0.00000E+00        -0.49605E+08
 
   -0.49395E+08         0.52954E+06         0.00000E+00
    0.52954E+06        -0.49847E+08         0.00000E+00
    0.00000E+00         0.00000E+00        -0.49621E+08
 
   -0.49433E+08         0.53033E+06         0.00000E+00
    0.53033E+06        -0.49839E+08         0.00000E+00
    0.00000E+00         0.00000E+00        -0.49636E+08
 
   -0.49470E+08         0.52997E+06         0.00000E+00
    0.52997E+06        -0.49832E+08         0.00000E+00
    0.00000E+00         0.00000E+00        -0.49651E+08
 
   -0.49506E+08         0.52851E+06         0.00000E+00
    0.52851E+06        -0.49825E+08         0.00000E+00
    0.00000E+00         0.00000E+00        -0.49665E+08
 
   -0.49540E+08         0.52599E+06         0.00000E+00
    0.52599E+06        -0.49819E+08         0.00000E+00
    0.00000E+00         0.00000E+00        -0.49679E+08
 
   -0.49573E+08         0.52244E+06         0.00000E+00
    0.52244E+06        -0.49812E+08         0.00000E+00
    0.00000E+00         0.00000E+00        -0.49692E+08
 
   -0.49604E+08         0.51789E+06         0.00000E+00
    0.51789E+06        -0.49806E+08         0.00000E+00
    0.00000E+00         0.00000E+00        -0.49704E+08
 
   -0.49633E+08         0.51240E+06         0.00000E+00
    0.51240E+06        -0.49799E+08         0.00000E+00
    0.00000E+00         0.00000E+00        -0.49716E+08
 
   -0.49661E+08         0.50600E+06         0.00000E+00
    0.50600E+06        -0.49794E+08         0.00000E+00
    0.00000E+00         0.00000E+00        -0.49727E+08
 
   -0.49687E+08         0.49873E+06         0.00000E+00
    0.49873E+06        -0.49788E+08         0.00000E+00
    0.00000E+00         0.00000E+00        -0.49738E+08
 
   -0.49711E+08         0.49064E+06         0.00000E+00
    0.49064E+06        -0.49783E+08         0.00000E+00
    0.00000E+00         0.00000E+00        -0.49747E+08
 
   -0.49734E+08         0.48177E+06         0.00000E+00
    0.48177E+06        -0.49778E+08         0.00000E+00
    0.00000E+00         0.00000E+00        -0.49756E+08
 
   -0.49754E+08         0.47219E+06         0.00000E+00
    0.47219E+06        -0.49773E+08         0.00000E+00
    0.00000E+00         0.00000E+00        -0.49764E+08
 
   -0.49772E+08         0.46195E+06         0.00000E+00
    0.46195E+06        -0.49769E+08         0.00000E+00
    0.00000E+00         0.00000E+00        -0.49771E+08
 
   -0.49787E+08         0.45111E+06         0.00000E+00
    0.45111E+06        -0.49766E+08         0.00000E+00
    0.00000E+00         0.00000E+00        -0.49778E+08
 
   -0.49801E+08         0.43976E+06         0.00000E+00
    0.43976E+06        -0.49763E+08         0.00000E+00
    0.00000E+00         0.00000E+00        -0.49783E+08
 
   -0.49812E+08         0.42795E+06         0.00000E+00
    0.42795E+06        -0.49761E+08         0.00000E+00
    0.00000E+00         0.00000E+00        -0.49788E+08
 
   -0.49820E+08         0.41579E+06         0.00000E+00
    0.41579E+06        -0.49759E+08         0.00000E+00
    0.00000E+00         0.00000E+00        -0.49792E+08
 
   -0.49826E+08         0.40336E+06         0.00000E+00
    0.40336E+06        -0.49758E+08         0.00000E+00
    0.00000E+00         0.00000E+00        -0.49795E+08
 
   -0.49829E+08         0.39077E+06         0.00000E+00
    0.39077E+06        -0.49758E+08         0.00000E+00
    0.00000E+00         0.00000E+00        -0.49798E+08
 
   -0.49830E+08         0.37813E+06         0.00000E+00
    0.37813E+06        -0.49759E+08         0.00000E+00
    0.00000E+00         0.00000E+00        -0.49799E+08
 
   -0.49828E+08         0.36556E+06         0.00000E+00
    0.36556E+06        -0.49761E+08         0.00000E+00
    0.00000E+00         0.00000E+00        -0.49800E+08
 
   -0.49823E+08         0.35318E+06         0.00000E+00
    0.35318E+06        -0.49764E+08         0.00000E+00
    0.00000E+00         0.00000E+00        -0.49800E+08
 
   -0.49815E+08         0.34115E+06         0.00000E+00
    0.34115E+06        -0.49767E+08         0.00000E+00
    0.00000E+00         0.00000E+00        -0.49800E+08
 
   -0.49804E+08         0.32960E+06         0.00000E+00
    0.32960E+06        -0.49772E+08         0.00000E+00
    0.00000E+00         0.00000E+00        -0.49799E+08
 
   -0.48174E+08         0.24989E+05         0.00000E+00
    0.24989E+05        -0.50000E+08         0.00000E+00
    0.00000E+00         0.00000E+00        -0.49130E+08
 
   -0.48206E+08         0.70433E+05         0.00000E+00
    0.70433E+05        -0.49999E+08         0.00000E+00
    0.00000E+00         0.00000E+00        -0.49139E+08
 
   -0.48243E+08         0.11381E+06         0.00000E+00
    0.11381E+06        -0.49997E+08         0.00000E+00
    0.00000E+00         0.00000E+00        -0.49150E+08
 
   -0.48282E+08         0.15506E+06         0.00000E+00
    0.15506E+06        -0.49995E+08         0.00000E+00
    0.00000E+00         0.00000E+00        -0.49164E+08
 
   -0.48325E+08         0.19413E+06         0.00000E+00
    0.19413E+06        -0.49992E+08         0.00000E+00
    0.00000E+00         0.00000E+00        -0.49179E+08
 
   -0.48371E+08         0.23099E+06         0.00000E+00
    0.23099E+06        -0.49989E+08         0.00000E+00
    0.00000E+00         0.00000E+00        -0.49197E+08
 
   -0.48419E+08         0.26563E+06         0.00000E+00
    0.26563E+06        -0.49985E+08         0.00000E+00
    0.00000E+00         0.00000E+00        -0.49215E+08
 
   -0.48468E+08         0.29807E+06         0.00000E+00
    0.29807E+06        -0.49980E+08         0.00000E+00
    0.00000E+00         0.00000E+00        -0.49236E+08
 
   -0.48519E+08         0.32832E+06         0.00000E+00
    0.32832E+06        -0.49976E+08         0.00000E+00
    0.00000E+00         0.00000E+00        -0.49257E+08
 
   -0.48571E+08         0.35643E+06         0.00000E+00
    0.35643E+06        -0.49971E+08         0.00000E+00
    0.00000E+00         0.00000E+00        -0.49278E+08
 
   -0.48624E+08         0.38244E+06         0.00000E+00
    0.38244E+06        -0.49966E+08         0.00000E+00
    0.00000E+00         0.00000E+00        -0.49301E+08
 
   -0.48677E+08         0.40639E+06         0.00000E+00
    0.40639E+06        -0.49961E+08         0.00000E+00
    0.00000E+00         0.00000E+00        -0.49324E+08
 
   -0.48731E+08         0.42834E+06         0.00000E+00
    0.42834E+06        -0.49955E+08         0.00000E+00
    0.00000E+00         0.00000E+00        -0.49347E+08
 
   -0.48784E+08         0.44837E+06         0.00000E+00
    0.44837E+06        -0.49950E+08         0.00000E+00
    0.00000E+00         0.00000E+00        -0.49370E+08
 
   -0.48838E+08         0.46652E+06         0.00000E+00
    0.46652E+06        -0.49945E+08         0.00000E+00
    0.00000E+00         0.00000E+00        -0.49394E+08
 
   -0.48892E+08         0.48287E+06         0.00000E+00
    0.48287E+06        -0.49939E+08         0.00000E+00
    0.00000E+00         0.00000E+00        -0.49418E+08
 
   -0.48945E+08         0.49749E+06         0.00000E+00
    0.49749E+06        -0.49934E+08         0.00000E+00
    0.00000E+00         0.00000E+00        -0.49441E+08
 
   -0.48998E+08         0.51043E+06         0.00000E+00
    0.51043E+06        -0.49929E+08         0.00000E+00
    0.00000E+00         0.00000E+00        -0.49464E+08
 
   -0.49050E+08         0.52177E+06         0.00000E+00
    0.52177E+06        -0.49923E+08         0.00000E+00
    0.00000E+00         0.00000E+00        -0.49487E+08
 
   -0.49101E+08         0.53156E+06         0.00000E+00
    0.53156E+06        -0.49918E+08         0.00000E+00
    0.00000E+00         0.00000E+00        -0.49510E+08
 
   -0.49152E+08         0.53987E+06         0.00000E+00
    0.53987E+06        -0.49913E+08         0.00000E+00
    0.00000E+00         0.00000E+00        -0.49533E+08
 
   -0.49201E+08         0.54674E+06         0.00000E+00
    0.54674E+06        -0.49908E+08         0.00000E+00
    0.00000E+00         0.00000E+00        -0.49555E+08
 
   -0.49250E+08         0.55223E+06         0.00000E+00
    0.55223E+06        -0.49903E+08         0.00000E+00
    0.00000E+00         0.00000E+00        -0.49576E+08
 
   -0.49298E+08         0.55639E+06         0.00000E+00
    0.55639E+06        -0.49898E+08         0.00000E+00
    0.00000E+00         0.00000E+00        -0.49598E+08
 
   -0.49344E+08         0.55925E+06         0.00000E+00
    0.55925E+06        -0.49893E+08         0.00000E+00
    0.00000E+00         0.00000E+00        -0.49618E+08
 
   -0.49389E+08         0.56086E+06         0.00000E+00
    0.56086E+06        -0.49888E+08         0.00000E+00
    0.00000E+00         0.00000E+00        -0.49638E+08
 
   -0.49433E+08         0.56125E+06         0.00000E+00
    0.56125E+06        -0.49883E+08         0.00000E+00
    0.00000E+00         0.00000E+00        -0.49658E+08
 
   -0.49476E+08         0.56045E+06         0.00000E+00
    0.56045E+06        -0.49878E+08         0.00000E+00
    0.00000E+00         0.00000E+00        -0.49676E+08
 
   -0.49517E+08         0.55849E+06         0.00000E+00
    0.55849E+06        -0.49873E+08         0.00000E+00
    0.00000E+00         0.00000E+00        -0.49695E+08
 
   -0.49557E+08         0.55538E+06         0.00000E+00
    0.55538E+06        -0.49868E+08         0.00000E+00
    0.00000E+00         0.00000E+00        -0.49712E+08
 
   -0.49595E+08         0.55116E+06         0.00000E+00
    0.55116E+06        -0.49863E+08         0.00000E+00
    0.00000E+00         0.00000E+00        -0.49728E+08
 
   -0.49631E+08         0.54583E+06         0.00000E+00
    0.54583E+06        -0.49859E+08         0.00000E+00
    0.00000E+00         0.00000E+00        -0.49744E+08
 
   -0.49666E+08         0.53942E+06         0.00000E+00
    0.53942E+06        -0.49854E+08         0.00000E+00
    0.00000E+00         0.00000E+00        -0.49759E+08
 
   -0.49698E+08         0.53195E+06         0.00000E+00
    0.53195E+06        -0.49849E+08         0.00000E+00
    0.00000E+00         0.00000E+00        -0.49773E+08
 
   -0.49729E+08         0.52343E+06         0.00000E+00
    0.52343E+06        -0.49845E+08         0.00000E+00
    0.00000E+00         0.00000E+00        -0.49787E+08
 
   -0.49758E+08         0.51388E+06         0.00000E+00
    0.51388E+06        -0.49841E+08         0.00000E+00
    0.00000E+00         0.00000E+00        -0.49799E+08
 
   -0.49784E+08         0.50333E+06         0.00000E+00
    0.50333E+06        -0.49837E+08         0.00000E+00
    0.00000E+00         0.00000E+00        -0.49810E+08
 
   -0.49808E+08         0.49181E+06         0.00000E+00
    0.49181E+06        -0.49833E+08         0.00000E+00
    0.00000E+00         0.00000E+00        -0.49821E+08
 
   -0.49830E+08         0.47936E+06         0.00000E+00
    0.47936E+06        -0.49829E+08         0.00000E+00
    0.00000E+00         0.00000E+00        -0.49830E+08
 
   -0.49850E+08         0.46600E+06         0.00000E+00
    0.46600E+06        -0.49826E+08         0.00000E+00
    0.00000E+00         0.00000E+00        -0.49839E+08
 
   -0.49866E+08         0.45180E+06         0.00000E+00
    0.45180E+06        -0.49824E+08         0.00000E+00
    0.00000E+00         0.00000E+00        -0.49846E+08
 
   -0.49880E+08         0.43681E+06         0.00000E+00
    0.43681E+06        -0.49822E+08         0.00000E+00
    0.00000E+00         0.00000E+00        -0.49853E+08
 
   -0.49891E+08         0.42111E+06         0.00000E+00
    0.42111E+06        -0.49820E+08         0.00000E+00
    0.00000E+00         0.00000E+00        -0.49858E+08
 
   -0.49899E+08         0.40477E+06         0.00000E+00
    0.40477E+06        -0.49820E+08         0.00000E+00
    0.00000E+00         0.00000E+00        -0.49863E+08
 
   -0.49903E+08         0.38790E+06         0.00000E+00
    0.38790E+06        -0.49820E+08         0.00000E+00
    0.00000E+00         0.00000E+00        -0.49866E+08
 
   -0.49905E+08         0.37059E+06         0.00000E+00
    0.37059E+06        -0.49821E+08         0.00000E+00
    0.00000E+00         0.00000E+00        -0.49868E+08
 
   -0.49903E+08         0.35299E+06         0.00000E+00
    0.35299E+06        -0.49823E+08         0.00000E+00
    0.00000E+00         0.00000E+00        -0.49870E+08
 
   -0.49897E+08         0.33521E+06         0.00000E+00
    0.33521E+06        -0.49827E+08         0.00000E+00
    0.00000E+00         0.00000E+00        -0.49870E+08
 
   -0.49888E+08         0.31744E+06         0.00000E+00
    0.31744E+06        -0.49831E+08         0.00000E+00
    0.00000E+00         0.00000E+00        -0.49870E+08
 
   -0.49875E+08         0.29982E+06         0.00000E+00
    0.29982E+06        -0.49837E+08         0.00000E+00
    0.00000E+00         0.00000E+00        -0.49869E+08
 
   -0.47932E+08         0.27319E+05         0.00000E+00
    0.27319E+05        -0.50000E+08         0.00000E+00
    0.00000E+00         0.00000E+00        -0.49025E+08
 
   -0.47975E+08         0.76277E+05         0.00000E+00
    0.76277E+05        -0.49999E+08         0.00000E+00
    0.00000E+00         0.00000E+00        -0.49037E+08
 
   -0.48023E+08         0.12270E+06         0.00000E+00
    0.12270E+06        -0.49998E+08         0.00000E+00
    0.00000E+00         0.00000E+00        -0.49052E+08
 
   -0.48075E+08         0.16654E+06         0.00000E+00
    0.16654E+06        -0.49996E+08         0.00000E+00
    0.00000E+00         0.00000E+00        -0.49070E+08
 
   -0.48130E+08         0.20777E+06         0.00000E+00
    0.20777E+06        -0.49994E+08         0.00000E+00
    0.00000E+00         0.00000E+00        -0.49091E+08
 
   -0.48188E+08         0.24638E+06         0.00000E+00
    0.24638E+06        -0.49992E+08         0.00000E+00
    0.00000E+00         0.00000E+00        -0.49113E+08
 
   -0.48247E+08         0.28241E+06         0.00000E+00
    0.28241E+06        -0.49990E+08         0.00000E+00
    0.00000E+00         0.00000E+00        -0.49138E+08
 
   -0.48309E+08         0.31589E+06         0.00000E+00
    0.31589E+06        -0.49987E+08         0.00000E+00
    0.00000E+00         0.00000E+00        -0.49164E+08
 
   -0.48371E+08         0.34687E+06         0.00000E+00
    0.34687E+06        -0.49985E+08         0.00000E+00
    0.00000E+00         0.00000E+00        -0.49191E+08
 
   -0.48434E+08         0.37544E+06         0.00000E+00
    0.37544E+06        -0.49982E+08         0.00000E+00
    0.00000E+00         0.00000E+00        -0.49219E+08
 
   -0.48498E+08         0.40166E+06         0.00000E+00
    0.40166E+06        -0.49980E+08         0.00000E+00
    0.00000E+00         0.00000E+00        -0.49248E+08
 
   -0.48562E+08         0.42563E+06         0.00000E+00
    0.42563E+06        -0.49978E+08         0.00000E+00
    0.00000E+00         0.00000E+00        -0.49277E+08
 
   -0.48626E+08         0.44744E+06         0.00000E+00
    0.44744E+06        -0.49976E+08         0.00000E+00
    0.00000E+00         0.00000E+00        -0.49306E+08
 
   -0.48689E+08         0.46720E+06         0.00000E+00
    0.46720E+06        -0.49974E+08         0.00000E+00
    0.00000E+00         0.00000E+00        -0.49336E+08
 
   -0.48753E+08         0.48499E+06         0.00000E+00
    0.48499E+06        -0.49972E+08         0.00000E+00
    0.00000E+00         0.00000E+00        -0.49366E+08
 
   -0.48815E+08         0.50091E+06         0.00000E+00
    0.50091E+06        -0.49970E+08         0.00000E+00
    0.00000E+00         0.00000E+00        -0.49395E+08
 
   -0.48877E+08         0.51508E+06         0.00000E+00
    0.51508E+06        -0.49969E+08         0.00000E+00
    0.00000E+00         0.00000E+00        -0.49425E+08
 
   -0.48938E+08         0.52757E+06         0.00000E+00
    0.52757E+06        -0.49968E+08         0.00000E+00
    0.00000E+00         0.00000E+00        -0.49454E+08
 
   -0.48998E+08         0.53848E+06         0.00000E+00
    0.53848E+06        -0.49966E+08         0.00000E+00
    0.00000E+00         0.00000E+00        -0.49483E+08
 
   -0.49057E+08         0.54789E+06         0.00000E+00
    0.54789E+06        -0.49965E+08         0.00000E+00
    0.00000E+00         0.00000E+00        -0.49512E+08
 
   -0.49114E+08         0.55588E+06         0.00000E+00
    0.55588E+06        -0.49965E+08         0.00000E+00
    0.00000E+00         0.00000E+00        -0.49540E+08
 
   -0.49171E+08         0.56251E+06         0.00000E+00
    0.56251E+06        -0.49964E+08         0.00000E+00
    0.00000E+00         0.00000E+00        -0.49568E+08
 
   -0.49226E+08         0.56785E+06         0.00000E+00
    0.56785E+06        -0.49963E+08         0.00000E+00
    0.00000E+00         0.00000E+00        -0.49595E+08
 
   -0.49280E+08         0.57195E+06         0.00000E+00
    0.57195E+06        -0.49962E+08         0.00000E+00
    0.00000E+00         0.00000E+00        -0.49621E+08
 
   -0.49333E+08         0.57484E+06         0.00000E+00
    0.57484E+06        -0.49961E+08         0.00000E+00
    0.00000E+00         0.00000E+00        -0.49647E+08
 
   -0.49384E+08         0.57657E+06         0.00000E+00
    0.57657E+06        -0.49961E+08         0.00000E+00
    0.00000E+00         0.00000E+00        -0.49672E+08
 
   -0.49434E+08         0.57716E+06         0.00000E+00
    0.57716E+06        -0.49960E+08         0.00000E+00
    0.00000E+00         0.00000E+00        -0.49696E+08
 
   -0.49482E+08         0.57662E+06         0.00000E+00
    0.57662E+06        -0.49959E+08         0.00000E+00
    0.00000E+00         0.00000E+00        -0.49720E+08
 
   -0.49529E+08         0.57495E+06         0.00000E+00
    0.57495E+06        -0.49957E+08         0.00000E+00
    0.00000E+00         0.00000E+00        -0.49742E+08
 
   -0.49574E+08         0.57217E+06         0.00000E+00
    0.57217E+06        -0.49956E+08         0.00000E+00
    0.00000E+00         0.00000E+00        -0.49764E+08
 
   -0.49618E+08         0.56825E+06         0.00000E+00
    0.56825E+06        -0.49954E+08         0.00000E+00
    0.00000E+00         0.00000E+00        -0.49785E+08
 
   -0.49660E+08         0.56318E+06         0.00000E+00
    0.56318E+06        -0.49952E+08         0.00000E+00
    0.00000E+00         0.00000E+00        -0.49805E+08
 
   -0.49700E+08         0.55696E+06         0.00000E+00
    0.55696E+06        -0.49950E+08         0.00000E+00
    0.00000E+00         0.00000E+00        -0.49824E+08
 
   -0.49738E+08         0.54954E+06         0.00000E+00
    0.54954E+06        -0.49948E+08         0.00000E+00
    0.00000E+00         0.00000E+00        -0.49842E+08
 
   -0.49775E+08         0.54091E+06         0.00000E+00
    0.54091E+06        -0.49946E+08         0.00000E+00
    0.00000E+00         0.00000E+00        -0.49859E+08
 
   -0.49809E+08         0.53105E+06         0.00000E+00
    0.53105E+06        -0.49943E+08         0.00000E+00
    0.00000E+00         0.00000E+00        -0.49876E+08
 
   -0.49841E+08         0.51992E+06         0.00000E+00
    0.51992E+06        -0.49941E+08         0.00000E+00
    0.00000E+00         0.00000E+00        -0.49890E+08
 
   -0.49871E+08         0.50752E+06         0.00000E+00
    0.50752E+06        -0.49938E+08         0.00000E+00
    0.00000E+00         0.00000E+00        -0.49904E+08
 
   -0.49898E+08         0.49383E+06         0.00000E+00
    0.49383E+06        -0.49935E+08         0.00000E+00
    0.00000E+00         0.00000E+00        -0.49917E+08
 
   -0.49923E+08         0.47883E+06         0.00000E+00
    0.47883E+06        -0.49933E+08         0.00000E+00
    0.00000E+00         0.00000E+00        -0.49928E+08
 
   -0.49945E+08         0.46255E+06         0.00000E+00
    0.46255E+06        -0.49931E+08         0.00000E+00
    0.00000E+00         0.00000E+00        -0.49939E+08
 
   -0.49964E+08         0.44499E+06         0.00000E+00
    0.44499E+06        -0.49929E+08         0.00000E+00
    0.00000E+00         0.00000E+00        -0.49948E+08
 
   -0.49979E+08         0.42618E+06         0.00000E+00
    0.42618E+06        -0.49927E+08         0.00000E+00
    0.00000E+00         0.00000E+00        -0.49955E+08
 
   -0.49991E+08         0.40617E+06         0.00000E+00
    0.40617E+06        -0.49926E+08         0.00000E+00
    0.00000E+00         0.00000E+00        -0.49962E+08
 
   -0.50000E+08         0.38504E+06         0.00000E+00
    0.38504E+06        -0.49926E+08         0.00000E+00
    0.00000E+00         0.00000E+00        -0.49967E+08
 
   -0.50005E+08         0.36286E+06         0.00000E+00
    0.36286E+06        -0.49927E+08         0.00000E+00
    0.00000E+00         0.00000E+00        -0.49971E+08
 
   -0.50005E+08         0.33976E+06         0.00000E+00
    0.33976E+06        -0.49929E+08         0.00000E+00
    0.00000E+00         0.00000E+00        -0.49973E+08
 
   -0.50002E+08         0.31587E+06         0.00000E+00
    0.31587E+06        -0.49932E+08         0.00000E+00
    0.00000E+00         0.00000E+00        -0.49975E+08
 
   -0.49994E+08         0.29135E+06         0.00000E+00
    0.29135E+06        -0.49936E+08         0.00000E+00
    0.00000E+00         0.00000E+00        -0.49975E+08
 
   -0.49981E+08         0.26639E+06         0.00000E+00
    0.26639E+06        -0.49942E+08         0.00000E+00
    0.00000E+00         0.00000E+00        -0.49974E+08
 
   -0.47675E+08         0.28888E+05         0.00000E+00
    0.28888E+05        -0.50000E+08         0.00000E+00
    0.00000E+00         0.00000E+00        -0.48917E+08
 
   -0.47732E+08         0.79750E+05         0.00000E+00
    0.79750E+05        -0.50000E+08         0.00000E+00
    0.00000E+00         0.00000E+00        -0.48933E+08
 
   -0.47794E+08         0.12757E+06         0.00000E+00
    0.12757E+06        -0.49999E+08         0.00000E+00
    0.00000E+00         0.00000E+00        -0.48952E+08
 
   -0.47860E+08         0.17233E+06         0.00000E+00
    0.17233E+06        -0.49999E+08         0.00000E+00
    0.00000E+00         0.00000E+00        -0.48975E+08
 
   -0.47929E+08         0.21403E+06         0.00000E+00
    0.21403E+06        -0.49998E+08         0.00000E+00
    0.00000E+00         0.00000E+00        -0.49002E+08
 
   -0.48001E+08         0.25270E+06         0.00000E+00
    0.25270E+06        -0.49998E+08         0.00000E+00
    0.00000E+00         0.00000E+00        -0.49031E+08
 
   -0.48074E+08         0.28840E+06         0.00000E+00
    0.28840E+06        -0.49998E+08         0.00000E+00
    0.00000E+00         0.00000E+00        -0.49062E+08
 
   -0.48149E+08         0.32122E+06         0.00000E+00
    0.32122E+06        -0.49999E+08         0.00000E+00
    0.00000E+00         0.00000E+00        -0.49095E+08
 
   -0.48224E+08         0.35125E+06         0.00000E+00
    0.35125E+06        -0.49999E+08         0.00000E+00
    0.00000E+00         0.00000E+00        -0.49129E+08
 
   -0.48300E+08         0.37863E+06         0.00000E+00
    0.37863E+06        -0.50001E+08         0.00000E+00
    0.00000E+00         0.00000E+00        -0.49165E+08
 
   -0.48376E+08         0.40346E+06         0.00000E+00
    0.40346E+06        -0.50002E+08         0.00000E+00
    0.00000E+00         0.00000E+00        -0.49201E+08
 
   -0.48451E+08         0.42591E+06         0.00000E+00
    0.42591E+06        -0.50005E+08         0.00000E+00
    0.00000E+00         0.00000E+00        -0.49237E+08
 
   -0.48525E+08         0.44612E+06         0.00000E+00
    0.44612E+06        -0.50007E+08         0.00000E+00
    0.00000E+00         0.00000E+00        -0.49274E+08
 
   -0.48599E+08         0.46423E+06         0.00000E+00
    0.46423E+06        -0.50010E+08         0.00000E+00
    0.00000E+00         0.00000E+00        -0.49311E+08
 
   -0.48672E+08         0.48039E+06         0.00000E+00
    0.48039E+06        -0.50014E+08         0.00000E+00
    0.00000E+00         0.00000E+00        -0.49348E+08
 
   -0.48743E+08         0.49476E+06         0.00000E+00
    0.49476E+06        -0.50018E+08         0.00000E+00
    0.00000E+00         0.00000E+00        -0.49385E+08
 
   -0.48813E+08         0.50748E+06         0.00000E+00
    0.50748E+06        -0.50023E+08         0.00000E+00
    0.00000E+00         0.00000E+00        -0.49421E+08
 
   -0.48882E+08         0.51868E+06         0.00000E+00
    0.51868E+06        -0.50028E+08         0.00000E+00
    0.00000E+00         0.00000E+00        -0.49457E+08
 
   -0.48949E+08         0.52850E+06         0.00000E+00
    0.52850E+06        -0.50034E+08         0.00000E+00
    0.00000E+00         0.00000E+00        -0.49493E+08
 
   -0.49015E+08         0.53704E+06         0.00000E+00
    0.53704E+06        -0.50039E+08         0.00000E+00
    0.00000E+00         0.00000E+00        -0.49528E+08
 
   -0.49079E+08         0.54441E+06         0.00000E+00
    0.54441E+06        -0.50045E+08         0.00000E+00
    0.00000E+00         0.00000E+00        -0.49563E+08
 
   -0.49141E+08         0.55070E+06         0.00000E+00
    0.55070E+06        -0.50051E+08         0.00000E+00
    0.00000E+00         0.00000E+00        -0.49597E+08
 
   -0.49202E+08         0.55599E+06         0.00000E+00
    0.55599E+06        -0.50057E+08         0.00000E+00
    0.00000E+00         0.00000E+00        -0.49630E+08
 
   -0.49262E+08         0.56033E+06         0.00000E+00
    0.56033E+06        -0.50063E+08         0.00000E+00
    0.00000E+00         0.00000E+00        -0.49662E+08
 
   -0.49319E+08         0.56378E+06         0.00000E+00
    0.56378E+06        -0.50069E+08         0.00000E+00
    0.00000E+00         0.00000E+00        -0.49694E+08
 
   -0.49376E+08         0.56634E+06         0.00000E+00
    0.56634E+06        -0.50075E+08         0.00000E+00
    0.00000E+00         0.00000E+00        -0.49725E+08
 
   -0.49431E+08         0.56804E+06         0.00000E+00
    0.56804E+06        -0.50081E+08         0.00000E+00
    0.00000E+00         0.00000E+00        -0.49755E+08
 
   -0.49484E+08         0.56886E+06         0.00000E+00
    0.56886E+06        -0.50086E+08         0.00000E+00
    0.00000E+00         0.00000E+00        -0.49784E+08
 
   -0.49536E+08         0.56878E+06         0.00000E+00
    0.56878E+06        -0.50090E+08         0.00000E+00
    0.00000E+00         0.00000E+00        -0.49812E+08
 
   -0.49587E+08         0.56777E+06         0.00000E+00
    0.56777E+06        -0.50094E+08         0.00000E+00
    0.00000E+00         0.00000E+00        -0.49839E+08
 
   -0.49636E+08         0.56576E+06         0.00000E+00
    0.56576E+06        -0.50098E+08         0.00000E+00
    0.00000E+00         0.00000E+00        -0.49865E+08
 
   -0.49683E+08         0.56270E+06         0.00000E+00
    0.56270E+06        -0.50101E+08         0.00000E+00
    0.00000E+00         0.00000E+00        -0.49890E+08
 
   -0.49730E+08         0.55850E+06         0.00000E+00
    0.55850E+06        -0.50103E+08         0.00000E+00
    0.00000E+00         0.00000E+00        -0.49914E+08
 
   -0.49774E+08         0.55308E+06         0.00000E+00
    0.55308E+06        -0.50104E+08         0.00000E+00
    0.00000E+00         0.00000E+00        -0.49938E+08
 
   -0.49817E+08         0.54635E+06         0.00000E+00
    0.54635E+06        -0.50105E+08         0.00000E+00
    0.00000E+00         0.00000E+00        -0.49959E+08
 
   -0.49858E+08         0.53820E+06         0.00000E+00
    0.53820E+06        -0.50105E+08         0.00000E+00
    0.00000E+00         0.00000E+00        -0.49980E+08
 
   -0.49897E+08         0.52854E+06         0.00000E+00
    0.52854E+06        -0.50105E+08         0.00000E+00
    0.00000E+00         0.00000E+00        -0.50000E+08
 
   -0.49935E+08         0.51726E+06         0.00000E+00
    0.51726E+06        -0.50104E+08         0.00000E+00
    0.00000E+00         0.00000E+00        -0.50018E+08
 
   -0.49969E+08         0.50427E+06         0.00000E+00
    0.50427E+06        -0.50103E+08         0.00000E+00
    0.00000E+00         0.00000E+00        -0.50035E+08
 
   -0.50002E+08         0.48948E+06         0.00000E+00
    0.48948E+06        -0.50101E+08         0.00000E+00
    0.00000E+00         0.00000E+00        -0.50050E+08
 
   -0.50032E+08         0.47280E+06         0.00000E+00
    0.47280E+06        -0.50099E+08         0.00000E+00
    0.00000E+00         0.00000E+00        -0.50065E+08
 
   -0.50058E+08         0.45419E+06         0.00000E+00
    0.45419E+06        -0.50097E+08         0.00000E+00
    0.00000E+00         0.00000E+00        -0.50077E+08
 
   -0.50082E+08         0.43359E+06         0.00000E+00
    0.43359E+06        -0.50095E+08         0.00000E+00
    0.00000E+00         0.00000E+00        -0.50089E+08
 
   -0.50102E+08         0.41097E+06         0.00000E+00
    0.41097E+06        -0.50093E+08         0.00000E+00
    0.00000E+00         0.00000E+00        -0.50098E+08
 
   -0.50118E+08         0.38636E+06         0.00000E+00
    0.38636E+06        -0.50091E+08         0.00000E+00
    0.00000E+00         0.00000E+00        -0.50106E+08
 
   -0.50130E+08         0.35977E+06         0.00000E+00
    0.35977E+06        -0.50090E+08         0.00000E+00
    0.00000E+00         0.00000E+00        -0.50113E+08
 
   -0.50137E+08         0.33128E+06         0.00000E+00
    0.33128E+06        -0.50090E+08         0.00000E+00
    0.00000E+00         0.00000E+00        -0.50118E+08
 
   -0.50140E+08         0.30099E+06         0.00000E+00
    0.30099E+06        -0.50092E+08         0.00000E+00
    0.00000E+00         0.00000E+00        -0.50121E+08
 
   -0.50137E+08         0.26906E+06         0.00000E+00
    0.26906E+06        -0.50094E+08         0.00000E+00
    0.00000E+00         0.00000E+00        -0.50123E+08
 
   -0.50128E+08         0.23568E+06         0.00000E+00
    0.23568E+06        -0.50098E+08         0.00000E+00
    0.00000E+00         0.00000E+00        -0.50123E+08
 
   -0.47412E+08         0.29300E+05         0.00000E+00
    0.29300E+05        -0.50000E+08         0.00000E+00
    0.00000E+00         0.00000E+00        -0.48811E+08
 
   -0.47486E+08         0.79687E+05         0.00000E+00
    0.79687E+05        -0.50000E+08         0.00000E+00
    0.00000E+00         0.00000E+00        -0.48830E+08
 
   -0.47565E+08         0.12650E+06         0.00000E+00
    0.12650E+06        -0.50001E+08         0.00000E+00
    0.00000E+00         0.00000E+00        -0.48855E+08
 
   -0.47648E+08         0.16973E+06         0.00000E+00
    0.16973E+06        -0.50002E+08         0.00000E+00
    0.00000E+00         0.00000E+00        -0.48885E+08
 
   -0.47733E+08         0.20941E+06         0.00000E+00
    0.20941E+06        -0.50004E+08         0.00000E+00
    0.00000E+00         0.00000E+00        -0.48918E+08
 
   -0.47821E+08         0.24562E+06         0.00000E+00
    0.24562E+06        -0.50007E+08         0.00000E+00
    0.00000E+00         0.00000E+00        -0.48955E+08
 
   -0.47910E+08         0.27847E+06         0.00000E+00
    0.27847E+06        -0.50010E+08         0.00000E+00
    0.00000E+00         0.00000E+00        -0.48994E+08
 
   -0.47999E+08         0.30808E+06         0.00000E+00
    0.30808E+06        -0.50014E+08         0.00000E+00
    0.00000E+00         0.00000E+00        -0.49035E+08
 
   -0.48089E+08         0.33464E+06         0.00000E+00
    0.33464E+06        -0.50020E+08         0.00000E+00
    0.00000E+00         0.00000E+00        -0.49077E+08
 
   -0.48178E+08         0.35832E+06         0.00000E+00
    0.35832E+06        -0.50026E+08         0.00000E+00
    0.00000E+00         0.00000E+00        -0.49121E+08
 
   -0.48266E+08         0.37934E+06         0.00000E+00
    0.37934E+06        -0.50034E+08         0.00000E+00
    0.00000E+00         0.00000E+00        -0.49165E+08
 
   -0.48353E+08         0.39791E+06         0.00000E+00
    0.39791E+06        -0.50043E+08         0.00000E+00
    0.00000E+00         0.00000E+00        -0.49210E+08
 
   -0.48438E+08         0.41425E+06         0.00000E+00
    0.41425E+06        -0.50052E+08         0.00000E+00
    0.00000E+00         0.00000E+00        -0.49255E+08
 
   -0.48522E+08         0.42860E+06         0.00000E+00
    0.42860E+06        -0.50063E+08         0.00000E+00
    0.00000E+00         0.00000E+00        -0.49301E+08
 
   -0.48603E+08         0.44118E+06         0.00000E+00
    0.44118E+06        -0.50075E+08         0.00000E+00
    0.00000E+00         0.00000E+00        -0.49346E+08
 
   -0.48683E+08         0.45221E+06         0.00000E+00
    0.45221E+06        -0.50088E+08         0.00000E+00
    0.00000E+00         0.00000E+00        -0.49390E+08
 
   -0.48760E+08         0.46191E+06         0.00000E+00
    0.46191E+06        -0.50101E+08         0.00000E+00
    0.00000E+00         0.00000E+00        -0.49435E+08
 
   -0.48835E+08         0.47047E+06         0.00000E+00
    0.47047E+06        -0.50116E+08         0.00000E+00
    0.00000E+00         0.00000E+00        -0.49478E+08
 
   -0.48908E+08         0.47809E+06         0.00000E+00
    0.47809E+06        -0.50131E+08         0.00000E+00
    0.00000E+00         0.00000E+00        -0.49521E+08
 
   -0.48978E+08         0.48494E+06         0.00000E+00
    0.48494E+06        -0.50146E+08         0.00000E+00
    0.00000E+00         0.00000E+00        -0.49564E+08
 
   -0.49046E+08         0.49115E+06         0.00000E+00
    0.49115E+06        -0.50162E+08         0.00000E+00
    0.00000E+00         0.00000E+00        -0.49605E+08
 
   -0.49113E+08         0.49685E+06         0.00000E+00
    0.49685E+06        -0.50178E+08         0.00000E+00
    0.00000E+00         0.00000E+00        -0.49646E+08
 
   -0.49177E+08         0.50214E+06         0.00000E+00
    0.50214E+06        -0.50195E+08         0.00000E+00
    0.00000E+00         0.00000E+00        -0.49686E+08
 
   -0.49240E+08         0.50710E+06         0.00000E+00
    0.50710E+06        -0.50211E+08         0.00000E+00
    0.00000E+00         0.00000E+00        -0.49725E+08
 
   -0.49301E+08         0.51176E+06         0.00000E+00
    0.51176E+06        -0.50227E+08         0.00000E+00
    0.00000E+00         0.00000E+00        -0.49763E+08
 
   -0.49360E+08         0.51615E+06         0.00000E+00
    0.51615E+06        -0.50242E+08         0.00000E+00
    0.00000E+00         0.00000E+00        -0.49800E+08
 
   -0.49418E+08         0.52026E+06         0.00000E+00
    0.52026E+06        -0.50257E+08         0.00000E+00
    0.00000E+00         0.00000E+00        -0.49836E+08
 
   -0.49474E+08         0.52404E+06         0.00000E+00
    0.52404E+06        -0.50271E+08         0.00000E+00
    0.00000E+00         0.00000E+00        -0.49871E+08
 
   -0.49530E+08         0.52744E+06         0.00000E+00
    0.52744E+06        -0.50285E+08         0.00000E+00
    0.00000E+00         0.00000E+00        -0.49905E+08
 
   -0.49584E+08         0.53036E+06         0.00000E+00
    0.53036E+06        -0.50297E+08         0.00000E+00
    0.00000E+00         0.00000E+00        -0.49939E+08
 
   -0.49638E+08         0.53269E+06         0.00000E+00
    0.53269E+06        -0.50308E+08         0.00000E+00
    0.00000E+00         0.00000E+00        -0.49971E+08
 
   -0.49690E+08         0.53428E+06         0.00000E+00
    0.53428E+06        -0.50318E+08         0.00000E+00
    0.00000E+00         0.00000E+00        -0.50002E+08
 
   -0.49742E+08         0.53497E+06         0.00000E+00
    0.53497E+06        -0.50327E+08         0.00000E+00
    0.00000E+00         0.00000E+00        -0.50032E+08
 
   -0.49793E+08         0.53459E+06         0.00000E+00
    0.53459E+06        -0.50335E+08         0.00000E+00
    0.00000E+00         0.00000E+00        -0.50061E+08
 
   -0.49842E+08         0.53292E+06         0.00000E+00
    0.53292E+06        -0.50340E+08         0.00000E+00
    0.00000E+00         0.00000E+00        -0.50088E+08
 
   -0.49891E+08         0.52977E+06         0.00000E+00
    0.52977E+06        -0.50345E+08         0.00000E+00
    0.00000E+00         0.00000E+00        -0.50115E+08
 
   -0.49939E+08         0.52492E+06         0.00000E+00
    0.52492E+06        -0.50348E+08         0.00000E+00
    0.00000E+00         0.00000E+00        -0.50140E+08
 
   -0.49985E+08         0.51812E+06         0.00000E+00
    0.51812E+06        -0.50349E+08         0.00000E+00
    0.00000E+00         0.00000E+00        -0.50164E+08
 
   -0.50030E+08         0.50917E+06         0.00000E+00
    0.50917E+06        -0.50350E+08         0.00000E+00
    0.00000E+00         0.00000E+00        -0.50187E+08
 
   -0.50074E+08         0.49783E+06         0.00000E+00
    0.49783E+06        -0.50349E+08         0.00000E+00
    0.00000E+00         0.00000E+00        -0.50208E+08
 
   -0.50115E+08         0.48389E+06         0.00000E+00
    0.48389E+06        -0.50347E+08         0.00000E+00
    0.00000E+00         0.00000E+00        -0.50228E+08
 
   -0.50154E+08         0.46715E+06         0.00000E+00
    0.46715E+06        -0.50344E+08         0.00000E+00
    0.00000E+00         0.00000E+00        -0.50246E+08
 
   -0.50190E+08         0.44744E+06         0.00000E+00
    0.44744E+06        -0.50340E+08         0.00000E+00
    0.00000E+00         0.00000E+00        -0.50262E+08
 
   -0.50223E+08         0.42461E+06         0.00000E+00
    0.42461E+06        -0.50336E+08         0.00000E+00
    0.00000E+00         0.00000E+00        -0.50277E+08
 
   -0.50252E+08         0.39854E+06         0.00000E+00
    0.39854E+06        -0.50332E+08         0.00000E+00
    0.00000E+00         0.00000E+00        -0.50289E+08
 
   -0.50277E+08         0.36915E+06         0.00000E+00
    0.36915E+06        -0.50328E+08         0.00000E+00
    0.00000E+00         0.00000E+00        -0.50300E+08
 
   -0.50297E+08         0.33643E+06         0.00000E+00
    0.33643E+06        -0.50324E+08         0.00000E+00
    0.00000E+00         0.00000E+00        -0.50309E+08
 
   -0.50312E+08         0.30040E+06         0.00000E+00
    0.30040E+06        -0.50321E+08         0.00000E+00
    0.00000E+00         0.00000E+00        -0.50315E+08
 
   -0.50320E+08         0.26115E+06         0.00000E+00
    0.26115E+06        -0.50319E+08         0.00000E+00
    0.00000E+00         0.00000E+00        -0.50319E+08
 
   -0.50322E+08         0.21883E+06         0.00000E+00
    0.21883E+06        -0.50319E+08         0.00000E+00
    0.00000E+00         0.00000E+00        -0.50321E+08
 
   -0.47159E+08         0.28204E+05         0.00000E+00
    0.28204E+05        -0.50000E+08         0.00000E+00
    0.00000E+00         0.00000E+00        -0.48713E+08
 
   -0.47252E+08         0.74978E+05         0.00000E+00
    0.74978E+05        -0.50001E+08         0.00000E+00
    0.00000E+00         0.00000E+00        -0.48738E+08
 
   -0.47350E+08         0.11756E+06         0.00000E+00
    0.11756E+06        -0.50003E+08         0.00000E+00
    0.00000E+00         0.00000E+00        -0.48769E+08
 
   -0.47452E+08         0.15594E+06         0.00000E+00
    0.15594E+06        -0.50006E+08         0.00000E+00
    0.00000E+00         0.00000E+00        -0.48806E+08
 
   -0.47557E+08         0.19019E+06         0.00000E+00
    0.19019E+06        -0.50011E+08         0.00000E+00
    0.00000E+00         0.00000E+00        -0.48847E+08
 
   -0.47663E+08         0.22043E+06         0.00000E+00
    0.22043E+06        -0.50017E+08         0.00000E+00
    0.00000E+00         0.00000E+00        -0.48893E+08
 
   -0.47769E+08         0.24683E+06         0.00000E+00
    0.24683E+06        -0.50025E+08         0.00000E+00
    0.00000E+00         0.00000E+00        -0.48941E+08
 
   -0.47875E+08         0.26961E+06         0.00000E+00
    0.26961E+06        -0.50035E+08         0.00000E+00
    0.00000E+00         0.00000E+00        -0.48991E+08
 
   -0.47980E+08         0.28903E+06         0.00000E+00
    0.28903E+06        -0.50047E+08         0.00000E+00
    0.00000E+00         0.00000E+00        -0.49043E+08
 
   -0.48084E+08         0.30538E+06         0.00000E+00
    0.30538E+06        -0.50060E+08         0.00000E+00
    0.00000E+00         0.00000E+00        -0.49096E+08
 
   -0.48185E+08         0.31898E+06         0.00000E+00
    0.31898E+06        -0.50076E+08         0.00000E+00
    0.00000E+00         0.00000E+00        -0.49150E+08
 
   -0.48283E+08         0.33018E+06         0.00000E+00
    0.33018E+06        -0.50093E+08         0.00000E+00
    0.00000E+00         0.00000E+00        -0.49204E+08
 
   -0.48378E+08         0.33930E+06         0.00000E+00
    0.33930E+06        -0.50113E+08         0.00000E+00
    0.00000E+00         0.00000E+00        -0.49259E+08
 
   -0.48470E+08         0.34672E+06         0.00000E+00
    0.34672E+06        -0.50134E+08         0.00000E+00
    0.00000E+00         0.00000E+00        -0.49313E+08
 
   -0.48559E+08         0.35276E+06         0.00000E+00
    0.35276E+06        -0.50157E+08         0.00000E+00
    0.00000E+00         0.00000E+00        -0.49367E+08
 
   -0.48644E+08         0.35778E+06         0.00000E+00
    0.35778E+06        -0.50182E+08         0.00000E+00
    0.00000E+00         0.00000E+00        -0.49420E+08
 
   -0.48726E+08         0.36208E+06         0.00000E+00
    0.36208E+06        -0.50208E+08         0.00000E+00
    0.00000E+00         0.00000E+00        -0.49472E+08
 
   -0.48804E+08         0.36598E+06         0.00000E+00
    0.36598E+06        -0.50235E+08         0.00000E+00
    0.00000E+00         0.00000E+00        -0.49524E+08
 
   -0.48879E+08         0.36974E+06         0.00000E+00
    0.36974E+06        -0.50264E+08         0.00000E+00
    0.00000E+00         0.00000E+00        -0.49574E+08
 
   -0.48951E+08         0.37360E+06         0.00000E+00
    0.37360E+06        -0.50293E+08         0.00000E+00
    0.00000E+00         0.00000E+00        -0.49624E+08
 
   -0.49020E+08         0.37777E+06         0.00000E+00
    0.37777E+06        -0.50323E+08         0.00000E+00
    0.00000E+00         0.00000E+00        -0.49673E+08
 
   -0.49086E+08         0.38243E+06         0.00000E+00
    0.38243E+06        -0.50353E+08         0.00000E+00
    0.00000E+00         0.00000E+00        -0.49720E+08
 
   -0.49150E+08         0.38771E+06         0.00000E+00
    0.38771E+06        -0.50384E+08         0.00000E+00
    0.00000E+00         0.00000E+00        -0.49767E+08
 
   -0.49212E+08         0.39371E+06         0.00000E+00
    0.39371E+06        -0.50414E+08         0.00000E+00
    0.00000E+00         0.00000E+00        -0.49812E+08
 
   -0.49272E+08         0.40046E+06         0.00000E+00
    0.40046E+06        -0.50444E+08         0.00000E+00
    0.00000E+00         0.00000E+00        -0.49857E+08
 
   -0.49330E+08         0.40799E+06         0.00000E+00
    0.40799E+06        -0.50474E+08         0.00000E+00
    0.00000E+00         0.00000E+00        -0.49900E+08
 
   -0.49387E+08         0.41626E+06         0.00000E+00
    0.41626E+06        -0.50502E+08         0.00000E+00
    0.00000E+00         0.00000E+00        -0.49942E+08
 
   -0.49443E+08         0.42520E+06         0.00000E+00
    0.42520E+06        -0.50530E+08         0.00000E+00
    0.00000E+00         0.00000E+00        -0.49984E+08
 
   -0.49498E+08         0.43468E+06         0.00000E+00
    0.43468E+06        -0.50555E+08         0.00000E+00
    0.00000E+00         0.00000E+00        -0.50024E+08
 
   -0.49554E+08         0.44454E+06         0.00000E+00
    0.44454E+06        -0.50580E+08         0.00000E+00
    0.00000E+00         0.00000E+00        -0.50063E+08
 
   -0.49609E+08         0.45460E+06         0.00000E+00
    0.45460E+06        -0.50602E+08         0.00000E+00
    0.00000E+00         0.00000E+00        -0.50102E+08
 
   -0.49664E+08         0.46460E+06         0.00000E+00
    0.46460E+06        -0.50622E+08         0.00000E+00
    0.00000E+00         0.00000E+00        -0.50139E+08
 
   -0.49719E+08         0.47428E+06         0.00000E+00
    0.47428E+06        -0.50640E+08         0.00000E+00
    0.00000E+00         0.00000E+00        -0.50175E+08
 
   -0.49775E+08         0.48332E+06         0.00000E+00
    0.48332E+06        -0.50656E+08         0.00000E+00
    0.00000E+00         0.00000E+00        -0.50211E+08
 
   -0.49831E+08         0.49140E+06         0.00000E+00
    0.49140E+06        -0.50669E+08         0.00000E+00
    0.00000E+00         0.00000E+00        -0.50245E+08
 
   -0.49888E+08         0.49813E+06         0.00000E+00
    0.49813E+06        -0.50680E+08         0.00000E+00
    0.00000E+00         0.00000E+00        -0.50278E+08
 
   -0.49945E+08         0.50314E+06         0.00000E+00
    0.50314E+06        -0.50688E+08         0.00000E+00
    0.00000E+00         0.00000E+00        -0.50310E+08
 
   -0.50002E+08         0.50601E+06         0.00000E+00
    0.50601E+06        -0.50693E+08         0.00000E+00
    0.00000E+00         0.00000E+00        -0.50341E+08
 
   -0.50060E+08         0.50634E+06         0.00000E+00
    0.50634E+06        -0.50696E+08         0.00000E+00
    0.00000E+00         0.00000E+00        -0.50371E+08
 
   -0.50117E+08         0.50368E+06         0.00000E+00
    0.50368E+06        -0.50696E+08         0.00000E+00
    0.00000E+00         0.00000E+00        -0.50399E+08
 
   -0.50174E+08         0.49764E+06         0.00000E+00
    0.49764E+06        -0.50694E+08         0.00000E+00
    0.00000E+00         0.00000E+00        -0.50426E+08
 
   -0.50230E+08         0.48778E+06         0.00000E+00
    0.48778E+06        -0.50690E+08         0.00000E+00
    0.00000E+00         0.00000E+00        -0.50451E+08
 
   -0.50285E+08         0.47372E+06         0.00000E+00
    0.47372E+06        -0.50684E+08         0.00000E+00
    0.00000E+00         0.00000E+00        -0.50475E+08
 
   -0.50338E+08         0.45511E+06         0.00000E+00
    0.45511E+06        -0.50676E+08         0.00000E+00
    0.00000E+00         0.00000E+00        -0.50496E+08
 
   -0.50387E+08         0.43161E+06         0.00000E+00
    0.43161E+06        -0.50666E+08         0.00000E+00
    0.00000E+00         0.00000E+00        -0.50516E+08
 
   -0.50434E+08         0.40296E+06         0.00000E+00
    0.40296E+06        -0.50656E+08         0.00000E+00
    0.00000E+00         0.00000E+00        -0.50533E+08
 
   -0.50475E+08         0.36895E+06         0.00000E+00
    0.36895E+06        -0.50646E+08         0.00000E+00
    0.00000E+00         0.00000E+00        -0.50547E+08
 
   -0.50512E+08         0.32945E+06         0.00000E+00
    0.32945E+06        -0.50635E+08         0.00000E+00
    0.00000E+00         0.00000E+00        -0.50559E+08
 
   -0.50542E+08         0.28441E+06         0.00000E+00
    0.28441E+06        -0.50625E+08         0.00000E+00
    0.00000E+00         0.00000E+00        -0.50567E+08
 
   -0.50564E+08         0.23388E+06         0.00000E+00
    0.23388E+06        -0.50616E+08         0.00000E+00
    0.00000E+00         0.00000E+00        -0.50572E+08
 
   -0.46931E+08         0.25436E+05         0.00000E+00
    0.25436E+05        -0.50000E+08         0.00000E+00
    0.00000E+00         0.00000E+00        -0.48634E+08
 
   -0.47047E+08         0.64836E+05         0.00000E+00
    0.64836E+05        -0.50001E+08         0.00000E+00
    0.00000E+00         0.00000E+00        -0.48665E+08
 
   -0.47168E+08         0.99161E+05         0.00000E+00
    0.99161E+05        -0.50005E+08         0.00000E+00
    0.00000E+00         0.00000E+00        -0.48704E+08
 
   -0.47293E+08         0.12841E+06         0.00000E+00
    0.12841E+06        -0.50011E+08         0.00000E+00
    0.00000E+00         0.00000E+00        -0.48749E+08
 
   -0.47420E+08         0.15267E+06         0.00000E+00
    0.15267E+06        -0.50019E+08         0.00000E+00
    0.00000E+00         0.00000E+00        -0.48800E+08
 
   -0.47547E+08         0.17213E+06         0.00000E+00
    0.17213E+06        -0.50030E+08         0.00000E+00
    0.00000E+00         0.00000E+00        -0.48855E+08
 
   -0.47674E+08         0.18706E+06         0.00000E+00
    0.18706E+06        -0.50044E+08         0.00000E+00
    0.00000E+00         0.00000E+00        -0.48914E+08
 
   -0.47799E+08         0.19783E+06         0.00000E+00
    0.19783E+06        -0.50060E+08         0.00000E+00
    0.00000E+00         0.00000E+00        -0.48975E+08
 
   -0.47920E+08         0.20486E+06         0.00000E+00
    0.20486E+06        -0.50080E+08         0.00000E+00
    0.00000E+00         0.00000E+00        -0.49037E+08
 
   -0.48039E+08         0.20862E+06         0.00000E+00
    0.20862E+06        -0.50103E+08         0.00000E+00
    0.00000E+00         0.00000E+00        -0.49101E+08
 
   -0.48152E+08         0.20962E+06         0.00000E+00
    0.20962E+06        -0.50130E+08         0.00000E+00
    0.00000E+00         0.00000E+00        -0.49166E+08
 
   -0.48261E+08         0.20839E+06         0.00000E+00
    0.20839E+06        -0.50159E+08         0.00000E+00
    0.00000E+00         0.00000E+00        -0.49230E+08
 
   -0.48365E+08         0.20549E+06         0.00000E+00
    0.20549E+06        -0.50192E+08         0.00000E+00
    0.00000E+00         0.00000E+00        -0.49294E+08
 
   -0.48463E+08         0.20146E+06         0.00000E+00
    0.20146E+06        -0.50227E+08         0.00000E+00
    0.00000E+00         0.00000E+00        -0.49358E+08
 
   -0.48556E+08         0.19683E+06         0.00000E+00
    0.19683E+06        -0.50265E+08         0.00000E+00
    0.00000E+00         0.00000E+00        -0.49421E+08
 
   -0.48643E+08         0.19210E+06         0.00000E+00
    0.19210E+06        -0.50306E+08         0.00000E+00
    0.00000E+00         0.00000E+00        -0.49482E+08
 
   -0.48725E+08         0.18776E+06         0.00000E+00
    0.18776E+06        -0.50349E+08         0.00000E+00
    0.00000E+00         0.00000E+00        -0.49543E+08
 
   -0.48801E+08         0.18422E+06         0.00000E+00
    0.18422E+06        -0.50394E+08         0.00000E+00
    0.00000E+00         0.00000E+00        -0.49602E+08
 
   -0.48873E+08         0.18189E+06         0.00000E+00
    0.18189E+06        -0.50441E+08         0.00000E+00
    0.00000E+00         0.00000E+00        -0.49660E+08
 
   -0.48940E+08         0.18111E+06         0.00000E+00
    0.18111E+06        -0.50489E+08         0.00000E+00
    0.00000E+00         0.00000E+00        -0.49716E+08
 
   -0.49004E+08         0.18214E+06         0.00000E+00
    0.18214E+06        -0.50537E+08         0.00000E+00
    0.00000E+00         0.00000E+00        -0.49771E+08
 
   -0.49063E+08         0.18523E+06         0.00000E+00
    0.18523E+06        -0.50587E+08         0.00000E+00
    0.00000E+00         0.00000E+00        -0.49825E+08
 
   -0.49120E+08         0.19054E+06         0.00000E+00
    0.19054E+06        -0.50636E+08         0.00000E+00
    0.00000E+00         0.00000E+00        -0.49877E+08
 
   -0.49174E+08         0.19819E+06         0.00000E+00
    0.19819E+06        -0.50686E+08         0.00000E+00
    0.00000E+00         0.00000E+00        -0.49928E+08
 
   -0.49226E+08         0.20822E+06         0.00000E+00
    0.20822E+06        -0.50734E+08         0.00000E+00
    0.00000E+00         0.00000E+00        -0.49978E+08
 
   -0.49277E+08         0.22064E+06         0.00000E+00
    0.22064E+06        -0.50782E+08         0.00000E+00
    0.00000E+00         0.00000E+00        -0.50026E+08
 
   -0.49326E+08         0.23537E+06         0.00000E+00
    0.23537E+06        -0.50828E+08         0.00000E+00
    0.00000E+00         0.00000E+00        -0.50074E+08
 
   -0.49376E+08         0.25230E+06         0.00000E+00
    0.25230E+06        -0.50873E+08         0.00000E+00
    0.00000E+00         0.00000E+00        -0.50120E+08
 
   -0.49426E+08         0.27125E+06         0.00000E+00
    0.27125E+06        -0.50915E+08         0.00000E+00
    0.00000E+00         0.00000E+00        -0.50166E+08
 
   -0.49476E+08         0.29197E+06         0.00000E+00
    0.29197E+06        -0.50955E+08         0.00000E+00
    0.00000E+00         0.00000E+00        -0.50210E+08
 
   -0.49528E+08         0.31418E+06         0.00000E+00
    0.31418E+06        -0.50992E+08         0.00000E+00
    0.00000E+00         0.00000E+00        -0.50254E+08
 
   -0.49581E+08         0.33753E+06         0.00000E+00
    0.33753E+06        -0.51026E+08         0.00000E+00
    0.00000E+00         0.00000E+00        -0.50297E+08
 
   -0.49637E+08         0.36161E+06         0.00000E+00
    0.36161E+06        -0.51057E+08         0.00000E+00
    0.00000E+00         0.00000E+00        -0.50340E+08
 
   -0.49694E+08         0.38597E+06         0.00000E+00
    0.38597E+06        -0.51084E+08         0.00000E+00
    0.00000E+00         0.00000E+00        -0.50382E+08
 
   -0.49755E+08         0.41009E+06         0.00000E+00
    0.41009E+06        -0.51107E+08         0.00000E+00
    0.00000E+00         0.00000E+00        -0.50423E+08
 
   -0.49818E+08         0.43343E+06         0.00000E+00
    0.43343E+06        -0.51126E+08         0.00000E+00
    0.00000E+00         0.00000E+00        -0.50463E+08
 
   -0.49885E+08         0.45539E+06         0.00000E+00
    0.45539E+06        -0.51141E+08         0.00000E+00
    0.00000E+00         0.00000E+00        -0.50503E+08
 
   -0.49954E+08         0.47532E+06         0.00000E+00
    0.47532E+06        -0.51152E+08         0.00000E+00
    0.00000E+00         0.00000E+00        -0.50542E+08
 
   -0.50026E+08         0.49255E+06         0.00000E+00
    0.49255E+06        -0.51158E+08         0.00000E+00
    0.00000E+00         0.00000E+00        -0.50580E+08
 
   -0.50101E+08         0.50638E+06         0.00000E+00
    0.50638E+06        -0.51160E+08         0.00000E+00
    0.00000E+00         0.00000E+00        -0.50617E+08
 
   -0.50178E+08         0.51610E+06         0.00000E+00
    0.51610E+06        -0.51158E+08         0.00000E+00
    0.00000E+00         0.00000E+00        -0.50652E+08
 
   -0.50257E+08         0.52098E+06         0.00000E+00
    0.52098E+06        -0.51152E+08         0.00000E+00
    0.00000E+00         0.00000E+00        -0.50687E+08
 
   -0.50338E+08         0.52031E+06         0.00000E+00
    0.52031E+06        -0.51141E+08         0.00000E+00
    0.00000E+00         0.00000E+00        -0.50719E+08
 
   -0.50418E+08         0.51340E+06         0.00000E+00
    0.51340E+06        -0.51127E+08         0.00000E+00
    0.00000E+00         0.00000E+00        -0.50750E+08
 
   -0.50499E+08         0.49957E+06         0.00000E+00
    0.49957E+06        -0.51110E+08         0.00000E+00
    0.00000E+00         0.00000E+00        -0.50779E+08
 
   -0.50577E+08         0.47823E+06         0.00000E+00
    0.47823E+06        -0.51091E+08         0.00000E+00
    0.00000E+00         0.00000E+00        -0.50805E+08
 
   -0.50653E+08         0.44884E+06         0.00000E+00
    0.44884E+06        -0.51069E+08         0.00000E+00
    0.00000E+00         0.00000E+00        -0.50827E+08
 
   -0.50725E+08         0.41097E+06         0.00000E+00
    0.41097E+06        -0.51045E+08         0.00000E+00
    0.00000E+00         0.00000E+00        -0.50847E+08
 
   -0.50791E+08         0.36429E+06         0.00000E+00
    0.36429E+06        -0.51021E+08         0.00000E+00
    0.00000E+00         0.00000E+00        -0.50862E+08
 
   -0.50849E+08         0.30862E+06         0.00000E+00
    0.30862E+06        -0.50997E+08         0.00000E+00
    0.00000E+00         0.00000E+00        -0.50872E+08
 
   -0.46748E+08         0.21258E+05         0.00000E+00
    0.21258E+05        -0.50000E+08         0.00000E+00
    0.00000E+00         0.00000E+00        -0.48586E+08
 
   -0.46892E+08         0.49063E+05         0.00000E+00
    0.49063E+05        -0.50002E+08         0.00000E+00
    0.00000E+00         0.00000E+00        -0.48625E+08
 
   -0.47043E+08         0.70234E+05         0.00000E+00
    0.70234E+05        -0.50007E+08         0.00000E+00
    0.00000E+00         0.00000E+00        -0.48673E+08
 
   -0.47196E+08         0.84707E+05         0.00000E+00
    0.84707E+05        -0.50016E+08         0.00000E+00
    0.00000E+00         0.00000E+00        -0.48729E+08
 
   -0.47351E+08         0.92692E+05         0.00000E+00
    0.92692E+05        -0.50028E+08         0.00000E+00
    0.00000E+00         0.00000E+00        -0.48791E+08
 
   -0.47504E+08         0.94542E+05         0.00000E+00
    0.94542E+05        -0.50045E+08         0.00000E+00
    0.00000E+00         0.00000E+00        -0.48858E+08
 
   -0.47655E+08         0.90762E+05         0.00000E+00
    0.90762E+05        -0.50066E+08         0.00000E+00
    0.00000E+00         0.00000E+00        -0.48929E+08
 
   -0.47801E+08         0.81996E+05         0.00000E+00
    0.81996E+05        -0.50092E+08         0.00000E+00
    0.00000E+00         0.00000E+00        -0.49003E+08
 
   -0.47941E+08         0.68999E+05         0.00000E+00
    0.68999E+05        -0.50123E+08         0.00000E+00
    0.00000E+00         0.00000E+00        -0.49078E+08
 
   -0.48074E+08         0.52595E+05         0.00000E+00
    0.52595E+05        -0.50159E+08         0.00000E+00
    0.00000E+00         0.00000E+00        -0.49154E+08
 
   -0.48200E+08         0.33651E+05         0.00000E+00
    0.33651E+05        -0.50201E+08         0.00000E+00
    0.00000E+00         0.00000E+00        -0.49230E+08
 
   -0.48316E+08         0.13049E+05         0.00000E+00
    0.13049E+05        -0.50247E+08         0.00000E+00
    0.00000E+00         0.00000E+00        -0.49305E+08
 
   -0.48425E+08        -0.83391E+04         0.00000E+00
   -0.83391E+04        -0.50297E+08         0.00000E+00
    0.00000E+00         0.00000E+00        -0.49380E+08
 
   -0.48524E+08        -0.29672E+05         0.00000E+00
   -0.29672E+05        -0.50352E+08         0.00000E+00
    0.00000E+00         0.00000E+00        -0.49452E+08
 
   -0.48615E+08        -0.50156E+05         0.00000E+00
   -0.50156E+05        -0.50411E+08         0.00000E+00
    0.00000E+00         0.00000E+00        -0.49524E+08
 
   -0.48697E+08        -0.69061E+05         0.00000E+00
   -0.69061E+05        -0.50473E+08         0.00000E+00
    0.00000E+00         0.00000E+00        -0.49593E+08
 
   -0.48771E+08        -0.85727E+05         0.00000E+00
   -0.85727E+05        -0.50538E+08         0.00000E+00
    0.00000E+00         0.00000E+00        -0.49660E+08
 
   -0.48838E+08        -0.99575E+05         0.00000E+00
   -0.99575E+05        -0.50606E+08         0.00000E+00
    0.00000E+00         0.00000E+00        -0.49725E+08
 
   -0.48898E+08        -0.11011E+06         0.00000E+00
   -0.11011E+06        -0.50676E+08         0.00000E+00
    0.00000E+00         0.00000E+00        -0.49788E+08
 
   -0.48951E+08        -0.11692E+06         0.00000E+00
   -0.11692E+06        -0.50748E+08         0.00000E+00
    0.00000E+00         0.00000E+00        -0.49849E+08
 
   -0.49000E+08        -0.11967E+06         0.00000E+00
   -0.11967E+06        -0.50820E+08         0.00000E+00
    0.00000E+00         0.00000E+00        -0.49908E+08
 
   -0.49043E+08        -0.11811E+06         0.00000E+00
   -0.11811E+06        -0.50893E+08         0.00000E+00
    0.00000E+00         0.00000E+00        -0.49965E+08
 
   -0.49083E+08        -0.11209E+06         0.00000E+00
   -0.11209E+06        -0.50965E+08         0.00000E+00
    0.00000E+00         0.00000E+00        -0.50021E+08
 
   -0.49120E+08        -0.10149E+06         0.00000E+00
   -0.10149E+06        -0.51038E+08         0.00000E+00
    0.00000E+00         0.00000E+00        -0.50074E+08
 
   -0.49155E+08        -0.86297E+05         0.00000E+00
   -0.86297E+05        -0.51109E+08         0.00000E+00
    0.00000E+00         0.00000E+00        -0.50126E+08
 
   -0.49188E+08        -0.66556E+05         0.00000E+00
   -0.66556E+05        -0.51178E+08         0.00000E+00
    0.00000E+00         0.00000E+00        -0.50177E+08
 
   -0.49222E+08        -0.42375E+05         0.00000E+00
   -0.42375E+05        -0.51246E+08         0.00000E+00
    0.00000E+00         0.00000E+00        -0.50227E+08
 
   -0.49256E+08        -0.13930E+05         0.00000E+00
   -0.13930E+05        -0.51311E+08         0.00000E+00
    0.00000E+00         0.00000E+00        -0.50276E+08
 
   -0.49291E+08         0.18538E+05         0.00000E+00
    0.18538E+05        -0.51373E+08         0.00000E+00
    0.00000E+00         0.00000E+00        -0.50324E+08
 
   -0.49329E+08         0.54724E+05         0.00000E+00
    0.54724E+05        -0.51432E+08         0.00000E+00
    0.00000E+00         0.00000E+00        -0.50372E+08
 
   -0.49370E+08         0.94255E+05         0.00000E+00
    0.94255E+05        -0.51487E+08         0.00000E+00
    0.00000E+00         0.00000E+00        -0.50419E+08
 
   -0.49414E+08         0.13669E+06         0.00000E+00
    0.13669E+06        -0.51538E+08         0.00000E+00
    0.00000E+00         0.00000E+00        -0.50466E+08
 
   -0.49464E+08         0.18153E+06         0.00000E+00
    0.18153E+06        -0.51584E+08         0.00000E+00
    0.00000E+00         0.00000E+00        -0.50512E+08
 
   -0.49518E+08         0.22817E+06         0.00000E+00
    0.22817E+06        -0.51625E+08         0.00000E+00
    0.00000E+00         0.00000E+00        -0.50559E+08
 
   -0.49578E+08         0.27597E+06         0.00000E+00
    0.27597E+06        -0.51661E+08         0.00000E+00
    0.00000E+00         0.00000E+00        -0.50606E+08
 
   -0.49644E+08         0.32420E+06         0.00000E+00
    0.32420E+06        -0.51691E+08         0.00000E+00
    0.00000E+00         0.00000E+00        -0.50652E+08
 
   -0.49717E+08         0.37203E+06         0.00000E+00
    0.37203E+06        -0.51715E+08         0.00000E+00
    0.00000E+00         0.00000E+00        -0.50699E+08
 
   -0.49797E+08         0.41857E+06         0.00000E+00
    0.41857E+06        -0.51733E+08         0.00000E+00
    0.00000E+00         0.00000E+00        -0.50746E+08
 
   -0.49884E+08         0.46288E+06         0.00000E+00
    0.46288E+06        -0.51744E+08         0.00000E+00
    0.00000E+00         0.00000E+00        -0.50792E+08
 
   -0.49978E+08         0.50391E+06         0.00000E+00
    0.50391E+06        -0.51749E+08         0.00000E+00
    0.00000E+00         0.00000E+00        -0.50839E+08
 
   -0.50079E+08         0.54057E+06         0.00000E+00
    0.54057E+06        -0.51747E+08         0.00000E+00
    0.00000E+00         0.00000E+00        -0.50884E+08
 
   -0.50186E+08         0.57172E+06         0.00000E+00
    0.57172E+06        -0.51738E+08         0.00000E+00
    0.00000E+00         0.00000E+00        -0.50930E+08
 
   -0.50299E+08         0.59619E+06         0.00000E+00
    0.59619E+06        -0.51722E+08         0.00000E+00
    0.00000E+00         0.00000E+00        -0.50974E+08
 
   -0.50418E+08         0.61277E+06         0.00000E+00
    0.61277E+06        -0.51700E+08         0.00000E+00
    0.00000E+00         0.00000E+00        -0.51016E+08
 
   -0.50540E+08         0.62027E+06         0.00000E+00
    0.62027E+06        -0.51672E+08         0.00000E+00
    0.00000E+00         0.00000E+00        -0.51056E+08
 
   -0.50665E+08         0.61756E+06         0.00000E+00
    0.61756E+06        -0.51638E+08         0.00000E+00
    0.00000E+00         0.00000E+00        -0.51094E+08
 
   -0.50791E+08         0.60353E+06         0.00000E+00
    0.60353E+06        -0.51600E+08         0.00000E+00
    0.00000E+00         0.00000E+00        -0.51128E+08
 
   -0.50916E+08         0.57718E+06         0.00000E+00
    0.57718E+06        -0.51557E+08         0.00000E+00
    0.00000E+00         0.00000E+00        -0.51158E+08
 
   -0.51038E+08         0.53764E+06         0.00000E+00
    0.53764E+06        -0.51510E+08         0.00000E+00
    0.00000E+00         0.00000E+00        -0.51183E+08
 
   -0.51154E+08         0.48424E+06         0.00000E+00
    0.48424E+06        -0.51462E+08         0.00000E+00
    0.00000E+00         0.00000E+00        -0.51202E+08
 
   -0.46629E+08         0.16666E+05         0.00000E+00
    0.16666E+05        -0.50000E+08         0.00000E+00
    0.00000E+00         0.00000E+00        -0.48586E+08
 
   -0.46814E+08         0.27937E+05         0.00000E+00
    0.27937E+05        -0.50002E+08         0.00000E+00
    0.00000E+00         0.00000E+00        -0.48635E+08
 
   -0.47005E+08         0.29110E+05         0.00000E+00
    0.29110E+05        -0.50009E+08         0.00000E+00
    0.00000E+00         0.00000E+00        -0.48695E+08
 
   -0.47198E+08         0.20498E+05         0.00000E+00
    0.20498E+05        -0.50021E+08         0.00000E+00
    0.00000E+00         0.00000E+00        -0.48766E+08
 
   -0.47391E+08         0.25149E+04         0.00000E+00
    0.25149E+04        -0.50040E+08         0.00000E+00
    0.00000E+00         0.00000E+00        -0.48843E+08
 
   -0.47578E+08        -0.23965E+05         0.00000E+00
   -0.23965E+05        -0.50065E+08         0.00000E+00
    0.00000E+00         0.00000E+00        -0.48926E+08
 
   -0.47758E+08        -0.57754E+05         0.00000E+00
   -0.57754E+05        -0.50098E+08         0.00000E+00
    0.00000E+00         0.00000E+00        -0.49013E+08
 
   -0.47929E+08        -0.97486E+05         0.00000E+00
   -0.97486E+05        -0.50139E+08         0.00000E+00
    0.00000E+00         0.00000E+00        -0.49102E+08
 
   -0.48088E+08        -0.14169E+06         0.00000E+00
   -0.14169E+06        -0.50187E+08         0.00000E+00
    0.00000E+00         0.00000E+00        -0.49192E+08
 
   -0.48234E+08        -0.18884E+06         0.00000E+00
   -0.18884E+06        -0.50243E+08         0.00000E+00
    0.00000E+00         0.00000E+00        -0.49281E+08
 
   -0.48367E+08        -0.23743E+06         0.00000E+00
   -0.23743E+06        -0.50307E+08         0.00000E+00
    0.00000E+00         0.00000E+00        -0.49369E+08
 
   -0.48486E+08        -0.28601E+06         0.00000E+00
   -0.28601E+06        -0.50377E+08         0.00000E+00
    0.00000E+00         0.00000E+00        -0.49455E+08
 
   -0.48590E+08        -0.33322E+06         0.00000E+00
   -0.33322E+06        -0.50453E+08         0.00000E+00
    0.00000E+00         0.00000E+00        -0.49538E+08
 
   -0.48681E+08        -0.37783E+06         0.00000E+00
   -0.37783E+06        -0.50535E+08         0.00000E+00
    0.00000E+00         0.00000E+00        -0.49619E+08
 
   -0.48759E+08        -0.41876E+06         0.00000E+00
   -0.41876E+06        -0.50622E+08         0.00000E+00
    0.00000E+00         0.00000E+00        -0.49696E+08
 
   -0.48824E+08        -0.45510E+06         0.00000E+00
   -0.45510E+06        -0.50712E+08         0.00000E+00
    0.00000E+00         0.00000E+00        -0.49770E+08
 
   -0.48878E+08        -0.48609E+06         0.00000E+00
   -0.48609E+06        -0.50806E+08         0.00000E+00
    0.00000E+00         0.00000E+00        -0.49840E+08
 
   -0.48922E+08        -0.51112E+06         0.00000E+00
   -0.51112E+06        -0.50902E+08         0.00000E+00
    0.00000E+00         0.00000E+00        -0.49907E+08
 
   -0.48957E+08        -0.52972E+06         0.00000E+00
   -0.52972E+06        -0.50999E+08         0.00000E+00
    0.00000E+00         0.00000E+00        -0.49971E+08
 
   -0.48984E+08        -0.54156E+06         0.00000E+00
   -0.54156E+06        -0.51097E+08         0.00000E+00
    0.00000E+00         0.00000E+00        -0.50032E+08
 
   -0.49004E+08        -0.54640E+06         0.00000E+00
   -0.54640E+06        -0.51196E+08         0.00000E+00
    0.00000E+00         0.00000E+00        -0.50090E+08
 
   -0.49019E+08        -0.54413E+06         0.00000E+00
   -0.54413E+06        -0.51294E+08         0.00000E+00
    0.00000E+00         0.00000E+00        -0.50145E+08
 
   -0.49030E+08        -0.53467E+06         0.00000E+00
   -0.53467E+06        -0.51391E+08         0.00000E+00
    0.00000E+00         0.00000E+00        -0.50198E+08
 
   -0.49038E+08        -0.51807E+06         0.00000E+00
   -0.51807E+06        -0.51487E+08         0.00000E+00
    0.00000E+00         0.00000E+00        -0.50249E+08
 
   -0.49044E+08        -0.49439E+06         0.00000E+00
   -0.49439E+06        -0.51580E+08         0.00000E+00
    0.00000E+00         0.00000E+00        -0.50298E+08
 
   -0.49049E+08        -0.46377E+06         0.00000E+00
   -0.46377E+06        -0.51672E+08         0.00000E+00
    0.00000E+00         0.00000E+00        -0.50346E+08
 
   -0.49055E+08        -0.42638E+06         0.00000E+00
   -0.42638E+06        -0.51760E+08         0.00000E+00
    0.00000E+00         0.00000E+00        -0.50393E+08
 
   -0.49063E+08        -0.38247E+06         0.00000E+00
   -0.38247E+06        -0.51845E+08         0.00000E+00
    0.00000E+00         0.00000E+00        -0.50439E+08
 
   -0.49074E+08        -0.33229E+06         0.00000E+00
   -0.33229E+06        -0.51927E+08         0.00000E+00
    0.00000E+00         0.00000E+00        -0.50484E+08
 
   -0.49088E+08        -0.27617E+06         0.00000E+00
   -0.27617E+06        -0.52004E+08         0.00000E+00
    0.00000E+00         0.00000E+00        -0.50529E+08
 
   -0.49108E+08        -0.21448E+06         0.00000E+00
   -0.21448E+06        -0.52077E+08         0.00000E+00
    0.00000E+00         0.00000E+00        -0.50574E+08
 
   -0.49134E+08        -0.14765E+06         0.00000E+00
   -0.14765E+06        -0.52145E+08         0.00000E+00
    0.00000E+00         0.00000E+00        -0.50620E+08
 
   -0.49167E+08        -0.76192E+05         0.00000E+00
   -0.76192E+05        -0.52207E+08         0.00000E+00
    0.00000E+00         0.00000E+00        -0.50667E+08
 
   -0.49209E+08        -0.69122E+03         0.00000E+00
   -0.69122E+03        -0.52263E+08         0.00000E+00
    0.00000E+00         0.00000E+00        -0.50714E+08
 
   -0.49260E+08         0.78173E+05         0.00000E+00
    0.78173E+05        -0.52313E+08         0.00000E+00
    0.00000E+00         0.00000E+00        -0.50762E+08
 
   -0.49321E+08         0.15961E+06         0.00000E+00
    0.15961E+06        -0.52356E+08         0.00000E+00
    0.00000E+00         0.00000E+00        -0.50812E+08
 
   -0.49394E+08         0.24272E+06         0.00000E+00
    0.24272E+06        -0.52391E+08         0.00000E+00
    0.00000E+00         0.00000E+00        -0.50862E+08
 
   -0.49478E+08         0.32646E+06         0.00000E+00
    0.32646E+06        -0.52418E+08         0.00000E+00
    0.00000E+00         0.00000E+00        -0.50914E+08
 
   -0.49576E+08         0.40965E+06         0.00000E+00
    0.40965E+06        -0.52437E+08         0.00000E+00
    0.00000E+00         0.00000E+00        -0.50968E+08
 
   -0.49686E+08         0.49096E+06         0.00000E+00
    0.49096E+06        -0.52446E+08         0.00000E+00
    0.00000E+00         0.00000E+00        -0.51022E+08
 
   -0.49810E+08         0.56893E+06         0.00000E+00
    0.56893E+06        -0.52445E+08         0.00000E+00
    0.00000E+00         0.00000E+00        -0.51078E+08
 
   -0.49948E+08         0.64192E+06         0.00000E+00
    0.64192E+06        -0.52435E+08         0.00000E+00
    0.00000E+00         0.00000E+00        -0.51134E+08
 
   -0.50099E+08         0.70818E+06         0.00000E+00
    0.70818E+06        -0.52414E+08         0.00000E+00
    0.00000E+00         0.00000E+00        -0.51190E+08
 
   -0.50263E+08         0.76585E+06         0.00000E+00
    0.76585E+06        -0.52383E+08         0.00000E+00
    0.00000E+00         0.00000E+00        -0.51245E+08
 
   -0.50439E+08         0.81295E+06         0.00000E+00
    0.81295E+06        -0.52341E+08         0.00000E+00
    0.00000E+00         0.00000E+00        -0.51300E+08
 
   -0.50625E+08         0.84744E+06         0.00000E+00
    0.84744E+06        -0.52289E+08         0.00000E+00
    0.00000E+00         0.00000E+00        -0.51352E+08
 
   -0.50819E+08         0.86728E+06         0.00000E+00
    0.86728E+06        -0.52227E+08         0.00000E+00
    0.00000E+00         0.00000E+00        -0.51401E+08
 
   -0.51020E+08         0.87049E+06         0.00000E+00
    0.87049E+06        -0.52156E+08         0.00000E+00
    0.00000E+00         0.00000E+00        -0.51445E+08
 
   -0.51224E+08         0.85525E+06         0.00000E+00
    0.85525E+06        -0.52076E+08         0.00000E+00
    0.00000E+00         0.00000E+00        -0.51484E+08
 
   -0.51427E+08         0.81966E+06         0.00000E+00
    0.81966E+06        -0.51990E+08         0.00000E+00
    0.00000E+00         0.00000E+00        -0.51515E+08
 
   -0.46598E+08         0.13476E+05         0.00000E+00
    0.13476E+05        -0.49999E+08         0.00000E+00
    0.00000E+00         0.00000E+00        -0.48656E+08
 
   -0.46850E+08        -0.33458E+03         0.00000E+00
   -0.33458E+03        -0.50002E+08         0.00000E+00
    0.00000E+00         0.00000E+00        -0.48722E+08
 
   -0.47107E+08        -0.31344E+05         0.00000E+00
   -0.31344E+05        -0.50012E+08         0.00000E+00
    0.00000E+00         0.00000E+00        -0.48802E+08
 
   -0.47362E+08        -0.79041E+05         0.00000E+00
   -0.79041E+05        -0.50032E+08         0.00000E+00
    0.00000E+00         0.00000E+00        -0.48893E+08
 
   -0.47608E+08        -0.14099E+06         0.00000E+00
   -0.14099E+06        -0.50063E+08         0.00000E+00
    0.00000E+00         0.00000E+00        -0.48992E+08
 
   -0.47841E+08        -0.21449E+06         0.00000E+00
   -0.21449E+06        -0.50106E+08         0.00000E+00
    0.00000E+00         0.00000E+00        -0.49097E+08
 
   -0.48056E+08        -0.29672E+06         0.00000E+00
   -0.29672E+06        -0.50162E+08         0.00000E+00
    0.00000E+00         0.00000E+00        -0.49203E+08
 
   -0.48250E+08        -0.38472E+06         0.00000E+00
   -0.38472E+06        -0.50230E+08         0.00000E+00
    0.00000E+00         0.00000E+00        -0.49310E+08
 
   -0.48423E+08        -0.47554E+06         0.00000E+00
   -0.47554E+06        -0.50309E+08         0.00000E+00
    0.00000E+00         0.00000E+00        -0.49415E+08
 
   -0.48572E+08        -0.56635E+06         0.00000E+00
   -0.56635E+06        -0.50400E+08         0.00000E+00
    0.00000E+00         0.00000E+00        -0.49517E+08
 
   -0.48698E+08        -0.65460E+06         0.00000E+00
   -0.65460E+06        -0.50499E+08         0.00000E+00
    0.00000E+00         0.00000E+00        -0.49616E+08
 
   -0.48802E+08        -0.73810E+06         0.00000E+00
   -0.73810E+06        -0.50607E+08         0.00000E+00
    0.00000E+00         0.00000E+00        -0.49709E+08
 
   -0.48885E+08        -0.81505E+06         0.00000E+00
   -0.81505E+06        -0.50720E+08         0.00000E+00
    0.00000E+00         0.00000E+00        -0.49797E+08
 
   -0.48948E+08        -0.88406E+06         0.00000E+00
   -0.88406E+06        -0.50839E+08         0.00000E+00
    0.00000E+00         0.00000E+00        -0.49879E+08
 
   -0.48993E+08        -0.94412E+06         0.00000E+00
   -0.94412E+06        -0.50961E+08         0.00000E+00
    0.00000E+00         0.00000E+00        -0.49956E+08
 
   -0.49022E+08        -0.99451E+06         0.00000E+00
   -0.99451E+06        -0.51085E+08         0.00000E+00
    0.00000E+00         0.00000E+00        -0.50027E+08
 
   -0.49037E+08        -0.10348E+07         0.00000E+00
   -0.10348E+07        -0.51210E+08         0.00000E+00
    0.00000E+00         0.00000E+00        -0.50093E+08
 
   -0.49040E+08        -0.10649E+07         0.00000E+00
   -0.10649E+07        -0.51334E+08         0.00000E+00
    0.00000E+00         0.00000E+00        -0.50154E+08
 
   -0.49033E+08        -0.10846E+07         0.00000E+00
   -0.10846E+07        -0.51458E+08         0.00000E+00
    0.00000E+00         0.00000E+00        -0.50210E+08
 
   -0.49017E+08        -0.10942E+07         0.00000E+00
   -0.10942E+07        -0.51580E+08         0.00000E+00
    0.00000E+00         0.00000E+00        -0.50261E+08
 
   -0.48995E+08        -0.10938E+07         0.00000E+00
   -0.10938E+07        -0.51700E+08         0.00000E+00
    0.00000E+00         0.00000E+00        -0.50309E+08
 
   -0.48968E+08        -0.10836E+07         0.00000E+00
   -0.10836E+07        -0.51817E+08         0.00000E+00
    0.00000E+00         0.00000E+00        -0.50353E+08
 
   -0.48938E+08        -0.10639E+07         0.00000E+00
   -0.10639E+07        -0.51932E+08         0.00000E+00
    0.00000E+00         0.00000E+00        -0.50394E+08
 
   -0.48905E+08        -0.10350E+07         0.00000E+00
   -0.10350E+07        -0.52043E+08         0.00000E+00
    0.00000E+00         0.00000E+00        -0.50433E+08
 
   -0.48872E+08        -0.99725E+06         0.00000E+00
   -0.99725E+06        -0.52150E+08         0.00000E+00
    0.00000E+00         0.00000E+00        -0.50470E+08
 
   -0.48839E+08        -0.95086E+06         0.00000E+00
   -0.95086E+06        -0.52254E+08         0.00000E+00
    0.00000E+00         0.00000E+00        -0.50505E+08
 
   -0.48807E+08        -0.89611E+06         0.00000E+00
   -0.89611E+06        -0.52355E+08         0.00000E+00
    0.00000E+00         0.00000E+00        -0.50539E+08
 
   -0.48779E+08        -0.83323E+06         0.00000E+00
   -0.83323E+06        -0.52451E+08         0.00000E+00
    0.00000E+00         0.00000E+00        -0.50573E+08
 
   -0.48755E+08        -0.76242E+06         0.00000E+00
   -0.76242E+06        -0.52543E+08         0.00000E+00
    0.00000E+00         0.00000E+00        -0.50606E+08
 
   -0.48736E+08        -0.68391E+06         0.00000E+00
   -0.68391E+06        -0.52631E+08         0.00000E+00
    0.00000E+00         0.00000E+00        -0.50640E+08
 
   -0.48724E+08        -0.59789E+06         0.00000E+00
   -0.59789E+06        -0.52715E+08         0.00000E+00
    0.00000E+00         0.00000E+00        -0.50675E+08
 
   -0.48720E+08        -0.50459E+06         0.00000E+00
   -0.50459E+06        -0.52793E+08         0.00000E+00
    0.00000E+00         0.00000E+00        -0.50711E+08
 
   -0.48725E+08        -0.40425E+06         0.00000E+00
   -0.40425E+06        -0.52866E+08         0.00000E+00
    0.00000E+00         0.00000E+00        -0.50748E+08
 
   -0.48742E+08        -0.29717E+06         0.00000E+00
   -0.29717E+06        -0.52934E+08         0.00000E+00
    0.00000E+00         0.00000E+00        -0.50788E+08
 
   -0.48770E+08        -0.18374E+06         0.00000E+00
   -0.18374E+06        -0.52995E+08         0.00000E+00
    0.00000E+00         0.00000E+00        -0.50830E+08
 
   -0.48813E+08        -0.64444E+05         0.00000E+00
   -0.64444E+05        -0.53049E+08         0.00000E+00
    0.00000E+00         0.00000E+00        -0.50875E+08
 
   -0.48871E+08         0.60075E+05         0.00000E+00
    0.60075E+05        -0.53096E+08         0.00000E+00
    0.00000E+00         0.00000E+00        -0.50922E+08
 
   -0.48947E+08         0.18899E+06         0.00000E+00
    0.18899E+06        -0.53133E+08         0.00000E+00
    0.00000E+00         0.00000E+00        -0.50973E+08
 
   -0.49041E+08         0.32126E+06         0.00000E+00
    0.32126E+06        -0.53161E+08         0.00000E+00
    0.00000E+00         0.00000E+00        -0.51027E+08
 
   -0.49156E+08         0.45557E+06         0.00000E+00
    0.45557E+06        -0.53178E+08         0.00000E+00
    0.00000E+00         0.00000E+00        -0.51084E+08
 
   -0.49293E+08         0.59031E+06         0.00000E+00
    0.59031E+06        -0.53183E+08         0.00000E+00
    0.00000E+00         0.00000E+00        -0.51145E+08
 
   -0.49453E+08         0.72353E+06         0.00000E+00
    0.72353E+06        -0.53174E+08         0.00000E+00
    0.00000E+00         0.00000E+00        -0.51208E+08
 
   -0.49637E+08         0.85295E+06         0.00000E+00
    0.85295E+06        -0.53151E+08         0.00000E+00
    0.00000E+00         0.00000E+00        -0.51273E+08
 
   -0.49845E+08         0.97596E+06         0.00000E+00
    0.97596E+06        -0.53113E+08         0.00000E+00
    0.00000E+00         0.00000E+00        -0.51340E+08
 
   -0.50079E+08         0.10896E+07         0.00000E+00
    0.10896E+07        -0.53058E+08         0.00000E+00
    0.00000E+00         0.00000E+00        -0.51408E+08
 
   -0.50336E+08         0.11907E+07         0.00000E+00
    0.11907E+07        -0.52986E+08         0.00000E+00
    0.00000E+00         0.00000E+00        -0.51476E+08
 
   -0.50615E+08         0.12756E+07         0.00000E+00
    0.12756E+07        -0.52896E+08         0.00000E+00
    0.00000E+00         0.00000E+00        -0.51541E+08
 
   -0.50915E+08         0.13405E+07         0.00000E+00
    0.13405E+07        -0.52789E+08         0.00000E+00
    0.00000E+00         0.00000E+00        -0.51603E+08
 
   -0.51231E+08         0.13814E+07         0.00000E+00
    0.13814E+07        -0.52665E+08         0.00000E+00
    0.00000E+00         0.00000E+00        -0.51658E+08
 
   -0.51560E+08         0.13952E+07         0.00000E+00
    0.13952E+07        -0.52526E+08         0.00000E+00
    0.00000E+00         0.00000E+00        -0.51706E+08
 
   -0.46710E+08         0.12396E+05         0.00000E+00
    0.12396E+05        -0.49996E+08         0.00000E+00
    0.00000E+00         0.00000E+00        -0.48822E+08
 
   -0.47089E+08        -0.49630E+05         0.00000E+00
   -0.49630E+05        -0.49999E+08         0.00000E+00
    0.00000E+00         0.00000E+00        -0.48917E+08
 
   -0.47461E+08        -0.14599E+06         0.00000E+00
   -0.14599E+06        -0.50024E+08         0.00000E+00
    0.00000E+00         0.00000E+00        -0.49030E+08
 
   -0.47810E+08        -0.26752E+06         0.00000E+00
   -0.26752E+06        -0.50067E+08         0.00000E+00
    0.00000E+00         0.00000E+00        -0.49153E+08
 
   -0.48128E+08        -0.40833E+06         0.00000E+00
   -0.40833E+06        -0.50131E+08         0.00000E+00
    0.00000E+00         0.00000E+00        -0.49281E+08
 
   -0.48410E+08        -0.56182E+06         0.00000E+00
   -0.56182E+06        -0.50217E+08         0.00000E+00
    0.00000E+00         0.00000E+00        -0.49411E+08
 
   -0.48651E+08        -0.72093E+06         0.00000E+00
   -0.72093E+06        -0.50324E+08         0.00000E+00
    0.00000E+00         0.00000E+00        -0.49538E+08
 
   -0.48849E+08        -0.87904E+06         0.00000E+00
   -0.87904E+06        -0.50448E+08         0.00000E+00
    0.00000E+00         0.00000E+00        -0.49660E+08
 
   -0.49006E+08        -0.10305E+07         0.00000E+00
   -0.10305E+07        -0.50587E+08         0.00000E+00
    0.00000E+00         0.00000E+00        -0.49775E+08
 
   -0.49124E+08        -0.11711E+07         0.00000E+00
   -0.11711E+07        -0.50735E+08         0.00000E+00
    0.00000E+00         0.00000E+00        -0.49882E+08
 
   -0.49207E+08        -0.12977E+07         0.00000E+00
   -0.12977E+07        -0.50891E+08         0.00000E+00
    0.00000E+00         0.00000E+00        -0.49979E+08
 
   -0.49258E+08        -0.14085E+07         0.00000E+00
   -0.14085E+07        -0.51051E+08         0.00000E+00
    0.00000E+00         0.00000E+00        -0.50067E+08
 
   -0.49282E+08        -0.15025E+07         0.00000E+00
   -0.15025E+07        -0.51211E+08         0.00000E+00
    0.00000E+00         0.00000E+00        -0.50146E+08
 
   -0.49283E+08        -0.15796E+07         0.00000E+00
   -0.15796E+07        -0.51369E+08         0.00000E+00
    0.00000E+00         0.00000E+00        -0.50215E+08
 
   -0.49264E+08        -0.16399E+07         0.00000E+00
   -0.16399E+07        -0.51525E+08         0.00000E+00
    0.00000E+00         0.00000E+00        -0.50276E+08
 
   -0.49230E+08        -0.16842E+07         0.00000E+00
   -0.16842E+07        -0.51676E+08         0.00000E+00
    0.00000E+00         0.00000E+00        -0.50328E+08
 
   -0.49183E+08        -0.17134E+07         0.00000E+00
   -0.17134E+07        -0.51821E+08         0.00000E+00
    0.00000E+00         0.00000E+00        -0.50373E+08
 
   -0.49127E+08        -0.17283E+07         0.00000E+00
   -0.17283E+07        -0.51960E+08         0.00000E+00
    0.00000E+00         0.00000E+00        -0.50412E+08
 
   -0.49062E+08        -0.17301E+07         0.00000E+00
   -0.17301E+07        -0.52093E+08         0.00000E+00
    0.00000E+00         0.00000E+00        -0.50444E+08
 
   -0.48992E+08        -0.17198E+07         0.00000E+00
   -0.17198E+07        -0.52219E+08         0.00000E+00
    0.00000E+00         0.00000E+00        -0.50471E+08
 
   -0.48918E+08        -0.16982E+07         0.00000E+00
   -0.16982E+07        -0.52339E+08         0.00000E+00
    0.00000E+00         0.00000E+00        -0.50493E+08
 
   -0.48842E+08        -0.16663E+07         0.00000E+00
   -0.16663E+07        -0.52452E+08         0.00000E+00
    0.00000E+00         0.00000E+00        -0.50512E+08
 
   -0.48764E+08        -0.16248E+07         0.00000E+00
   -0.16248E+07        -0.52560E+08         0.00000E+00
    0.00000E+00         0.00000E+00        -0.50527E+08
 
   -0.48687E+08        -0.15743E+07         0.00000E+00
   -0.15743E+07        -0.52662E+08         0.00000E+00
    0.00000E+00         0.00000E+00        -0.50540E+08
 
   -0.48610E+08        -0.15153E+07         0.00000E+00
   -0.15153E+07        -0.52760E+08         0.00000E+00
    0.00000E+00         0.00000E+00        -0.50551E+08
 
   -0.48535E+08        -0.14482E+07         0.00000E+00
   -0.14482E+07        -0.52852E+08         0.00000E+00
    0.00000E+00         0.00000E+00        -0.50561E+08
 
   -0.48463E+08        -0.13732E+07         0.00000E+00
   -0.13732E+07        -0.52940E+08         0.00000E+00
    0.00000E+00         0.00000E+00        -0.50569E+08
 
   -0.48395E+08        -0.12905E+07         0.00000E+00
   -0.12905E+07        -0.53025E+08         0.00000E+00
    0.00000E+00         0.00000E+00        -0.50578E+08
 
   -0.48332E+08        -0.12000E+07         0.00000E+00
   -0.12000E+07        -0.53106E+08         0.00000E+00
    0.00000E+00         0.00000E+00        -0.50587E+08
 
   -0.48274E+08        -0.11017E+07         0.00000E+00
   -0.11017E+07        -0.53183E+08         0.00000E+00
    0.00000E+00         0.00000E+00        -0.50597E+08
 
   -0.48223E+08        -0.99539E+06         0.00000E+00
   -0.99539E+06        -0.53258E+08         0.00000E+00
    0.00000E+00         0.00000E+00        -0.50608E+08
 
   -0.48180E+08        -0.88076E+06         0.00000E+00
   -0.88076E+06        -0.53330E+08         0.00000E+00
    0.00000E+00         0.00000E+00        -0.50622E+08
 
   -0.48145E+08        -0.75748E+06         0.00000E+00
   -0.75748E+06        -0.53398E+08         0.00000E+00
    0.00000E+00         0.00000E+00        -0.50638E+08
 
   -0.48122E+08        -0.62516E+06         0.00000E+00
   -0.62516E+06        -0.53464E+08         0.00000E+00
    0.00000E+00         0.00000E+00        -0.50656E+08
 
   -0.48112E+08        -0.48338E+06         0.00000E+00
   -0.48338E+06        -0.53525E+08         0.00000E+00
    0.00000E+00         0.00000E+00        -0.50679E+08
 
   -0.48116E+08        -0.33177E+06         0.00000E+00
   -0.33177E+06        -0.53583E+08         0.00000E+00
    0.00000E+00         0.00000E+00        -0.50706E+08
 
   -0.48137E+08        -0.17003E+06         0.00000E+00
   -0.17003E+06        -0.53635E+08         0.00000E+00
    0.00000E+00         0.00000E+00        -0.50737E+08
 
   -0.48178E+08         0.20083E+04         0.00000E+00
    0.20083E+04        -0.53680E+08         0.00000E+00
    0.00000E+00         0.00000E+00        -0.50773E+08
 
   -0.48242E+08         0.18429E+06         0.00000E+00
    0.18429E+06        -0.53718E+08         0.00000E+00
    0.00000E+00         0.00000E+00        -0.50814E+08
 
   -0.48332E+08         0.37645E+06         0.00000E+00
    0.37645E+06        -0.53747E+08         0.00000E+00
    0.00000E+00         0.00000E+00        -0.50861E+08
 
   -0.48451E+08         0.57767E+06         0.00000E+00
    0.57767E+06        -0.53763E+08         0.00000E+00
    0.00000E+00         0.00000E+00        -0.50914E+08
 
   -0.48603E+08         0.78657E+06         0.00000E+00
    0.78657E+06        -0.53765E+08         0.00000E+00
    0.00000E+00         0.00000E+00        -0.50973E+08
 
   -0.48792E+08         0.10011E+07         0.00000E+00
    0.10011E+07        -0.53750E+08         0.00000E+00
    0.00000E+00         0.00000E+00        -0.51037E+08
 
   -0.49021E+08         0.12183E+07         0.00000E+00
    0.12183E+07        -0.53715E+08         0.00000E+00
    0.00000E+00         0.00000E+00        -0.51106E+08
 
   -0.49292E+08         0.14344E+07         0.00000E+00
    0.14344E+07        -0.53657E+08         0.00000E+00
    0.00000E+00         0.00000E+00        -0.51179E+08
 
   -0.49608E+08         0.16448E+07         0.00000E+00
    0.16448E+07        -0.53572E+08         0.00000E+00
    0.00000E+00         0.00000E+00        -0.51256E+08
 
   -0.49971E+08         0.18441E+07         0.00000E+00
    0.18441E+07        -0.53459E+08         0.00000E+00
    0.00000E+00         0.00000E+00        -0.51334E+08
 
   -0.50379E+08         0.20264E+07         0.00000E+00
    0.20264E+07        -0.53316E+08         0.00000E+00
    0.00000E+00         0.00000E+00        -0.51411E+08
 
   -0.50834E+08         0.21848E+07         0.00000E+00
    0.21848E+07        -0.53142E+08         0.00000E+00
    0.00000E+00         0.00000E+00        -0.51486E+08
 
   -0.51328E+08         0.23089E+07         0.00000E+00
    0.23089E+07        -0.52932E+08         0.00000E+00
    0.00000E+00         0.00000E+00        -0.51553E+08
 
   -0.47156E+08        -0.23624E+04         0.00000E+00
   -0.23624E+04        -0.49977E+08         0.00000E+00
    0.00000E+00         0.00000E+00        -0.49054E+08
 
   -0.47778E+08        -0.19464E+06         0.00000E+00
   -0.19464E+06        -0.50009E+08         0.00000E+00
    0.00000E+00         0.00000E+00        -0.49206E+08
 
   -0.48326E+08        -0.43216E+06         0.00000E+00
   -0.43216E+06        -0.50072E+08         0.00000E+00
    0.00000E+00         0.00000E+00        -0.49364E+08
 
   -0.48791E+08        -0.70503E+06         0.00000E+00
   -0.70503E+06        -0.50185E+08         0.00000E+00
    0.00000E+00         0.00000E+00        -0.49523E+08
 
   -0.49163E+08        -0.99061E+06         0.00000E+00
   -0.99061E+06        -0.50342E+08         0.00000E+00
    0.00000E+00         0.00000E+00        -0.49677E+08
 
   -0.49440E+08        -0.12684E+07         0.00000E+00
   -0.12684E+07        -0.50533E+08         0.00000E+00
    0.00000E+00         0.00000E+00        -0.49819E+08
 
   -0.49631E+08        -0.15237E+07         0.00000E+00
   -0.15237E+07        -0.50745E+08         0.00000E+00
    0.00000E+00         0.00000E+00        -0.49946E+08
 
   -0.49746E+08        -0.17482E+07         0.00000E+00
   -0.17482E+07        -0.50968E+08         0.00000E+00
    0.00000E+00         0.00000E+00        -0.50056E+08
 
   -0.49800E+08        -0.19378E+07         0.00000E+00
   -0.19378E+07        -0.51192E+08         0.00000E+00
    0.00000E+00         0.00000E+00        -0.50150E+08
 
   -0.49805E+08        -0.20919E+07         0.00000E+00
   -0.20919E+07        -0.51411E+08         0.00000E+00
    0.00000E+00         0.00000E+00        -0.50227E+08
 
   -0.49771E+08        -0.22118E+07         0.00000E+00
   -0.22118E+07        -0.51620E+08         0.00000E+00
    0.00000E+00         0.00000E+00        -0.50290E+08
 
   -0.49708E+08        -0.23002E+07         0.00000E+00
   -0.23002E+07        -0.51816E+08         0.00000E+00
    0.00000E+00         0.00000E+00        -0.50338E+08
 
   -0.49624E+08        -0.23603E+07         0.00000E+00
   -0.23603E+07        -0.51996E+08         0.00000E+00
    0.00000E+00         0.00000E+00        -0.50374E+08
 
   -0.49525E+08        -0.23955E+07         0.00000E+00
   -0.23955E+07        -0.52161E+08         0.00000E+00
    0.00000E+00         0.00000E+00        -0.50398E+08
 
   -0.49415E+08        -0.24091E+07         0.00000E+00
   -0.24091E+07        -0.52311E+08         0.00000E+00
    0.00000E+00         0.00000E+00        -0.50413E+08
 
   -0.49298E+08        -0.24042E+07         0.00000E+00
   -0.24042E+07        -0.52444E+08         0.00000E+00
    0.00000E+00         0.00000E+00        -0.50419E+08
 
   -0.49178E+08        -0.23836E+07         0.00000E+00
   -0.23836E+07        -0.52563E+08         0.00000E+00
    0.00000E+00         0.00000E+00        -0.50417E+08
 
   -0.49055E+08        -0.23498E+07         0.00000E+00
   -0.23498E+07        -0.52669E+08         0.00000E+00
    0.00000E+00         0.00000E+00        -0.50409E+08
 
   -0.48933E+08        -0.23049E+07         0.00000E+00
   -0.23049E+07        -0.52762E+08         0.00000E+00
    0.00000E+00         0.00000E+00        -0.50396E+08
 
   -0.48811E+08        -0.22508E+07         0.00000E+00
   -0.22508E+07        -0.52843E+08         0.00000E+00
    0.00000E+00         0.00000E+00        -0.50378E+08
 
   -0.48691E+08        -0.21888E+07         0.00000E+00
   -0.21888E+07        -0.52915E+08         0.00000E+00
    0.00000E+00         0.00000E+00        -0.50356E+08
 
   -0.48574E+08        -0.21202E+07         0.00000E+00
   -0.21202E+07        -0.52978E+08         0.00000E+00
    0.00000E+00         0.00000E+00        -0.50332E+08
 
   -0.48459E+08        -0.20460E+07         0.00000E+00
   -0.20460E+07        -0.53034E+08         0.00000E+00
    0.00000E+00         0.00000E+00        -0.50305E+08
 
   -0.48346E+08        -0.19666E+07         0.00000E+00
   -0.19666E+07        -0.53084E+08         0.00000E+00
    0.00000E+00         0.00000E+00        -0.50277E+08
 
   -0.48237E+08        -0.18827E+07         0.00000E+00
   -0.18827E+07        -0.53128E+08         0.00000E+00
    0.00000E+00         0.00000E+00        -0.50248E+08
 
   -0.48131E+08        -0.17944E+07         0.00000E+00
   -0.17944E+07        -0.53168E+08         0.00000E+00
    0.00000E+00         0.00000E+00        -0.50218E+08
 
   -0.48028E+08        -0.17018E+07         0.00000E+00
   -0.17018E+07        -0.53206E+08         0.00000E+00
    0.00000E+00         0.00000E+00        -0.50188E+08
 
   -0.47928E+08        -0.16046E+07         0.00000E+00
   -0.16046E+07        -0.53241E+08         0.00000E+00
    0.00000E+00         0.00000E+00        -0.50158E+08
 
   -0.47832E+08        -0.15025E+07         0.00000E+00
   -0.15025E+07        -0.53275E+08         0.00000E+00
    0.00000E+00         0.00000E+00        -0.50129E+08
 
   -0.47739E+08        -0.13950E+07         0.00000E+00
   -0.13950E+07        -0.53309E+08         0.00000E+00
    0.00000E+00         0.00000E+00        -0.50102E+08
 
   -0.47650E+08        -0.12813E+07         0.00000E+00
   -0.12813E+07        -0.53342E+08         0.00000E+00
    0.00000E+00         0.00000E+00        -0.50076E+08
 
   -0.47566E+08        -0.11605E+07         0.00000E+00
   -0.11605E+07        -0.53377E+08         0.00000E+00
    0.00000E+00         0.00000E+00        -0.50053E+08
 
   -0.47487E+08        -0.10316E+07         0.00000E+00
   -0.10316E+07        -0.53412E+08         0.00000E+00
    0.00000E+00         0.00000E+00        -0.50032E+08
 
   -0.47415E+08        -0.89305E+06         0.00000E+00
   -0.89305E+06        -0.53449E+08         0.00000E+00
    0.00000E+00         0.00000E+00        -0.50015E+08
 
   -0.47350E+08        -0.74354E+06         0.00000E+00
   -0.74354E+06        -0.53488E+08         0.00000E+00
    0.00000E+00         0.00000E+00        -0.50001E+08
 
   -0.47295E+08        -0.58131E+06         0.00000E+00
   -0.58131E+06        -0.53528E+08         0.00000E+00
    0.00000E+00         0.00000E+00        -0.49991E+08
 
   -0.47252E+08        -0.40451E+06         0.00000E+00
   -0.40451E+06        -0.53569E+08         0.00000E+00
    0.00000E+00         0.00000E+00        -0.49987E+08
 
   -0.47224E+08        -0.21113E+06         0.00000E+00
   -0.21113E+06        -0.53610E+08         0.00000E+00
    0.00000E+00         0.00000E+00        -0.49987E+08
 
   -0.47214E+08         0.96283E+03         0.00000E+00
    0.96283E+03        -0.53650E+08         0.00000E+00
    0.00000E+00         0.00000E+00        -0.49994E+08
 
   -0.47226E+08         0.23387E+06         0.00000E+00
    0.23387E+06        -0.53688E+08         0.00000E+00
    0.00000E+00         0.00000E+00        -0.50008E+08
 
   -0.47268E+08         0.48956E+06         0.00000E+00
    0.48956E+06        -0.53720E+08         0.00000E+00
    0.00000E+00         0.00000E+00        -0.50029E+08
 
   -0.47344E+08         0.76968E+06         0.00000E+00
    0.76968E+06        -0.53745E+08         0.00000E+00
    0.00000E+00         0.00000E+00        -0.50059E+08
 
   -0.47463E+08         0.10751E+07         0.00000E+00
    0.10751E+07        -0.53756E+08         0.00000E+00
    0.00000E+00         0.00000E+00        -0.50097E+08
 
   -0.47635E+08         0.14058E+07         0.00000E+00
    0.14058E+07        -0.53749E+08         0.00000E+00
    0.00000E+00         0.00000E+00        -0.50144E+08
 
   -0.47868E+08         0.17598E+07         0.00000E+00
    0.17598E+07        -0.53717E+08         0.00000E+00
    0.00000E+00         0.00000E+00        -0.50200E+08
 
   -0.48174E+08         0.21328E+07         0.00000E+00
    0.21328E+07        -0.53652E+08         0.00000E+00
    0.00000E+00         0.00000E+00        -0.50266E+08
 
   -0.48560E+08         0.25175E+07         0.00000E+00
    0.25175E+07        -0.53545E+08         0.00000E+00
    0.00000E+00         0.00000E+00        -0.50339E+08
 
   -0.49035E+08         0.29037E+07         0.00000E+00
    0.29037E+07        -0.53387E+08         0.00000E+00
    0.00000E+00         0.00000E+00        -0.50418E+08
 
   -0.49602E+08         0.32799E+07         0.00000E+00
    0.32799E+07        -0.53173E+08         0.00000E+00
    0.00000E+00         0.00000E+00        -0.50502E+08
 
   -0.50273E+08         0.36411E+07         0.00000E+00
    0.36411E+07        -0.52908E+08         0.00000E+00
    0.00000E+00         0.00000E+00        -0.50591E+08
 
   -0.48625E+08        -0.13308E+06         0.00000E+00
   -0.13308E+06        -0.49923E+08         0.00000E+00
    0.00000E+00         0.00000E+00        -0.48985E+08
 
   -0.49570E+08        -0.66909E+06         0.00000E+00
   -0.66909E+06        -0.50008E+08         0.00000E+00
    0.00000E+00         0.00000E+00        -0.49196E+08
 
   -0.50243E+08        -0.12570E+07         0.00000E+00
   -0.12570E+07        -0.50258E+08         0.00000E+00
    0.00000E+00         0.00000E+00        -0.49388E+08
 
   -0.50640E+08        -0.17921E+07         0.00000E+00
   -0.17921E+07        -0.50580E+08         0.00000E+00
    0.00000E+00         0.00000E+00        -0.49539E+08
 
   -0.50820E+08        -0.22342E+07         0.00000E+00
   -0.22342E+07        -0.50922E+08         0.00000E+00
    0.00000E+00         0.00000E+00        -0.49646E+08
 
   -0.50845E+08        -0.25756E+07         0.00000E+00
   -0.25756E+07        -0.51252E+08         0.00000E+00
    0.00000E+00         0.00000E+00        -0.49717E+08
 
   -0.50766E+08        -0.28229E+07         0.00000E+00
   -0.28229E+07        -0.51554E+08         0.00000E+00
    0.00000E+00         0.00000E+00        -0.49755E+08
 
   -0.50620E+08        -0.29890E+07         0.00000E+00
   -0.29890E+07        -0.51818E+08         0.00000E+00
    0.00000E+00         0.00000E+00        -0.49769E+08
 
   -0.50436E+08        -0.30877E+07         0.00000E+00
   -0.30877E+07        -0.52042E+08         0.00000E+00
    0.00000E+00         0.00000E+00        -0.49761E+08
 
   -0.50232E+08        -0.31324E+07         0.00000E+00
   -0.31324E+07        -0.52227E+08         0.00000E+00
    0.00000E+00         0.00000E+00        -0.49737E+08
 
   -0.50019E+08        -0.31347E+07         0.00000E+00
   -0.31347E+07        -0.52374E+08         0.00000E+00
    0.00000E+00         0.00000E+00        -0.49700E+08
 
   -0.49807E+08        -0.31045E+07         0.00000E+00
   -0.31045E+07        -0.52488E+08         0.00000E+00
    0.00000E+00         0.00000E+00        -0.49653E+08
 
   -0.49600E+08        -0.30497E+07         0.00000E+00
   -0.30497E+07        -0.52571E+08         0.00000E+00
    0.00000E+00         0.00000E+00        -0.49597E+08
 
   -0.49400E+08        -0.29770E+07         0.00000E+00
   -0.29770E+07        -0.52628E+08         0.00000E+00
    0.00000E+00         0.00000E+00        -0.49534E+08
 
   -0.49210E+08        -0.28914E+07         0.00000E+00
   -0.28914E+07        -0.52662E+08         0.00000E+00
    0.00000E+00         0.00000E+00        -0.49467E+08
 
   -0.49031E+08        -0.27970E+07         0.00000E+00
   -0.27970E+07        -0.52677E+08         0.00000E+00
    0.00000E+00         0.00000E+00        -0.49396E+08
 
   -0.48861E+08        -0.26969E+07         0.00000E+00
   -0.26969E+07        -0.52676E+08         0.00000E+00
    0.00000E+00         0.00000E+00        -0.49322E+08
 
   -0.48700E+08        -0.25935E+07         0.00000E+00
   -0.25935E+07        -0.52661E+08         0.00000E+00
    0.00000E+00         0.00000E+00        -0.49246E+08
 
   -0.48549E+08        -0.24886E+07         0.00000E+00
   -0.24886E+07        -0.52635E+08         0.00000E+00
    0.00000E+00         0.00000E+00        -0.49169E+08
 
   -0.48405E+08        -0.23834E+07         0.00000E+00
   -0.23834E+07        -0.52601E+08         0.00000E+00
    0.00000E+00         0.00000E+00        -0.49091E+08
 
   -0.48268E+08        -0.22788E+07         0.00000E+00
   -0.22788E+07        -0.52559E+08         0.00000E+00
    0.00000E+00         0.00000E+00        -0.49014E+08
 
   -0.48138E+08        -0.21754E+07         0.00000E+00
   -0.21754E+07        -0.52513E+08         0.00000E+00
    0.00000E+00         0.00000E+00        -0.48936E+08
 
   -0.48013E+08        -0.20735E+07         0.00000E+00
   -0.20735E+07        -0.52463E+08         0.00000E+00
    0.00000E+00         0.00000E+00        -0.48859E+08
 
   -0.47892E+08        -0.19732E+07         0.00000E+00
   -0.19732E+07        -0.52411E+08         0.00000E+00
    0.00000E+00         0.00000E+00        -0.48782E+08
 
   -0.47774E+08        -0.18745E+07         0.00000E+00
   -0.18745E+07        -0.52358E+08         0.00000E+00
    0.00000E+00         0.00000E+00        -0.48706E+08
 
   -0.47659E+08        -0.17769E+07         0.00000E+00
   -0.17769E+07        -0.52305E+08         0.00000E+00
    0.00000E+00         0.00000E+00        -0.48631E+08
 
   -0.47546E+08        -0.16802E+07         0.00000E+00
   -0.16802E+07        -0.52254E+08         0.00000E+00
    0.00000E+00         0.00000E+00        -0.48558E+08
 
   -0.47434E+08        -0.15836E+07         0.00000E+00
   -0.15836E+07        -0.52204E+08         0.00000E+00
    0.00000E+00         0.00000E+00        -0.48485E+08
 
   -0.47322E+08        -0.14866E+07         0.00000E+00
   -0.14866E+07        -0.52157E+08         0.00000E+00
    0.00000E+00         0.00000E+00        -0.48414E+08
 
   -0.47209E+08        -0.13881E+07         0.00000E+00
   -0.13881E+07        -0.52113E+08         0.00000E+00
    0.00000E+00         0.00000E+00        -0.48344E+08
 
   -0.47095E+08        -0.12872E+07         0.00000E+00
   -0.12872E+07        -0.52074E+08         0.00000E+00
    0.00000E+00         0.00000E+00        -0.48276E+08
 
   -0.46980E+08        -0.11823E+07         0.00000E+00
   -0.11823E+07        -0.52039E+08         0.00000E+00
    0.00000E+00         0.00000E+00        -0.48209E+08
 
   -0.46862E+08        -0.10721E+07         0.00000E+00
   -0.10721E+07        -0.52011E+08         0.00000E+00
    0.00000E+00         0.00000E+00        -0.48144E+08
 
   -0.46742E+08        -0.95469E+06         0.00000E+00
   -0.95469E+06        -0.51989E+08         0.00000E+00
    0.00000E+00         0.00000E+00        -0.48081E+08
 
   -0.46620E+08        -0.82782E+06         0.00000E+00
   -0.82782E+06        -0.51974E+08         0.00000E+00
    0.00000E+00         0.00000E+00        -0.48020E+08
 
   -0.46496E+08        -0.68893E+06         0.00000E+00
   -0.68893E+06        -0.51967E+08         0.00000E+00
    0.00000E+00         0.00000E+00        -0.47961E+08
 
   -0.46370E+08        -0.53492E+06         0.00000E+00
   -0.53492E+06        -0.51968E+08         0.00000E+00
    0.00000E+00         0.00000E+00        -0.47905E+08
 
   -0.46243E+08        -0.36212E+06         0.00000E+00
   -0.36212E+06        -0.51977E+08         0.00000E+00
    0.00000E+00         0.00000E+00        -0.47852E+08
 
   -0.46118E+08        -0.16620E+06         0.00000E+00
   -0.16620E+06        -0.51996E+08         0.00000E+00
    0.00000E+00         0.00000E+00        -0.47803E+08
 
   -0.45997E+08         0.57946E+05         0.00000E+00
    0.57946E+05        -0.52023E+08         0.00000E+00
    0.00000E+00         0.00000E+00        -0.47758E+08
 
   -0.45884E+08         0.31633E+06         0.00000E+00
    0.31633E+06        -0.52059E+08         0.00000E+00
    0.00000E+00         0.00000E+00        -0.47718E+08
 
   -0.45785E+08         0.61589E+06         0.00000E+00
    0.61589E+06        -0.52101E+08         0.00000E+00
    0.00000E+00         0.00000E+00        -0.47684E+08
 
   -0.45709E+08         0.96452E+06         0.00000E+00
    0.96452E+06        -0.52148E+08         0.00000E+00
    0.00000E+00         0.00000E+00        -0.47658E+08
 
   -0.45669E+08         0.13709E+07         0.00000E+00
    0.13709E+07        -0.52195E+08         0.00000E+00
    0.00000E+00         0.00000E+00        -0.47641E+08
 
   -0.45680E+08         0.18440E+07         0.00000E+00
    0.18440E+07        -0.52236E+08         0.00000E+00
    0.00000E+00         0.00000E+00        -0.47635E+08
 
   -0.45768E+08         0.23921E+07         0.00000E+00
    0.23921E+07        -0.52261E+08         0.00000E+00
    0.00000E+00         0.00000E+00        -0.47644E+08
 
   -0.45962E+08         0.30205E+07         0.00000E+00
    0.30205E+07        -0.52256E+08         0.00000E+00
    0.00000E+00         0.00000E+00        -0.47670E+08
 
   -0.46300E+08         0.37269E+07         0.00000E+00
    0.37269E+07        -0.52196E+08         0.00000E+00
    0.00000E+00         0.00000E+00        -0.47716E+08
 
   -0.46814E+08         0.44935E+07         0.00000E+00
    0.44935E+07        -0.52049E+08         0.00000E+00
    0.00000E+00         0.00000E+00        -0.47782E+08
 
   -0.47508E+08         0.52711E+07         0.00000E+00
    0.52711E+07        -0.51760E+08         0.00000E+00
    0.00000E+00         0.00000E+00        -0.47859E+08
 
   -0.53040E+08        -0.84415E+06         0.00000E+00
   -0.84415E+06        -0.49782E+08         0.00000E+00
    0.00000E+00         0.00000E+00        -0.46939E+08
 
   -0.53523E+08        -0.21983E+07         0.00000E+00
   -0.21983E+07        -0.50384E+08         0.00000E+00
    0.00000E+00         0.00000E+00        -0.47124E+08
 
   -0.53324E+08        -0.30273E+07         0.00000E+00
   -0.30273E+07        -0.50833E+08         0.00000E+00
    0.00000E+00         0.00000E+00        -0.47121E+08
 
   -0.52846E+08        -0.34939E+07         0.00000E+00
   -0.34939E+07        -0.51141E+08         0.00000E+00
    0.00000E+00         0.00000E+00        -0.47023E+08
 
   -0.52280E+08        -0.37168E+07         0.00000E+00
   -0.37168E+07        -0.51327E+08         0.00000E+00
    0.00000E+00         0.00000E+00        -0.46876E+08
 
   -0.51712E+08        -0.37794E+07         0.00000E+00
   -0.37794E+07        -0.51413E+08         0.00000E+00
    0.00000E+00         0.00000E+00        -0.46705E+08
 
   -0.51180E+08        -0.37389E+07         0.00000E+00
   -0.37389E+07        -0.51419E+08         0.00000E+00
    0.00000E+00         0.00000E+00        -0.46523E+08
 
   -0.50700E+08        -0.36340E+07         0.00000E+00
   -0.36340E+07        -0.51363E+08         0.00000E+00
    0.00000E+00         0.00000E+00        -0.46339E+08
 
   -0.50273E+08        -0.34908E+07         0.00000E+00
   -0.34908E+07        -0.51259E+08         0.00000E+00
    0.00000E+00         0.00000E+00        -0.46157E+08
 
   -0.49897E+08        -0.33268E+07         0.00000E+00
   -0.33268E+07        -0.51120E+08         0.00000E+00
    0.00000E+00         0.00000E+00        -0.45978E+08
 
   -0.49567E+08        -0.31535E+07         0.00000E+00
   -0.31535E+07        -0.50955E+08         0.00000E+00
    0.00000E+00         0.00000E+00        -0.45805E+08
 
   -0.49277E+08        -0.29783E+07         0.00000E+00
   -0.29783E+07        -0.50773E+08         0.00000E+00
    0.00000E+00         0.00000E+00        -0.45638E+08
 
   -0.49023E+08        -0.28061E+07         0.00000E+00
   -0.28061E+07        -0.50580E+08         0.00000E+00
    0.00000E+00         0.00000E+00        -0.45477E+08
 
   -0.48799E+08        -0.26399E+07         0.00000E+00
   -0.26399E+07        -0.50379E+08         0.00000E+00
    0.00000E+00         0.00000E+00        -0.45322E+08
 
   -0.48599E+08        -0.24814E+07         0.00000E+00
   -0.24814E+07        -0.50176E+08         0.00000E+00
    0.00000E+00         0.00000E+00        -0.45173E+08
 
   -0.48422E+08        -0.23314E+07         0.00000E+00
   -0.23314E+07        -0.49972E+08         0.00000E+00
    0.00000E+00         0.00000E+00        -0.45031E+08
 
   -0.48261E+08        -0.21904E+07         0.00000E+00
   -0.21904E+07        -0.49769E+08         0.00000E+00
    0.00000E+00         0.00000E+00        -0.44894E+08
 
   -0.48116E+08        -0.20582E+07         0.00000E+00
   -0.20582E+07        -0.49570E+08         0.00000E+00
    0.00000E+00         0.00000E+00        -0.44762E+08
 
   -0.47983E+08        -0.19346E+07         0.00000E+00
   -0.19346E+07        -0.49376E+08         0.00000E+00
    0.00000E+00         0.00000E+00        -0.44636E+08
 
   -0.47859E+08        -0.18192E+07         0.00000E+00
   -0.18192E+07        -0.49187E+08         0.00000E+00
    0.00000E+00         0.00000E+00        -0.44514E+08
 
   -0.47743E+08        -0.17115E+07         0.00000E+00
   -0.17115E+07        -0.49003E+08         0.00000E+00
    0.00000E+00         0.00000E+00        -0.44396E+08
 
   -0.47633E+08        -0.16107E+07         0.00000E+00
   -0.16107E+07        -0.48826E+08         0.00000E+00
    0.00000E+00         0.00000E+00        -0.44282E+08
 
   -0.47527E+08        -0.15164E+07         0.00000E+00
   -0.15164E+07        -0.48656E+08         0.00000E+00
    0.00000E+00         0.00000E+00        -0.44172E+08
 
   -0.47424E+08        -0.14279E+07         0.00000E+00
   -0.14279E+07        -0.48492E+08         0.00000E+00
    0.00000E+00         0.00000E+00        -0.44066E+08
 
   -0.47322E+08        -0.13446E+07         0.00000E+00
   -0.13446E+07        -0.48335E+08         0.00000E+00
    0.00000E+00         0.00000E+00        -0.43962E+08
 
   -0.47220E+08        -0.12656E+07         0.00000E+00
   -0.12656E+07        -0.48185E+08         0.00000E+00
    0.00000E+00         0.00000E+00        -0.43860E+08
 
   -0.47116E+08        -0.11904E+07         0.00000E+00
   -0.11904E+07        -0.48043E+08         0.00000E+00
    0.00000E+00         0.00000E+00        -0.43761E+08
 
   -0.47010E+08        -0.11182E+07         0.00000E+00
   -0.11182E+07        -0.47908E+08         0.00000E+00
    0.00000E+00         0.00000E+00        -0.43664E+08
 
   -0.46899E+08        -0.10481E+07         0.00000E+00
   -0.10481E+07        -0.47780E+08         0.00000E+00
    0.00000E+00         0.00000E+00        -0.43568E+08
 
   -0.46784E+08        -0.97930E+06         0.00000E+00
   -0.97930E+06        -0.47659E+08         0.00000E+00
    0.00000E+00         0.00000E+00        -0.43473E+08
 
   -0.46661E+08        -0.91083E+06         0.00000E+00
   -0.91083E+06        -0.47547E+08         0.00000E+00
    0.00000E+00         0.00000E+00        -0.43379E+08
 
   -0.46530E+08        -0.84157E+06         0.00000E+00
   -0.84157E+06        -0.47443E+08         0.00000E+00
    0.00000E+00         0.00000E+00        -0.43285E+08
 
   -0.46388E+08        -0.77023E+06         0.00000E+00
   -0.77023E+06        -0.47347E+08         0.00000E+00
    0.00000E+00         0.00000E+00        -0.43191E+08
 
   -0.46235E+08        -0.69527E+06         0.00000E+00
   -0.69527E+06        -0.47260E+08         0.00000E+00
    0.00000E+00         0.00000E+00        -0.43097E+08
 
   -0.46069E+08        -0.61489E+06         0.00000E+00
   -0.61489E+06        -0.47184E+08         0.00000E+00
    0.00000E+00         0.00000E+00        -0.43003E+08
 
   -0.45886E+08        -0.52684E+06         0.00000E+00
   -0.52684E+06        -0.47118E+08         0.00000E+00
    0.00000E+00         0.00000E+00        -0.42907E+08
 
   -0.45685E+08        -0.42839E+06         0.00000E+00
   -0.42839E+06        -0.47064E+08         0.00000E+00
    0.00000E+00         0.00000E+00        -0.42810E+08
 
   -0.45462E+08        -0.31612E+06         0.00000E+00
   -0.31612E+06        -0.47024E+08         0.00000E+00
    0.00000E+00         0.00000E+00        -0.42712E+08
 
   -0.45216E+08        -0.18569E+06         0.00000E+00
   -0.18569E+06        -0.46998E+08         0.00000E+00
    0.00000E+00         0.00000E+00        -0.42612E+08
 
   -0.44944E+08        -0.31613E+05         0.00000E+00
   -0.31613E+05        -0.46990E+08         0.00000E+00
    0.00000E+00         0.00000E+00        -0.42510E+08
 
   -0.44641E+08         0.15321E+06         0.00000E+00
    0.15321E+06        -0.47001E+08         0.00000E+00
    0.00000E+00         0.00000E+00        -0.42405E+08
 
   -0.44306E+08         0.37799E+06         0.00000E+00
    0.37799E+06        -0.47035E+08         0.00000E+00
    0.00000E+00         0.00000E+00        -0.42299E+08
 
   -0.43936E+08         0.65481E+06         0.00000E+00
    0.65481E+06        -0.47093E+08         0.00000E+00
    0.00000E+00         0.00000E+00        -0.42192E+08
 
   -0.43531E+08         0.99964E+06         0.00000E+00
    0.99964E+06        -0.47180E+08         0.00000E+00
    0.00000E+00         0.00000E+00        -0.42083E+08
 
   -0.43093E+08         0.14338E+07         0.00000E+00
    0.14338E+07        -0.47299E+08         0.00000E+00
    0.00000E+00         0.00000E+00        -0.41976E+08
 
   -0.42634E+08         0.19861E+07         0.00000E+00
    0.19861E+07        -0.47451E+08         0.00000E+00
    0.00000E+00         0.00000E+00        -0.41873E+08
 
   -0.42174E+08         0.26952E+07         0.00000E+00
    0.26952E+07        -0.47638E+08         0.00000E+00
    0.00000E+00         0.00000E+00        -0.41780E+08
 
   -0.41764E+08         0.36138E+07         0.00000E+00
    0.36138E+07        -0.47857E+08         0.00000E+00
    0.00000E+00         0.00000E+00        -0.41708E+08
 
   -0.41505E+08         0.48123E+07         0.00000E+00
    0.48123E+07        -0.48099E+08         0.00000E+00
    0.00000E+00         0.00000E+00        -0.41677E+08
 
   -0.41608E+08         0.63820E+07         0.00000E+00
    0.63820E+07        -0.48344E+08         0.00000E+00
    0.00000E+00         0.00000E+00        -0.41731E+08
 
   -0.61202E+08        -0.25305E+07         0.00000E+00
   -0.25305E+07        -0.50322E+08         0.00000E+00
    0.00000E+00         0.00000E+00        -0.40247E+08
 
   -0.57742E+08        -0.28376E+07         0.00000E+00
   -0.28376E+07        -0.49601E+08         0.00000E+00
    0.00000E+00         0.00000E+00        -0.39384E+08
 
   -0.55321E+08        -0.28154E+07         0.00000E+00
   -0.28154E+07        -0.48808E+08         0.00000E+00
    0.00000E+00         0.00000E+00        -0.38697E+08
 
   -0.53572E+08        -0.26543E+07         0.00000E+00
   -0.26543E+07        -0.48002E+08         0.00000E+00
    0.00000E+00         0.00000E+00        -0.38135E+08
 
   -0.52277E+08        -0.24432E+07         0.00000E+00
   -0.24432E+07        -0.47214E+08         0.00000E+00
    0.00000E+00         0.00000E+00        -0.37664E+08
 
   -0.51298E+08        -0.22235E+07         0.00000E+00
   -0.22235E+07        -0.46462E+08         0.00000E+00
    0.00000E+00         0.00000E+00        -0.37263E+08
 
   -0.50544E+08        -0.20136E+07         0.00000E+00
   -0.20136E+07        -0.45754E+08         0.00000E+00
    0.00000E+00         0.00000E+00        -0.36917E+08
 
   -0.49954E+08        -0.18208E+07         0.00000E+00
   -0.18208E+07        -0.45094E+08         0.00000E+00
    0.00000E+00         0.00000E+00        -0.36615E+08
 
   -0.49486E+08        -0.16473E+07         0.00000E+00
   -0.16473E+07        -0.44482E+08         0.00000E+00
    0.00000E+00         0.00000E+00        -0.36349E+08
 
   -0.49109E+08        -0.14926E+07         0.00000E+00
   -0.14926E+07        -0.43915E+08         0.00000E+00
    0.00000E+00         0.00000E+00        -0.36113E+08
 
   -0.48802E+08        -0.13553E+07         0.00000E+00
   -0.13553E+07        -0.43391E+08         0.00000E+00
    0.00000E+00         0.00000E+00        -0.35901E+08
 
   -0.48549E+08        -0.12336E+07         0.00000E+00
   -0.12336E+07        -0.42907E+08         0.00000E+00
    0.00000E+00         0.00000E+00        -0.35710E+08
 
   -0.48338E+08        -0.11257E+07         0.00000E+00
   -0.11257E+07        -0.42459E+08         0.00000E+00
    0.00000E+00         0.00000E+00        -0.35537E+08
 
   -0.48158E+08        -0.10298E+07         0.00000E+00
   -0.10298E+07        -0.42045E+08         0.00000E+00
    0.00000E+00         0.00000E+00        -0.35379E+08
 
   -0.48005E+08        -0.94448E+06         0.00000E+00
   -0.94448E+06        -0.41662E+08         0.00000E+00
    0.00000E+00         0.00000E+00        -0.35234E+08
 
   -0.47871E+08        -0.86832E+06         0.00000E+00
   -0.86832E+06        -0.41307E+08         0.00000E+00
    0.00000E+00         0.00000E+00        -0.35100E+08
 
   -0.47752E+08        -0.80015E+06         0.00000E+00
   -0.80015E+06        -0.40977E+08         0.00000E+00
    0.00000E+00         0.00000E+00        -0.34976E+08
 
   -0.47645E+08        -0.73895E+06         0.00000E+00
   -0.73895E+06        -0.40670E+08         0.00000E+00
    0.00000E+00         0.00000E+00        -0.34861E+08
 
   -0.47548E+08        -0.68383E+06         0.00000E+00
   -0.68383E+06        -0.40385E+08         0.00000E+00
    0.00000E+00         0.00000E+00        -0.34753E+08
 
   -0.47457E+08        -0.63401E+06         0.00000E+00
   -0.63401E+06        -0.40119E+08         0.00000E+00
    0.00000E+00         0.00000E+00        -0.34651E+08
 
   -0.47371E+08        -0.58884E+06         0.00000E+00
   -0.58884E+06        -0.39871E+08         0.00000E+00
    0.00000E+00         0.00000E+00        -0.34556E+08
 
   -0.47288E+08        -0.54772E+06         0.00000E+00
   -0.54772E+06        -0.39639E+08         0.00000E+00
    0.00000E+00         0.00000E+00        -0.34465E+08
 
   -0.47206E+08        -0.51013E+06         0.00000E+00
   -0.51013E+06        -0.39423E+08         0.00000E+00
    0.00000E+00         0.00000E+00        -0.34378E+08
 
   -0.47123E+08        -0.47560E+06         0.00000E+00
   -0.47560E+06        -0.39219E+08         0.00000E+00
    0.00000E+00         0.00000E+00        -0.34295E+08
 
   -0.47040E+08        -0.44371E+06         0.00000E+00
   -0.44371E+06        -0.39029E+08         0.00000E+00
    0.00000E+00         0.00000E+00        -0.34214E+08
 
   -0.46953E+08        -0.41407E+06         0.00000E+00
   -0.41407E+06        -0.38851E+08         0.00000E+00
    0.00000E+00         0.00000E+00        -0.34137E+08
 
   -0.46862E+08        -0.38631E+06         0.00000E+00
   -0.38631E+06        -0.38684E+08         0.00000E+00
    0.00000E+00         0.00000E+00        -0.34061E+08
 
   -0.46766E+08        -0.36008E+06         0.00000E+00
   -0.36008E+06        -0.38527E+08         0.00000E+00
    0.00000E+00         0.00000E+00        -0.33987E+08
 
   -0.46662E+08        -0.33503E+06         0.00000E+00
   -0.33503E+06        -0.38381E+08         0.00000E+00
    0.00000E+00         0.00000E+00        -0.33913E+08
 
   -0.46549E+08        -0.31079E+06         0.00000E+00
   -0.31079E+06        -0.38244E+08         0.00000E+00
    0.00000E+00         0.00000E+00        -0.33840E+08
 
   -0.46426E+08        -0.28699E+06         0.00000E+00
   -0.28699E+06        -0.38116E+08         0.00000E+00
    0.00000E+00         0.00000E+00        -0.33767E+08
 
   -0.46291E+08        -0.26320E+06         0.00000E+00
   -0.26320E+06        -0.37998E+08         0.00000E+00
    0.00000E+00         0.00000E+00        -0.33694E+08
 
   -0.46140E+08        -0.23896E+06         0.00000E+00
   -0.23896E+06        -0.37890E+08         0.00000E+00
    0.00000E+00         0.00000E+00        -0.33619E+08
 
   -0.45971E+08        -0.21371E+06         0.00000E+00
   -0.21371E+06        -0.37791E+08         0.00000E+00
    0.00000E+00         0.00000E+00        -0.33543E+08
 
   -0.45782E+08        -0.18679E+06         0.00000E+00
   -0.18679E+06        -0.37702E+08         0.00000E+00
    0.00000E+00         0.00000E+00        -0.33465E+08
 
   -0.45568E+08        -0.15741E+06         0.00000E+00
   -0.15741E+06        -0.37625E+08         0.00000E+00
    0.00000E+00         0.00000E+00        -0.33383E+08
 
   -0.45324E+08        -0.12454E+06         0.00000E+00
   -0.12454E+06        -0.37560E+08         0.00000E+00
    0.00000E+00         0.00000E+00        -0.33298E+08
 
   -0.45045E+08        -0.86895E+05         0.00000E+00
   -0.86895E+05        -0.37508E+08         0.00000E+00
    0.00000E+00         0.00000E+00        -0.33208E+08
 
   -0.44724E+08        -0.42796E+05         0.00000E+00
   -0.42796E+05        -0.37473E+08         0.00000E+00
    0.00000E+00         0.00000E+00        -0.33112E+08
 
   -0.44352E+08         0.99941E+04         0.00000E+00
    0.99941E+04        -0.37456E+08         0.00000E+00
    0.00000E+00         0.00000E+00        -0.33010E+08
 
   -0.43919E+08         0.74491E+05         0.00000E+00
    0.74491E+05        -0.37462E+08         0.00000E+00
    0.00000E+00         0.00000E+00        -0.32900E+08
 
   -0.43410E+08         0.15485E+06         0.00000E+00
    0.15485E+06        -0.37496E+08         0.00000E+00
    0.00000E+00         0.00000E+00        -0.32780E+08
 
   -0.42809E+08         0.25691E+06         0.00000E+00
    0.25691E+06        -0.37564E+08         0.00000E+00
    0.00000E+00         0.00000E+00        -0.32647E+08
 
   -0.42092E+08         0.38906E+06         0.00000E+00
    0.38906E+06        -0.37675E+08         0.00000E+00
    0.00000E+00         0.00000E+00        -0.32501E+08
 
   -0.41228E+08         0.56368E+06         0.00000E+00
    0.56368E+06        -0.37842E+08         0.00000E+00
    0.00000E+00         0.00000E+00        -0.32336E+08
 
   -0.40174E+08         0.79950E+06         0.00000E+00
    0.79950E+06        -0.38081E+08         0.00000E+00
    0.00000E+00         0.00000E+00        -0.32149E+08
 
   -0.38872E+08         0.11259E+07         0.00000E+00
    0.11259E+07        -0.38416E+08         0.00000E+00
    0.00000E+00         0.00000E+00        -0.31932E+08
 
   -0.37234E+08         0.15906E+07         0.00000E+00
    0.15906E+07        -0.38878E+08         0.00000E+00
    0.00000E+00         0.00000E+00        -0.31677E+08
 
   -0.35130E+08         0.22747E+07         0.00000E+00
    0.22747E+07        -0.39513E+08         0.00000E+00
    0.00000E+00         0.00000E+00        -0.31367E+08
 
   -0.32349E+08         0.33231E+07         0.00000E+00
    0.33231E+07        -0.40388E+08         0.00000E+00
    0.00000E+00         0.00000E+00        -0.30977E+08
 
SCALARS stresss double 
LOOKUP_TABLE default
  -49478825.2275899     
  -50469651.4060827     
  -51377784.8905940     
  -52123029.4624425     
  -52727033.7146312     
  -53226025.5502072     
  -53645836.9149796     
  -54004237.7737575     
  -54313953.5901962     
  -54584392.4230445     
  -54822690.0574553     
  -55034373.8638594     
  -55223802.0997104     
  -55394464.6802884     
  -55549195.0007654     
  -55690322.6813459     
  -55819785.9516109     
  -55939215.8065629     
  -56050000.0328925     
  -56153332.6494757     
  -56250252.6418942     
  -56341674.7602397     
  -56428414.3936096     
  -56511208.0122490     
  -56590730.3033398     
  -56667608.8704677     
  -56742437.1883451     
  -56815786.3829459     
  -56888216.3297248     
  -56960286.5212160     
  -57032567.1463025     
  -57105650.8467664     
  -57180165.6761509     
  -57256789.8900258     
  -57336269.3606619     
  -57419438.6582969     
  -57507247.2175617     
  -57600792.5811598     
  -57701363.6024160     
  -57810497.9013610     
  -57930060.1787622     
  -58062351.8923714     
  -58210269.6235623     
  -58377541.8712156     
  -58569097.5116124     
  -58791665.5984402     
  -59054801.9597400     
  -59372744.2684865     
  -59767960.1326600     
  -60278333.5605725     
  -50280349.3748064     
  -49939951.2834605     
  -49807137.7492121     
  -49812555.1526628     
  -49901766.7578155     
  -50031598.5598577     
  -50180136.3041828     
  -50335609.5968299     
  -50491573.8280084     
  -50644492.0001708     
  -50792467.7056428     
  -50934554.7624550     
  -51070367.8764961     
  -51199856.5185986     
  -51323170.3584758     
  -51440577.6213413     
  -51552414.8456634     
  -51659055.7002835     
  -51760891.6005614     
  -51858319.7560657     
  -51951735.9706195     
  -52041530.5225437     
  -52128086.0651919     
  -52211776.8662616     
  -52292968.9413843     
  -52372020.7872689     
  -52449284.5143248     
  -52525107.2373187     
  -52599832.6163501     
  -52673802.4551886     
  -52747358.2619234     
  -52820842.6567431     
  -52894600.4685747     
  -52968979.2863628     
  -53044329.1042674     
  -53121000.4923643     
  -53199340.3823270     
  -53279683.9871190     
  -53362340.4053215     
  -53447567.7798468     
  -53535530.8866762     
  -53626228.5373549     
  -53719367.7744020     
  -53814141.4264588     
  -53908824.0406989     
  -54000013.3662502     
  -54081151.6338886     
  -54139521.0683788     
  -54149869.1481979     
  -54060282.0883585     
  -50586924.3825133     
  -50326397.4899098     
  -50087726.6970283     
  -49890933.1984562     
  -49740380.5887607     
  -49634468.6648078     
  -49566337.7134740     
  -49528517.8305963     
  -49514446.4717223     
  -49518764.0559060     
  -49537217.5217618     
  -49566468.2812252     
  -49603903.4739350     
  -49647477.7302435     
  -49695588.0148018     
  -49746976.8031193     
  -49800657.6165515     
  -49855857.6250546     
  -49911973.1206932     
  -49968534.6773584     
  -50025179.6214927     
  -50081630.0475737     
  -50137675.0575875     
  -50193156.2252057     
  -50247955.5156252     
  -50301985.0556750     
  -50355178.2633737     
  -50407481.9236158     
  -50458848.8447349     
  -50509230.7536560     
  -50558571.0866835     
  -50606797.3075008     
  -50653812.3296742     
  -50699484.5305503     
  -50743635.7054024     
  -50786026.1083244     
  -50826335.4368393     
  -50864138.2120216     
  -50898871.4563357     
  -50929791.8675068     
  -50955918.8947274     
  -50975959.5419093     
  -50988211.2981303     
  -50990444.0144817     
  -50979777.1042911     
  -50952614.6256296     
  -50904829.5193119     
  -50832738.4654985     
  -50736355.6914671     
  -50628981.8919370     
  -50883601.7403564     
  -50700061.0681529     
  -50526945.7772043     
  -50362838.2358173     
  -50210827.0703628     
  -50073576.9443825     
  -49953115.9908043     
  -49850099.5916692     
  -49764067.7668722     
  -49693880.3371718     
  -49638059.9829034     
  -49595015.3999066     
  -49563172.5723630     
  -49541045.5310065     
  -49527269.9548598     
  -49520614.9218345     
  -49519982.2771906     
  -49524399.3021091     
  -49533008.0259510     
  -49545053.1150894     
  -49559869.4294180     
  -49576869.8373184     
  -49595533.5826974     
  -49615395.3211384     
  -49636034.8373981     
  -49657067.3945652     
  -49678134.6291024     
  -49698895.8856342     
  -49719019.8748586     
  -49738176.5341386     
  -49756028.9718758     
  -49772225.3839956     
  -49786390.8459471     
  -49798118.9112998     
  -49806962.9971837     
  -49812427.6232573     
  -49813959.7221608     
  -49810940.5030566     
  -49802678.8067327     
  -49788407.6750554     
  -49767287.1821075     
  -49738418.7454985     
  -49700879.4951025     
  -49653789.8478995     
  -49596431.5994888     
  -49528429.9143572     
  -49449973.0676442     
  -49361879.5767460     
  -49264758.0882524     
  -49154709.1819323     
  -51014023.4053067     
  -50908652.7190150     
  -50795358.5706468     
  -50679913.1025231     
  -50565297.0837361     
  -50453851.6337335     
  -50347382.9495143     
  -50247341.6006463     
  -50154775.5356672     
  -50070310.8947218     
  -49994194.6891935     
  -49926368.6749089     
  -49866548.1169927     
  -49814291.8852745     
  -49769059.1689811     
  -49730252.6783552     
  -49697250.0907782     
  -49669426.0009201     
  -49646166.5209607     
  -49626878.3449197     
  -49610993.7232067     
  -49597972.4627401     
  -49587301.7961708     
  -49578494.7508743     
  -49571087.4867234     
  -49564635.9519815     
  -49558712.1206602     
  -49552900.0158248     
  -49546791.6868780     
  -49539983.2918261     
  -49532071.4364975     
  -49522649.9416814     
  -49511307.2476091     
  -49497624.7258865     
  -49481176.2558104     
  -49461529.5393797     
  -49438249.7804580     
  -49410906.5363322     
  -49379084.7477521     
  -49342401.1161984     
  -49300527.0033297     
  -49253218.6174431     
  -49200353.9236249     
  -49141972.6284368     
  -49078309.7389135     
  -49009804.8909956     
  -48937067.0641532     
  -48860817.6386546     
  -48782078.4802154     
  -48703853.4685595     
  -51069571.2698258     
  -50997946.6935162     
  -50920714.4098739     
  -50839077.9575670     
  -50754913.1563264     
  -50669883.5254410     
  -50585412.0409961     
  -50502659.3309643     
  -50422560.1754265     
  -50345846.6013511     
  -50273059.6084072     
  -50204561.6847811     
  -50140554.4267301     
  -50081100.3830115     
  -50026146.6464045     
  -49975547.9214568     
  -49929087.5525059     
  -49886495.7311520     
  -49847464.6428952     
  -49811660.6519773     
  -49778733.8078697     
  -49748325.0376886     
  -49720071.4071579     
  -49693609.8172487     
  -49668579.4727658     
  -49644623.4241566     
  -49621389.4511337     
  -49598530.5298377     
  -49575705.1059416     
  -49552577.3849569     
  -49528817.8480418     
  -49504104.2062126     
  -49478123.0167487     
  -49450572.2003955     
  -49421164.7126169     
  -49389633.6297804     
  -49355738.9007220     
  -49319275.9688224     
  -49280086.3660670     
  -49238070.1906907     
  -49193200.0832455     
  -49145535.9326387     
  -49095239.2154484     
  -49042586.0179110     
  -48987979.3211626     
  -48931965.3864370     
  -48875265.7859307     
  -48818833.0038748     
  -48763853.3554418     
  -48711162.3185196     
  -51073848.1229565     
  -51021387.1016018     
  -50963687.3740301     
  -50902141.5779067     
  -50837809.4298501     
  -50771691.6181449     
  -50704699.7915156     
  -50637642.6892209     
  -50571212.4109180     
  -50505984.1608509     
  -50442422.7283599     
  -50380890.3879997     
  -50321654.9220713     
  -50264897.9230415     
  -50210723.5827901     
  -50159167.8885330     
  -50110207.9378959     
  -50063771.0261480     
  -50019743.2019234     
  -49977977.0772033     
  -49938298.7740250     
  -49900513.9744398     
  -49864413.1047517     
  -49829775.7302044     
  -49796374.2652906     
  -49763977.1217789     
  -49732351.4251347     
  -49701265.4332277     
  -49670490.7912072     
  -49639804.7544657     
  -49608992.5082518     
  -49577849.7075381     
  -49546185.3533801     
  -49513825.1107725     
  -49480615.1559951     
  -49446426.6166054     
  -49411160.6330917     
  -49374754.0283245     
  -49337185.5243252     
  -49298482.4083095     
  -49258727.5449438     
  -49218066.6902033     
  -49176716.1981845     
  -49134971.3444230     
  -49093215.2601946     
  -49051926.9837737     
  -49011683.1558032     
  -48973143.6563325     
  -48937033.6401289     
  -48904324.4880478     
  -51044532.2571548     
  -51003300.1538702     
  -50958015.3961291     
  -50909420.3866683     
  -50858291.2789594     
  -50805327.6552789     
  -50751157.0940806     
  -50696335.9302033     
  -50641351.5212431     
  -50586623.2579240     
  -50532504.3984502     
  -50479285.3704322     
  -50427198.0447410     
  -50376420.4294792     
  -50327081.4748986     
  -50279265.8643781     
  -50233018.7441278     
  -50188350.3582287     
  -50145240.5485928     
  -50103643.0740103     
  -50063489.7056653     
  -50024694.0675154     
  -49987155.2053862     
  -49950760.8852392     
  -49915390.6364959     
  -49880918.5692399     
  -49847216.0040270     
  -49814153.9598509     
  -49781605.5496789     
  -49749448.3341346     
  -49717566.6825382     
  -49685854.1867823     
  -49654216.1675481     
  -49622572.3043674     
  -49590859.4114123     
  -49559034.3704250     
  -49527077.2220983     
  -49494994.4090203     
  -49462822.1581398     
  -49430629.9874659     
  -49398524.3135381     
  -49366652.1058107     
  -49335204.4527399     
  -49304419.7504595     
  -49274586.0617962     
  -49246042.3609812     
  -49219179.7106934     
  -49194446.3168896     
  -49172356.3789576     
  -49153429.8835698     
  -50991010.1723106     
  -50957997.5150609     
  -50921605.7819980     
  -50882452.1088137     
  -50841090.8272008     
  -50798035.6271965     
  -50753750.2756972     
  -50708646.6878176     
  -50663085.7602884     
  -50617380.0637189     
  -50571797.0227968     
  -50526562.1457119     
  -50481862.2792309     
  -50437848.8795538     
  -50394641.2488267     
  -50352329.6830533     
  -50310978.4967843     
  -50270628.9115475     
  -50231301.8089092     
  -50193000.3549996     
  -50155712.5043758     
  -50119413.3902701     
  -50084067.6074978     
  -50049631.3943531     
  -50016054.7207431     
  -49983283.2912863     
  -49951260.4737008     
  -49919929.1641537     
  -49889233.6020348     
  -49859121.1466953     
  -49829544.0279783     
  -49800461.0808870     
  -49771839.4726157     
  -49743656.4275537     
  -49715900.9529616     
  -49688575.5649045     
  -49661698.0106154     
  -49635302.9792461     
  -49609443.7869513     
  -49584194.0131746     
  -49559649.0524890     
  -49535927.5337014     
  -49513172.5565926     
  -49491552.7274686     
  -49471263.0481161     
  -49452525.7440497     
  -49435590.7423168     
  -49420734.1317174     
  -49408252.7251703     
  -49398478.7743409     
  -50921212.8080689     
  -50894807.0660846     
  -50865587.8195698     
  -50834018.9755101     
  -50800538.8803346     
  -50765545.3725130     
  -50729395.9056813     
  -50692408.0058228     
  -50654860.8293173     
  -50616997.4033873     
  -50579027.3614544     
  -50541129.8795325     
  -50503456.5846926     
  -50466134.3243337     
  -50429267.7585974     
  -50392941.7704943     
  -50357223.7006772     
  -50322165.4192487     
  -50287805.2500836     
  -50254169.7647479     
  -50221275.4632680     
  -50189130.3579488     
  -50157735.4745753     
  -50127086.2831035     
  -50097174.0677021     
  -50067987.2439590     
  -50039512.6292793     
  -50011736.6709752     
  -49984646.6352076     
  -49958231.7587162     
  -49932484.3640956     
  -49907400.9381847     
  -49882983.1718878     
  -49859238.9583978     
  -49836183.3452976     
  -49813839.4343127     
  -49792239.2205411     
  -49771424.3608644     
  -49751446.8592262     
  -49732369.6552458     
  -49714267.1031815     
  -49697225.3310823     
  -49681342.4727954     
  -49666728.7597977     
  -49653506.4316153     
  -49641809.3800201     
  -49631782.5048949     
  -49623581.2692777     
  -49617372.5498601     
  -49613329.1073459     
  -50841972.9099173     
  -50821161.1728211     
  -50797985.7901118     
  -50772818.4963872     
  -50746003.0088302     
  -50717853.5289930     
  -50688652.5446496     
  -50658651.2221477     
  -50628070.9595349     
  -50597105.5412937     
  -50565923.5321927     
  -50534670.7285207     
  -50503472.5575330     
  -50472436.3520358     
  -50441653.4590122     
  -50411201.1676102     
  -50381144.4595524     
  -50351537.5948874     
  -50322425.5504354     
  -50293845.3294995     
  -50265827.1608537     
  -50238395.6035112     
  -50211570.5717631     
  -50185368.2927224     
  -50159802.2062942     
  -50134883.8152303     
  -50110623.4907940     
  -50087031.2376085     
  -50064117.4194922     
  -50041893.4464930     
  -50020372.4219011     
  -49999569.7467020     
  -49979503.6777151     
  -49960195.8345121     
  -49941671.6491245     
  -49923960.7515590     
  -49907097.2833065     
  -49891120.1304578     
  -49876073.0678331     
  -49862004.8057120     
  -49848968.9311773     
  -49837023.7365173     
  -49826231.9279959     
  -49816660.2126140     
  -49808378.7762815     
  -49801460.7021362     
  -49795981.4047200     
  -49792018.0313547     
  -49789648.4702034     
  -49788952.5311820     
  -50759122.6231056     
  -50743055.9595271     
  -50725019.7835201     
  -50705305.0623650     
  -50684183.0850042     
  -50661901.5701903     
  -50638683.9755025     
  -50614729.8881216     
  -50590216.2404180     
  -50565298.9965496     
  -50540115.0626816     
  -50514784.2473772     
  -50489411.1671388     
  -50464087.0400722     
  -50438891.3396104     
  -50413893.2980507     
  -50389153.2611315     
  -50364723.9021062     
  -50340651.3078521     
  -50316975.9512941     
  -50293733.5645687     
  -50270955.9264754     
  -50248671.5763036     
  -50226906.4643719     
  -50205684.5477542     
  -50185028.3378183     
  -50164959.4044195     
  -50145498.8399185     
  -50126667.6846436     
  -50108487.3139887     
  -50090979.7860360     
  -50074168.1473958     
  -50058076.6938699     
  -50042731.1815616     
  -50028158.9831860     
  -50014389.1835992     
  -50001452.6079936     
  -49989381.7758616     
  -49978210.7737914     
  -49967975.0406091     
  -49958711.0596753     
  -49950455.9559223     
  -49943247.0003744     
  -49937121.0329976     
  -49932113.8245817     
  -49928259.4068728     
  -49925589.4137414     
  -49924132.5508654     
  -49923914.5214180     
  -49924957.9042122     
  -50677264.0611781     
  -50665158.5169185     
  -50651431.4295007     
  -50636308.2371337     
  -50619999.2839772     
  -50602697.7013614     
  -50584578.5788004     
  -50565799.2618338     
  -50546500.2718017     
  -50526806.5704321     
  -50506828.9851237     
  -50486665.6759905     
  -50466403.5678645     
  -50446119.7008174     
  -50425882.4747838     
  -50405752.7787591     
  -50385785.0044546     
  -50366027.9499203     
  -50346525.6217415     
  -50327317.9458361     
  -50308441.3971715     
  -50289929.5582816     
  -50271813.6155543     
  -50254122.8010922     
  -50236884.7866418     
  -50220126.0347512     
  -50203872.1109948     
  -50188147.9598379     
  -50172978.1455209     
  -50158387.0582238     
  -50144399.0847323     
  -50131038.7418641     
  -50118330.7700255     
  -50106300.1834625     
  -50094972.2730545     
  -50084372.5569036     
  -50074526.6735426     
  -50065460.2124088     
  -50057198.4764391     
  -50049766.1724438     
  -50043187.0265659     
  -50037483.3249758     
  -50032675.3843409     
  -50028780.9632258     
  -50025814.6360010     
  -50023787.1686053     
  -50022704.9635035     
  -50022569.6653064     
  -50023378.0009776     
  -50025122.2684392     
  -50599708.4622051     
  -50590827.3083670     
  -50580631.6344040     
  -50569292.0435593     
  -50556968.6048075     
  -50543809.0626882     
  -50529948.2851503     
  -50515508.4222816     
  -50500599.5266994     
  -50485320.4358570     
  -50469759.7801100     
  -50453997.0263857     
  -50438103.5006285     
  -50422143.3549875     
  -50406174.4610874     
  -50390249.2211335     
  -50374415.2954760     
  -50358716.2495696     
  -50343192.1257431     
  -50327879.9463955     
  -50312814.1555909     
  -50298027.0058222     
  -50283548.8961662     
  -50269408.6672985     
  -50255633.8579740     
  -50242250.9266701     
  -50229285.4411781     
  -50216762.2380382     
  -50204705.5528572     
  -50193139.1217351     
  -50182086.2532612     
  -50171569.8698174     
  -50161612.5162564     
  -50152236.3334107     
  -50143462.9933486     
  -50135313.5928614     
  -50127808.5013800     
  -50120967.1594653     
  -50114807.8242889     
  -50109347.2592843     
  -50104600.3666191     
  -50100579.7636547     
  -50097295.3086345     
  -50094753.5872035     
  -50092957.3808444     
  -50091905.1514195     
  -50091590.5933935     
  -50092002.3338992     
  -50093123.9228269     
  -50094934.2273528     
  -50528561.1966302     
  -50522230.9001652     
  -50514852.0353557     
  -50506550.6098507     
  -50497445.5248034     
  -50487647.3286097     
  -50477257.7468299     
  -50466369.7453576     
  -50455067.9177155     
  -50443429.0602726     
  -50431522.8417941     
  -50419412.5045690     
  -50407155.5563395     
  -50394804.4279819     
  -50382407.0828511     
  -50370007.5711154     
  -50357646.5272853     
  -50345361.6122152     
  -50333187.9026891     
  -50321158.2326562     
  -50309303.4905347     
  -50297652.8769614     
  -50286234.1270633     
  -50275073.7008687     
  -50264196.9449335     
  -50253628.2276673     
  -50243391.0502489     
  -50233508.1344237     
  -50224001.4879020     
  -50214892.4475195     
  -50206201.6997941     
  -50197949.2780138     
  -50190154.5345210     
  -50182836.0864369     
  -50176011.7326967     
  -50169698.3399833     
  -50163911.6949744     
  -50158666.3203299     
  -50153975.2521192     
  -50149849.7770537     
  -50146299.1291305     
  -50143330.1473641     
  -50140946.8995211     
  -50139150.2816253     
  -50137937.6101073     
  -50137302.2339397     
  -50137233.2096792     
  -50137715.1036323     
  -50138728.0068312     
  -50140247.9132560     
  -50464912.3270706     
  -50460539.4694994     
  -50455343.2271367     
  -50449414.1251879     
  -50442838.2181355     
  -50435696.1843738     
  -50428062.9638497     
  -50420007.7461168     
  -50411594.1827956     
  -50402880.7325462     
  -50393921.0753009     
  -50384764.5531072     
  -50375456.6096712     
  -50366039.2110896     
  -50356551.2375246     
  -50347028.8405813     
  -50337505.7645004     
  -50328013.6314365     
  -50318582.1924065     
  -50309239.5462092     
  -50300012.3289330     
  -50290925.8767039     
  -50282004.3641881     
  -50273270.9211091     
  -50264747.7287184     
  -50256456.0978052     
  -50248416.5294628     
  -50240648.7594562     
  -50233171.7866774     
  -50226003.8858202     
  -50219162.6040750     
  -50212664.7413233     
  -50206526.3130224     
  -50200762.4947029     
  -50195387.5467787     
  -50190414.7182100     
  -50185856.1274758     
  -50181722.6193755     
  -50178023.5964152     
  -50174766.8240608     
  -50171958.2100596     
  -50169601.5595152     
  -50167698.3096968     
  -50166247.2519870     
  -50165244.2534068     
  -50164681.9973415     
  -50164549.7730303     
  -50164833.3573332     
  -50165515.0546290     
  -50166573.9810528     
  -50409069.4073178     
  -50406150.7084654     
  -50402594.5608749     
  -50398464.0881199     
  -50393819.8255390     
  -50388719.0947611     
  -50383215.7189039     
  -50377359.9678095     
  -50371198.6506045     
  -50364775.2980440     
  -50358130.3943252     
  -50351301.6307393     
  -50344324.1627332     
  -50337230.8585597     
  -50330052.5323594     
  -50322818.1577490     
  -50315555.0601876     
  -50308289.0878365     
  -50301044.7615338     
  -50293845.4050334     
  -50286713.2569156     
  -50279669.5656573     
  -50272734.6693070     
  -50265928.0610904     
  -50259268.4421090     
  -50252773.7620964     
  -50246461.2490007     
  -50240347.4279466     
  -50234448.1299344     
  -50228778.4904318     
  -50223352.9378347     
  -50218185.1715956     
  -50213288.1296668     
  -50208673.9447698     
  -50204353.8888975     
  -50200338.3053927     
  -50196636.5279372     
  -50193256.7858668     
  -50190206.0954130     
  -50187490.1368407     
  -50185113.1180408     
  -50183077.6260667     
  -50181384.4694918     
  -50180032.5164853     
  -50179018.5363822     
  -50178337.0565850     
  -50177980.2523684     
  -50177937.8951391     
  -50178197.3946477     
  -50178743.9872416     
  -50360787.8624973     
  -50358911.7296161     
  -50356547.8414296     
  -50353738.8079125     
  -50350525.9351287     
  -50346948.8018219     
  -50343045.0429545     
  -50338850.2735874     
  -50334398.1056743     
  -50329720.2233388     
  -50324846.4922990     
  -50319805.0865008     
  -50314622.6204303     
  -50309324.2794891     
  -50303933.9436240     
  -50298474.3013874     
  -50292966.9529727     
  -50287432.5016995     
  -50281890.6340214     
  -50276360.1885033     
  -50270859.2144182     
  -50265405.0207111     
  -50260014.2160910     
  -50254702.7409804     
  -50249485.8919864     
  -50244378.3394756     
  -50239394.1387446     
  -50234546.7351867     
  -50229848.9637654     
  -50225313.0430250     
  -50220950.5637922     
  -50216772.4726632     
  -50212789.0503180     
  -50209009.8846719     
  -50205443.8388611     
  -50202099.0140664     
  -50198982.7072270     
  -50196101.3637723     
  -50193460.5256418     
  -50191064.7750658     
  -50188917.6748779     
  -50187021.7065466     
  -50185378.2076875     
  -50183987.3115916     
  -50182847.8923435     
  -50181957.5204853     
  -50181312.4359706     
  -50180907.5474387     
  -50180736.4701153     
  -50180791.6179776     
  -50319472.3028082     
  -50318313.6771302     
  -50316784.8271053     
  -50314913.5290669     
  -50312727.0714279     
  -50310251.9782309     
  -50307513.8477480     
  -50304537.2717898     
  -50301345.8100326     
  -50297962.0006510     
  -50294407.3936826     
  -50290702.5974375     
  -50286867.3311615     
  -50282920.4793119     
  -50278880.1443651     
  -50274763.6962134     
  -50270587.8170100     
  -50266368.5408880     
  -50262121.2883616     
  -50257860.8954703     
  -50253601.6378888     
  -50249357.2503151     
  -50245140.9415008     
  -50240965.4053010     
  -50236842.8281256     
  -50232784.8931571     
  -50228802.7816904     
  -50224907.1719335     
  -50221108.2355997     
  -50217415.6326177     
  -50213838.5042951     
  -50210385.4652850     
  -50207064.5947337     
  -50203883.4270310     
  -50200848.9426319     
  -50197967.5594888     
  -50195245.1257027     
  -50192686.9140864     
  -50190297.6194074     
  -50188081.3591533     
  -50186041.6786953     
  -50184181.5617172     
  -50182503.4466657     
  -50181009.2497200     
  -50179700.3942836     
  -50178577.8461442     
  -50177642.1520674     
  -50176893.4774487     
  -50176331.6352840     
  -50175956.0939730     
  -50284337.4970682     
  -50283648.3935827     
  -50282679.0879592     
  -50281447.0449511     
  -50279969.7117887     
  -50278264.3434766     
  -50276347.8857868     
  -50274236.9004163     
  -50271947.5204623     
  -50269495.4271766     
  -50266895.8412168     
  -50264163.5233588     
  -50261312.7809867     
  -50258357.4777120     
  -50255311.0442597     
  -50252186.4893512     
  -50248996.4097503     
  -50245752.9989646     
  -50242468.0543269     
  -50239152.9823504     
  -50235818.8023719     
  -50232476.1485809     
  -50229135.2705951     
  -50225806.0327856     
  -50222497.9125943     
  -50219219.9981153     
  -50215980.9852482     
  -50212789.1747630     
  -50209652.4696642     
  -50206578.3732886     
  -50203573.9886337     
  -50200646.0194858     
  -50197800.7739976     
  -50195044.1714604     
  -50192381.7531095     
  -50189818.6979094     
  -50187359.8443515     
  -50185009.7193743     
  -50182772.5755415     
  -50180652.4375700     
  -50178653.1591289     
  -50176778.4904726     
  -50175032.1568217     
  -50173417.9463334     
  -50171939.8048026     
  -50170601.9316527     
  -50169408.8679131     
  -50168365.5612278     
  -50167477.3848065     
  -50166750.0755501     
  -50254527.6970475     
  -50254125.6322776     
  -50253510.6411537     
  -50252693.3552769     
  -50251684.6153572     
  -50250495.3642113     
  -50249136.5642936     
  -50247619.1347173     
  -50245953.9034834     
  -50244151.5713825     
  -50242222.6846986     
  -50240177.6144263     
  -50238026.5402013     
  -50235779.4375610     
  -50233446.0674835     
  -50231035.9674303     
  -50228558.4433334     
  -50226022.5621420     
  -50223437.1446834     
  -50220810.7586999     
  -50218151.7120137     
  -50215468.0458452     
  -50212767.5283717     
  -50210057.6486701     
  -50207345.6112457     
  -50204638.3313988     
  -50201942.4317457     
  -50199264.2402752     
  -50196609.7903942     
  -50193984.8235032     
  -50191394.7947378     
  -50188844.8826170     
  -50186340.0034608     
  -50183884.8315622     
  -50181483.8262290     
  -50179141.2669344     
  -50176861.2979153     
  -50174647.9836215     
  -50172505.3764030     
  -50170437.5976859     
  -50168448.9335588     
  -50166543.9450721     
  -50164727.5924978     
  -50163005.3711195     
  -50161383.4535383     
  -50159868.8296149     
  -50158469.4295004     
  -50157194.2070195     
  -50156053.1489711     
  -50155057.1593990     
  -50229198.5936857     
  -50228954.5552743     
  -50228546.6442394     
  -50227981.2402679     
  -50227264.9966808     
  -50226404.7758155     
  -50225407.5927275     
  -50224280.5666841     
  -50223030.8796164     
  -50221665.7405771     
  -50220192.3552541     
  -50218617.8996624     
  -50216949.4972388     
  -50215194.1986828     
  -50213358.9640039     
  -50211450.6463449     
  -50209475.9772545     
  -50207441.5531687     
  -50205353.8229438     
  -50203219.0763521     
  -50201043.4335192     
  -50198832.8353391     
  -50196593.0349636     
  -50194329.5905197     
  -50192047.8592711     
  -50189752.9935039     
  -50187449.9384902     
  -50185143.4329635     
  -50182838.0126335     
  -50180538.0173665     
  -50178247.6027804     
  -50175970.7571222     
  -50173711.3244444     
  -50171473.0352325     
  -50169259.5457905     
  -50167074.4878176     
  -50164921.5297219     
  -50162804.4512587     
  -50160727.2330397     
  -50158694.1622489     
  -50156709.9554613     
  -50154779.8986520     
  -50152910.0031507     
  -50151107.1741944     
  -50149379.3855404     
  -50147735.8488638     
  -50146187.1597667     
  -50144745.3923161     
  -50143424.0999621     
  -50142238.1608883     
  -50207568.6147396     
  -50207395.6705151     
  -50207093.7501016     
  -50206666.8228453     
  -50206119.0963743     
  -50205454.9763420     
  -50204679.0293280     
  -50203795.9491561     
  -50202810.5265489     
  -50201727.6218706     
  -50200552.1406193     
  -50199289.0113202     
  -50197943.1654804     
  -50196519.5193102     
  -50195022.9569602     
  -50193458.3150773     
  -50191830.3685349     
  -50190143.8172408     
  -50188403.2739802     
  -50186613.2532938     
  -50184778.1614415     
  -50182902.2875497     
  -50180989.7960880     
  -50179044.7208784     
  -50177070.9608979     
  -50175072.2782008     
  -50173052.2983661     
  -50171014.5139572     
  -50168962.2915837     
  -50166898.8832628     
  -50164827.4429041     
  -50162751.0488796     
  -50160672.7337868     
  -50158595.5226715     
  -50156522.4811240     
  -50154456.7748071     
  -50152401.7420717     
  -50150360.9813559     
  -50148338.4549892     
  -50146338.6107718     
  -50144366.5221784     
  -50142428.0471100     
  -50140530.0036065     
  -50138680.3585668     
  -50136888.4219559     
  -50135165.0337134     
  -50133522.7229293     
  -50131975.8079232     
  -50130540.3903752     
  -50129234.1749371     
  -50188946.7493709     
  -50188789.9265868     
  -50188528.3585485     
  -50188164.8585187     
  -50187702.3882879     
  -50187144.0299745     
  -50186492.9625387     
  -50185752.4418563     
  -50184925.7834559     
  -50184016.3472396     
  -50183027.5236743     
  -50181962.7210774     
  -50180825.3537324     
  -50179618.8306531     
  -50178346.5448888     
  -50177011.8633157     
  -50175618.1169105     
  -50174168.5915401     
  -50172666.5193389     
  -50171115.0707788     
  -50169517.3475726     
  -50167876.3765875     
  -50166195.1049874     
  -50164476.3968661     
  -50162723.0316919     
  -50160937.7049397     
  -50159123.0313674     
  -50157281.5514697     
  -50155415.7417473     
  -50153528.0295371     
  -50151620.8132764     
  -50149696.4892127     
  -50147757.4857223     
  -50145806.3065547     
  -50143845.5844757     
  -50141878.1469142     
  -50139907.0953205     
  -50137935.8999657     
  -50135968.5118234     
  -50134009.4928923     
  -50132064.1657549     
  -50130138.7821752     
  -50128240.7089332     
  -50126378.6265923     
  -50124562.7331460     
  -50122804.9389589     
  -50121119.0314239     
  -50119520.7763417     
  -50118027.9069026     
  -50116659.9285699     
  -50172743.4941376     
  -50172571.2127249     
  -50172310.6387111     
  -50171964.2337264     
  -50171534.4954504     
  -50171023.9335481     
  -50170435.0554563     
  -50169770.3583734     
  -50169032.3249421     
  -50168223.4209278     
  -50167346.0937795     
  -50166402.7713717     
  -50165395.8605188     
  -50164327.7450542     
  -50163200.7834051     
  -50162017.3056952     
  -50160779.6104679     
  -50159489.9611741     
  -50158150.5826016     
  -50156763.6574504     
  -50155331.3232875     
  -50153855.6701385     
  -50152338.7390064     
  -50150782.5216458     
  -50149188.9619637     
  -50147559.9594764     
  -50145897.3753138     
  -50144203.0413473     
  -50142478.7731045     
  -50140726.3872460     
  -50138947.7244993     
  -50137144.6790812     
  -50135319.2357857     
  -50133473.5160682     
  -50131609.8346026     
  -50129730.7679211     
  -50127839.2368341     
  -50125938.6043483     
  -50124032.7906961     
  -50122126.4067933     
  -50120224.9068612     
  -50118334.7599345     
  -50116463.6383374     
  -50114620.6186837     
  -50112816.3871548     
  -50111063.4352409     
  -50109376.2240772     
  -50107771.2840412     
  -50106267.2000943     
  -50104884.4107277     
  -50158470.4486789     
  -50158267.5566928     
  -50157987.3530442     
  -50157632.4201731     
  -50157205.2622111     
  -50156708.2803616     
  -50156143.7646970     
  -50155513.8959027     
  -50154820.7525673     
  -50154066.3210932     
  -50153252.5063419     
  -50152381.1418547     
  -50151453.9989948     
  -50150472.7946962     
  -50149439.1977376     
  -50148354.8336062     
  -50147221.2881195     
  -50146040.1100280     
  -50144812.8128673     
  -50143540.8763508     
  -50142225.7476154     
  -50140868.8426541     
  -50139471.5482875     
  -50138035.2250598     
  -50136561.2114764     
  -50135050.8300495     
  -50133505.3956755     
  -50131926.2269398     
  -50130314.6610286     
  -50128672.0730305     
  -50126999.9005219     
  -50125299.6744633     
  -50123573.0575671     
  -50121821.8914475     
  -50120048.2539997     
  -50118254.5285792     
  -50116443.4866353     
  -50114618.3854633     
  -50112783.0826281     
  -50110942.1683176     
  -50109101.1162975     
  -50107266.4531391     
  -50105445.9437700     
  -50103648.7889146     
  -50101885.8262527     
  -50100169.7216669     
  -50098515.1290677     
  -50096938.7860697     
  -50095459.4969918     
  -50094097.9325846     
  -50145732.9031584     
  -50145495.2168541     
  -50145187.5113546     
  -50144812.7270548     
  -50144373.6224692     
  -50143872.7466552     
  -50143312.4346564     
  -50142694.8168097     
  -50142021.8356927     
  -50141295.2665781     
  -50140516.7387293     
  -50139687.7559009     
  -50138809.7151162     
  -50137883.9232701     
  -50136911.6114296     
  -50135893.9469068     
  -50134832.0433149     
  -50133726.9688921     
  -50132579.7534309     
  -50131391.3941707     
  -50130162.8610354     
  -50128895.1016044     
  -50127589.0462251     
  -50126245.6136919     
  -50124865.7179460     
  -50123450.2762869     
  -50122000.2196370     
  -50120516.5054635     
  -50119000.1340379     
  -50117452.1688056     
  -50115873.7617442     
  -50114266.1847085     
  -50112630.8678887     
  -50110969.4466450     
  -50109283.8181106     
  -50107576.2090692     
  -50105849.2566886     
  -50104106.1036948     
  -50102350.5094608     
  -50100586.9781902     
  -50098820.9048111     
  -50097058.7382205     
  -50095308.1599623     
  -50093578.2740219     
  -50091879.7998369     
  -50090225.2553765     
  -50088629.1095872     
  -50087107.8727611     
  -50085680.0782595     
  -50084366.0879223     
  -50134218.6455405     
  -50133948.8173797     
  -50133613.9077936     
  -50133217.2934402     
  -50132762.0830543     
  -50132251.0860574     
  -50131686.8099984     
  -50131071.4753880     
  -50130407.0401409     
  -50129695.2284419     
  -50128937.5606873     
  -50128135.3824334     
  -50127289.8911657     
  -50126402.1603051     
  -50125473.1602607     
  -50124503.7766012     
  -50123494.8255748     
  -50122447.0673068     
  -50121361.2170559     
  -50120237.9549429     
  -50119077.9345756     
  -50117881.7910053     
  -50116650.1484571     
  -50115383.6282893     
  -50114082.8576578     
  -50112748.4793897     
  -50111381.1636119     
  -50109981.6217364     
  -50108550.6234694     
  -50107089.0175953     
  -50105597.7573830     
  -50104077.9315695     
  -50102530.8019982     
  -50100957.8491082     
  -50099360.8265970     
  -50097741.8266781     
  -50096103.3574236     
  -50094448.4336810     
  -50092780.6829465     
  -50091104.4672894     
  -50089425.0218881     
  -50087748.6098077     
  -50086082.6911748     
  -50084436.1026305     
  -50082819.2395558     
  -50081244.2286070     
  -50079725.0709704     
  -50078277.7266147     
  -50076920.0955736     
  -50075671.8324163     
  -50123685.2631993     
  -50123389.7681557     
  -50123032.7375567     
  -50122617.9621216     
  -50122148.8987704     
  -50121628.6355467     
  -50121059.8899616     
  -50120445.0275707     
  -50119786.0917922     
  -50119084.8389631     
  -50118342.7747404     
  -50117561.1894336     
  -50116741.1908692     
  -50115883.7340847     
  -50114989.6476048     
  -50114059.6563550     
  -50113094.4014520     
  -50112094.4572205     
  -50111060.3458512     
  -50109992.5501400     
  -50108891.5247677     
  -50107757.7065777     
  -50106591.5243200     
  -50105393.4083281     
  -50104163.8006174     
  -50102903.1659078     
  -50101612.0041148     
  -50100290.8648920     
  -50098940.3648733     
  -50097561.2083327     
  -50096154.2120676     
  -50094720.3354106     
  -50093260.7163803     
  -50091776.7151003     
  -50090269.9657180     
  -50088742.4381551     
  -50087196.5110763     
  -50085635.0574624     
  -50084061.5440667     
  -50082480.1457687     
  -50080895.8753260     
  -50079314.7281650     
  -50077743.8404607     
  -50076191.6566388     
  -50074668.0992659     
  -50073184.7296746     
  -50071754.8810244     
  -50070393.7360649     
  -50069118.3086057     
  -50067947.2692052     
  -50113947.4469008     
  -50113634.4744688     
  -50113262.7877119     
  -50112836.5115770     
  -50112359.3914588     
  -50111834.7551268     
  -50111265.5112904     
  -50110654.1704274     
  -50110002.8780568     
  -50109313.4538863     
  -50108587.4325585     
  -50107826.1033338     
  -50107030.5471550     
  -50106201.6702971     
  -50105340.2343084     
  -50104446.8822757     
  -50103522.1616527     
  -50102566.5440085     
  -50101580.4421243     
  -50100564.2248954     
  -50099518.2305089     
  -50098442.7783718     
  -50097338.1802585     
  -50096204.7511561     
  -50095042.8202864     
  -50093852.7428049     
  -50092634.9127020     
  -50091389.7774707     
  -50090117.8551565     
  -50088819.7544703     
  -50087496.1987204     
  -50086148.0544123     
  -50084776.3654573     
  -50083382.3940379     
  -50081967.6692751     
  -50080534.0449262     
  -50079083.7673963     
  -50077619.5553406     
  -50076144.6920333     
  -50074663.1314317     
  -50073179.6183898     
  -50071699.8226714     
  -50070230.4851348     
  -50068779.5724944     
  -50067356.4341447     
  -50065971.9502628     
  -50064638.6542742     
  -50063370.8040636     
  -50062184.3640845     
  -50061096.8434796     
  -50104865.2192303     
  -50104543.2734930     
  -50104165.1496466     
  -50103735.1996620     
  -50103257.3686617     
  -50102735.1548175     
  -50102171.6077517     
  -50101569.3504198     
  -50100930.6141926     
  -50100257.2802408     
  -50099550.9227271     
  -50098812.8509920     
  -50098044.1490787     
  -50097245.7117398     
  -50096418.2765950     
  -50095562.4524504     
  -50094678.7440113     
  -50093767.5733407     
  -50092829.2984933     
  -50091864.2297823     
  -50090872.6441520     
  -50089854.7981279     
  -50088810.9398132     
  -50087741.3203985     
  -50086646.2056566     
  -50085525.8879036     
  -50084380.6989307     
  -50083211.0244425     
  -50082017.3205821     
  -50080800.1331803     
  -50079560.1204338     
  -50078298.0797970     
  -50077014.9799600     
  -50075711.9988774     
  -50074390.5688993     
  -50073052.4301366     
  -50071699.6932335     
  -50070334.9127173     
  -50068961.1720024     
  -50067582.1808896     
  -50066202.3859755     
  -50064827.0936383     
  -50063462.6040988     
  -50062116.3532508     
  -50060797.0562768     
  -50059514.8431578     
  -50058281.3705686     
  -50057109.8866846     
  -50056015.2142405     
  -50055013.6015919     
  -50096333.5815822     
  -50096010.6160243     
  -50095633.9937700     
  -50095208.1795557     
  -50094737.2199148     
  -50094224.7020849     
  -50093673.7520697     
  -50093087.0566526     
  -50092466.8989382     
  -50091815.2004241     
  -50091133.5650255     
  -50090423.3221789     
  -50089685.5673272     
  -50088921.1988964     
  -50088130.9514063     
  -50087315.4247114     
  -50086475.1095851     
  -50085610.4099925     
  -50084721.6624686     
  -50083809.1530508     
  -50082873.1322290     
  -50081913.8283731     
  -50080931.4600942     
  -50079926.2479918     
  -50078898.4262384     
  -50077848.2544614     
  -50076776.0303995     
  -50075682.1038364     
  -50074566.8923535     
  -50073430.8994920     
  -50072274.7359768     
  -50071099.1447233     
  -50069905.0304275     
  -50068693.4946221     
  -50067465.8771611     
  -50066223.8051620     
  -50064969.2504795     
  -50063704.5967713     
  -50062432.7171369     
  -50061157.0630931     
  -50059881.7652574     
  -50058611.7454316     
  -50057352.8387118     
  -50056111.9226064     
  -50054897.0477092     
  -50053717.5609129     
  -50052584.2070429     
  -50051509.1875463     
  -50050506.1446944     
  -50049590.0255951     
  -50088273.7758443     
  -50087956.7175703     
  -50087588.6579792     
  -50087174.0660126     
  -50086716.9941554     
  -50086221.0373485     
  -50085689.3306704     
  -50085124.5707956     
  -50084529.0509429     
  -50083904.7023913     
  -50083253.1380310     
  -50082575.6950919     
  -50081873.4753586     
  -50081147.3819709     
  -50080398.1524444     
  -50079626.3878899     
  -50078832.5786288     
  -50078017.1265324     
  -50077180.3644831     
  -50076322.5733907     
  -50075443.9972058     
  -50074544.8563734     
  -50073625.3601620     
  -50072685.7182977     
  -50071726.1523323     
  -50070746.9071770     
  -50069748.2632484     
  -50068730.5496942     
  -50067694.1591993     
  -50066639.5649166     
  -50065567.3401194     
  -50064478.1812348     
  -50063372.9349882     
  -50062252.6304614     
  -50061118.5169393     
  -50059972.1084786     
  -50058815.2361719     
  -50057650.1090687     
  -50056479.3846401     
  -50055306.2494772     
  -50054134.5105578     
  -50052968.6967988     
  -50051814.1696467     
  -50050677.2399711     
  -50049565.2863155     
  -50048486.8663460     
  -50047451.8087100     
  -50046471.2659654     
  -50045557.7000408     
  -50044724.7588695     
  -50080626.1608994     
  -50080320.7068684     
  -50079967.1063548     
  -50079569.7368418     
  -50079132.5713904     
  -50078659.1384368     
  -50078152.5191348     
  -50077615.3677782     
  -50077049.9453637     
  -50076458.1596028     
  -50075841.6069875     
  -50075201.6141375     
  -50074539.2767776     
  -50073855.4954624     
  -50073151.0076810     
  -50072426.4163083     
  -50071682.2145838     
  -50070918.8079225     
  -50070136.5329339     
  -50069335.6740573     
  -50068516.4782319     
  -50067679.1680189     
  -50066823.9535851     
  -50065951.0439536     
  -50065060.6579180     
  -50064153.0350271     
  -50063228.4470490     
  -50062287.2103475     
  -50061329.6996306     
  -50060356.3635657     
  -50059367.7428087     
  -50058364.4910425     
  -50057347.3996893     
  -50056317.4270208     
  -50055275.7324590     
  -50054223.7169095     
  -50053163.0700054     
  -50052095.8251296     
  -50051024.4230133     
  -50049951.7845348     
  -50048881.3930145     
  -50047817.3857556     
  -50046764.6537000     
  -50045728.9467359     
  -50044716.9801989     
  -50043736.5352143     
  -50042796.5413598     
  -50041907.1242307     
  -50041079.5922030     
  -50040326.3251576     
  -50073344.5848541     
  -50073055.1785281     
  -50072720.6915671     
  -50072345.3305181     
  -50071932.9172487     
  -50071486.8503613     
  -50071010.1022840     
  -50070505.2383366     
  -50069974.4483475     
  -50069419.5844689     
  -50068842.2010129     
  -50068243.5936684     
  -50067624.8365190     
  -50066986.8160160     
  -50066330.2615434     
  -50065655.7725383     
  -50064963.8423248     
  -50064254.8789462     
  -50063529.2233414     
  -50062787.1652470     
  -50062028.9572147     
  -50061254.8271318     
  -50060464.9896259     
  -50059659.6567281     
  -50058839.0481643     
  -50058003.4016449     
  -50057152.9835317     
  -50056288.1002753     
  -50055409.1110426     
  -50054516.4419821     
  -50053610.6026227     
  -50052692.2049453     
  -50051761.9857221     
  -50050820.8327810     
  -50049869.8159023     
  -50048910.2231091     
  -50047943.6031375     
  -50046971.8148661     
  -50045997.0844225     
  -50045022.0705233     
  -50044049.9383177     
  -50043084.4415051     
  -50042130.0117165     
  -50041191.8529467     
  -50040276.0370431     
  -50039389.5936539     
  -50038540.5843102     
  -50037738.1450232     
  -50036992.4743562     
  -50036314.7335897     
  -50066392.0702631     
  -50066121.9895742     
  -50065810.0845556     
  -50065460.3281902     
  -50065076.3339976     
  -50064661.3196427     
  -50064218.1038831     
  -50063749.1240855     
  -50063256.4655225     
  -50062741.8965172     
  -50062206.9055319     
  -50061652.7377272     
  -50061080.4295115     
  -50060490.8402780     
  -50059884.6809876     
  -50059262.5395510     
  -50058624.9031546     
  -50057972.1777864     
  -50057304.7052818     
  -50056622.7782381     
  -50055926.6531557     
  -50055216.5621638     
  -50054492.7236786     
  -50053755.3523385     
  -50053004.6685536     
  -50052240.9080063     
  -50051464.3314487     
  -50050675.2351519     
  -50049873.9623865     
  -50049060.9163387     
  -50048236.5749065     
  -50047401.5078603     
  -50046556.3969020     
  -50045702.0592111     
  -50044839.4751096     
  -50043969.8205280     
  -50043094.5049743     
  -50042215.2157038     
  -50041333.9687291     
  -50040453.1671700     
  -50039575.6671838     
  -50038704.8512711     
  -50037844.7080573     
  -50036999.9165758     
  -50036175.9314866     
  -50035379.0633473     
  -50034616.5447203     
  -50033896.5681842     
  -50033228.2756885     
  -50032621.6694722     
  -50059737.6044507     
  -50059489.1108264     
  -50059202.2025843     
  -50058880.5723847     
  -50058527.5822658     
  -50058146.2298772     
  -50057739.1453953     
  -50057308.6073931     
  -50056856.5695914     
  -50056384.6930333     
  -50055894.3800927     
  -50055386.8080328     
  -50054862.9607489     
  -50054323.6579516     
  -50053769.5814682     
  -50053201.2986150     
  -50052619.2827680     
  -50052023.9313630     
  -50051415.5816135     
  -50050794.5242655     
  -50050161.0157118     
  -50049515.2887920     
  -50048857.5625940     
  -50048188.0515691     
  -50047506.9742650     
  -50046814.5619821     
  -50046111.0676633     
  -50045396.7753370     
  -50044672.0104527     
  -50043937.1514716     
  -50043192.6431093     
  -50042439.0116615     
  -50041676.8828902     
  -50040907.0029930     
  -50040130.2632183     
  -50039347.7287340     
  -50038560.6723720     
  -50037770.6138712     
  -50036979.3651859     
  -50036189.0823054     
  -50035402.3237978     
  -50034622.1158994     
  -50033852.0233503     
  -50033096.2242253     
  -50032359.5855978     
  -50031647.7348137     
  -50030967.1181988     
  -50030325.0348343     
  -50029729.6271532     
  -50029189.8019285     
  -50053353.8270995     
  -50053128.3404737     
  -50052867.9594977     
  -50052576.0637123     
  -50052255.7330353     
  -50051909.7169250     
  -50051540.4313657     
  -50051149.9730634     
  -50050740.1435379     
  -50050312.4781656     
  -50049868.2769177     
  -50049408.6347196     
  -50048934.4701879     
  -50048446.5520685     
  -50047945.5230756     
  -50047431.9210891     
  -50046906.1978180     
  -50046368.7351375     
  -50045819.8593590     
  -50045259.8537166     
  -50044688.9693618     
  -50044107.4351585     
  -50043515.4665613     
  -50042913.2738570     
  -50042301.0700411     
  -50041679.0786040     
  -50041047.5415009     
  -50040406.7275921     
  -50039756.9418546     
  -50039098.5356874     
  -50038431.9186604     
  -50037757.5720914     
  -50037076.0648722     
  -50036388.0720043     
  -50035694.3963464     
  -50034995.9941047     
  -50034294.0046211     
  -50033589.7850059     
  -50032884.9501189     
  -50032181.4182907     
  -50031481.4629757     
  -50030787.7701786     
  -50030103.5009525     
  -50029432.3574251     
  -50028778.6495656     
  -50028147.3580896     
  -50027544.1862896     
  -50026975.5898907     
  -50026448.7688373     
  -50025971.5977059     
  -50047215.4226569     
  -50047013.6992456     
  -50046780.6705716     
  -50046519.3818880     
  -50046232.6108709     
  -50045922.8399069     
  -50045592.2532419     
  -50045242.7495199     
  -50044875.9631850     
  -50044493.2903318     
  -50044095.9160916     
  -50043684.8417015     
  -50043260.9101429     
  -50042824.8297384     
  -50042377.1954404     
  -50041918.5077666     
  -50041449.1894782     
  -50040969.6001819     
  -50040480.0490879     
  -50039980.8061704     
  -50039472.1119954     
  -50038954.1864683     
  -50038427.2367569     
  -50037891.4646353     
  -50037347.0734895     
  -50036794.2752283     
  -50036233.2973394     
  -50035664.3903467     
  -50035087.8359293     
  -50034503.9559895     
  -50033913.1229755     
  -50033315.7717963     
  -50032712.4136980     
  -50032103.6525067     
  -50031490.2036763     
  -50030872.9166081     
  -50030252.8007294     
  -50029631.0558075     
  -50029009.1069448     
  -50028388.6445964     
  -50027771.6697799     
  -50027160.5443416     
  -50026558.0456640     
  -50025967.4244705     
  -50025392.4632860     
  -50024837.5315321     
  -50024307.6309483     
  -50023808.4218031     
  -50023346.2158191     
  -50022927.9154204     
  -50041298.0486747     
  -50041120.3472344     
  -50040914.9619256     
  -50040684.5917598     
  -50040431.7004565     
  -50040158.4919698     
  -50039866.9078751     
  -50039558.6382993     
  -50039235.1406589     
  -50038897.6623254     
  -50038547.2646566     
  -50038184.8467626     
  -50037811.1680251     
  -50037426.8688323     
  -50037032.4892904     
  -50036628.4858717     
  -50036215.2460813     
  -50035793.1013012     
  -50035362.3380111     
  -50034923.2076063     
  -50034475.9350390     
  -50034020.7265075     
  -50033557.7764155     
  -50033087.2738144     
  -50032609.4085423     
  -50032124.3772685     
  -50031632.3896552     
  -50031133.6748579     
  -50030628.4885920     
  -50030117.1210146     
  -50029599.9056878     
  -50029077.2299151     
  -50028549.5467736     
  -50028017.3891917     
  -50027481.3864525     
  -50026942.2835303     
  -50026400.9636793     
  -50025858.4746911     
  -50025316.0592064     
  -50024775.1893783     
  -50024237.6060348     
  -50023705.3622264     
  -50023180.8706264     
  -50022666.9536224     
  -50022166.8939900     
  -50021684.4826671     
  -50021224.0581705     
  -50020790.5294020     
  -50020389.3696583     
  -50020026.5641926     
  -50035577.6580080     
  -50035423.8868003     
  -50035246.0562409     
  -50035046.5140666     
  -50034827.4047019     
  -50034590.6480727     
  -50034337.9372936     
  -50034070.7480530     
  -50033790.3547491     
  -50033497.8500246     
  -50033194.1654898     
  -50032880.0922255     
  -50032556.3002147     
  -50032223.3562400     
  -50031881.7400376     
  -50031531.8586729     
  -50031174.0592064     
  -50030808.6397876     
  -50030435.8593461     
  -50030055.9460712     
  -50029669.1048736     
  -50029275.5240222     
  -50028875.3811474     
  -50028468.8487942     
  -50028056.0997077     
  -50027637.3120314     
  -50027212.6745995     
  -50026782.3925123     
  -50026346.6931915     
  -50025905.8331274     
  -50025460.1055449     
  -50025009.8492417     
  -50024555.4588693     
  -50024097.3969613     
  -50023636.2080307     
  -50023172.5350860     
  -50022707.1389243     
  -50022240.9205598     
  -50021774.9471144     
  -50021310.4814291     
  -50020849.0155213     
  -50020392.3077939     
  -50019942.4235432     
  -50019501.7777757     
  -50019073.1785384     
  -50018659.8677899     
  -50018265.5551593     
  -50017894.4375484     
  -50017551.1941784     
  -50017240.9420138     
  -50030030.0996275     
  -50029899.9408572     
  -50029749.3292554     
  -50029580.2611259     
  -50029394.5607963     
  -50029193.8627254     
  -50028979.6095377     
  -50028753.0599361     
  -50028515.3023147     
  -50028267.2712445     
  -50028009.7649668     
  -50027743.4627018     
  -50027468.9410571     
  -50027186.6891415     
  -50026897.1222090     
  -50026600.5938014     
  -50026297.4064481     
  -50025987.8210375     
  -50025672.0650046     
  -50025350.3394931     
  -50025022.8256574     
  -50024689.6902657     
  -50024351.0907661     
  -50024007.1799692     
  -50023658.1105021     
  -50023304.0391842     
  -50022945.1314782     
  -50022581.5661743     
  -50022213.5404742     
  -50021841.2756509     
  -50021465.0234772     
  -50021085.0736330     
  -50020701.7623216     
  -50020315.4823459     
  -50019926.6949199     
  -50019535.9435049     
  -50019143.8699724     
  -50018751.2333964     
  -50018358.9317460     
  -50017968.0267000     
  -50017579.7716887     
  -50017195.6430845     
  -50016817.3741661     
  -50016446.9910304     
  -50016086.8489497     
  -50015739.6666918     
  -50015408.5549102     
  -50015097.0327094     
  -50014809.0236865     
  -50014548.8188362     
  -50024630.9076770     
  -50024523.9191839     
  -50024400.0531853     
  -50024260.9575162     
  -50024108.1385572     
  -50023942.9466107     
  -50023766.5743209     
  -50023580.0631838     
  -50023384.3147245     
  -50023180.1040278     
  -50022968.0940915     
  -50022748.8500287     
  -50022522.8525306     
  -50022290.5102669     
  -50022052.1710815     
  -50021808.1319549     
  -50021558.6477849     
  -50021303.9390757     
  -50021044.1986555     
  -50020779.5975530     
  -50020510.2901663     
  -50020236.4188574     
  -50019958.1181047     
  -50019675.5183396     
  -50019388.7495916     
  -50019097.9450682     
  -50018803.2447928     
  -50018504.7994297     
  -50018202.7744338     
  -50017897.3546664     
  -50017588.7496371     
  -50017277.1995408     
  -50016962.9822799     
  -50016646.4216741     
  -50016327.8970858     
  -50016007.8546932     
  -50015686.8206621     
  -50015365.4164602     
  -50015044.3765382     
  -50014724.5685586     
  -50014407.0162587     
  -50014092.9248881     
  -50013783.7089164     
  -50013481.0213421     
  -50013186.7833833     
  -50012903.2125346     
  -50012632.8458238     
  -50012378.5534792     
  -50012143.5359287     
  -50011931.2938733     
  -50019355.2103205     
  -50019270.9061565     
  -50019173.2626772     
  -50019063.5838916     
  -50018943.0620139     
  -50018812.7660707     
  -50018673.6407340     
  -50018526.5114938     
  -50018372.0934859     
  -50018211.0021599     
  -50018043.7645879     
  -50017870.8306483     
  -50017692.5836254     
  -50017509.3499712     
  -50017321.4081177     
  -50017128.9963183     
  -50016932.3195580     
  -50016731.5556053     
  -50016526.8602983     
  -50016318.3721679     
  -50016106.2165045     
  -50015890.5089712     
  -50015671.3588674     
  -50015448.8721431     
  -50015223.1542606     
  -50014994.3130024     
  -50014762.4613223     
  -50014527.7203410     
  -50014290.2225930     
  -50014050.1156373     
  -50013807.5661539     
  -50013562.7646628     
  -50013315.9310099     
  -50013067.3207813     
  -50012817.2328220     
  -50012566.0180438     
  -50012314.0897158     
  -50012061.9354305     
  -50011810.1309225     
  -50011559.3558802     
  -50011310.4118223     
  -50011064.2419935     
  -50010821.9530457     
  -50010584.8379858     
  -50010354.3994456     
  -50010132.3717040     
  -50009920.7390005     
  -50009721.7464126     
  -50009537.8977838     
  -50009371.9327151     
  -50014177.7084387     
  -50014115.6209642     
  -50014043.6956132     
  -50013962.8977332     
  -50013874.1097204     
  -50013778.1228155     
  -50013675.6363699     
  -50013567.2617384     
  -50013453.5288355     
  -50013334.8940266     
  -50013211.7484784     
  -50013084.4264082     
  -50012953.2128977     
  -50012818.3510861     
  -50012680.0486621     
  -50012538.4836387     
  -50012393.8094428     
  -50012246.1593705     
  -50012095.6504793     
  -50011942.3869916     
  -50011786.4632859     
  -50011627.9665561     
  -50011466.9792098     
  -50011303.5810829     
  -50011137.8515393     
  -50010969.8715301     
  -50010799.7256801     
  -50010627.5044790     
  -50010453.3066533     
  -50010277.2418013     
  -50010099.4333815     
  -50009920.0221519     
  -50009739.1701676     
  -50009557.0654543     
  -50009373.9274853     
  -50009190.0135973     
  -50009005.6264873     
  -50008821.1229319     
  -50008636.9238577     
  -50008453.5258684     
  -50008271.5142821     
  -50008091.5776495     
  -50007914.5235863     
  -50007741.2955473     
  -50007572.9898635     
  -50007410.8719072     
  -50007256.3896090     
  -50007111.1816283     
  -50006977.0761899     
  -50006856.0747998     
  -50009072.6893735     
  -50009032.4159093     
  -50008985.7749435     
  -50008933.3979464     
  -50008875.8615781     
  -50008813.6826336     
  -50008747.3177571     
  -50008677.1661033     
  -50008603.5736864     
  -50008526.8385679     
  -50008447.2163217     
  -50008364.9254205     
  -50008280.1523308     
  -50008193.0561966     
  -50008103.7730649     
  -50008012.4196429     
  -50007919.0966074     
  -50007823.8915019     
  -50007726.8812657     
  -50007628.1344459     
  -50007527.7131398     
  -50007425.6747203     
  -50007322.0733912     
  -50007216.9616208     
  -50007110.3914984     
  -50007002.4160618     
  -50006893.0906395     
  -50006782.4742570     
  -50006670.6311544     
  -50006557.6324707     
  -50006443.5581496     
  -50006328.4991308     
  -50006212.5598948     
  -50006095.8614361     
  -50005978.5447456     
  -50005860.7748914     
  -50005742.7457851     
  -50005624.6857281     
  -50005506.8638193     
  -50005389.5972939     
  -50005273.2598304     
  -50005158.2908102     
  -50005045.2054322     
  -50004934.6054504     
  -50004827.1901147     
  -50004723.7666105     
  -50004625.2588846     
  -50004532.7131722     
  -50004447.2977260     
  -50004370.2931192     
  -50004014.0529401     
  -50003995.2900078     
  -50003973.6088622     
  -50003949.3108172     
  -50003922.6699748     
  -50003893.9312907     
  -50003863.3107493     
  -50003830.9968298     
  -50003797.1526972     
  -50003761.9187424     
  -50003725.4152190     
  -50003687.7448208     
  -50003648.9951079     
  -50003609.2407285     
  -50003568.5454192     
  -50003526.9637807     
  -50003484.5428399     
  -50003441.3234166     
  -50003397.3413148     
  -50003352.6283646     
  -50003307.2133353     
  -50003261.1227446     
  -50003214.3815862     
  -50003167.0139965     
  -50003119.0438827     
  -50003070.4955320     
  -50003021.3942236     
  -50002971.7668634     
  -50002921.6426640     
  -50002871.0538942     
  -50002820.0367211     
  -50002768.6321755     
  -50002716.8872668     
  -50002664.8562843     
  -50002612.6023183     
  -50002560.1990413     
  -50002507.7327886     
  -50002455.3049802     
  -50002403.0349227     
  -50002351.0630241     
  -50002299.5544425     
  -50002248.7031684     
  -50002198.7365056     
  -50002149.9198640     
  -50002102.5616974     
  -50002057.0183015     
  -50002013.6980220     
  -50001973.0641794     
  -50001935.6356828     
  -50001901.9838314     
  -49998975.3362181     
  -49998977.9041270     
  -49998980.9953479     
  -49998984.5831897     
  -49998988.6409973     
  -49998993.1433244     
  -49998998.0665795     
  -49999003.3893204     
  -49999009.0923215     
  -49999015.1585002     
  -49999021.5727622     
  -49999028.3218048     
  -49999035.3939060     
  -49999042.7787137     
  -49999050.4670476     
  -49999058.4507160     
  -49999066.7223512     
  -49999075.2752638     
  -49999084.1033126     
  -49999093.2007896     
  -49999102.5623158     
  -49999112.1827461     
  -49999122.0570781     
  -49999132.1803623     
  -49999142.5476094     
  -49999153.1536908     
  -49999163.9932276     
  -49999175.0604630     
  -49999186.3491141     
  -49999197.8521954     
  -49999209.5618096     
  -49999221.4688968     
  -49999233.5629353     
  -49999245.8315857     
  -49999258.2602679     
  -49999270.8316642     
  -49999283.5251362     
  -49999296.3160501     
  -49999309.1750028     
  -49999322.0669479     
  -49999334.9502236     
  -49999347.7755001     
  -49999360.4846746     
  -49999373.0097660     
  -49999385.2718989     
  -49999397.1805072     
  -49999408.6329620     
  -49999419.5149194     
  -49999429.7018167     
  -49999439.0621296     
  -49993929.7306141     
  -49993953.5907159     
  -49993981.4237055     
  -49994012.8751068     
  -49994047.6175938     
  -49994085.3552727     
  -49994125.8248092     
  -49994168.7945639     
  -49994214.0625496     
  -49994261.4537588     
  -49994310.8172307     
  -49994362.0230931     
  -49994414.9597263     
  -49994469.5311301     
  -49994525.6545357     
  -49994583.2582729     
  -49994642.2798854     
  -49994702.6644792     
  -49994764.3632757     
  -49994827.3323460     
  -49994891.5314935     
  -49994956.9232574     
  -49995023.4720071     
  -49995091.1430991     
  -49995159.9020667     
  -49995229.7138136     
  -49995300.5417838     
  -49995372.3470745     
  -49995445.0874613     
  -49995518.7163000     
  -49995593.1812678     
  -49995668.4229004     
  -49995744.3728811     
  -49995820.9520319     
  -49995898.0679501     
  -49995975.6122371     
  -49996053.4572572     
  -49996131.4523710     
  -49996209.4195912     
  -49996287.1486257     
  -49996364.3912930     
  -49996440.8553409     
  -49996516.1977636     
  -49996590.0178077     
  -49996661.8500104     
  -49996731.1578175     
  -49996797.3286395     
  -49996859.6716292     
  -49996917.4200657     
  -49996969.7410683     
  -49988850.0897928     
  -49988895.3561890     
  -49988948.0706247     
  -49989007.5488867     
  -49989073.1611195     
  -49989144.3392435     
  -49989220.5785701     
  -49989301.4357811     
  -49989386.5247690     
  -49989475.5113580     
  -49989568.1075821     
  -49989664.0659556     
  -49989763.1740008     
  -49989865.2491833     
  -49989970.1343249     
  -49990077.6935124     
  -49990187.8084869     
  -49990300.3754784     
  -49990415.3024385     
  -49990532.5066173     
  -49990651.9124294     
  -49990773.4495525     
  -49990897.0512044     
  -49991022.6525423     
  -49991150.1891322     
  -49991279.5954340     
  -49991410.8032479     
  -49991543.7400647     
  -49991678.3272616     
  -49991814.4780773     
  -49991952.0952985     
  -49992091.0685804     
  -49992231.2713165     
  -49992372.5569682     
  -49992514.7547528     
  -49992657.6645855     
  -49992801.0511669     
  -49992944.6371090     
  -49993088.0950028     
  -49993231.0383572     
  -49993373.0113782     
  -49993513.4776330     
  -49993651.8077600     
  -49993787.2665572     
  -49993919.0000437     
  -49994046.0234653     
  -49994167.2117579     
  -49994281.2947452     
  -49994386.8604221     
  -49994482.3711691     
  -49983708.9306525     
  -49983775.8775412     
  -49983853.7917150     
  -49983941.6549542     
  -49984038.5309397     
  -49984143.5758505     
  -49984256.0404784     
  -49984375.2670382     
  -49984500.6828668     
  -49984631.7925053     
  -49984768.1691539     
  -49984909.4461354     
  -49985055.3087541     
  -49985205.4867681     
  -49985359.7475751     
  -49985517.8901382     
  -49985679.7396257     
  -49985845.1427143     
  -49986013.9634823     
  -49986186.0798160     
  -49986361.3802448     
  -49986539.7611237     
  -49986721.1240817     
  -49986905.3736546     
  -49987092.4150252     
  -49987282.1517897     
  -49987474.4836724     
  -49987669.3041045     
  -49987866.4975788     
  -49988065.9366886     
  -49988267.4787463     
  -49988470.9618717     
  -49988676.2004275     
  -49988882.9796667     
  -49989091.0494488     
  -49989300.1168692     
  -49989509.8376435     
  -49989719.8060897     
  -49989929.5435665     
  -49990138.4852593     
  -49990345.9652701     
  -49990551.2000674     
  -49990753.2705248     
  -49990951.1030229     
  -49991143.4504670     
  -49991328.8746179     
  -49991505.7319118     
  -49991672.1660531     
  -49991826.1122151     
  -49991965.3198405     
  -49978478.4318589     
  -49978567.4970760     
  -49978671.1117244     
  -49978787.9169413     
  -49978916.6638872     
  -49979056.2275885     
  -49979205.6095642     
  -49979363.9334405     
  -49979530.4364645     
  -49979704.4588908     
  -49979885.4325540     
  -49980072.8694645     
  -49980266.3509430     
  -49980465.5175760     
  -49980670.0601282     
  -49980879.7114411     
  -49981094.2392880     
  -49981313.4401106     
  -49981537.1335454     
  -49981765.1576329     
  -49981997.3646006     
  -49982233.6171092     
  -49982473.7848544     
  -49982717.7414170     
  -49982965.3612578     
  -49983216.5167509     
  -49983471.0751515     
  -49983728.8953869     
  -49983989.8245544     
  -49984253.6940045     
  -49984520.3148716     
  -49984789.4729073     
  -49985060.9224529     
  -49985334.3793747     
  -49985609.5127715     
  -49985885.9352487     
  -49986163.1915500     
  -49986440.7453393     
  -49986717.9639423     
  -49986994.1009072     
  -49987268.2763186     
  -49987539.4549415     
  -49987806.4224862     
  -49988067.7606183     
  -49988321.8218264     
  -49988566.7059781     
  -49988800.2414177     
  -49989019.9749139     
  -49989223.1768008     
  -49989406.8704920     
  -49973130.4357386     
  -49973242.2203885     
  -49973372.2178823     
  -49973518.7197552     
  -49973680.1565125     
  -49973855.1148083     
  -49974042.3405935     
  -49974240.7334984     
  -49974449.3360941     
  -49974667.3205043     
  -49974893.9740086     
  -49975128.6846882     
  -49975370.9277528     
  -49975620.2529077     
  -49975876.2729233     
  -49976138.6534485     
  -49976407.1040260     
  -49976681.3702173     
  -49976961.2267204     
  -49977246.4713472     
  -49977536.9197217     
  -49977832.4005623     
  -49978132.7514120     
  -49978437.8146823     
  -49978747.4338805     
  -49979061.4498896     
  -49979379.6971668     
  -49979701.9997250     
  -49980028.1667508     
  -49980357.9877053     
  -49980691.2267394     
  -49981027.6162379     
  -49981366.8492925     
  -49981708.5708812     
  -49982052.3675160     
  -49982397.7551036     
  -49982744.1647562     
  -49983090.9262927     
  -49983437.2491958     
  -49983782.2008410     
  -49984124.6819208     
  -49984463.3991525     
  -49984796.8356319     
  -49985123.2196040     
  -49985440.4930346     
  -49985746.2822548     
  -49986037.8742274     
  -49986312.2037909     
  -49986565.8597716     
  -49986795.1213847     
  -49967636.4596630     
  -49967771.7230446     
  -49967928.9610742     
  -49968106.1045555     
  -49968301.2532761     
  -49968512.6966318     
  -49968738.9173060     
  -49968978.5843700     
  -49969230.5402053     
  -49969493.7842357     
  -49969767.4554521     
  -49970050.8149970     
  -49970343.2295820     
  -49970644.1561688     
  -49970953.1281112     
  -49971269.7428048     
  -49971593.6507951     
  -49971924.5462311     
  -49972262.1585218     
  -49972606.2450353     
  -49972956.5846725     
  -49973312.9721491     
  -49973675.2128213     
  -49974043.1178936     
  -49974416.4998510     
  -49974795.1679563     
  -49975178.9236533     
  -49975567.5557090     
  -49975960.8349219     
  -49976358.5082071     
  -49976760.2918574     
  -49977165.8637575     
  -49977574.8543081     
  -49977986.8357925     
  -49978401.3098998     
  -49978817.6930950     
  -49979235.2995210     
  -49979653.3211181     
  -49980070.8046769     
  -49980486.6256045     
  -49980899.4583071     
  -49981307.7432974     
  -49981709.6514556     
  -49982103.0463729     
  -49982485.4464369     
  -49982853.9893885     
  -49983205.4036149     
  -49983535.9926133     
  -49983841.6421128     
  -49984117.8635802     
  -49961967.7223831     
  -49962127.3707088     
  -49962312.8688447     
  -49962521.7738522     
  -49962751.8430855     
  -49963001.0583907     
  -49963267.6303256     
  -49963549.9899127     
  -49963846.7731154     
  -49964156.8015641     
  -49964479.0618657     
  -49964812.6849954     
  -49965156.9266781     
  -49965511.1492674     
  -49965874.8053550     
  -49966247.4231645     
  -49966628.5936689     
  -49967017.9593002     
  -49967415.2040824     
  -49967820.0449961     
  -49968232.2243782     
  -49968651.5031608     
  -49969077.6547524     
  -49969510.4593731     
  -49969949.6986570     
  -49970395.1503336     
  -49970846.5828012     
  -49971303.7493957     
  -49971766.3821495     
  -49972234.1848210     
  -49972706.8249553     
  -49973183.9247145     
  -49973665.0501925     
  -49974149.6988997     
  -49974637.2850782     
  -49975127.1224879     
  -49975618.4042888     
  -49976110.1796511     
  -49976601.3267584     
  -49977090.5219442     
  -49977576.2048472     
  -49978056.5397088     
  -49978529.3733196     
  -49978992.1906991     
  -49979442.0704590     
  -49979875.6430518     
  -49980289.0569122     
  -49980677.9600461     
  -49981037.5082063     
  -49981362.4157745     
  -49956095.1889695     
  -49956280.2556469     
  -49956495.1723978     
  -49956737.1081070     
  -49957003.4647623     
  -49957291.9053700     
  -49957600.3587223     
  -49957927.0097246     
  -49958270.2813003     
  -49958628.8119598     
  -49959001.4317395     
  -49959387.1382450     
  -49959785.0738508     
  -49960194.5046433     
  -49960614.8013765     
  -49961045.4225013     
  -49961485.8991982     
  -49961935.8222598     
  -49962394.8306258     
  -49962862.6013504     
  -49963338.8407718     
  -49963823.2766556     
  -49964315.6510870     
  -49964815.7138911     
  -49965323.2163645     
  -49965837.9051019     
  -49966359.5156989     
  -49966887.7661055     
  -49967422.3493917     
  -49967962.9256703     
  -49968509.1129017     
  -49969060.4762769     
  -49969616.5158494     
  -49970176.6520511     
  -49970740.2087029     
  -49971306.3930991     
  -49971874.2727364     
  -49972442.7482601     
  -49973010.5222389     
  -49973576.0634693     
  -49974137.5666749     
  -49974692.9077431     
  -49975239.5950825     
  -49975774.7183525     
  -49976294.8968153     
  -49976796.2310083     
  -49977274.2635157     
  -49977723.9575657     
  -49978139.7063125     
  -49978515.3914219     
  -49949989.6348066     
  -49950201.2493345     
  -49950446.8465827     
  -49950723.1920789     
  -49951027.3189287     
  -49951356.5595999     
  -49951708.5512380     
  -49952081.2244771     
  -49952472.7826308     
  -49952881.6759357     
  -49953306.5739441     
  -49953746.3380463     
  -49954199.9953261     
  -49954666.7144191     
  -49955145.7836801     
  -49955636.5917293     
  -49956138.6102950     
  -49956651.3791766     
  -49957174.4931022     
  -49957707.5902272     
  -49958250.3420103     
  -49958802.4442078     
  -49959363.6087244     
  -49959933.5560714     
  -49960512.0081823     
  -49961098.6813392     
  -49961693.2789604     
  -49962295.4839894     
  -49962904.9506143     
  -49963521.2950270     
  -49964144.0849048     
  -49964772.8272717     
  -49965406.9543587     
  -49966045.8070509     
  -49966688.6154727     
  -49967334.4762339     
  -49967982.3258443     
  -49968630.9098097     
  -49969278.7469652     
  -49969924.0887038     
  -49970564.8729463     
  -49971198.6730140     
  -49971822.6420690     
  -49972433.4545485     
  -49973027.2471593     
  -49973599.5636497     
  -49974145.3099503     
  -49974658.7296351     
  -49975133.4143745     
  -49975562.3706111     
  -49943621.7241138     
  -49943861.0659679     
  -49944138.6569928     
  -49944450.8443816     
  -49944794.2791456     
  -49945165.9519183     
  -49945563.1988147     
  -49945983.6886228     
  -49946425.3991242     
  -49946886.5878315     
  -49947365.7606456     
  -49947861.6406725     
  -49948373.1385626     
  -49948899.3251254     
  -49949439.4065670     
  -49949992.7024276     
  -49950558.6261229     
  -49951136.6678918     
  -49951726.3798909     
  -49952327.3631501     
  -49952939.2560908     
  -49953561.7243098     
  -49954194.4513363     
  -49954837.1300763     
  -49955489.4546638     
  -49956151.1124382     
  -49956821.7757645     
  -49957501.0934047     
  -49958188.6811316     
  -49958884.1112563     
  -49959586.9007123     
  -49960296.4973050     
  -49961012.2636999     
  -49961733.4586800     
  -49962459.2151664     
  -49963188.5144629     
  -49963920.1561661     
  -49964652.7231905     
  -49965384.5414074     
  -49966113.6335089     
  -49966837.6669238     
  -49967553.8959664     
  -49968259.0989692     
  -49968949.5120122     
  -49969620.7621477     
  -49970267.8048864     
  -49970884.8733945     
  -49971465.4506491     
  -49972002.2811315     
  -49972487.4460555     
  -49936962.0912140     
  -49937230.3245354     
  -49937541.2013175     
  -49937890.6369254     
  -49938274.8885518     
  -49938690.5951843     
  -49939134.7839905     
  -49939604.8557806     
  -49940098.5582946     
  -49940613.9532463     
  -49941149.3810520     
  -49941703.4257561     
  -49942274.8816789     
  -49942862.7226284     
  -49943466.0740669     
  -49944084.1883128     
  -49944716.4226721     
  -49945362.2202734     
  -49946021.0933166     
  -49946692.6084114     
  -49947376.3736719     
  -49948072.0272318     
  -49948779.2268530     
  -49949497.6403049     
  -49950226.9361998     
  -49950966.7749699     
  -49951716.7996659     
  -49952476.6262511     
  -49953245.8330441     
  -49954023.9489393     
  -49954810.4400066     
  -49955604.6940290     
  -49956406.0024996     
  -49957213.5395512     
  -49958026.3372499     
  -49958843.2566465     
  -49959662.9539598     
  -49960483.8412733     
  -49961304.0411817     
  -49962121.3349511     
  -49962933.1039988     
  -49963736.2648945     
  -49964527.1987266     
  -49965301.6766430     
  -49966054.7848195     
  -49966780.8542060     
  -49967473.4034103     
  -49968125.1073450     
  -49968727.8102416     
  -49969272.6099692     
  -49929981.4026692     
  -49930279.5872375     
  -49930624.9224950     
  -49931012.8816397     
  -49931439.3193466     
  -49931900.5160138     
  -49932393.1846457     
  -49932914.4544715     
  -49933461.8410381     
  -49934033.2093798     
  -49934626.7346349     
  -49935240.8629033     
  -49935874.2740380     
  -49936525.8473081     
  -49937194.6303607     
  -49937879.8115735     
  -49938580.6956743     
  -49939296.6823772     
  -49940027.2477083     
  -49940771.9276612     
  -49941530.3038073     
  -49942301.9904898     
  -49943086.6232311     
  -49943883.8479997     
  -49944693.3109796     
  -49945514.6484947     
  -49946347.4767307     
  -49947191.3808887     
  -49948045.9033854     
  -49948910.5306851     
  -49949784.6783171     
  -49950667.6735885     
  -49951558.7354549     
  -49952456.9509643     
  -49953361.2476350     
  -49954270.3610944     
  -49955182.7972775     
  -49956096.7884952     
  -49957010.2427418     
  -49957920.6857580     
  -49958825.1956270     
  -49959720.3301354     
  -49960602.0478355     
  -49961465.6248337     
  -49962305.5709329     
  -49963115.5511071     
  -49963888.3216385     
  -49964615.6950142     
  -49965288.5543557     
  -49965896.9474498     
  -49922650.3648216     
  -49922979.3388344     
  -49923360.0584557     
  -49923787.5496389     
  -49924257.2607900     
  -49924765.1113636     
  -49925307.4991995     
  -49925881.2821862     
  -49926483.7450135     
  -49927112.5583093     
  -49927765.7349877     
  -49928441.5868886     
  -49929138.6835786     
  -49929855.8143426     
  -49930591.9538372     
  -49931346.2315001     
  -49932117.9045801     
  -49932906.3345054     
  -49933710.9662276     
  -49934531.3101420     
  -49935366.9261685     
  -49936217.4095793     
  -49937082.3781664     
  -49937961.4603513     
  -49938854.2838464     
  -49939760.4644775     
  -49940679.5947746     
  -49941611.2319226     
  -49942554.8846429     
  -49943509.9985496     
  -49944475.9394784     
  -49945451.9742490     
  -49946437.2482592     
  -49947430.7592620     
  -49948431.3266165     
  -49949437.5552618     
  -49950447.7936349     
  -49951460.0847661     
  -49952472.1098498     
  -49953481.1237529     
  -49954483.8822143     
  -49955476.5609925     
  -49956454.6680042     
  -49957412.9507042     
  -49958345.3027438     
  -49959244.6765539     
  -49960103.0122315     
  -49960911.1984054     
  -49961659.0881818     
  -49962335.6036089     
  -49914939.6235394     
  -49915299.8543699     
  -49915716.4768152     
  -49916184.0723385     
  -49916697.6865989     
  -49917252.8824023     
  -49917845.7474284     
  -49918472.8738400     
  -49919131.3215841     
  -49919818.5733823     
  -49920532.4867018     
  -49921271.2460821     
  -49922033.3178587     
  -49922817.4084128     
  -49923622.4264526     
  -49924447.4494313     
  -49925291.6939445     
  -49926154.4897957     
  -49927035.2573294     
  -49927933.4875907     
  -49928848.7248527     
  -49929780.5510541     
  -49930728.5717019     
  -49931692.4027967     
  -49932671.6583520     
  -49933665.9380758     
  -49934674.8147808     
  -49935697.8210707     
  -49936734.4348311     
  -49937784.0630152     
  -49938846.0231748     
  -49939919.5221324     
  -49941003.6311350     
  -49942097.2567642     
  -49943199.1068217     
  -49944307.6503541     
  -49945421.0709566     
  -49946537.2125033     
  -49947653.5165285     
  -49948766.9506599     
  -49949873.9278341     
  -49950970.2165762     
  -49952050.8435033     
  -49953109.9905448     
  -49954140.8913596     
  -49955135.7343154     
  -49956085.5835441     
  -49956980.3354481     
  -49957808.7362753     
  -49958558.4978360     
  -49906819.4805212     
  -49907210.8811627     
  -49907663.3223383     
  -49908170.9546188     
  -49908728.4344163     
  -49909330.9811970     
  -49909974.3855150     
  -49910654.9864983     
  -49911369.6316422     
  -49912115.6276138     
  -49912890.6878205     
  -49913692.8804071     
  -49914520.5789004     
  -49915372.4167175     
  -49916247.2460862     
  -49917144.1014830     
  -49918062.1674137     
  -49919000.7501924     
  -49919959.2532801     
  -49920937.1556967     
  -49921933.9930055     
  -49922949.3403693     
  -49923982.7971875     
  -49925033.9728313     
  -49926102.4730069     
  -49927187.8862706     
  -49928289.7702205     
  -49929407.6368664     
  -49930540.9366587     
  -49931689.0406138     
  -49932851.2199296     
  -49934026.6224247     
  -49935214.2450718     
  -49936412.9018244     
  -49937621.1858733     
  -49938837.4254092     
  -49940059.6319385     
  -49941285.4402111     
  -49942512.0389031     
  -49943736.0913897     
  -49944953.6463131     
  -49946160.0382556     
  -49947349.7798022     
  -49948516.4477511     
  -49949652.5684285     
  -49950749.5102574     
  -49951797.3963154     
  -49952785.0561074     
  -49953700.0448915     
  -49954528.7715683     
  -49898259.3229806     
  -49898681.0346990     
  -49899168.3801593     
  -49899715.1068565     
  -49900315.5084232     
  -49900964.4858859     
  -49901657.5559014     
  -49902390.8260963     
  -49903160.9513858     
  -49903965.0806626     
  -49904800.8000551     
  -49905666.0767019     
  -49906559.2054277     
  -49907478.7596239     
  -49908423.5469168     
  -49909392.5697298     
  -49910384.9905451     
  -49911400.1014847     
  -49912437.2977347     
  -49913496.0542808     
  -49914575.9054106     
  -49915676.4264382     
  -49916797.2171138     
  -49917937.8861967     
  -49919098.0366728     
  -49920277.2511031     
  -49921475.0765768     
  -49922691.0087277     
  -49923924.4742404     
  -49925174.8112306     
  -49926441.2468315     
  -49927722.8712522     
  -49929018.6075044     
  -49930327.1759147     
  -49931647.0524697     
  -49932976.4199743     
  -49934313.1109735     
  -49935654.5413968     
  -49936997.6339800     
  -49938338.7307315     
  -49939673.4941160     
  -49940996.7973006     
  -49942302.6048785     
  -49943583.8471213     
  -49944832.2932294     
  -49946038.4325828     
  -49947191.3780571     
  -49948278.8126347     
  -49949287.0106075     
  -49950200.9786620     
  -49889226.6309209     
  -49889676.7771824     
  -49890197.0288008     
  -49890780.7757813     
  -49891421.9915094     
  -49892115.2976712     
  -49892855.9725694     
  -49893639.9243664     
  -49894463.6440879     
  -49895324.1484195     
  -49896218.9189129     
  -49897145.8418111     
  -49898103.1510260     
  -49899089.3756535     
  -49900103.2926351     
  -49901143.8846739     
  -49902210.3031835     
  -49903301.8358607     
  -49904417.8783618     
  -49905557.9095098     
  -49906721.4694426     
  -49907908.1401140     
  -49909117.5275679     
  -49910349.2454180     
  -49911602.8989734     
  -49912878.0694494     
  -49914174.2976924     
  -49915491.0668271     
  -49916827.7831996     
  -49918183.7549413     
  -49919558.1674214     
  -49920950.0547816     
  -49922358.2666686     
  -49923781.4291954     
  -49925217.8990789     
  -49926665.7098353     
  -49928122.5088726     
  -49929585.4843371     
  -49931051.2806690     
  -49932515.9020620     
  -49933974.6034642     
  -49935421.7695022     
  -49936850.7828884     
  -49938253.8856749     
  -49939622.0393856     
  -49940944.7939529     
  -49942210.1809671     
  -49943404.6546496     
  -49944513.1150606     
  -49945519.0634875     
  -49879685.3891618     
  -49880160.8127503     
  -49880710.6247994     
  -49881327.9245857     
  -49882006.4267342     
  -49882740.5292256     
  -49883525.3216603     
  -49884356.5565579     
  -49885230.5993759     
  -49886144.3678441     
  -49887095.2675980     
  -49888081.1285440     
  -49889100.1446198     
  -49890150.8183994     
  -49891231.9111752     
  -49892342.3986139     
  -49893481.4317468     
  -49894648.3028489     
  -49895842.4156469     
  -49897063.2592461     
  -49898310.3851397     
  -49899583.3866724     
  -49900881.8803354     
  -49902205.4882842     
  -49903553.8214751     
  -49904926.4628144     
  -49906322.9497035     
  -49907742.7553371     
  -49909185.2680688     
  -49910649.7681140     
  -49912135.4007823     
  -49913641.1453606     
  -49915165.7786748     
  -49916707.8322671     
  -49918265.5420324     
  -49919836.7890828     
  -49921419.0305669     
  -49923009.2191819     
  -49924603.7102315     
  -49926198.1553439     
  -49927787.3824469     
  -49929365.2624233     
  -49930924.5641625     
  -49932456.8017083     
  -49933952.0801466     
  -49935398.9511580     
  -49936784.2953121     
  -49938093.2568818     
  -49939309.2691789     
  -49940414.2254119     
  -49869593.6913881     
  -49870089.6964165     
  -49870664.1269897     
  -49871309.8823414     
  -49872020.5009657     
  -49872790.2309124     
  -49873614.0378686     
  -49874487.5748107     
  -49875407.1295915     
  -49876369.5615083     
  -49877372.2341186     
  -49878412.9489118     
  -49879489.8825967     
  -49880601.5294971     
  -49881746.6496998     
  -49882924.2230419     
  -49884133.4086725     
  -49885373.5097118     
  -49886643.9424129     
  -49887944.2091775     
  -49889273.8747512     
  -49890632.5449306     
  -49892019.8471233     
  -49893435.4121064     
  -49894878.8563441     
  -49896349.7642111     
  -49897847.6694580     
  -49899372.0352263     
  -49900922.2318675     
  -49902497.5117735     
  -49904096.9803389     
  -49905719.5620920     
  -49907363.9609362     
  -49909028.6133318     
  -49910711.6331543     
  -49912410.7468773     
  -49914123.2176799     
  -49915845.7570971     
  -49917574.4229485     
  -49919304.5025721     
  -49921030.3809219     
  -49922745.3939894     
  -49924441.6694352     
  -49926109.9584941     
  -49927739.4664549     
  -49929317.6937202     
  -49930830.3062178     
  -49932261.0635019     
  -49933591.8463219     
  -49934802.8441334     
  -49858900.2837360     
  -49859410.4176848     
  -49860002.7362849     
  -49860670.0546621     
  -49861405.8397208     
  -49862204.2816890     
  -49863060.3019110     
  -49863969.5213363     
  -49864928.2065085     
  -49865933.2043870     
  -49866981.8734414     
  -49868072.0157306     
  -49869201.8127767     
  -49870369.7667451     
  -49871574.6475729     
  -49872815.4461157     
  -49874091.3330245     
  -49875401.6228488     
  -49876745.7427389     
  -49878123.2050681     
  -49879533.5832682     
  -49880976.4901778     
  -49882451.5582084     
  -49883958.4206421     
  -49885496.6933801     
  -49887065.9564485     
  -49888665.7345528     
  -49890295.4759362     
  -49891954.5287399     
  -49893642.1140045     
  -49895357.2943600     
  -49897098.9373561     
  -49898865.6722762     
  -49900655.8391600     
  -49902467.4286503     
  -49904298.0111853     
  -49906144.6540018     
  -49908003.8244353     
  -49909871.2781304     
  -49911741.9310899     
  -49913609.7150804     
  -49915467.4168926     
  -49917306.5035228     
  -49919116.9377269     
  -49920886.9919512     
  -49922603.0738059     
  -49924249.5836670     
  -49925808.8354970     
  -49927261.0867219     
  -49928584.7435260     
  -49847539.7606978     
  -49848055.6894005     
  -49848657.3010110     
  -49849337.4665505     
  -49850089.7061193     
  -49850908.2604194     
  -49851788.0982110     
  -49852724.8843592     
  -49853714.9253974     
  -49854755.1040050     
  -49855842.8098740     
  -49856975.8716825     
  -49858152.4929798     
  -49859371.1934806     
  -49860630.7563909     
  -49861930.1818162     
  -49863268.6459401     
  -49864645.4654479     
  -49866060.0665468     
  -49867511.9578785     
  -49869000.7065974     
  -49870525.9168865     
  -49872087.2101923     
  -49873684.2064617     
  -49875316.5056679     
  -49876983.6688960     
  -49878685.1982370     
  -49880420.5146931     
  -49882188.9332410     
  -49883989.6341202     
  -49885821.6293217     
  -49887683.7231387     
  -49889574.4655224     
  -49891492.0968556     
  -49893434.4826355     
  -49895399.0364492     
  -49897382.6295693     
  -49899381.4855105     
  -49901391.0580313     
  -49903405.8914066     
  -49905419.4624382     
  -49907424.0047436     
  -49909410.3175755     
  -49911367.5640349     
  -49913283.0674218     
  -49915142.1201207     
  -49916927.8275331     
  -49918621.0210705     
  -49920200.2903624     
  -49921642.2073104     
  -49835426.1038513     
  -49835937.6551230     
  -49836538.2257580     
  -49837220.9015824     
  -49837979.3954506     
  -49838808.1172779     
  -49839702.1812251     
  -49840657.3743148     
  -49841670.1031286     
  -49842737.3297774     
  -49843856.5044706     
  -49845025.4992951     
  -49846242.5459323     
  -49847506.1787590     
  -49848815.1839157     
  -49850168.5543690     
  -49851565.4506365     
  -49853005.1666376     
  -49854487.1000085     
  -49856010.7261688     
  -49857575.5754016     
  -49859181.2122067     
  -49860827.2161910     
  -49862513.1637627     
  -49864238.6098884     
  -49866003.0691555     
  -49867805.9953514     
  -49869646.7587155     
  -49871524.6199577     
  -49873438.7000462     
  -49875387.9446606     
  -49877371.0820865     
  -49879386.5731899     
  -49881432.5519687     
  -49883506.7550428     
  -49885606.4383274     
  -49887728.2790658     
  -49889868.2614153     
  -49892021.5439324     
  -49894182.3076739     
  -49896343.5843237     
  -49898497.0649272     
  -49900632.8916774     
  -49902739.4380361     
  -49904803.0867082     
  -49906808.0211454     
  -49908736.0551051     
  -49910566.5373338     
  -49912276.3860528     
  -49913840.3324505     
  -49822444.2548872     
  -49822939.7346917     
  -49823527.6336089     
  -49824201.4190046     
  -49824955.1397522     
  -49825783.4932084     
  -49826681.8323703     
  -49827646.1364157     
  -49828672.9605185     
  -49829759.3756014     
  -49830902.9049902     
  -49832101.4623398     
  -49833353.2934022     
  -49834656.9229859     
  -49836011.1076351     
  -49837414.7940244     
  -49838867.0827291     
  -49840367.1968291     
  -49841914.4546944     
  -49843508.2462419     
  -49845148.0119316     
  -49846833.2237651     
  -49848563.3675484     
  -49850337.9256771     
  -49852156.3596916     
  -49854018.0918220     
  -49855922.4847041     
  -49857868.8183858     
  -49859856.2636663     
  -49861883.8507097     
  -49863950.4317568     
  -49866054.6366219     
  -49868194.8195121     
  -49870368.9955494     
  -49872574.7652257     
  -49874809.2248921     
  -49877068.8613069     
  -49879349.4282830     
  -49881645.8036371     
  -49883951.8250417     
  -49886260.1041309     
  -49888561.8194757     
  -49890846.4910613     
  -49893101.7419781     
  -49895313.0576230     
  -49897463.5593900     
  -49899533.8194318     
  -49901501.7566825     
  -49903342.6734591     
  -49905029.5185876     
  -49808439.4534828     
  -49808906.3721985     
  -49809469.5815075     
  -49810123.0854164     
  -49810861.3968763     
  -49811679.6002115     
  -49812573.3587687     
  -49813538.8891213     
  -49814572.9164143     
  -49815672.6206248     
  -49816835.5801005     
  -49818059.7163591     
  -49819343.2424754     
  -49820684.6162625     
  -49822082.4987031     
  -49823535.7175963     
  -49825043.2360786     
  -49826604.1254955     
  -49828217.5419918     
  -49829882.7061389     
  -49831598.8848924     
  -49833365.3751629     
  -49835181.4882777     
  -49837046.5346009     
  -49838959.8075567     
  -49840920.5662701     
  -49842928.0159834     
  -49844981.2853415     
  -49847079.3995441     
  -49849221.2482535     
  -49851405.5470128     
  -49853630.7907808     
  -49855895.1980201     
  -49858196.6436082     
  -49860532.5786714     
  -49862899.9353018     
  -49865295.0140315     
  -49867713.3519502     
  -49870149.5695231     
  -49872597.1945930     
  -49875048.4628507     
  -49877494.0954170     
  -49879923.0563467     
  -49882322.2961771     
  -49884676.4925795     
  -49886967.8063739     
  -49889175.6815108     
  -49891276.7323065     
  -49893244.7818455     
  -49895051.1442078     
  -49793204.1676697     
  -49793630.5525130     
  -49794158.2348834     
  -49794781.8680385     
  -49795496.5123627     
  -49796297.6921115     
  -49797181.4044768     
  -49798144.0995985     
  -49799182.6442352     
  -49800294.2776022     
  -49801476.5648986     
  -49802727.3519686     
  -49804044.7230990     
  -49805426.9629738     
  -49806872.5231565     
  -49808379.9930408     
  -49809948.0749426     
  -49811575.5628465     
  -49813261.3242225     
  -49815004.2842802     
  -49816803.4120036     
  -49818657.7072916     
  -49820566.1885177     
  -49822527.8798017     
  -49824541.7972555     
  -49826606.9334221     
  -49828722.2390615     
  -49830886.6013572     
  -49833098.8175117     
  -49835357.5625766     
  -49837661.3502128     
  -49840008.4849146     
  -49842397.0040457     
  -49844824.6078513     
  -49847288.5754284     
  -49849785.6644779     
  -49852311.9925720     
  -49854862.8976720     
  -49857432.7758145     
  -49860014.8943301     
  -49862601.1798067     
  -49865181.9814577     
  -49867745.8128574     
  -49870279.0785399     
  -49872765.7972228     
  -49875187.3411058     
  -49877522.2217467     
  -49879745.9687164     
  -49881831.1692921     
  -49883747.7682180     
  -49776462.6250889     
  -49776839.1363993     
  -49777324.0938219     
  -49777912.8241770     
  -49778600.9306513     
  -49779384.3434949     
  -49780259.3319889     
  -49781222.4927981     
  -49782270.7250215     
  -49783401.1988336     
  -49784611.3221833     
  -49785898.7083327     
  -49787261.1458405     
  -49788696.5718038     
  -49790203.0486351     
  -49791778.7443071     
  -49793421.9157722     
  -49795130.8951307     
  -49796904.0780399     
  -49798739.9138075     
  -49800636.8965863     
  -49802593.5570615     
  -49804608.4540025     
  -49806680.1650163     
  -49808807.2758026     
  -49810988.3671478     
  -49813221.9988270     
  -49815506.6894797     
  -49817840.8914181     
  -49820222.9591783     
  -49822651.1104715     
  -49825123.3780083     
  -49827637.5504722     
  -49830191.1007185     
  -49832781.0990751     
  -49835404.1094548     
  -49838056.0658820     
  -49840732.1270354     
  -49843426.5065959     
  -49846132.2776468     
  -49848841.1502661     
  -49851543.2229649     
  -49854226.7110486     
  -49856877.6587010     
  -49859479.6471365     
  -49862013.5192873     
  -49864457.1531608     
  -49866785.3326005     
  -49868969.7875136     
  -49870979.5081956     
  -49757853.2497107     
  -49758176.3603375     
  -49758618.6575154     
  -49759176.0128934     
  -49759844.4192249     
  -49760620.0360349     
  -49761499.2067297     
  -49762478.4581430     
  -49763554.4900391     
  -49764724.1596028     
  -49765984.4641940     
  -49767332.5244038     
  -49768765.5685981     
  -49770280.9195465     
  -49771875.9833411     
  -49773548.2405465     
  -49775295.2393558     
  -49777114.5904151     
  -49779003.9629135     
  -49780961.0814879     
  -49782983.7234559     
  -49785069.7158623     
  -49787216.9317872     
  -49789423.2853216     
  -49791686.7245628     
  -49794005.2219080     
  -49796376.7608451     
  -49798799.3183202     
  -49801270.8416433     
  -49803789.2187351     
  -49806352.2403476     
  -49808957.5526950     
  -49811602.5987241     
  -49814284.5460352     
  -49817000.1992537     
  -49819745.8944732     
  -49822517.3732705     
  -49825309.6337873     
  -49828116.7565546     
  -49830931.7032091     
  -49833746.0871580     
  -49836549.9168203     
  -49839331.3145711     
  -49842076.2183791     
  -49844768.0788832     
  -49847387.5730896     
  -49849912.3680234     
  -49852316.9849386     
  -49854572.8390219     
  -49856648.5634882     
  -49736909.7578533     
  -49737186.2907861     
  -49737598.3493362     
  -49738141.9803201     
  -49738813.1825991     
  -49739607.9509412     
  -49740522.3014940     
  -49741552.2855361     
  -49742693.9961213     
  -49743943.5707570     
  -49745297.1921959     
  -49746751.0886695     
  -49748301.5343633     
  -49749944.8505595     
  -49751677.4076212     
  -49753495.6278105     
  -49755395.9888160     
  -49757375.0277762     
  -49759429.3455292     
  -49761555.6107659     
  -49763750.5637240     
  -49766011.0190189     
  -49768333.8671549     
  -49770716.0742105     
  -49773154.6791188     
  -49775646.7878819     
  -49778189.5639629     
  -49780780.2139733     
  -49783415.9676396     
  -49786094.0508691     
  -49788811.6505478     
  -49791565.8695066     
  -49794353.6698633     
  -49797171.8027284     
  -49800016.7220359     
  -49802884.4800716     
  -49805770.6021394     
  -49808669.9377918     
  -49811576.4862239     
  -49814483.1938958     
  -49817381.7233647     
  -49820262.1938866     
  -49823112.8968817     
  -49825919.9932736     
  -49828667.2055724     
  -49831335.5261562     
  -49833902.9756050     
  -49836344.4625730     
  -49838631.8215615     
  -49840734.1397024     
  -49713042.3114316     
  -49713295.6524430     
  -49713709.1369061     
  -49714278.2612239     
  -49714998.3106846     
  -49715864.4080397     
  -49716871.5517988     
  -49718014.6470643     
  -49719288.5310190     
  -49720687.9946241     
  -49722207.8016639     
  -49723842.7059451     
  -49725587.4672119     
  -49727436.8661453     
  -49729385.7186680     
  -49731428.8896670     
  -49733561.3061486     
  -49735777.9697742     
  -49738073.9686618     
  -49740444.4882777     
  -49742884.8211939     
  -49745390.3754261     
  -49747956.6810087     
  -49750579.3943918     
  -49753254.3001666     
  -49755977.3095324     
  -49758744.4548083     
  -49761551.8791678     
  -49764395.8206262     
  -49767272.5891422     
  -49770178.5355100     
  -49773110.0105035     
  -49776063.3125144     
  -49779034.6216901     
  -49782019.9183530     
  -49785014.8832792     
  -49788014.7772804     
  -49791014.2975001     
  -49794007.4079954     
  -49796987.1426203     
  -49799945.3791162     
  -49802872.5848579     
  -49805757.5371967     
  -49808587.0252055     
  -49811345.5454224     
  -49814015.0127044     
  -49816574.5196032     
  -49819000.1952217     
  -49821265.2392706     
  -49823340.2416996     
  -49685521.0070475     
  -49685799.3036541     
  -49686274.1031901     
  -49686939.1249724     
  -49687787.7519897     
  -49688813.0954121     
  -49690008.0516597     
  -49691365.3526171     
  -49692877.6097823     
  -49694537.3531955     
  -49696337.0659622     
  -49698269.2151045     
  -49700326.2793746     
  -49702500.7745519     
  -49704785.2766385     
  -49707172.4432674     
  -49709655.0335384     
  -49712225.9264178     
  -49714878.1377519     
  -49717604.8358750     
  -49720399.3557159     
  -49723255.2112394     
  -49726166.1059806     
  -49729125.9413516     
  -49732128.8223120     
  -49735169.0598941     
  -49738241.1699619     
  -49741339.8674546     
  -49744460.0552171     
  -49747596.8063552     
  -49750745.3388653     
  -49753900.9810849     
  -49757059.1262848     
  -49760215.1744999     
  -49763364.4594639     
  -49766502.1583154     
  -49769623.1815961     
  -49772722.0410186     
  -49775792.6926131     
  -49778828.3532667     
  -49781821.2894929     
  -49784762.5787117     
  -49787641.8456784     
  -49790446.9803546     
  -49793163.8490252     
  -49795776.0185922     
  -49798264.5257343     
  -49800607.7394384     
  -49802781.3891867     
  -49804758.8644214     
  -49653465.1300091     
  -49653851.7374091     
  -49654487.2784787     
  -49655361.7911901     
  -49656464.9382621     
  -49657786.1052221     
  -49659314.4839433     
  -49661039.1432654     
  -49662949.0885163     
  -49665033.3117399     
  -49667280.8342980     
  -49669680.7433178     
  -49672222.2232346     
  -49674894.5834599     
  -49677687.2830013     
  -49680589.9526757     
  -49683592.4153923     
  -49686684.7048466     
  -49689857.0828354     
  -49693100.0553028     
  -49696404.3871243     
  -49699761.1155513     
  -49703161.5621493     
  -49706597.3429783     
  -49710060.3766751     
  -49713542.8899975     
  -49717037.4202853     
  -49720536.8141727     
  -49724034.2217469     
  -49727523.0851998     
  -49730997.1208416     
  -49734450.2931571     
  -49737876.7793821     
  -49741270.9228554     
  -49744627.1731961     
  -49747940.0111540     
  -49751203.8558365     
  -49754412.9519569     
  -49757561.2348409     
  -49760642.1712659     
  -49763648.5749159     
  -49766572.3965045     
  -49769404.4907007     
  -49772134.3652617     
  -49774749.9227200     
  -49777237.2122943     
  -49779580.2203360     
  -49781760.7428831     
  -49783758.4055341     
  -49785550.9262792     
  -49615843.0319939     
  -49616469.3465435     
  -49617418.3263502     
  -49618673.5406122     
  -49620218.2996342     
  -49622035.8124933     
  -49624109.3066747     
  -49626422.1179007     
  -49628957.7569983     
  -49631699.9593760     
  -49634632.7215740     
  -49637740.3284106     
  -49641007.3734543     
  -49644418.7749039     
  -49647959.7884353     
  -49651616.0181480     
  -49655373.4264185     
  -49659218.3431972     
  -49663137.4750853     
  -49667117.9143606     
  -49671147.1479952     
  -49675213.0665967     
  -49679303.9731172     
  -49683408.5910890     
  -49687516.0720683     
  -49691616.0018848     
  -49695698.4052102     
  -49699753.7478592     
  -49703772.9361272     
  -49707747.3123447     
  -49711668.6456852     
  -49715529.1171056     
  -49719321.2971238     
  -49723038.1149536     
  -49726672.8173292     
  -49730218.9151744     
  -49733670.1161295     
  -49737020.2408738     
  -49740263.1212235     
  -49743392.4782232     
  -49746401.7789856     
  -49749284.0720262     
  -49752031.8025018     
  -49754636.6113978     
  -49757089.1267403     
  -49759378.7609207     
  -49761493.5370102     
  -49763419.9796180     
  -49765143.1239135     
  -49766646.7219119     
  -49571489.1591793     
  -49572549.7598976     
  -49574034.1370060     
  -49575915.4931239     
  -49578167.1376351     
  -49580762.7407676     
  -49583676.5009684     
  -49586883.2492589     
  -49590358.5086172     
  -49594078.5220803     
  -49598020.2597882     
  -49602161.4125285     
  -49606480.3772707     
  -49610956.2386174     
  -49615568.7489024     
  -49620298.3087825     
  -49625125.9495088     
  -49630033.3175848     
  -49635002.6621703     
  -49640016.8253415     
  -49645059.2351473     
  -49650113.9012744     
  -49655165.4130516     
  -49660198.9394571     
  -49665200.2307443     
  -49670155.6212544     
  -49675052.0329405     
  -49679876.9790729     
  -49684618.5675368     
  -49689265.5030569     
  -49693807.0875971     
  -49698233.2180758     
  -49702534.3804198     
  -49706701.6388461     
  -49710726.6191164     
  -49714601.4843681     
  -49718318.9020008     
  -49721871.9999995     
  -49725254.3110631     
  -49728459.7030030     
  -49731482.2941801     
  -49734316.3533405     
  -49736956.1842815     
  -49739395.9974878     
  -49741629.7735947     
  -49743651.1276150     
  -49745453.1889433     
  -49747028.5210106     
  -49748369.1171739     
  -49749466.5276266     
  -49519146.5315784     
  -49520916.1954572     
  -49523244.8798946     
  -49526090.1787148     
  -49529410.5302059     
  -49533165.6175876     
  -49537316.5978374     
  -49541826.2107577     
  -49546658.8068039     
  -49551780.3217284     
  -49557158.2183245     
  -49562761.4097074     
  -49568560.1741923     
  -49574526.0686284     
  -49580631.8446857     
  -49586851.3709143     
  -49593159.5621875     
  -49599532.3173081     
  -49605946.4649931     
  -49612379.7180769     
  -49618810.6355490     
  -49625218.5919057     
  -49631583.7532331     
  -49637887.0594165     
  -49644110.2118811     
  -49650235.6662853     
  -49656246.6296172     
  -49662127.0611686     
  -49667861.6768757     
  -49673435.9565263     
  -49678836.1533242     
  -49684049.3052808     
  -49689063.2478655     
  -49693866.6272923     
  -49698448.9137447     
  -49702800.4137577     
  -49706912.2808735     
  -49710776.5235870     
  -49714386.0095003     
  -49717734.4645350     
  -49720816.4660414     
  -49723627.4287164     
  -49726163.5825024     
  -49728421.9421258     
  -49730400.2688439     
  -49732097.0264500     
  -49733511.3359395     
  -49734642.9368238     
  -49735492.1686116     
  -49736059.9937700     
  -49457544.5660104     
  -49460396.2018303     
  -49463983.3262084     
  -49468241.1209086     
  -49473106.8748220     
  -49478520.5969542     
  -49484425.3219909     
  -49490767.2075771     
  -49497495.4945027     
  -49504562.3812152     
  -49511922.8489256     
  -49519534.4624777     
  -49527357.1640732     
  -49535353.0710851     
  -49543486.2849914     
  -49551722.7155179     
  -49560029.9220299     
  -49568376.9728529     
  -49576734.3223068     
  -49585073.7047050     
  -49593368.0442660     
  -49601591.3797602     
  -49609718.8026974     
  -49617726.4079201     
  -49625591.2555701     
  -49633291.3435269     
  -49640805.5895554     
  -49648113.8225430     
  -49655196.7823426     
  -49662036.1278664     
  -49668614.4531878     
  -49674915.3115079     
  -49680923.2469211     
  -49686623.8339704     
  -49692003.7250097     
  -49697050.7053867     
  -49701753.7564048     
  -49706103.1259212     
  -49710090.4062512     
  -49713708.6187797     
  -49716952.3042725     
  -49719817.6173185     
  -49722302.4225564     
  -49724406.3892845     
  -49726131.0796457     
  -49727480.0237053     
  -49728458.7723259     
  -49729074.9156698     
  -49729338.0507204     
  -49729259.6768569     
  -49385523.0136422     
  -49389944.8592663     
  -49395326.7869546     
  -49401573.0361039     
  -49408591.9226992     
  -49416296.7482039     
  -49424606.2000024     
  -49433444.4111989     
  -49442740.8027301     
  -49452429.7936561     
  -49462450.4397311     
  -49472746.0413783     
  -49483263.7483752     
  -49493954.1786881     
  -49504771.0619419     
  -49515670.9132067     
  -49526612.7395139     
  -49537557.7793756     
  -49548469.2742445     
  -49559312.2700839     
  -49570053.4468450     
  -49580660.9735452     
  -49591104.3867182     
  -49601354.4901924     
  -49611383.2744165     
  -49621163.8538422     
  -49630670.4211907     
  -49639878.2177406     
  -49648763.5190882     
  -49657303.6361252     
  -49665476.9312625     
  -49673262.8501913     
  -49680641.9697073     
  -49687596.0623318     
  -49694108.1786317     
  -49700162.7482325     
  -49705745.7005566     
  -49710844.6062083     
  -49715448.8396654     
  -49719549.7634255     
  -49723140.9329038     
  -49726218.3200409     
  -49728780.5515785     
  -49730829.1550282     
  -49732368.8011832     
  -49733407.5261182     
  -49733956.9072743     
  -49734032.1565887     
  -49733652.0791694     
  -49732838.8217182     
  -49302212.0671035     
  -49308821.6614515     
  -49316670.0670692     
  -49325620.2505336     
  -49335542.1292304     
  -49346313.8856261     
  -49357822.4788889     
  -49369963.6342369     
  -49382641.5001232     
  -49395768.1106333     
  -49409262.7473675     
  -49423051.2640988     
  -49437065.4156330     
  -49451242.2168076     
  -49465523.3466780     
  -49479854.6054680     
  -49494185.4268841     
  -49508468.4451896     
  -49522659.1145092     
  -49536715.3767752     
  -49550597.3742827     
  -49564267.2027832     
  -49577688.7012691     
  -49590827.2749985     
  -49603649.7487982     
  -49616124.2482242     
  -49628220.1067199     
  -49639907.7974710     
  -49651158.8892066     
  -49661946.0257242     
  -49672242.9294230     
  -49682024.4296081     
  -49691266.5167726     
  -49699946.4244637     
  -49708042.7406830     
  -49715535.5510157     
  -49722406.6158137     
  -49728639.5836867     
  -49734220.2432081     
  -49739136.8139820     
  -49743380.2768816     
  -49746944.7410754     
  -49749827.8420999     
  -49752031.1601790     
  -49753560.6405710     
  -49754426.9871168     
  -49754645.9854727     
  -49754238.6919058     
  -49753231.3904257     
  -49751655.1910390     
  -49207275.0599781     
  -49216826.6997363     
  -49227954.3639144     
  -49240467.6599393     
  -49254187.1348642     
  -49268946.1103101     
  -49284591.3409325     
  -49300982.8850690     
  -49317993.4955687     
  -49335507.7332882     
  -49353420.9425579     
  -49371638.1826929     
  -49390073.1762163     
  -49408647.3107670     
  -49427288.7153672     
  -49445931.4207299     
  -49464514.6060493     
  -49482981.9301270     
  -49501280.9419759     
  -49519362.5646434     
  -49537180.6454933     
  -49554691.5662728     
  -49571853.9067651     
  -49588628.1565260     
  -49604976.4700346     
  -49620862.4614751     
  -49636251.0362779     
  -49651108.2574382     
  -49665401.2455051     
  -49679098.1119662     
  -49692167.9265513     
  -49704580.7197263     
  -49716307.5223565     
  -49727320.4451517     
  -49737592.8010643     
  -49747099.2742461     
  -49755816.1394242     
  -49763721.5355548     
  -49770795.7972087     
  -49777021.8461661     
  -49782385.6438592     
  -49786876.7022303     
  -49790488.6457704     
  -49793219.8102934     
  -49795073.8534427     
  -49796060.3363685     
  -49796195.2128327     
  -49795501.1303227     
  -49794007.4158922     
  -49791749.5228519     
  -49101211.8611142     
  -49114593.9309289     
  -49129949.8196812     
  -49147022.1264698     
  -49165569.6203279     
  -49185369.8161831     
  -49206219.7709247     
  -49227935.8075416     
  -49250352.5500403     
  -49273321.5708275     
  -49296709.8560854     
  -49320398.2217723     
  -49344279.7641633     
  -49368258.3956964     
  -49392247.4938787     
  -49416168.6752730     
  -49439950.6962576     
  -49463528.4758528     
  -49486842.2322678     
  -49509836.7230729     
  -49532460.5783996     
  -49554665.7169001     
  -49576406.8350359     
  -49597640.9614085     
  -49618327.0691555     
  -49638425.7408063     
  -49657898.8813670     
  -49676709.4767483     
  -49694821.3959308     
  -49712199.2364880     
  -49728808.2142351     
  -49744614.0988538     
  -49759583.1983446     
  -49773682.3960770     
  -49786879.2450122     
  -49799142.1243181     
  -49810440.4640230     
  -49820745.0434336     
  -49830028.3686374     
  -49838265.1332635     
  -49845432.7644838     
  -49851512.0524765     
  -49856487.8554907     
  -49860349.8631494     
  -49863093.3864733     
  -49864720.1235446     
  -49865238.8237871     
  -49864665.7311589     
  -49863024.5938467     
  -49860346.0699329     
  -48985706.1985091     
  -49003925.8116751     
  -49024577.6984798     
  -49047322.3215185     
  -49071843.0184606     
  -49097849.2951853     
  -49125077.9746140     
  -49153292.6941213     
  -49182282.4906794     
  -49211859.8802409     
  -49241858.6949468     
  -49272131.8598972     
  -49302549.2269857     
  -49332995.5346680     
  -49363368.5290025     
  -49393577.2595152     
  -49423540.5497478     
  -49453185.6340607     
  -49482446.9476198     
  -49511265.0543592     
  -49539585.6972731     
  -49567358.9560824     
  -49594538.4987059     
  -49621080.9147512     
  -49646945.1212071     
  -49672091.8325422     
  -49696483.0893916     
  -49720081.8419165     
  -49742851.5857129     
  -49764756.0498134     
  -49785758.9378899     
  -49805823.7251943     
  -49824913.5151057     
  -49842990.9603493     
  -49860018.2550158     
  -49875957.2043910     
  -49890769.3802371     
  -49904416.3694149     
  -49916860.1234097     
  -49928063.4151080     
  -49937990.4066770     
  -49946607.3281321     
  -49953883.2595774     
  -49959791.0001863     
  -49964307.9913647     
  -49967417.2349302     
  -49969108.1052143     
  -49969376.9178958     
  -49968227.1447433     
  -49965668.6543770     
  -48863977.5877167     
  -48888134.5641989     
  -48915242.7305115     
  -48944863.9977676     
  -48976590.6432024     
  -49010050.4829424     
  -49044907.9468222     
  -49080863.4957281     
  -49117651.7706631     
  -49155039.0093668     
  -49192820.1485192     
  -49230815.8652551     
  -49268869.7036450     
  -49306845.3688681     
  -49344624.2322796     
  -49382103.0637157     
  -49419191.9892589     
  -49455812.6613502     
  -49491896.6219975     
  -49527383.8373536     
  -49562221.3818646     
  -49596362.2515929     
  -49629764.2885244     
  -49662389.2003130     
  -49694201.6626864     
  -49725168.4945131     
  -49755257.8981945     
  -49784438.7605511     
  -49812680.0116952     
  -49839950.0415094     
  -49866216.1753039     
  -49891444.2119944     
  -49915598.0297644     
  -49938639.2656227     
  -49960527.0765538     
  -49981217.9910335     
  -50000665.8605093     
  -50018821.9209333     
  -50035634.9744552     
  -50051051.7006667     
  -50065017.1048020     
  -50077475.1060876     
  -50088369.2616371     
  -50097643.6090861     
  -50105243.5963159     
  -50111117.0537705     
  -50115215.1444679     
  -50117493.1148204     
  -50117910.3546437     
  -50116430.5197130     
  -48741071.1967253     
  -48772334.6219119     
  -48807134.3660193     
  -48844913.0658529     
  -48885154.1388004     
  -48927385.8959774     
  -48971184.6501853     
  -49016173.9211462     
  -49062021.9809721     
  -49108438.6509874     
  -49155171.7203977     
  -49202003.2432541     
  -49248745.9080037     
  -49295239.6028967     
  -49341348.2380879     
  -49386956.8422753     
  -49431968.9266406     
  -49476304.0959529     
  -49519895.8810075     
  -49562689.7649316     
  -49604641.3765675     
  -49645714.8262329     
  -49685881.1620478     
  -49725116.9283628     
  -49763402.8112960     
  -49800722.3598011     
  -49837060.7738920     
  -49872403.7545836     
  -49906736.4127412     
  -49940042.2363933     
  -49972302.1181852     
  -50003493.4465820     
  -50033589.2662286     
  -50062557.5145621     
  -50090360.3433606     
  -50116953.5353645     
  -50142286.0273063     
  -50166299.5515029     
  -50188928.4084059     
  -50210099.3821734     
  -50229731.8106021     
  -50247737.8200066     
  -50264022.7342263     
  -50278485.6603202     
  -50291020.2296968     
  -50301515.4203028     
  -50309856.3448596     
  -50315925.0762145     
  -50319602.0478763     
  -50320764.1828252     
  -48623996.0560908     
  -48663626.4140687     
  -48707463.7712117     
  -48754807.6083102     
  -48805001.4851060     
  -48857449.5211116     
  -48911616.0286405     
  -48967025.1932685     
  -49023259.1633168     
  -49079954.5562660     
  -49136798.1852804     
  -49193522.5998086     
  -49249901.7253989     
  -49305746.7146281     
  -49360902.0496039     
  -49415241.9081814     
  -49468666.7908339     
  -49521100.3940608     
  -49572486.7084284     
  -49622787.3152342     
  -49671978.8550748     
  -49720050.6433750     
  -49767002.4110757     
  -49812842.1522943     
  -49857584.0642593     
  -49901246.5679031     
  -49943850.4000859     
  -49985416.7706193     
  -50025965.5791474     
  -50065513.6886941     
  -50104073.2543739     
  -50141650.1075092     
  -50178242.1972244     
  -50213838.0935904     
  -50248415.5586044     
  -50281940.1938181     
  -50314364.1762970     
  -50345625.0977332     
  -50375644.9244674     
  -50404329.0979163     
  -50431565.7939498     
  -50457225.3553724     
  -50481159.9072353     
  -50503203.1729962     
  -50523170.5515305     
  -50540859.5799493     
  -50556050.8128861     
  -50568508.3849278     
  -50577978.6101270     
  -50584198.1139178     
  -48521642.0150970     
  -48571155.5928403     
  -48625698.1342489     
  -48684359.6799502     
  -48746307.7323023     
  -48810770.6307386     
  -48877053.6732136     
  -48944541.5795973     
  -49012695.3284291     
  -49081047.9917020     
  -49149200.3658525     
  -49216816.3269103     
  -49283617.9337977     
  -49349380.4327008     
  -49413927.3218221     
  -49477125.5797319     
  -49538881.1018881     
  -49599134.3521080     
  -49657856.2189930     
  -49715044.0637377     
  -49770717.9477933     
  -49824917.0316451     
  -49877696.1372688     
  -49929122.4661878     
  -49979272.4629169     
  -50028228.8106782     
  -50076077.5433805     
  -50122905.2555319     
  -50168796.3904203     
  -50213830.5867689     
  -50258080.0651800     
  -50301607.0379826     
  -50344461.1293657     
  -50386676.7966730     
  -50428270.7481482     
  -50469239.3571061     
  -50509556.0776041     
  -50549168.8729518     
  -50587997.6773095     
  -50625931.9240863     
  -50662828.1934246     
  -50698508.0497580     
  -50732756.1421664     
  -50765318.5937308     
  -50795901.5956840     
  -50824170.0747211     
  -50849746.8639696     
  -50872214.8712027     
  -50891125.0569674     
  -50905974.1851506     
  -48444512.4044684     
  -48506265.7498913     
  -48574092.3809958     
  -48646830.7353610     
  -48723318.6159350     
  -48802517.0959608     
  -48883492.2238535     
  -48965410.6757539     
  -49047542.6460579     
  -49129262.2093225     
  -49210043.8087361     
  -49289456.3879905     
  -49367156.5581621     
  -49442881.4956474     
  -49516441.8019451     
  -49587714.3751315     
  -49656635.3204554     
  -49723192.9568539     
  -49787421.0028998     
  -49849392.0324414     
  -49909211.2780370     
  -49967010.8362628     
  -50022944.3002418     
  -50077181.8164988     
  -50129905.5385531     
  -50181305.4298618     
  -50231575.3541624     
  -50280909.3816438     
  -50329498.2342619     
  -50377525.7924324     
  -50425165.5879245     
  -50472577.2138087     
  -50519902.5915662     
  -50567262.0476619     
  -50614750.1664044     
  -50662431.4016348     
  -50710335.4448814     
  -50758452.3597967     
  -50806727.5002658     
  -50855056.2342108     
  -50903278.5071025     
  -50951173.3243695     
  -50998453.3533860     
  -51044760.0758287     
  -51089660.1650929     
  -51132643.5117858     
  -51173121.3250008     
  -51210418.3926156     
  -51243759.6160605     
  -51272359.9590996     
  -48404766.0669456     
  -48483429.4813155     
  -48569721.1821304     
  -48661710.4306234     
  -48757839.4756217     
  -48856593.6733516     
  -48956587.6941455     
  -49056614.4824550     
  -49155649.8219062     
  -49252842.6439990     
  -49347504.1167243     
  -49439097.5070220     
  -49527227.6819115     
  -49611629.3013104     
  -49692153.5960742     
  -49768754.2104193     
  -49841472.8031501     
  -49910425.0656289     
  -49975787.6593798     
  -50037786.3922485     
  -50096685.7856794     
  -50152780.0545735     
  -50206385.4271871     
  -50257833.6703828     
  -50307466.6478436     
  -50355631.7184681     
  -50402677.7731480     
  -50448951.7060755     
  -50494795.1186262     
  -50540541.0579796     
  -50586510.5983726     
  -50633009.0806438     
  -50680321.8368656     
  -50728709.2436563     
  -50778400.9730865     
  -50829589.3471176     
  -50882421.7524033     
  -50936992.1362618     
  -50993331.6741858     
  -51051398.7552144     
  -51111068.4386767     
  -51172121.4478337     
  -51234232.5617462     
  -51296958.0679809     
  -51359722.2811466     
  -51421805.3614668     
  -51482340.6282349     
  -51540335.9006389     
  -51594700.2011767     
  -51643972.3944243     
  -48417761.7381239     
  -48524501.9669999     
  -48640015.5090052     
  -48762082.2149041     
  -48887716.3286600     
  -49014438.1840800     
  -49140215.8563764     
  -49263351.4334574     
  -49382446.4424198     
  -49496400.6814982     
  -49604408.3792064     
  -49705940.4208322     
  -49800714.3608489     
  -49888657.7453769     
  -49969869.9015692     
  -50044585.7554371     
  -50113143.6711307     
  -50175958.1399377     
  -50233497.4019177     
  -50286265.6617500     
  -50334789.3573557     
  -50379606.8708354     
  -50421261.0774128     
  -50460294.1714290     
  -50497244.2658402     
  -50532643.3196885     
  -50567015.9992404     
  -50600879.1191541     
  -50634741.3384508     
  -50669102.8017726     
  -50704454.4197390     
  -50741276.4742181     
  -50780036.2170023     
  -50821184.1072943     
  -50865148.3106679     
  -50912327.0700664     
  -50963078.5744343     
  -51017708.0179509     
  -51076451.6976866     
  -51139458.2815746     
  -51206767.8228814     
  -51278289.6713876     
  -51353780.9231202     
  -51432826.8315279     
  -51514822.3086876     
  -51598947.2675541     
  -51684118.5018558     
  -51768906.2198436     
  -51851529.4595172     
  -51930731.8079053     
  -48509063.7386768     
  -48668530.3240406     
  -48838038.5738062     
  -49009808.3716806     
  -49180199.0715199     
  -49345974.7359885     
  -49504194.5826151     
  -49652527.9967330     
  -49789391.9946278     
  -49913915.7363857     
  -50025820.7137143     
  -50125280.0662276     
  -50212788.8612277     
  -50289057.0674792     
  -50354926.7815825     
  -50411311.0098675     
  -50459150.0494524     
  -50499381.5823424     
  -50532921.1537079     
  -50560650.3639977     
  -50583410.7084368     
  -50602001.4980699     
  -50617180.6907212     
  -50629667.7614349     
  -50640147.9672336     
  -50649277.5260918     
  -50657689.3475854     
  -50665999.0322371     
  -50674810.9047134     
  -50684723.8667345     
  -50696336.8505762     
  -50710253.6229797     
  -50727086.6297645     
  -50747459.4791104     
  -50772007.5303396     
  -50801375.8783696     
  -50836213.7969131     
  -50877164.4291065     
  -50924848.2173468     
  -50979838.3199260     
  -51042626.2522749     
  -51113576.6046203     
  -51192871.6774333     
  -51280451.4995121     
  -51375963.4610969     
  -51478748.2402753     
  -51587892.5709008     
  -51702314.4759037     
  -51820481.4208761     
  -51937890.8764794     
  -48729165.4427165     
  -48997757.0580479     
  -49254027.1460876     
  -49499671.5567392     
  -49727150.8664574     
  -49930567.3679689     
  -50107214.6811569     
  -50256862.5998959     
  -50380804.0914714     
  -50481131.4654056     
  -50560269.8981333     
  -50620701.7102011     
  -50664814.5449343     
  -50694825.1501653     
  -50712747.5756361     
  -50720386.6637177     
  -50719345.4261585     
  -50711039.6164517     
  -50696715.6288197     
  -50677469.5254861     
  -50654265.9795927     
  -50627956.5025912     
  -50599296.6683666     
  -50568962.2493390     
  -50537564.2995636     
  -50505663.2900224     
  -50473782.4416630     
  -50442420.4239436     
  -50412063.5973744     
  -50383197.9813263     
  -50356321.1243960     
  -50331954.0428948     
  -50310653.3700422     
  -50293023.8168621     
  -50279730.9721894     
  -50271514.3398581     
  -50269200.2847178     
  -50273714.1643512     
  -50286090.2390520     
  -50307476.7776392     
  -50339131.7920856     
  -50382401.5805497     
  -50438669.2249603     
  -50509253.3378374     
  -50595231.1133307     
  -50697165.6171475     
  -50814776.4689566     
  -50946839.1115541     
  -51092443.3474605     
  -51257433.2611347     
  -49177815.4032616     
  -49591524.8923667     
  -49962929.3342570     
  -50253117.2888839     
  -50462967.1962672     
  -50604580.9520878     
  -50691465.1232720     
  -50735527.2784270     
  -50746470.2855037     
  -50731959.8932241     
  -50697983.1534103     
  -50649202.6721387     
  -50589252.7785334     
  -50520972.3318788     
  -50446583.3731384     
  -50367827.2622452     
  -50286068.5901694     
  -50202374.9901533     
  -50117578.9710038     
  -50032326.2993753     
  -49947114.2613225     
  -49862322.2616537     
  -49778236.5931414     
  -49695070.7602834     
  -49612982.4241259     
  -49532087.8098133     
  -49452474.2621316     
  -49374211.5296935     
  -49297362.2950574     
  -49221992.4402660     
  -49148181.5433618     
  -49076034.1435448     
  -49005692.3970682     
  -48937350.8839169     
  -48871274.5341597     
  -48807820.9477918     
  -48747468.8172221     
  -48690854.7700800     
  -48638821.7749809     
  -48592483.3091846     
  -48553308.6757606     
  -48523235.7317806     
  -48504816.4300184     
  -48501393.9593111     
  -48517286.9620881     
  -48557887.1137345     
  -48629383.4845161     
  -48737302.3669713     
  -48881632.4020337     
  -49042457.0058991     
  -49920553.9930789     
  -50343863.0140085     
  -50425989.6513835     
  -50336592.0061905     
  -50160825.9178878     
  -49943164.0380671     
  -49707576.7459858     
  -49467255.6032923     
  -49229509.4481886     
  -48998333.8544944     
  -48775810.9405285     
  -48562897.3226216     
  -48359880.1627825     
  -48166647.2533729     
  -47982849.9217777     
  -47808002.6347027     
  -47641544.4243407     
  -47482876.8689379     
  -47331387.4489629     
  -47186463.6566516     
  -47047501.1892391     
  -46913908.3168518     
  -46785107.7541969     
  -46660536.8907466     
  -46539646.9356659     
  -46421901.3450258     
  -46306773.7801036     
  -46193745.7730094     
  -46082304.2356851     
  -45971938.9333502     
  -45862140.0516287     
  -45752396.0203619     
  -45642191.8242978     
  -45531008.1466162     
  -45418321.8823123     
  -45303608.8709004     
  -45186350.2115754     
  -45066044.3797687     
  -44942228.8162153     
  -44814517.1796713     
  -44682662.9427117     
  -44546668.2419756     
  -44406972.4890049     
  -44264785.8412889     
  -44122694.9039833     
  -43985799.6824142     
  -43863929.9363840     
  -43776148.1902649     
  -43760303.5662843     
  -43894202.5228491     
  -50590429.3087059     
  -48909033.2443852     
  -47608695.2318322     
  -46569451.1125986     
  -45718202.3717611     
  -45007540.4519494     
  -44405103.7257583     
  -43887881.8349516     
  -43438976.3288317     
  -43045652.2982348     
  -42698107.5378179     
  -42388661.9416814     
  -42111204.8689228     
  -41860807.4713940     
  -41633444.2225522     
  -41425788.8527782     
  -41235062.2109204     
  -41058917.0879743     
  -40895349.7847635     
  -40742631.2915688     
  -40599253.0051246     
  -40463883.3089085     
  -40335332.3121248     
  -40212522.7224427     
  -40094465.3077738     
  -39980237.7421032     
  -39868965.8684772     
  -39759806.5742584     
  -39651931.5761112     
  -39544511.4645649     
  -39436699.3646622     
  -39327613.5293572     
  -39216318.0897260     
  -39101801.0274850     
  -38982948.1877380     
  -38858511.7749937     
  -38727071.2103292     
  -38586983.3672394     
  -38436317.8699811     
  -38272771.0200483     
  -38093548.4544991     
  -37895200.7949499     
  -37673386.3190100     
  -37422516.0891742     
  -37135201.7524986     
  -36801356.6336127     
  -36406657.1996208     
  -35929762.9301075     
  -35336998.9710912     
  -34571586.2799923     
SCALARS 2waySource double 
LOOKUP_TABLE default
  4.960165141734692E-003
  3.762334283839822E-003
  5.389137579423157E-003
  7.038400004208283E-003
  8.414678306478520E-003
  9.535173114004777E-003
  1.045630831912082E-002
  1.122245294468132E-002
  1.186809956806825E-002
  1.241982175756544E-002
  1.289796483005626E-002
  1.331804955186163E-002
  1.369190200691182E-002
  1.402854248140169E-002
  1.433487314493421E-002
  1.461620355776626E-002
  1.487664860154299E-002
  1.511942776226833E-002
  1.534708907718987E-002
  1.556167607010062E-002
  1.576485183006705E-002
  1.595799102940277E-002
  1.614224803581335E-002
  1.631860723200652E-002
  1.648792009633046E-002
  1.665093241612676E-002
  1.680830411460045E-002
  1.696062350183047E-002
  1.710841725525213E-002
  1.725215705017885E-002
  1.739226346072587E-002
  1.752910750483401E-002
  1.766300998378472E-002
  1.779423853167340E-002
  1.792300199490440E-002
  1.804944132710084E-002
  1.817361547234421E-002
  1.829547946258518E-002
  1.841484968141642E-002
  1.853134697729558E-002
  1.864430008724129E-002
  1.875257559653264E-002
  1.885426775273141E-002
  1.894611287348642E-002
  1.902234589900145E-002
  1.907239090544959E-002
  1.907603370908259E-002
  1.899297345170529E-002
  1.873940097354646E-002
  1.813364632535076E-002
 -3.036821200977135E-003
 -6.455894963137091E-004
  7.052475232249686E-004
  1.704583842306039E-003
  2.618031445536850E-003
  3.448617576345811E-003
  4.191737930609495E-003
  4.851870954334487E-003
  5.437355867997772E-003
  5.957714264366950E-003
  6.422293408689096E-003
  6.839625228503742E-003
  7.217177681537362E-003
  7.561317476765696E-003
  7.877380420278189E-003
  8.169789904168822E-003
  8.442190123819819E-003
  8.697576113822453E-003
  8.938411861925646E-003
  9.166733075518489E-003
  9.384234143823202E-003
  9.592340393169464E-003
  9.792267451665575E-003
  9.985069782387196E-003
  1.017168043159346E-002
  1.035294390420887E-002
  1.052964390237666E-002
  1.070252749031402E-002
  1.087232710596641E-002
  1.103978174128308E-002
  1.120565856652758E-002
  1.137077628559773E-002
  1.153603158529921E-002
  1.170243019248355E-002
  1.187112429927597E-002
  1.204345849950887E-002
  1.222102698448660E-002
  1.240574575414882E-002
  1.259994539971679E-002
  1.280649345729190E-002
  1.302896231272975E-002
  1.327187344683230E-002
  1.354108135214182E-002
  1.384443407116576E-002
  1.419301819562249E-002
  1.460370259354061E-002
  1.510468476506785E-002
  1.574820943482374E-002
  1.664091035765551E-002
  1.801857027531115E-002
 -2.904909685698549E-004
 -1.103080677512821E-003
 -1.243396800036769E-003
 -1.161404197225724E-003
 -1.010304556952096E-003
 -8.228759059474346E-004
 -6.167025959171341E-004
 -4.034661792128440E-004
 -1.902213289388910E-004
  1.914964687774786E-005
  2.227815969996677E-004
  4.200159058734584E-004
  6.108678703878818E-004
  7.956931769474988E-004
  9.749887057375519E-004
  1.149280449027141E-003
  1.319066040752143E-003
  1.484790298228869E-003
  1.646839817509079E-003
  1.805547848884471E-003
  1.961204119955247E-003
  2.114066515008976E-003
  2.264372953526415E-003
  2.412352711298792E-003
  2.558236982506121E-003
  2.702268816887436E-003
  2.844712767554506E-003
  2.985864708003781E-003
  3.126062358052432E-003
  3.265697121130268E-003
  3.405227894055797E-003
  3.545197573258127E-003
  3.686253051623224E-003
  3.829169576644469E-003
  3.974880417060950E-003
  4.124512847468588E-003
  4.279431479182589E-003
  4.441289878513037E-003
  4.612091079096935E-003
  4.794256673816506E-003
  4.990701815962615E-003
  5.204907489307936E-003
  5.440966119576414E-003
  5.703536876133221E-003
  5.997542338549823E-003
  6.327158943147542E-003
  6.692900216168389E-003
  7.083537743928244E-003
  7.453947518654359E-003
  7.664231579035396E-003
  2.005109258889918E-003
  1.311614439325662E-003
  7.047267563279993E-004
  2.542857018498913E-004
 -6.722407022477098E-005
 -3.004760023995899E-004
 -4.719101405508068E-004
 -5.982971481786126E-004
 -6.907034126443874E-004
 -7.566286206325563E-004
 -8.012776470972883E-004
 -8.283625829231468E-004
 -8.406216187518005E-004
 -8.401565067426368E-004
 -8.286506158922152E-004
 -8.075079855641038E-004
 -7.779404885096473E-004
 -7.410214173934876E-004
 -6.977177911669106E-004
 -6.489095235632511E-004
 -5.954007380660158E-004
 -5.379265664638745E-004
 -4.771574587211625E-004
 -4.137021649219016E-004
 -3.481099859766925E-004
 -2.808725301474765E-004
 -2.124249889764437E-004
 -1.431468130054057E-004
 -7.336159567439526E-005
 -3.335947321627373E-006
  6.672284381489829E-005
  1.366705024877301E-004
  2.064308127601119E-004
  2.760017753411625E-004
  3.454622002105997E-004
  4.149773272909879E-004
  4.848008449940169E-004
  5.552686502316010E-004
  6.267763567126897E-004
  6.997270958288617E-004
  7.744272956624966E-004
  8.508940335581075E-004
  9.285160916037830E-004
  1.005481337164248E-003
  1.077853483959441E-003
  1.138192933400520E-003
  1.173823156183929E-003
  1.165759776466193E-003
  1.092575547499666E-003
  9.541207679069809E-004
  2.829427783068248E-003
  2.417708556660853E-003
  2.035615875745881E-003
  1.668811401233950E-003
  1.328165046619854E-003
  1.020828509003429E-003
  7.469355319700170E-004
  5.039922498005549E-004
  2.889563418826825E-004
  9.893952292313075E-005
 -6.860254028392851E-005
 -2.158668542371493E-004
 -3.447590911171121E-004
 -4.569591973030668E-004
 -5.539784893566464E-004
 -6.372033428987136E-004
 -7.079259722946173E-004
 -7.673647081498391E-004
 -8.166765374013367E-004
 -8.569643797688775E-004
 -8.892810646525681E-004
 -9.146314443444267E-004
 -9.339736173568696E-004
 -9.482198668723858E-004
 -9.582376436382984E-004
 -9.648507288113482E-004
 -9.688405863223113E-004
 -9.709478440404548E-004
 -9.718738199623033E-004
 -9.722820305135688E-004
 -9.727996853991529E-004
 -9.740192964677289E-004
 -9.765007235544739E-004
 -9.807742732339279E-004
 -9.873458902474618E-004
 -9.967060753639143E-004
 -1.009344964550921E-003
 -1.025777025538323E-003
 -1.046580007760188E-003
 -1.072453877071262E-003
 -1.104305836170966E-003
 -1.143365734426014E-003
 -1.191329316948979E-003
 -1.250509791534607E-003
 -1.323944403903478E-003
 -1.415351323845997E-003
 -1.528804248035102E-003
 -1.668208682093879E-003
 -1.838009563461967E-003
 -2.052201481901243E-003
  3.124832680345525E-003
  2.877288299843147E-003
  2.626062815161389E-003
  2.376011143588095E-003
  2.126646262256371E-003
  1.879911651841972E-003
  1.639178071244464E-003
  1.407370097001220E-003
  1.186533082283979E-003
  9.779274642916242E-004
  7.822154563057620E-004
  5.996255965037070E-004
  4.300758167224770E-004
  2.732607499972844E-004
  1.287130675749479E-004
 -4.152854886675017E-006
 -1.260090268849710E-004
 -2.375897907335364E-004
 -3.396731688579437E-004
 -4.330660950605961E-004
 -5.185925960214859E-004
 -5.970843302596084E-004
 -6.693730814666697E-004
 -7.362849034052532E-004
 -7.986356648295053E-004
 -8.572277704460237E-004
 -9.128478531026609E-004
 -9.662652522384850E-004
 -1.018231119567960E-003
 -1.069478028299335E-003
 -1.120720008976205E-003
 -1.172652994033096E-003
 -1.225955723147440E-003
 -1.281291237265879E-003
 -1.339309158457080E-003
 -1.400648990740531E-003
 -1.465944639622986E-003
 -1.535830163566110E-003
 -1.610946336177856E-003
 -1.691946794295141E-003
 -1.779501308444027E-003
 -1.874292231488029E-003
 -1.976999406942787E-003
 -2.088271466111158E-003
 -2.208693552727780E-003
 -2.338792953577006E-003
 -2.479178858450035E-003
 -2.630929699694570E-003
 -2.795940538190350E-003
 -2.974450518625384E-003
  3.188965475398002E-003
  3.021975287394076E-003
  2.850271118624950E-003
  2.671794510089978E-003
  2.487792830581707E-003
  2.299708313989880E-003
  2.109180570595266E-003
  1.918142056323515E-003
  1.728568780711545E-003
  1.542257012853354E-003
  1.360707267314295E-003
  1.185089103135998E-003
  1.016251892333146E-003
  8.547572568616632E-004
  7.009190591151883E-004
  5.548436001658968E-004
  4.164666225803702E-004
  2.855858407978176E-004
  1.618887927622967E-004
  4.497629968966472E-005
 -6.561798622137526E-005
 -1.704114204374404E-004
 -2.699590853787278E-004
 -3.648429293666049E-004
 -4.556629143162096E-004
 -5.430298082376515E-004
 -6.275592995660046E-004
 -7.098671445520074E-004
 -7.905650864468237E-004
 -8.702573058207246E-004
 -9.495371742392092E-004
 -1.028984086939951E-003
 -1.109160141299252E-003
 -1.190606403172006E-003
 -1.273838459115257E-003
 -1.359340888105878E-003
 -1.447560208325832E-003
 -1.538895787156704E-003
 -1.633688204414013E-003
 -1.732204747720414E-003
 -1.834622296589187E-003
 -1.941009099091617E-003
 -2.051309096231914E-003
 -2.165335237648548E-003
 -2.282779755159518E-003
 -2.403244153045199E-003
 -2.526270629881691E-003
 -2.651325596112188E-003
 -2.777779410699575E-003
 -2.905921914701317E-003
  3.135161499738238E-003
  3.010660463289693E-003
  2.882022448777700E-003
  2.747587812167499E-003
  2.606738560678232E-003
  2.460025877270584E-003
  2.308574666775922E-003
  2.153723030460173E-003
  1.996876441513922E-003
  1.839412849821051E-003
  1.682608965045720E-003
  1.527589767004434E-003
  1.375301011943724E-003
  1.226500547805799E-003
  1.081762961040994E-003
  9.414925525599905E-004
  8.059407671672650E-004
  6.752253660839204E-004
  5.493495963253261E-004
  4.282203252317774E-004
  3.116646023964073E-004
  1.994444351243871E-004
  9.126976606613464E-005
 -1.319023803002482E-005
 -1.142974104696596E-004
 -2.124361117131744E-004
 -3.080058348499743E-004
 -4.014146606224323E-004
 -4.930733334567370E-004
 -5.833897312243609E-004
 -6.727635016674431E-004
 -7.615806370242522E-004
 -8.502077563036121E-004
 -9.389858648482542E-004
 -1.028223369191032E-003
 -1.118188151522893E-003
 -1.209098567010790E-003
 -1.301113337615113E-003
 -1.394320497095902E-003
 -1.488725801384497E-003
 -1.584241329513489E-003
 -1.680675265911181E-003
 -1.777723884251474E-003
 -1.874966341461282E-003
 -1.971862247599158E-003
 -2.067752916756943E-003
 -2.161874908204738E-003
 -2.253414044800827E-003
 -2.341621011622099E-003
 -2.425648664144690E-003
  3.004845451717346E-003
  2.907206286180600E-003
  2.806318617233710E-003
  2.700319052706765E-003
  2.588630598543289E-003
  2.471374523741062E-003
  2.349151647358068E-003
  2.222848663999286E-003
  2.093476529080549E-003
  1.962065942989535E-003
  1.829603923869441E-003
  1.696995488397995E-003
  1.565041403045916E-003
  1.434427080272720E-003
  1.305719518363645E-003
  1.179369988552862E-003
  1.055720635595806E-003
  9.350135269815890E-004
  8.174010210877339E-004
  7.029566249476553E-004
  5.916857677555941E-004
  4.835361221098442E-004
  3.784072632281280E-004
  2.761595730547701E-004
  1.766223790840374E-004
  7.960137454034282E-005
 -1.511459596511085E-005
 -1.077472776134518E-004
 -1.985231520076113E-004
 -2.876678612852251E-004
 -3.754007807238628E-004
 -4.619296148794678E-004
 -5.474449018039731E-004
 -6.321143260817110E-004
 -7.160767658874172E-004
 -7.994360333917283E-004
 -8.822543117509515E-004
 -9.645453429259350E-004
 -1.046267472000861E-003
 -1.127316695190604E-003
 -1.207519882608438E-003
 -1.286628365532394E-003
 -1.364312155903914E-003
 -1.440155345833112E-003
 -1.513653857133189E-003
 -1.584217353143609E-003
 -1.651175823917829E-003
 -1.713784032037191E-003
 -1.771211811289306E-003
 -1.822632862083719E-003
  2.822257801559764E-003
  2.744603610325308E-003
  2.664087056428367E-003
  2.579184331455398E-003
  2.489286533407751E-003
  2.394419832476344E-003
  2.294990666092672E-003
  2.191623635234475E-003
  2.085055217208538E-003
  1.976058536786597E-003
  1.865392163359835E-003
  1.753767620887362E-003
  1.641830406952290E-003
  1.530150291708521E-003
  1.419217843631727E-003
  1.309445085844808E-003
  1.201168854577495E-003
  1.094655872928977E-003
  9.901088462978790E-004
  8.876730877151172E-004
  7.874433268030520E-004
  6.894704647960628E-004
  5.937681208334246E-004
  5.003188778854575E-004
  4.090801843123953E-004
  3.199899021828864E-004
  2.329715185061717E-004
  1.479390524114665E-004
  6.480170160044172E-005
 -1.653172365739189E-005
 -9.614853020797471E-005
 -1.741279897903009E-004
 -2.505372656245744E-004
 -3.254273872290134E-004
 -3.988292531082195E-004
 -4.707496514350400E-004
 -5.411672980358451E-004
 -6.100288973742026E-004
 -6.772452352227949E-004
 -7.426873126490923E-004
 -8.061825333978862E-004
 -8.675109623440414E-004
 -9.264016673223997E-004
 -9.825290841651586E-004
 -1.035509093520518E-003
 -1.084894018799222E-003
 -1.130165582613500E-003
 -1.170726938170108E-003
 -1.205898635487599E-003
 -1.234881770059966E-003
  2.606501502497618E-003
  2.545148601020797E-003
  2.481099930457972E-003
  2.413165917520370E-003
  2.340883389334774E-003
  2.264256508442268E-003
  2.183588463690437E-003
  2.099357545934299E-003
  2.012130665368352E-003
  1.922505986444937E-003
  1.831075411650449E-003
  1.738400695958105E-003
  1.644999149225142E-003
  1.551336073410252E-003
  1.457821836691253E-003
  1.364812048788213E-003
  1.272609738590801E-003
  1.181468766733052E-003
  1.091597948299187E-003
  1.003165532890142E-003
  9.163038088773437E-004
  8.311136810030097E-004
  7.476691269849933E-004
  6.660214775645581E-004
  5.862034910062762E-004
  5.082332110695238E-004
  4.321176093534910E-004
  3.578560203053587E-004
  2.854433812035898E-004
  2.148732909385027E-004
  1.461409010791721E-004
  7.924565118131077E-005
  1.419385816750182E-005
 -4.899883239759476E-005
 -1.103051264111549E-004
 -1.696838852999071E-004
 -2.270780430728993E-004
 -2.824126176063149E-004
 -3.355927833282453E-004
 -3.865019484385690E-004
 -4.349997392992750E-004
 -4.809197274634332E-004
 -5.240666294776444E-004
 -5.642125634764983E-004
 -6.010917827994227E-004
 -6.343931600276144E-004
 -6.637494278012279E-004
 -6.887209892953825E-004
 -7.087692979439123E-004
 -7.232267536171924E-004
  2.374053806035073E-003
  2.326398523299121E-003
  2.276146205451989E-003
  2.222432276191330E-003
  2.164929920622255E-003
  2.103667543821399E-003
  2.038895378293082E-003
  1.970994092505242E-003
  1.900411837524945E-003
  1.827621360991567E-003
  1.753091826256201E-003
  1.677271115843560E-003
  1.600575421361070E-003
  1.523383822803060E-003
  1.446036238009530E-003
  1.368833603036264E-003
  1.292039482749179E-003
  1.215882552957267E-003
  1.140559569878211E-003
  1.066238568250015E-003
  9.930621186238738E-004
  9.211505366820187E-004
  8.506049800054235E-004
  7.815103960544966E-004
  7.139383034040056E-004
  6.479493995280540E-004
  5.835959948903615E-004
  5.209242763109603E-004
  4.599764036904022E-004
  4.007924439819809E-004
  3.434121454566400E-004
  2.878765543445949E-004
  2.342294754072892E-004
  1.825187784719917E-004
  1.327975552236940E-004
  8.512513554267887E-005
  3.956798182440580E-005
 -3.799505019558082E-006
 -4.489421005584610E-005
 -8.362346481201232E-005
 -1.198839955289813E-004
 -1.535604350128954E-004
 -1.845230693429701E-004
 -2.126243459433700E-004
 -2.376934578579845E-004
 -2.595279898018702E-004
 -2.778811373970148E-004
 -2.924426079153992E-004
 -3.028114102945432E-004
 -3.084537314515809E-004
  2.138589468070057E-003
  2.102393027568782E-003
  2.063722520192525E-003
  2.021981949881721E-003
  1.976967377256734E-003
  1.928731590967747E-003
  1.877489239066350E-003
  1.823549807548589E-003
  1.767271500123546E-003
  1.709030221439307E-003
  1.649199230040131E-003
  1.588136333366965E-003
  1.526176373177479E-003
  1.463627359139103E-003
  1.400769062730651E-003
  1.337853225178033E-003
  1.275104785353212E-003
  1.212723716344256E-003
  1.150887190204229E-003
  1.089751883164177E-003
  1.029456298826673E-003
  9.701230321855306E-004
  9.118609282397199E-004
  8.547671095451745E-004
  7.989288601943630E-004
  7.444253616425026E-004
  6.913292801066383E-004
  6.397082071630681E-004
  5.896259555350309E-004
  5.411437116002759E-004
  4.943210453982225E-004
  4.492167783758974E-004
  4.058897092788709E-004
  3.643992000403316E-004
  3.248056269526227E-004
  2.871707087867575E-004
  2.515577340853087E-004
  2.180317263316288E-004
  1.866596103038576E-004
  1.575104787664030E-004
  1.306561099048282E-004
  1.061719586997368E-004
  8.413894856717507E-005
  6.464653491201761E-005
  4.779771237665595E-005
  3.371690113066077E-005
  2.256198988701430E-005
  1.454234350926234E-005
  9.945589730664920E-006
  9.175738293987428E-006
  1.910601376162895E-003
  1.883802774170311E-003
  1.854703684252113E-003
  1.822918073368736E-003
  1.788335638329430E-003
  1.751027255780314E-003
  1.711177569205214E-003
  1.669037903204960E-003
  1.624893745234384E-003
  1.579042760215303E-003
  1.531780383121248E-003
  1.483390777877516E-003
  1.434141544713201E-003
  1.384281008143368E-003
  1.334037246907154E-003
  1.283618267186039E-003
  1.233212896017589E-003
  1.182992100019959E-003
  1.133110527436646E-003
  1.083708138034901E-003
  1.034911832391308E-003
  9.868370247964409E-004
  9.395891262781691E-004
  8.932649190468567E-004
  8.479538131128258E-004
  8.037389815074255E-004
  7.606983736378707E-004
  7.189056076531090E-004
  6.784307429825991E-004
  6.393409339217953E-004
  6.017009647263521E-004
  5.655736665307963E-004
  5.310202169414701E-004
  4.981003248535215E-004
  4.668723064811867E-004
  4.373930645620776E-004
  4.097179922221366E-004
  3.839008374766283E-004
  3.599935857086047E-004
  3.380464483770997E-004
  3.181080902087981E-004
  3.002262890748690E-004
  2.844493087814936E-004
  2.708283832617062E-004
  2.594218726152203E-004
  2.503018759021219E-004
  2.435643999749224E-004
  2.393445971615263E-004
  2.378390316796992E-004
  2.393380369388104E-004
  1.697363863742747E-003
  1.678071842925758E-003
  1.656699272213209E-003
  1.633014798799814E-003
  1.606974422568336E-003
  1.578657246066097E-003
  1.548219810476807E-003
  1.515863951088257E-003
  1.481814582889141E-003
  1.446304668106939E-003
  1.409565331572300E-003
  1.371819637384031E-003
  1.333278936510922E-003
  1.294140989438481E-003
  1.254589288504526E-003
  1.214793168207956E-003
  1.174908411958671E-003
  1.135078151359918E-003
  1.095433917581623E-003
  1.056096749984048E-003
  1.017178299548148E-003
  9.787818873634706E-004
  9.410034940022065E-004
  9.039326660234297E-004
  8.676533325611437E-004
  8.322445290354959E-004
  7.977810272923165E-004
  7.643338725365463E-004
  7.319708277298781E-004
  7.007567260613655E-004
  6.707537319582950E-004
  6.420215112105719E-004
  6.146173114165970E-004
  5.885959554955163E-004
  5.640097539077040E-004
  5.409083460409584E-004
  5.193384887791394E-004
  4.993438215970412E-004
  4.809646540829514E-004
  4.642378454876245E-004
  4.491968793441290E-004
  4.358722828620472E-004
  4.242926054519390E-004
  4.144862598899586E-004
  4.064846519798609E-004
  4.003271906178528E-004
  3.960689919859371E-004
  3.937923926332447E-004
  3.936238321791814E-004
  3.957581148516400E-004
  1.503241516418175E-003
  1.489771276512940E-003
  1.474469116685439E-003
  1.457211867332904E-003
  1.437998329163102E-003
  1.416907639946045E-003
  1.394069512296882E-003
  1.369643251093964E-003
  1.343803180436542E-003
  1.316728735437154E-003
  1.288597919111227E-003
  1.259583159304552E-003
  1.229848856364278E-003
  1.199550103494777E-003
  1.168832203696934E-003
  1.137830712501340E-003
  1.106671813540733E-003
  1.075472891203385E-003
  1.044343206259153E-003
  1.013384610426699E-003
  9.826922573188657E-004
  9.523552823178506E-004
  9.224574344012343E-004
  8.930776499959342E-004
  8.642905635650617E-004
  8.361669524957667E-004
  8.087741155155876E-004
  7.821761847091541E-004
  7.564343715402036E-004
  7.316071473701213E-004
  7.077503589968078E-004
  6.849172799426676E-004
  6.631585987832882E-004
  6.425223469933812E-004
  6.230537708908875E-004
  6.047951556720321E-004
  5.877856147778453E-004
  5.720608656130653E-004
  5.576530238788563E-004
  5.445904647570725E-004
  5.328978215796247E-004
  5.225962237251790E-004
  5.137039183298591E-004
  5.062374789702501E-004
  5.002138840048648E-004
  4.956538549982347E-004
  4.925869920629003E-004
  4.910594402708418E-004
  4.911450717470133E-004
  4.929615471291432E-004
  1.330208374854382E-003
  1.321112327076562E-003
  1.310441887648353E-003
  1.298145139922792E-003
  1.284245558755008E-003
  1.268816448367202E-003
  1.251962586107301E-003
  1.233807195116631E-003
  1.214482845950386E-003
  1.194125228611806E-003
  1.172869005107350E-003
  1.150845155675514E-003
  1.128179384029738E-003
  1.104991261791084E-003
  1.081393878582310E-003
  1.057493828673604E-003
  1.033391412862968E-003
  1.009180969564495E-003
  9.849512749360786E-004
  9.607859707007063E-004
  9.367639918438013E-004
  9.129599759982708E-004
  8.894446430491237E-004
  8.662851380956322E-004
  8.435453339758907E-004
  8.212860915153772E-004
  7.995654768550220E-004
  7.784389358770651E-004
  7.579594260815381E-004
  7.381775064296334E-004
  7.191413857875929E-004
  7.008969308024422E-004
  6.834876344405968E-004
  6.669545471665195E-004
  6.513361739904545E-004
  6.366683425958826E-004
  6.229840507329960E-004
  6.103133054196333E-004
  5.986829726853846E-004
  5.881166653059425E-004
  5.786347080252742E-004
  5.702542363174852E-004
  5.629895072548149E-004
  5.568525315360866E-004
  5.518541768151517E-004
  5.480059475706087E-004
  5.453227199710472E-004
  5.438268071265503E-004
  5.435538631923321E-004
  5.445612978134920E-004
  1.178438437587066E-003
  1.172517277629508E-003
  1.165271354105341E-003
  1.156692167630950E-003
  1.146814769565305E-003
  1.135703183635792E-003
  1.123439844445302E-003
  1.110118038031609E-003
  1.095836569199875E-003
  1.080696070865464E-003
  1.064796513980424E-003
  1.048235586652473E-003
  1.031107695265004E-003
  1.013503404236422E-003
  9.955091792935738E-004
  9.772073354729518E-004
  9.586761182952118E-004
  9.399898668561041E-004
  9.212192225851001E-004
  9.024313584503577E-004
  8.836902114081643E-004
  8.650567066750337E-004
  8.465889664946494E-004
  8.283424989456846E-004
  8.103703642887475E-004
  7.927233176598369E-004
  7.754499277642978E-004
  7.585966717378811E-004
  7.422080066636942E-004
  7.263264184188243E-004
  7.109924486602115E-004
  6.962447008970912E-004
  6.821198267869354E-004
  6.686524940924086E-004
  6.558753381827237E-004
  6.438188996351939E-004
  6.325115514381053E-004
  6.219794206086117E-004
  6.122463108131254E-004
  6.033336349261017E-004
  5.952603695380974E-004
  5.880430473887544E-004
  5.816958087622948E-004
  5.762305392748648E-004
  5.716571294475808E-004
  5.679839012652646E-004
  5.652182589644375E-004
  5.633676359997311E-004
  5.624408261215993E-004
  5.624498085462822E-004
  1.046869051677828E-003
  1.043163656242046E-003
  1.038363313530186E-003
  1.032482921736693E-003
  1.025560288699424E-003
  1.017648650671732E-003
  1.008811172365264E-003
  9.991169479783130E-004
  9.886381330780484E-004
  9.774479219294249E-004
  9.656191519796976E-004
  9.532233692621332E-004
  9.403302287696822E-004
  9.270071349967114E-004
  9.133190517874010E-004
  8.993284289327652E-004
  8.850952068780616E-004
  8.706768714411785E-004
  8.561285383557186E-004
  8.415030533757600E-004
  8.268510980614466E-004
  8.122212945859331E-004
  7.976603052619194E-004
  7.832129241694266E-004
  7.689221594862110E-004
  7.548293059710341E-004
  7.409740076482470E-004
  7.273943111588404E-004
  7.141267105152236E-004
  7.012061841966202E-004
  6.886662256237496E-004
  6.765388681086752E-004
  6.648547053529862E-004
  6.536429084534829E-004
  6.429312401291567E-004
  6.327460664308755E-004
  6.231123654435205E-004
  6.140537312746094E-004
  6.055923697397865E-004
  5.977490792900449E-004
  5.905432064462514E-004
  5.839925587154120E-004
  5.781132488140298E-004
  5.729194308577361E-004
  5.684228704006403E-004
  5.646322636233668E-004
  5.615521835407967E-004
  5.591814786298796E-004
  5.575108766613108E-004
  5.565194447522208E-004
  9.336821072187912E-004
  9.314516768359611E-004
  9.283292969371876E-004
  9.243395816196776E-004
  9.195176224756775E-004
  9.139057571444964E-004
  9.075511178749141E-004
  9.005037920544693E-004
  8.928154586049545E-004
  8.845383913922576E-004
  8.757247430787414E-004
  8.664260411839584E-004
  8.566928430048712E-004
  8.465745080055730E-004
  8.361190558467163E-004
  8.253730857856057E-004
  8.143817391415131E-004
  8.031886911740422E-004
  7.918361623453616E-004
  7.803649417194191E-004
  7.688144174129375E-004
  7.572226106393476E-004
  7.456262111521057E-004
  7.340606128448759E-004
  7.225599489963947E-004
  7.111571272129623E-004
  6.998838645523198E-004
  6.887707236456714E-004
  6.778471508843589E-004
  6.671415179028799E-004
  6.566811676695457E-004
  6.464924664455660E-004
  6.366008626674706E-004
  6.270309533448957E-004
  6.178065577495265E-004
  6.089507968256343E-004
  6.004861746504022E-004
  5.924346550788360E-004
  5.848177219666831E-004
  5.776564044489116E-004
  5.709712387812216E-004
  5.647821240414052E-004
  5.591080089117698E-004
  5.539663185948834E-004
  5.493719916679817E-004
  5.453359422513197E-004
  5.418626877925915E-004
  5.389467796397852E-004
  5.365675322675358E-004
  5.346813545284072E-004
  8.366818560567572E-004
  8.353743047009299E-004
  8.333480694415697E-004
  8.306286962591718E-004
  8.272455618511269E-004
  8.232308852022603E-004
  8.186189043222980E-004
  8.134452038583665E-004
  8.077461752311276E-004
  8.015585897478575E-004
  7.949192658410688E-004
  7.878648132223327E-004
  7.804314388338853E-004
  7.726548017054452E-004
  7.645699059890168E-004
  7.562110234137594E-004
  7.476116381730668E-004
  7.388044087654421E-004
  7.298211426139924E-004
  7.206927803692041E-004
  7.114493877133539E-004
  7.021201532365236E-004
  6.927333915881042E-004
  6.833165516391597E-004
  6.738962298410020E-004
  6.644981893518243E-004
  6.551473858357674E-004
  6.458680011133780E-004
  6.366834860629699E-004
  6.276166143153672E-004
  6.186895483100330E-004
  6.099239191570625E-004
  6.013409213729874E-004
  5.929614228256142E-004
  5.848060889737249E-004
  5.768955184614564E-004
  5.692503840254626E-004
  5.618915680130873E-004
  5.548402749723362E-004
  5.481180938970326E-004
  5.417469685896612E-004
  5.357490146560688E-004
  5.301460936538873E-004
  5.249590159324028E-004
  5.202061897155190E-004
  5.159014596052787E-004
  5.120507756604677E-004
  5.086471948022627E-004
  5.056635265272351E-004
  5.030416772238176E-004
  7.535700262730411E-004
  7.527895873080913E-004
  7.514341016487153E-004
  7.495248914404094E-004
  7.470843491648292E-004
  7.441358465874440E-004
  7.407035837296522E-004
  7.368124138009149E-004
  7.324876657746724E-004
  7.277549768739459E-004
  7.226401411323645E-004
  7.171689763817042E-004
  7.113672097402047E-004
  7.052603804283426E-004
  6.988737581441146E-004
  6.922322750683157E-004
  6.853604696489092E-004
  6.782824405519647E-004
  6.710218094736265E-004
  6.636016918449962E-004
  6.560446748241253E-004
  6.483728023028432E-004
  6.406075670062320E-004
  6.327699100734307E-004
  6.248802288283983E-004
  6.169583937353899E-004
  6.090237758092543E-004
  6.010952859945973E-004
  5.931914282149694E-004
  5.853303679137932E-004
  5.775300178929128E-004
  5.698081430528464E-004
  5.621824851462522E-004
  5.546709077180687E-004
  5.472915598433857E-004
  5.400630547802178E-004
  5.330046558521633E-004
  5.261364562183050E-004
  5.194795309162350E-004
  5.130560276859552E-004
  5.068891461700153E-004
  5.010029312821063E-004
  4.954217732681644E-004
  4.901694608065671E-004
  4.852675697472655E-004
  4.807328825546798E-004
  4.765734137780667E-004
  4.727824537600290E-004
  4.693298212769450E-004
  4.661492159483298E-004
  6.821307497120804E-004
  6.816063098114307E-004
  6.806229202990450E-004
  6.791950983328910E-004
  6.773381202411425E-004
  6.750679827615871E-004
  6.724013211177183E-004
  6.693553064837424E-004
  6.659475369392874E-004
  6.621959303273920E-004
  6.581186236839511E-004
  6.537338815142566E-004
  6.490600137048099E-004
  6.441153030090940E-004
  6.389179416026676E-004
  6.334859760326851E-004
  6.278372598867958E-004
  6.219894136207631E-004
  6.159597911498847E-004
  6.097654530273500E-004
  6.034231462609520E-004
  5.969492910664531E-004
  5.903599751110131E-004
  5.836709560520254E-004
  5.768976734398558E-004
  5.700552713081998E-004
  5.631586330163225E-004
  5.562224301306974E-004
  5.492611873031429E-004
  5.422893651933059E-004
  5.353214634309308E-004
  5.283721453617208E-004
  5.214563857309103E-004
  5.145896413962241E-004
  5.077880433864348E-004
  5.010686058397112E-004
  4.944494431145599E-004
  4.879499800984112E-004
  4.815911316026148E-004
  4.753954136495115E-004
  4.693869308864441E-004
  4.635911582851021E-004
  4.580343989201262E-004
  4.527427492541692E-004
  4.477403339777228E-004
  4.430464773448505E-004
  4.386713481093618E-004
  4.346094386019329E-004
  4.308299991311713E-004
  4.272632254180910E-004
  6.203426372831593E-004
  6.198989609334619E-004
  6.190881066947128E-004
  6.179169448965733E-004
  6.163941937821375E-004
  6.145299534635594E-004
  6.123353480130087E-004
  6.098222503675970E-004
  6.070030704464885E-004
  6.038905913616731E-004
  6.004978421229653E-004
  5.968379979820521E-004
  5.929243017170580E-004
  5.887700008400049E-004
  5.843882970282014E-004
  5.797923051139020E-004
  5.749950197892178E-004
  5.700092888292668E-004
  5.648477921699152E-004
  5.595230266093652E-004
  5.540472962757108E-004
  5.484327093274214E-004
  5.426911816474643E-004
  5.368344485714384E-004
  5.308740859486640E-004
  5.248215420894083E-004
  5.186881823841024E-004
  5.124853485879062E-004
  5.062244349139625E-004
  4.999169831519037E-004
  4.935747989468560E-004
  4.872100910783175E-004
  4.808356349368674E-004
  4.744649602566590E-004
  4.681125612729773E-004
  4.617941245384782E-004
  4.555267651769136E-004
  4.493292557776848E-004
  4.432222226004937E-004
  4.372282701070182E-004
  4.313719755146113E-004
  4.256796679793706E-004
  4.201788692941977E-004
  4.148972208253401E-004
  4.098606496622155E-004
  4.050904287173005E-004
  4.005986516045041E-004
  3.963814612148658E-004
  3.924091246415096E-004
  3.886117146603491E-004
  5.664358391333279E-004
  5.659687850586501E-004
  5.652056939732893E-004
  5.641460501677323E-004
  5.627929390202371E-004
  5.611519300287661E-004
  5.592302790159904E-004
  5.570363618735932E-004
  5.545792753706520E-004
  5.518685577673984E-004
  5.489139947594003E-004
  5.457254857412998E-004
  5.423129523793507E-004
  5.386862766387458E-004
  5.348552592114106E-004
  5.308295920859515E-004
  5.266188410476772E-004
  5.222324354148208E-004
  5.176796634316695E-004
  5.129696725768168E-004
  5.081114746854991E-004
  5.031139562752770E-004
  4.979858948751259E-004
  4.927359824920246E-004
  4.873728576467689E-004
  4.819051476753391E-004
  4.763415232267769E-004
  4.706907670853248E-004
  4.649618595863886E-004
  4.591640829416586E-004
  4.533071466965787E-004
  4.474013362129280E-004
  4.414576854103757E-004
  4.354881738164866E-004
  4.295059460629625E-004
  4.235255489767031E-004
  4.175631769164190E-004
  4.116369093784699E-004
  4.057669152953660E-004
  3.999755847410895E-004
  3.942875293784923E-004
  3.887293658405562E-004
  3.833291585036644E-004
  3.781153459705531E-004
  3.731149039478077E-004
  3.683503992253656E-004
  3.638354560250110E-004
  3.595679749075149E-004
  3.555201994846386E-004
  3.516243958386341E-004
  5.189101245269656E-004
  5.183662041650326E-004
  5.175804828661556E-004
  5.165459549762267E-004
  5.152611432498815E-004
  5.137282775783795E-004
  5.119520143583428E-004
  5.099385452345235E-004
  5.076949844771137E-004
  5.052289542755990E-004
  5.025483093957642E-004
  4.996609589790711E-004
  4.965747552619200E-004
  4.932974277720595E-004
  4.898365479766926E-004
  4.861995140180851E-004
  4.823935485643680E-004
  4.784257052495847E-004
  4.743028809593888E-004
  4.700318325062429E-004
  4.656191971811265E-004
  4.610715173734077E-004
  4.563952699820626E-004
  4.515969017604027E-004
  4.466828720764355E-004
  4.416597048599608E-004
  4.365340517393759E-004
  4.313127685712658E-004
  4.260030076884438E-004
  4.206123282289716E-004
  4.151488267985498E-004
  4.096212903781624E-004
  4.040393727255235E-004
  3.984137943349908E-004
  3.927565641328416E-004
  3.870812181346664E-004
  3.814030658763852E-004
  3.757394289245793E-004
  3.701098463809389E-004
  3.645362088840500E-004
  3.590427636867220E-004
  3.536559069095426E-004
  3.484036422809588E-004
  3.433145349026361E-004
  3.384159188666158E-004
  3.337310222835717E-004
  3.292745436291487E-004
  3.250460375007068E-004
  3.210202302371956E-004
  3.171330655642267E-004
  4.765272372113968E-004
  4.758873809188948E-004
  4.750465294125664E-004
  4.739923890908724E-004
  4.727199910716440E-004
  4.712292177966724E-004
  4.695230720028318E-004
  4.676064797295605E-004
  4.654854749234479E-004
  4.631666545740535E-004
  4.606568238601551E-004
  4.579627732786919E-004
  4.550911462259142E-004
  4.520483675817459E-004
  4.488406126404684E-004
  4.454738021206646E-004
  4.419536136053090E-004
  4.382855030992659E-004
  4.344747327754954E-004
  4.305264027116154E-004
  4.264454856487460E-004
  4.222368647065262E-004
  4.179053746487516E-004
  4.134558477883837E-004
  4.088931660106566E-004
  4.042223206934951E-004
  3.994484825516592E-004
  3.945770836191285E-004
  3.896139136993587E-004
  3.845652336407389E-004
  3.794379076717815E-004
  3.742395566949532E-004
  3.689787337779226E-004
  3.636651219381628E-004
  3.583097524785748E-004
  3.529252392988480E-004
  3.475260203471397E-004
  3.421285911379791E-004
  3.367517062462984E-004
  3.314165118467530E-004
  3.261465542413237E-004
  3.209675840021572E-004
  3.159070401882425E-004
  3.109930506058181E-004
  3.062527175411496E-004
  3.017093675222345E-004
  2.973783200650662E-004
  2.932605628548223E-004
  2.893334945199500E-004
  2.855375913527189E-004
  4.382878183417143E-004
  4.375549359108826E-004
  4.366515000367707E-004
  4.355612158354537E-004
  4.342766080794801E-004
  4.327960063567927E-004
  4.311214382292956E-004
  4.292571757500498E-004
  4.272087489186767E-004
  4.249822901646755E-004
  4.225841112804113E-004
  4.200204417066408E-004
  4.172972772564007E-004
  4.144203031279400E-004
  4.113948658184998E-004
  4.082259763574273E-004
  4.049183329265031E-004
  4.014763549915653E-004
  3.979042239882605E-004
  3.942059276789528E-004
  3.903853067906561E-004
  3.864461036069517E-004
  3.823920129529288E-004
  3.782267365808425E-004
  3.739540423832091E-004
  3.695778301825575E-004
  3.651022060958698E-004
  3.605315676544100E-004
  3.558707019678335E-004
  3.511248992383839E-004
  3.463000838077408E-004
  3.414029645874535E-004
  3.364412060906837E-004
  3.314236201860339E-004
  3.263603769528635E-004
  3.212632303184187E-004
  3.161457501391300E-004
  3.110235464789866E-004
  3.059144633350015E-004
  3.008387069397522E-004
  2.958188566948084E-004
  2.908796829329253E-004
  2.860476626097606E-004
  2.813500383973316E-004
  2.768132040859160E-004
  2.724601137851856E-004
  2.683062963060654E-004
  2.643538988121307E-004
  2.605829714479090E-004
  2.569389186882132E-004
  4.034004622428007E-004
  4.025902516409895E-004
  4.016321581341363E-004
  4.005071175872175E-004
  3.992060029023996E-004
  3.977262040588293E-004
  3.960692389442282E-004
  3.942391063738094E-004
  3.922411698526222E-004
  3.900814178139928E-004
  3.877659883385774E-004
  3.853008775156719E-004
  3.826917734959434E-004
  3.799439750387045E-004
  3.770623655751983E-004
  3.740514226780859E-004
  3.709152492417367E-004
  3.676576172836705E-004
  3.642820185880920E-004
  3.607917187618618E-004
  3.571898129505223E-004
  3.534792826534417E-004
  3.496630539282693E-004
  3.457440578883012E-004
  3.417252948429022E-004
  3.376099037665514E-004
  3.334012390314577E-004
  3.291029565103721E-004
  3.247191112648718E-004
  3.202542690377099E-004
  3.157136336503990E-004
  3.111031920855417E-004
  3.064298784330916E-004
  3.017017568473826E-004
  2.969282220243796E-004
  2.921202131871287E-004
  2.872904338036818E-004
  2.824535637569062E-004
  2.776264427492814E-004
  2.728281924331614E-004
  2.680802288598073E-004
  2.634060946326272E-004
  2.588310093630313E-004
  2.543809946014933E-004
  2.500813712598582E-004
  2.459543481897867E-004
  2.420153127405368E-004
  2.382672881021380E-004
  2.346928251358875E-004
  2.312423311128616E-004
  3.712481665196670E-004
  3.703825896814491E-004
  3.693861435846640E-004
  3.682380928613936E-004
  3.669283653119547E-004
  3.654538670692316E-004
  3.638159080363843E-004
  3.620184273160262E-004
  3.600667911239529E-004
  3.579669970724058E-004
  3.557251641267570E-004
  3.533472210400319E-004
  3.508387306909548E-004
  3.482048057960482E-004
  3.454500846241246E-004
  3.425787449031570E-004
  3.395945410256515E-004
  3.365008546267073E-004
  3.333007521758481E-004
  3.299970457542352E-004
  3.265923549934849E-004
  3.230891694212274E-004
  3.194899113692700E-004
  3.157970002374939E-004
  3.120129193745311E-004
  3.081402871708440E-004
  3.041819342096553E-004
  3.001409884843305E-004
  2.960209707911476E-004
  2.918259024098307E-004
  2.875604270651590E-004
  2.832299488614715E-004
  2.788407873171421E-004
  2.744003496679801E-004
  2.699173190848749E-004
  2.654018551140992E-004
  2.608657991730238E-004
  2.563228728412029E-004
  2.517888493585402E-004
  2.472816683302723E-004
  2.428214489634089E-004
  2.384303366973390E-004
  2.341320897102616E-004
  2.299512727070435E-004
  2.259118718318640E-004
  2.220350714964098E-004
  2.183358346733954E-004
  2.148177938466286E-004
  2.114657785300506E-004
  2.082350613264363E-004
  3.413556051014604E-004
  3.404584748520918E-004
  3.394435009533496E-004
  3.382892035558580E-004
  3.369851257851678E-004
  3.355280147962571E-004
  3.339191526478647E-004
  3.321625162324659E-004
  3.302635309024725E-004
  3.282282458190159E-004
  3.260628059800672E-004
  3.237731305097281E-004
  3.213647322702120E-004
  3.188426325322696E-004
  3.162113380713984E-004
  3.134748579669706E-004
  3.106367445523311E-004
  3.077001481187638E-004
  3.046678786713207E-004
  3.015424706657021E-004
  2.983262485136387E-004
  2.950213919659490E-004
  2.916300014076144E-004
  2.881541637560595E-004
  2.845960201223790E-004
  2.809578367324178E-004
  2.772420808360551E-004
  2.734515035053239E-004
  2.695892313023552E-004
  2.656588688023468E-004
  2.616646138454001E-004
  2.576113871098294E-004
  2.535049770689158E-004
  2.493522005188610E-004
  2.451610774531388E-004
  2.409410169211509E-004
  2.367030073138311E-004
  2.324597998546242E-004
  2.282260673564859E-004
  2.240185107782119E-004
  2.198558726804269E-004
  2.157587979544815E-004
  2.117494562544485E-004
  2.078508048138489E-004
  2.040853213855437E-004
  2.004729702674511E-004
  1.970280737106375E-004
  1.937546382787773E-004
  1.906395201721973E-004
  1.876425908123986E-004
  3.133592645618203E-004
  3.124534454752802E-004
  3.114400969657714E-004
  3.102977411794365E-004
  3.090159628786474E-004
  3.075915703791852E-004
  3.060259113156934E-004
  3.043230215946432E-004
  3.024883713853609E-004
  3.005280354921353E-004
  2.984481624713265E-004
  2.962546515912890E-004
  2.939529722862633E-004
  2.915480795151995E-004
  2.890443921197286E-004
  2.864458112455626E-004
  2.837557630941063E-004
  2.809772554633472E-004
  2.781129412522254E-004
  2.751651847478582E-004
  2.721361283883102E-004
  2.690277590139429E-004
  2.658419735493672E-004
  2.625806447098888E-004
  2.592456877935801E-004
  2.558391299370032E-004
  2.523631834520235E-004
  2.488203250087346E-004
  2.452133825129735E-004
  2.415456315264304E-004
  2.378209029722866E-004
  2.340437036088794E-004
  2.302193502692103E-004
  2.263541180582415E-004
  2.224554014138535E-004
  2.185318849864531E-004
  2.145937183794756E-004
  2.106526845449664E-004
  2.067223455237444E-004
  2.028181405340591E-004
  1.989573992161468E-004
  1.951592158023769E-004
  1.914441063977097E-004
  1.878333390850849E-004
  1.843477820785035E-004
  1.810060545062303E-004
  1.778216820497888E-004
  1.747988482239198E-004
  1.719261817696603E-004
  1.691678184636505E-004
  2.869814801906195E-004
  2.860872799908314E-004
  2.850940993275238E-004
  2.839810372685836E-004
  2.827380302523395E-004
  2.813620870543893E-004
  2.798546552472951E-004
  2.782198044726152E-004
  2.764629953541301E-004
  2.745902649427510E-004
  2.726077055596615E-004
  2.705211478912007E-004
  2.683359842046495E-004
  2.660570859273611E-004
  2.636887832408107E-004
  2.612348841183045E-004
  2.586987172981242E-004
  2.560831887811422E-004
  2.533908450875555E-004
  2.506239391041679E-004
  2.477844961923141E-004
  2.448743795202117E-004
  2.418953544890806E-004
  2.388491527690165E-004
  2.357375368904297E-004
  2.325623666694134E-004
  2.293256689486009E-004
  2.260297122891258E-004
  2.226770883160549E-004
  2.192708014255495E-004
  2.158143684623491E-004
  2.123119297325827E-004
  2.087683722832277E-004
  2.051894656398306E-004
  2.015820090270100E-004
  1.979539873334153E-004
  1.943147304342642E-004
  1.906750666473347E-004
  1.870474555664905E-004
  1.834460776644316E-004
  1.798868470149625E-004
  1.763872980881288E-004
  1.729662762371968E-004
  1.696433321428787E-004
  1.664376802682073E-004
  1.633665265682053E-004
  1.604424962725824E-004
  1.576697918780147E-004
  1.550385756822562E-004
  1.525168885798916E-004
  2.620087176136508E-004
  2.611431226654158E-004
  2.601860086293060E-004
  2.591174736505778E-004
  2.579280194840023E-004
  2.566149345072959E-004
  2.551797627458912E-004
  2.536265572672831E-004
  2.519606962466958E-004
  2.501880994362367E-004
  2.483147268295028E-004
  2.463462738927833E-004
  2.442880017223897E-004
  2.421446581179338E-004
  2.399204584391958E-004
  2.376191044945471E-004
  2.352438265056633E-004
  2.327974380837397E-004
  2.302823976660344E-004
  2.277008723513740E-004
  2.250548018451788E-004
  2.223459614661697E-004
  2.195760240386687E-004
  2.167466211024607E-004
  2.138594042996844E-004
  2.109161080945619E-004
  2.079186151847573E-004
  2.048690260994024E-004
  2.017697345460550E-004
  1.986235100681244E-004
  1.954335894846572E-004
  1.922037783654508E-004
  1.889385633987155E-004
  1.856432358381467E-004
  1.823240251680879E-004
  1.789882405279165E-004
  1.756444150575551E-004
  1.723024448631892E-004
  1.689737093227682E-004
  1.656711523817383E-004
  1.624092945481559E-004
  1.592041314363260E-004
  1.560728555134559E-004
  1.530333112863724E-004
  1.501030579808105E-004
  1.472978644659772E-004
  1.446293942163034E-004
  1.421017475448362E-004
  1.397064062008250E-004
  1.374149611935139E-004
  2.382739987852211E-004
  2.374504800341177E-004
  2.365422829562706E-004
  2.355307976050962E-004
  2.344072278793025E-004
  2.331691779108879E-004
  2.318182625337922E-004
  2.303584577140983E-004
  2.287949820311016E-004
  2.271335562398503E-004
  2.253799294269732E-004
  2.235395909570406E-004
  2.216176100208641E-004
  2.196185612048592E-004
  2.175465066582363E-004
  2.154050142770411E-004
  2.131971977423265E-004
  2.109257688697758E-004
  2.085930960396242E-004
  2.062012648386492E-004
  2.037521387086704E-004
  2.012474185751914E-004
  1.986887012505882E-004
  1.960775369780082E-004
  1.934154868833968E-004
  1.907041813800445E-004
  1.879453807597465E-004
  1.851410393266535E-004
  1.822933744954028E-004
  1.794049422724101E-004
  1.764787204554482E-004
  1.735182006968687E-004
  1.705274902044414E-004
  1.675114232702020E-004
  1.644756818596958E-004
  1.614269230693656E-004
  1.583729091262320E-004
  1.553226324922025E-004
  1.522864241831284E-004
  1.492760270660513E-004
  1.463046070004470E-004
  1.433866622622906E-004
  1.405377745032409E-004
  1.377741208190298E-004
  1.351116341067011E-004
  1.325646547140586E-004
  1.301438564289970E-004
  1.278531487448703E-004
  1.256851479609570E-004
  1.236146626186562E-004
  2.156431062981687E-004
  2.148717867536691E-004
  2.140223160276337E-004
  2.130775640841562E-004
  2.120295149052310E-004
  2.108760952684889E-004
  2.096189541628371E-004
  2.082619293486576E-004
  2.068100072638201E-004
  2.052686343031981E-004
  2.036432759708329E-004
  2.019391488489497E-004
  2.001610713140619E-004
  1.983133943500307E-004
  1.963999850755197E-004
  1.944242438412472E-004
  1.923891416943070E-004
  1.902972693110090E-004
  1.881508915794964E-004
  1.859520041998727E-004
  1.837023902319384E-004
  1.814036755987502E-004
  1.790573833352582E-004
  1.766649868828094E-004
  1.742279631189344E-004
  1.717478460554492E-004
  1.692262823169215E-004
  1.666650896236267E-004
  1.640663195586994E-004
  1.614323259023407E-004
  1.587658397350144E-004
  1.560700523435180E-004
  1.533487066351992E-004
  1.506061972347819E-004
  1.478476785929700E-004
  1.450791791586700E-004
  1.423077177597130E-004
  1.395414155715542E-004
  1.367895930715202E-004
  1.340628357224891E-004
  1.313730041948202E-004
  1.287331538512836E-004
  1.261573129007324E-004
  1.236600475129436E-004
  1.212557133022985E-004
  1.189572532135686E-004
  1.167743483818773E-004
  1.147106562405019E-004
  1.127597726499538E-004
  1.108994237229536E-004
  1.940040656187352E-004
  1.932920954304399E-004
  1.925083773385605E-004
  1.916373676747251E-004
  1.906718651161475E-004
  1.896101073212959E-004
  1.884537373139722E-004
  1.872063987493711E-004
  1.858727828440494E-004
  1.844579971059094E-004
  1.829671611583215E-004
  1.814051609535004E-004
  1.797765118685035E-004
  1.780852952685313E-004
  1.763351434504049E-004
  1.745292554023677E-004
  1.726704312675889E-004
  1.707611173380020E-004
  1.688034562237602E-004
  1.667993388523089E-004
  1.647504563767310E-004
  1.626583510688975E-004
  1.605244659759019E-004
  1.583501936030783E-004
  1.561369242259942E-004
  1.538860946641799E-004
  1.515992385123146E-004
  1.492780389215823E-004
  1.469243850795183E-004
  1.445404335308433E-004
  1.421286754226511E-004
  1.396920105937690E-004
  1.372338291476978E-004
  1.347581006670281E-004
  1.322694704853726E-004
  1.297733612926883E-004
  1.272760766635776E-004
  1.247849006396942E-004
  1.223081839700835E-004
  1.198554025982553E-004
  1.174371669417153E-004
  1.150651506947886E-004
  1.127518942789308E-004
  1.105104193630602E-004
  1.083535652493221E-004
  1.062929230042152E-004
  1.043371958171339E-004
  1.024897499475026E-004
  1.007450341699216E-004
  9.908342938024069E-005
  1.732593599298875E-004
  1.726113899940085E-004
  1.718980587351890E-004
  1.711054545528407E-004
  1.702271950539497E-004
  1.692618062536216E-004
  1.682108864124707E-004
  1.670778373768821E-004
  1.658670036081796E-004
  1.645831017745500E-004
  1.632308554500404E-004
  1.618147729203335E-004
  1.603390233957945E-004
  1.588073796492363E-004
  1.572232044141580E-004
  1.555894646648393E-004
  1.539087628252885E-004
  1.521833775092433E-004
  1.504153089375321E-004
  1.486063259982220E-004
  1.467580131962507E-004
  1.448718166490312E-004
  1.429490889058600E-004
  1.409911328202156E-004
  1.389992449996629E-004
  1.369747595725562E-004
  1.349190931512334E-004
  1.328337919623235E-004
  1.307205821617902E-004
  1.285814243514565E-004
  1.264185732552069E-004
  1.242346433740662E-004
  1.220326811898689E-004
  1.198162440622633E-004
  1.175894853110046E-004
  1.153572439680842E-004
  1.131251362031546E-004
  1.108996432553907E-004
  1.086881875972194E-004
  1.064991846408519E-004
  1.043420510911764E-004
  1.022271423991352E-004
  1.001655797900200E-004
  9.816891085445492E-005
  9.624852512061973E-005
  9.441471526425006E-005
  9.267523284763334E-005
  9.103313099670466E-005
  8.948361025116111E-005
  8.800948141029472E-005
  1.533203450612798E-004
  1.527390255364205E-004
  1.520987663660345E-004
  1.513872906701774E-004
  1.505990192268766E-004
  1.497327387843149E-004
  1.487899681093873E-004
  1.477738287994898E-004
  1.466882787999210E-004
  1.455376044855547E-004
  1.443260953103164E-004
  1.430578458719276E-004
  1.417366456181602E-004
  1.403659277307622E-004
  1.389487570052231E-004
  1.374878425873046E-004
  1.359855658035861E-004
  1.344440164914351E-004
  1.328650334962309E-004
  1.312502466259395E-004
  1.296011184888792E-004
  1.279189854551590E-004
  1.262050975367336E-004
  1.244606573756976E-004
  1.226868588000121E-004
  1.208849255941501E-004
  1.190561512555252E-004
  1.172019405897521E-004
  1.153238540396723E-004
  1.134236556385638E-004
  1.115033654335258E-004
  1.095653170983655E-004
  1.076122212369237E-004
  1.056472345101478E-004
  1.036740341477817E-004
  1.016968965237764E-004
  9.972077718360304E-005
  9.775138781294312E-005
  9.579526292571701E-005
  9.385980518772328E-005
  9.195329287558577E-005
  9.008482540804469E-005
  8.826417242379872E-005
  8.650147747755698E-005
  8.480674770139650E-005
  8.318903390421230E-005
  8.165516909417969E-005
  8.020788404598151E-005
  7.884305198875676E-005
  7.754572499039509E-005
  1.341033789878061E-004
  1.335898361575860E-004
  1.330238275144856E-004
  1.323946850189609E-004
  1.316976049118524E-004
  1.309316058217199E-004
  1.300980976485828E-004
  1.291998923811805E-004
  1.282405325371071E-004
  1.272238460706762E-004
  1.261536612207012E-004
  1.250336330054771E-004
  1.238671465292888E-004
  1.226572721695330E-004
  1.214067549553119E-004
  1.201180257501837E-004
  1.187932256737786E-004
  1.174342379815475E-004
  1.160427235976316E-004
  1.146201579191955E-004
  1.131678675092104E-004
  1.116870660012093E-004
  1.101788890340263E-004
  1.086444283739939E-004
  1.070847656212820E-004
  1.055010060597068E-004
  1.038943133206566E-004
  1.022659455986975E-004
  1.006172941981097E-004
  9.894992518140713E-005
  9.726562485526787E-005
  9.556644972047830E-005
  9.385478132009235E-005
  9.213338610803475E-005
  9.040547995854543E-005
  8.867479618400403E-005
  8.694565480428890E-005
  8.522302917758096E-005
  8.351260375589166E-005
  8.182081339330228E-005
  8.015484995505098E-005
  7.852261543979611E-005
  7.693259178719297E-005
  7.539358509488694E-005
  7.391428492758844E-005
  7.250255617072564E-005
  7.116434934771615E-005
  6.990207266149026E-005
  6.871221149698333E-005
  6.758190377377423E-005
  1.155272447950971E-004
  1.150815096652286E-004
  1.145898321604261E-004
  1.140431101494572E-004
  1.134372816983339E-004
  1.127715697210153E-004
  1.120472515438033E-004
  1.112668083277694E-004
  1.104333475436071E-004
  1.095502201625774E-004
  1.086207753878050E-004
  1.076482114072252E-004
  1.066354922250679E-004
  1.055853091251859E-004
  1.045000715611672E-004
  1.033819168059595E-004
  1.022327310020871E-004
  1.010541766260978E-004
  9.984772309720204E-005
  9.861467847288507E-005
  9.735622104318996E-005
  9.607343023029736E-005
  9.476731664118721E-005
  9.343885139881672E-005
  9.208899509220220E-005
  9.071872682199554E-005
  8.932907391308995E-005
  8.792114292534051E-005
  8.649615262868528E-005
  8.505546960139104E-005
  8.360064707996483E-005
  8.213346759773960E-005
  8.065598978578107E-005
  7.917059944112441E-005
  7.768006454562980E-005
  7.618759327222182E-005
  7.469689306455080E-005
  7.321222748026031E-005
  7.173846549391201E-005
  7.028111511870923E-005
  6.884632921488923E-005
  6.744086579658738E-005
  6.607197744978806E-005
  6.474719387185773E-005
  6.347394703812516E-005
  6.225896871958682E-005
  6.110736322031013E-005
  6.002122188360427E-005
  5.899759692086197E-005
  5.802558625450491E-005
  9.751151635133712E-005
  9.713289252415258E-005
  9.671488784701637E-005
  9.624991490823096E-005
  9.573461837003507E-005
  9.516840055482356E-005
  9.455238785663101E-005
  9.388871619684557E-005
  9.318004584018016E-005
  9.242923978723626E-005
  9.163915772238674E-005
  9.081253064673913E-005
  8.995189103677985E-005
  8.905954051224410E-005
  8.813754223625534E-005
  8.718772908216166E-005
  8.621172138130130E-005
  8.521095005977513E-005
  8.418668241235019E-005
  8.314004878653682E-005
  8.207206916936591E-005
  8.098367918489160E-005
  7.987575536278274E-005
  7.874913979072515E-005
  7.760466442665685E-005
  7.644317547448589E-005
  7.526555829911292E-005
  7.407276340947614E-005
  7.286583406673711E-005
  7.164593606998049E-005
  7.041439024552947E-005
  6.917270809104461E-005
  6.792263088688699E-005
  6.666617236820905E-005
  6.540566469455870E-005
  6.414380691994797E-005
  6.288371436952485E-005
  6.162896616937535E-005
  6.038364651148017E-005
  5.915237287119126E-005
  5.794030106732063E-005
  5.675309242291421E-005
  5.559682186097624E-005
  5.447779693463487E-005
  5.340224568828133E-005
  5.237581474842026E-005
  5.140279665093920E-005
  5.048497510589422E-005
  4.961993604299050E-005
  4.879863733019669E-005
  7.997558479312509E-005
  7.966295271852846E-005
  7.931752604422176E-005
  7.893317914570697E-005
  7.850722946256771E-005
  7.803923728975545E-005
  7.753016440256891E-005
  7.698179240035361E-005
  7.639632777370905E-005
  7.577614014786835E-005
  7.512359460974778E-005
  7.444094972803623E-005
  7.373030078511089E-005
  7.299355354883295E-005
  7.223241817865905E-005
  7.144841596782862E-005
  7.064289388024160E-005
  6.981704346881957E-005
  6.897192193540893E-005
  6.810847392129071E-005
  6.722755320993862E-005
  6.632994393973216E-005
  6.541638121337911E-005
  6.448757119033972E-005
  6.354421089413027E-005
  6.258700805510109E-005
  6.161670137786487E-005
  6.063408166550018E-005
  5.964001424833555E-005
  5.863546317074072E-005
  5.762151756254210E-005
  5.659942056061158E-005
  5.557060104133104E-005
  5.453670823732848E-005
  5.349964903311872E-005
  5.246162729653707E-005
  5.142518396207676E-005
  5.039323564434101E-005
  4.936910821136816E-005
  4.835655983835627E-005
  4.735978536895435E-005
  4.638339006353578E-005
  4.543231562028296E-005
  4.451169420210357E-005
  4.362659640932202E-005
  4.278162579407452E-005
  4.198029438132945E-005
  4.122408914049174E-005
  4.051110628071588E-005
  3.983408576584669E-005
  6.283812694043550E-005
  6.259018769507083E-005
  6.231605405819574E-005
  6.201101218449794E-005
  6.167302185265646E-005
  6.130178356549010E-005
  6.089808461520478E-005
  6.046334706536542E-005
  5.999932089867895E-005
  5.950788069986040E-005
  5.899089548066488E-005
  5.845014957115975E-005
  5.788729865167762E-005
  5.730384951877473E-005
  5.670115549480705E-005
  5.608042180267490E-005
  5.544271699014494E-005
  5.478898774736927E-005
  5.412007537787684E-005
  5.343673282369519E-005
  5.273964161208653E-005
  5.202942840780054E-005
  5.130668108558859E-005
  5.057196438809931E-005
  4.982583535198965E-005
  4.906885874780591E-005
  4.830162284006145E-005
  4.752475580060172E-005
  4.673894312391350E-005
  4.594494639843220E-005
  4.514362376364556E-005
  4.433595234131868E-005
  4.352305284106472E-005
  4.270621640609771E-005
  4.188693353986025E-005
  4.106692462415924E-005
  4.024817104321285E-005
  3.943294520156773E-005
  3.862383668998484E-005
  3.782377037102630E-005
  3.703601008655736E-005
  3.626413879027591E-005
  3.551200189772516E-005
  3.478359512795942E-005
  3.408287054531270E-005
  3.341342420193284E-005
  3.277801478152864E-005
  3.217784369948148E-005
  3.161150157285692E-005
  3.107345160559995E-005
  4.601685169101881E-005
  4.583231687262939E-005
  4.562819611835881E-005
  4.540114349903798E-005
  4.514973529232641E-005
  4.487379802899700E-005
  4.457393758971487E-005
  4.425121381351886E-005
  4.390691971098516E-005
  4.354243527508914E-005
  4.315913398079410E-005
  4.275832606361968E-005
  4.234122709712738E-005
  4.190894365102928E-005
  4.146247019793075E-005
  4.100269317858682E-005
  4.053039940551747E-005
  4.004628689049639E-005
  3.955097684492351E-005
  3.904502606216069E-005
  3.852893922560055E-005
  3.800318091860821E-005
  3.746818727231547E-005
  3.692437730341505E-005
  3.637216406727491E-005
  3.581196581322102E-005
  3.524421735388529E-005
  3.466938189490709E-005
  3.408796357421419E-005
  3.350052096795198E-005
  3.290768179881899E-005
  3.231015905969983E-005
  3.170876869751172E-005
  3.110444890822569E-005
  3.049828093661404E-005
  2.989151103586092E-005
  2.928557289229925E-005
  2.868210930128783E-005
  2.808299114446976E-005
  2.749033066566360E-005
  2.690648456308948E-005
  2.633404035316187E-005
  2.577577660184208E-005
  2.523458368344013E-005
  2.471332633338807E-005
  2.421462191101241E-005
  2.374049829930501E-005
  2.329188185908810E-005
  2.286784762756879E-005
  2.246453943665145E-005
  2.942840654555715E-005
  2.930614244166426E-005
  2.917090948813628E-005
  2.902069410231039E-005
  2.885466850423485E-005
  2.867277439955118E-005
  2.847543142158754E-005
  2.826333584840832E-005
  2.803732419377091E-005
  2.779828304672573E-005
  2.754709155620978E-005
  2.728458669153500E-005
  2.701154415359122E-005
  2.672866983885284E-005
  2.643659824206357E-005
  2.613589526085876E-005
  2.582706365767308E-005
  2.551054999273613E-005
  2.518675225587920E-005
  2.485602770840822E-005
  2.451870065560430E-005
  2.417507001089344E-005
  2.382541661652410E-005
  2.347001035025855E-005
  2.310911710338937E-005
  2.274300573794691E-005
  2.237195516462691E-005
  2.199626168667358E-005
  2.161624677038115E-005
  2.123226539899528E-005
  2.084471516060321E-005
  2.045404620093426E-005
  2.006077213678293E-005
  1.966548196780264E-005
  1.926885292571306E-005
  1.887166406519923E-005
  1.847481018087570E-005
  1.807931532660988E-005
  1.768634477000044E-005
  1.729721357377857E-005
  1.691338910596147E-005
  1.653648353213242E-005
  1.616823060914143E-005
  1.581043872366269E-005
  1.546490884465832E-005
  1.513330161067996E-005
  1.481693172145454E-005
  1.451645960941969E-005
  1.423143932344496E-005
  1.395966668975878E-005
  1.298836388503238E-005
  1.292749834267162E-005
  1.286029619692818E-005
  1.278605031574939E-005
  1.270451393308322E-005
  1.261573607264627E-005
  1.251994663402397E-005
  1.241747737048851E-005
  1.230870862408938E-005
  1.219403438658646E-005
  1.207384027068877E-005
  1.194849045556612E-005
  1.181832077912266E-005
  1.168363595039790E-005
  1.154470944833380E-005
  1.140178510659017E-005
  1.125507969411004E-005
  1.110478602687354E-005
  1.095107630791102E-005
  1.079410550805837E-005
  1.063401467701130E-005
  1.047093413730744E-005
  1.030498654768873E-005
  1.013628984875331E-005
  9.964960130448665E-006
  9.791114461173001E-006
  9.614873739548069E-006
  9.436365624400353E-006
  9.255727609902124E-006
  9.073110307791946E-006
  8.888680999109673E-006
  8.702627511092405E-006
  8.515162462907304E-006
  8.326527903070871E-006
  8.137000329177370E-006
  7.946896035273206E-006
  7.756576647481953E-006
  7.566454613217688E-006
  7.376998240618498E-006
  7.188735666840752E-006
  7.002256813262203E-006
  6.818211943779841E-006
  6.637304827205413E-006
  6.460277651367454E-006
  6.287883672458623E-006
  6.120841991024873E-006
  5.959766675293530E-006
  5.805059522641291E-006
  5.656751782043640E-006
  5.514274829526245E-006
 -3.388763812418700E-006
 -3.388763984729281E-006
 -3.388441291754172E-006
 -3.387211770859871E-006
 -3.384750331661094E-006
 -3.380905817005532E-006
 -3.375640814581185E-006
 -3.368989464528216E-006
 -3.361028280513242E-006
 -3.351856313873377E-006
 -3.341581978749024E-006
 -3.330314578085336E-006
 -3.318159110649241E-006
 -3.305213338406229E-006
 -3.291566382848989E-006
 -3.277298332966333E-006
 -3.262480506023820E-006
 -3.247176111851462E-006
 -3.231441156201153E-006
 -3.215325474970529E-006
 -3.198873835935103E-006
 -3.182127072700706E-006
 -3.165123236742363E-006
 -3.147898770171455E-006
 -3.130489711943641E-006
 -3.112932956315866E-006
 -3.095267590561354E-006
 -3.077536337311076E-006
 -3.059787135449925E-006
 -3.042074885793998E-006
 -3.024463388337001E-006
 -3.007027491575475E-006
 -2.989855461412275E-006
 -2.973051557509711E-006
 -2.956738781563224E-006
 -2.941061709791857E-006
 -2.926189267945636E-006
 -2.912317209242361E-006
 -2.899669929323157E-006
 -2.888501067100482E-006
 -2.879092083509833E-006
 -2.871747656495375E-006
 -2.866786237556726E-006
 -2.864523441851430E-006
 -2.865245024782214E-006
 -2.869164948059667E-006
 -2.876362343541001E-006
 -2.886688894623954E-006
 -2.899635078202602E-006
 -2.914139569873878E-006
 -1.978950796944413E-005
 -1.972878238659071E-005
 -1.966103070891837E-005
 -1.958438214527997E-005
 -1.949794308032179E-005
 -1.940146300728591E-005
 -1.929509948999832E-005
 -1.917925492093569E-005
 -1.905446499483487E-005
 -1.892132415783458E-005
 -1.878043725442275E-005
 -1.863238953589281E-005
 -1.847772936428083E-005
 -1.831695954879955E-005
 -1.815053442483671E-005
 -1.797886063935255E-005
 -1.780230023709649E-005
 -1.762117508541444E-005
 -1.743577200656146E-005
 -1.724634821247373E-005
 -1.705313680866760E-005
 -1.685635224219856E-005
 -1.665619565958665E-005
 -1.645286018929462E-005
 -1.624653621056676E-005
 -1.603741669262215E-005
 -1.582570271237261E-005
 -1.561160926342131E-005
 -1.539537148425022E-005
 -1.517725142421010E-005
 -1.495754546394435E-005
 -1.473659248290763E-005
 -1.451478283472485E-005
 -1.429256813190357E-005
 -1.407047175277247E-005
 -1.384909984511777E-005
 -1.362915240445435E-005
 -1.341143370865515E-005
 -1.319686097719376E-005
 -1.298646952834878E-005
 -1.278141187866724E-005
 -1.258294707506293E-005
 -1.239241494760953E-005
 -1.221118777819725E-005
 -1.204058886845293E-005
 -1.188176339972540E-005
 -1.173548142031180E-005
 -1.160184527969026E-005
 -1.147986370973795E-005
 -1.136684113626829E-005
 -3.630143848504958E-005
 -3.617969617001437E-005
 -3.604416110846149E-005
 -3.589166847509209E-005
 -3.572075359569236E-005
 -3.553106717503524E-005
 -3.532296429459781E-005
 -3.509721933758268E-005
 -3.485483157807351E-005
 -3.459689554983314E-005
 -3.432451727579294E-005
 -3.403876260630482E-005
 -3.374062772899742E-005
 -3.343102472691637E-005
 -3.311077711758790E-005
 -3.278062181604391E-005
 -3.244121505459503E-005
 -3.209314058641849E-005
 -3.173691906632737E-005
 -3.137301791052877E-005
 -3.100186122391556E-005
 -3.062383958739006E-005
 -3.023931964309923E-005
 -2.984865351001581E-005
 -2.945218813819662E-005
 -2.905027475192863E-005
 -2.864327857010462E-005
 -2.823158900812018E-005
 -2.781563057850978E-005
 -2.739587470878506E-005
 -2.697285267403569E-005
 -2.654716982048922E-005
 -2.611952118486848E-005
 -2.569070853048595E-005
 -2.526165865814878E-005
 -2.483344262868429E-005
 -2.440729519346195E-005
 -2.398463322952578E-005
 -2.356707128083978E-005
 -2.315643129175170E-005
 -2.275474221974608E-005
 -2.236422325105645E-005
 -2.198724162836476E-005
 -2.162623236756444E-005
 -2.128356203754520E-005
 -2.096131180944831E-005
 -2.066094554626341E-005
 -2.038281592610462E-005
 -2.012544437226032E-005
 -1.988448741884463E-005
 -5.301316839186269E-005
 -5.282966488388241E-005
 -5.262551732133278E-005
 -5.239624786866558E-005
 -5.213981231370375E-005
 -5.185576097716789E-005
 -5.154464920435917E-005
 -5.120762869425127E-005
 -5.084616899972350E-005
 -5.046187201450517E-005
 -5.005635226450260E-005
 -4.963116325530369E-005
 -4.918775560615883E-005
 -4.872745673812408E-005
 -4.825146484736467E-005
 -4.776085205549157E-005
 -4.725657320147902E-005
 -4.673947787292148E-005
 -4.621032409442909E-005
 -4.566979267203417E-005
 -4.511850160489117E-005
 -4.455702027216310E-005
 -4.398588330265512E-005
 -4.340560418071180E-005
 -4.281668874066748E-005
 -4.221964876988327E-005
 -4.161501598781779E-005
 -4.100335669844591E-005
 -4.038528742671370E-005
 -3.976149185105340E-005
 -3.913273932317538E-005
 -3.849990522286412E-005
 -3.786399330858840E-005
 -3.722616009587073E-005
 -3.658774107225251E-005
 -3.595027824327040E-005
 -3.531554801724090E-005
 -3.468558774392902E-005
 -3.406271821814120E-005
 -3.344955804392063E-005
 -3.284902375943651E-005
 -3.226430684649108E-005
 -3.169881490825248E-005
 -3.115605900928236E-005
 -3.063946193880009E-005
 -3.015205229481529E-005
 -2.969599590844471E-005
 -2.927189802312329E-005
 -2.887778524154730E-005
 -2.850764343605465E-005
 -7.001436040047765E-005
 -6.976788734615882E-005
 -6.949381316837027E-005
 -6.918631600869626E-005
 -6.884275754975492E-005
 -6.846258391235005E-005
 -6.804655364419378E-005
 -6.759620268577094E-005
 -6.711347990154265E-005
 -6.660050443092980E-005
 -6.605940923931884E-005
 -6.549224498233919E-005
 -6.490092548566069E-005
 -6.428720143153816E-005
 -6.365265273096623E-005
 -6.299869288816959E-005
 -6.232658072709038E-005
 -6.163743633614628E-005
 -6.093225916021954E-005
 -6.021194692805310E-005
 -5.947731464857023E-005
 -5.872911329366704E-005
 -5.796804804567085E-005
 -5.719479618580202E-005
 -5.641002481624508E-005
 -5.561440871239306E-005
 -5.480864865075047E-005
 -5.399349060231098E-005
 -5.316974620347642E-005
 -5.233831490634151E-005
 -5.150020819771458E-005
 -5.065657620576069E-005
 -4.980873691651504E-005
 -4.895820803610390E-005
 -4.810674126474353E-005
 -4.725635832513060E-005
 -4.640938746705204E-005
 -4.556849826036824E-005
 -4.473673119607812E-005
 -4.391751676513262E-005
 -4.311467609932574E-005
 -4.233239165159316E-005
 -4.157513139532462E-005
 -4.084750315648759E-005
 -4.015400628546950E-005
 -3.949863505769905E-005
 -3.888427080149954E-005
 -3.831177621400200E-005
 -3.777867360752847E-005
 -3.727724616220512E-005
 -8.739572311598972E-005
 -8.708461064229320E-005
 -8.673881505462336E-005
 -8.635112719830067E-005
 -8.591829378796767E-005
 -8.543965051019609E-005
 -8.491616205508703E-005
 -8.434975694762343E-005
 -8.374287454648301E-005
 -8.309816356186438E-005
 -8.241828777514072E-005
 -8.170580675546650E-005
 -8.096310831423863E-005
 -8.019237601770129E-005
 -7.939557991379133E-005
 -7.857448215105737E-005
 -7.773065173244778E-005
 -7.686548449216347E-005
 -7.598022572460539E-005
 -7.507599383404530E-005
 -7.415380405350962E-005
 -7.321459175538397E-005
 -7.225923521072048E-005
 -7.128857788097734E-005
 -7.030345049574090E-005
 -6.930469327263406E-005
 -6.829317871923775E-005
 -6.726983549566965E-005
 -6.623567385040957E-005
 -6.519181313331312E-005
 -6.413951186584024E-005
 -6.308020076898938E-005
 -6.201551902393246E-005
 -6.094735381680860E-005
 -5.987788288164836E-005
 -5.880961923200492E-005
 -5.774545650596641E-005
 -5.668871222836108E-005
 -5.564316468846153E-005
 -5.461307685363273E-005
 -5.360319753967474E-005
 -5.261872559494714E-005
 -5.166521668845342E-005
 -5.074840378933686E-005
 -4.987389080569978E-005
 -4.904666299695130E-005
 -4.827033626883724E-005
 -4.754603836209645E-005
 -4.687077571519754E-005
 -4.623508703121044E-005
 -1.052489841471111E-004
 -1.048711183266372E-004
 -1.044513471620678E-004
 -1.039810185384434E-004
 -1.034562367921490E-004
 -1.028762181946091E-004
 -1.022421361427478E-004
 -1.015563211012581E-004
 -1.008217158447362E-004
 -1.000415130039966E-004
 -9.921892158766367E-005
 -9.835702372101339E-005
 -9.745869361114751E-005
 -9.652655867187443E-005
 -9.556298855727849E-005
 -9.457010208908691E-005
 -9.354978515471087E-005
 -9.250371487265396E-005
 -9.143338692718550E-005
 -9.034014411784004E-005
 -8.922520497528475E-005
 -8.808969187359307E-005
 -8.693465846324967E-005
 -8.576111653008469E-005
 -8.457006258322307E-005
 -8.336250460114976E-005
 -8.213948946318353E-005
 -8.090213164501204E-005
 -7.965164379121421E-005
 -7.838936977352994E-005
 -7.711682080869452E-005
 -7.583571512197979E-005
 -7.454802148605018E-005
 -7.325600670126085E-005
 -7.196228667654235E-005
 -7.066988014799760E-005
 -6.938226315192722E-005
 -6.810342102714550E-005
 -6.683789280639089E-005
 -6.559080012006967E-005
 -6.436784891236308E-005
 -6.317528692694472E-005
 -6.201979252976068E-005
 -6.090826026655528E-005
 -5.984743463365789E-005
 -5.884332456757071E-005
 -5.790030540505452E-005
 -5.701978023658114E-005
 -5.619822559815468E-005
 -5.542438329958016E-005
 -1.236668303397433E-004
 -1.232196901295113E-004
 -1.227232725622780E-004
 -1.221674145804106E-004
 -1.215475439443497E-004
 -1.208627453320872E-004
 -1.201144024590031E-004
 -1.193052574508680E-004
 -1.184387704775505E-004
 -1.175186937831052E-004
 -1.165487973806746E-004
 -1.155327008265232E-004
 -1.144737781490502E-004
 -1.133751123366644E-004
 -1.122394826209654E-004
 -1.110693727829826E-004
 -1.098669923395372E-004
 -1.086343050813053E-004
 -1.073730613218555E-004
 -1.060848315581359E-004
 -1.047710401961420E-004
 -1.034329986701157E-004
 -1.020719377490435E-004
 -1.006890391583841E-004
 -9.928546686663865E-005
 -9.786239854809480E-005
 -9.642105783735867E-005
 -9.496274805528359E-005
 -9.348888812927666E-005
 -9.200105142062124E-005
 -9.050100813311717E-005
 -8.899077187712537E-005
 -8.747265077462885E-005
 -8.594930318705658E-005
 -8.442379767061921E-005
 -8.289967603135246E-005
 -8.138101728119069E-005
 -7.987249872270445E-005
 -7.837944814262775E-005
 -7.690787790227480E-005
 -7.546448722471334E-005
 -7.405661272963753E-005
 -7.269209861454917E-005
 -7.137904596790916E-005
 -7.012538441061931E-005
 -6.893818703813820E-005
 -6.782261948904138E-005
 -6.678037317562103E-005
 -6.580737772052524E-005
 -6.489051368542670E-005
 -1.427428123860349E-004
 -1.422235325194210E-004
 -1.416474516026480E-004
 -1.410028157883895E-004
 -1.402843351204374E-004
 -1.394909467655838E-004
 -1.386242446311614E-004
 -1.376873916678407E-004
 -1.366843794942228E-004
 -1.356195360036491E-004
 -1.344972083778041E-004
 -1.333215687714346E-004
 -1.320965045881444E-004
 -1.308255660480409E-004
 -1.295119516607935E-004
 -1.281585179950447E-004
 -1.267678043183254E-004
 -1.253420657232696E-004
 -1.238833105287106E-004
 -1.223933392961633E-004
 -1.208737839091731E-004
 -1.193261459362689E-004
 -1.177518340450835E-004
 -1.161522006080462E-004
 -1.145285779130036E-004
 -1.128823145631590E-004
 -1.112148127798222E-004
 -1.095275673970620E-004
 -1.078222073774015E-004
 -1.061005406755880E-004
 -1.043646032305803E-004
 -1.026167127464252E-004
 -1.008595277122091E-004
 -9.909611175447914E-005
 -9.733000287028858E-005
 -9.556528624514128E-005
 -9.380666812226892E-005
 -9.205954638009105E-005
 -9.033007088454830E-005
 -8.862518300171317E-005
 -8.695261848790465E-005
 -8.532085077275256E-005
 -8.373894167684967E-005
 -8.221625288539539E-005
 -8.076195271919280E-005
 -7.938422714435431E-005
 -7.808906921511291E-005
 -7.687847415071082E-005
 -7.574780387060230E-005
 -7.468199960082404E-005
 -1.625712228653687E-004
 -1.619766912174616E-004
 -1.613176905607720E-004
 -1.605807856083427E-004
 -1.597599206656090E-004
 -1.588538651343727E-004
 -1.578644202497140E-004
 -1.567951771673124E-004
 -1.556506717467397E-004
 -1.544358225484150E-004
 -1.531555691350187E-004
 -1.518146504444404E-004
 -1.504174797349391E-004
 -1.489680849303822E-004
 -1.474700922242431E-004
 -1.459267374015801E-004
 -1.443408941210801E-004
 -1.427151118671256E-004
 -1.410516587634151E-004
 -1.393525662182641E-004
 -1.376196736267927E-004
 -1.358546722417267E-004
 -1.340591479502137E-004
 -1.322346231187858E-004
 -1.303825979754133E-004
 -1.285045921986871E-004
 -1.266021875292110E-004
 -1.246770723011905E-004
 -1.227310888439006E-004
 -1.207662846941538E-004
 -1.187849685129484E-004
 -1.167897714573917E-004
 -1.147837145257443E-004
 -1.127702819812135E-004
 -1.107535003444844E-004
 -1.087380214792060E-004
 -1.067292068863542E-004
 -1.047332082675485E-004
 -1.027570364568955E-004
 -1.008086066399720E-004
 -9.889674188536793E-005
 -9.703110881481992E-005
 -9.522204787829110E-005
 -9.348024507981639E-005
 -9.181617060460999E-005
 -9.023918065200097E-005
 -8.875613920723436E-005
 -8.736936296792509E-005
 -8.607362047024667E-005
 -8.485181943225360E-005
 -1.832469744187621E-004
 -1.825739742327764E-004
 -1.818287107554568E-004
 -1.809959677957598E-004
 -1.800688694510572E-004
 -1.790459921924399E-004
 -1.779293377820634E-004
 -1.767229296194284E-004
 -1.754318576095690E-004
 -1.740616432055534E-004
 -1.726178308749983E-004
 -1.711057378806572E-004
 -1.695303131962466E-004
 -1.678960703143600E-004
 -1.662070689236814E-004
 -1.644669278842112E-004
 -1.626788573490551E-004
 -1.608457017928262E-004
 -1.589699885168471E-004
 -1.570539782075806E-004
 -1.550997155474110E-004
 -1.531090788749839E-004
 -1.510838285995328E-004
 -1.490256545554407E-004
 -1.469362228278826E-004
 -1.448172228087083E-004
 -1.426704154020161E-004
 -1.404976833980162E-004
 -1.383010850868165E-004
 -1.360829121775065E-004
 -1.338457530307135E-004
 -1.315925620568106E-004
 -1.293267358615428E-004
 -1.270521962658600E-004
 -1.247734796185435E-004
 -1.224958307427120E-004
 -1.202252982594671E-004
 -1.179688257120430E-004
 -1.157343295786218E-004
 -1.135307505276702E-004
 -1.113680576368165E-004
 -1.092571760202305E-004
 -1.072097955041548E-004
 -1.052380003430946E-004
 -1.033536358284254E-004
 -1.015672947378270E-004
 -9.988676190655312E-005
 -9.831469479690616E-005
 -9.684523648417389E-005
 -9.545914795717044E-005
 -2.048655296051161E-004
 -2.041109384325135E-004
 -2.032761922330351E-004
 -2.023441889369777E-004
 -2.013071725423864E-004
 -2.001634960608816E-004
 -1.989153496727941E-004
 -1.975671878303401E-004
 -1.961246591546996E-004
 -1.945938952067175E-004
 -1.929810530151743E-004
 -1.912920350048451E-004
 -1.895323311923059E-004
 -1.877069441565501E-004
 -1.858203687317400E-004
 -1.838766067429058E-004
 -1.818792031639151E-004
 -1.798312944745352E-004
 -1.777356631332815E-004
 -1.755947943366006E-004
 -1.734109328230588E-004
 -1.711861386076648E-004
 -1.689223413144596E-004
 -1.666213933211602E-004
 -1.642851223118043E-004
 -1.619153840922642E-004
 -1.595141167005559E-004
 -1.570833969551414E-004
 -1.546255006437176E-004
 -1.521429675482186E-004
 -1.496386724393763E-004
 -1.471159029937480E-004
 -1.445784452887855E-004
 -1.420306770194097E-004
 -1.394776677823919E-004
 -1.369252845708569E-004
 -1.343802988280936E-004
 -1.318504888055263E-004
 -1.293447272319106E-004
 -1.268730389965423E-004
 -1.244466060996308E-004
 -1.220776867340350E-004
 -1.197794009957660E-004
 -1.175653159359883E-004
 -1.154487355986140E-004
 -1.134415647918311E-004
 -1.115525652654945E-004
 -1.097847552339419E-004
 -1.081316118556294E-004
 -1.065716134964659E-004
 -2.275229675363548E-004
 -2.266840254738478E-004
 -2.257569780779898E-004
 -2.247227320085883E-004
 -2.235725877470276E-004
 -2.223046387698713E-004
 -2.209212447943328E-004
 -2.194272826992628E-004
 -2.178289567979517E-004
 -2.161330082907737E-004
 -2.143462069357979E-004
 -2.124750399758205E-004
 -2.105255369972628E-004
 -2.085031867891313E-004
 -2.064129150116684E-004
 -2.042591007877597E-004
 -2.020456170849435E-004
 -1.997758846309936E-004
 -1.974529326099503E-004
 -1.950794618861599E-004
 -1.926579082701620E-004
 -1.901905045940704E-004
 -1.876793412297391E-004
 -1.851264252967139E-004
 -1.825337392256182E-004
 -1.799032996315345E-004
 -1.772372176507743E-004
 -1.745377620168858E-004
 -1.718074262162613E-004
 -1.690490010596185E-004
 -1.662656539302150E-004
 -1.634610157754908E-004
 -1.606392765717147E-004
 -1.578052894192992E-004
 -1.549646825443480E-004
 -1.521239771282332E-004
 -1.492907068956912E-004
 -1.464735324788380E-004
 -1.436823394104497E-004
 -1.409283026759810E-004
 -1.382238924450389E-004
 -1.355827840142093E-004
 -1.330196189574076E-004
 -1.305495424158790E-004
 -1.281874112538246E-004
 -1.259465266496218E-004
 -1.238366888235304E-004
 -1.218612960478841E-004
 -1.200131082027521E-004
 -1.182681581737275E-004
 -2.513163162001936E-004
 -2.503909755379268E-004
 -2.493695666229345E-004
 -2.482309064625436E-004
 -2.469652881779888E-004
 -2.455705043840809E-004
 -2.440490572368509E-004
 -2.424062275433697E-004
 -2.406487616581323E-004
 -2.387839991848321E-004
 -2.368193122613725E-004
 -2.347617625889259E-004
 -2.326179084698216E-004
 -2.303937133513565E-004
 -2.280945214424219E-004
 -2.257250762459277E-004
 -2.232895653109788E-004
 -2.207916798940856E-004
 -2.182346820831184E-004
 -2.156214746995063E-004
 -2.129546712456824E-004
 -2.102366645448324E-004
 -2.074696936772109E-004
 -2.046559094961977E-004
 -2.017974394631468E-004
 -1.988964528663910E-004
 -1.959552277045481E-004
 -1.929762206525222E-004
 -1.899621415946068E-004
 -1.869160342143167E-004
 -1.838413640327669E-004
 -1.807421150872577E-004
 -1.776228960533871E-004
 -1.744890559870357E-004
 -1.713468088798710E-004
 -1.682033647166783E-004
 -1.650670625071753E-004
 -1.619474975365570E-004
 -1.588556304369647E-004
 -1.558038591079283E-004
 -1.528060252764333E-004
 -1.498773146036735E-004
 -1.470339914273644E-004
 -1.442928846995844E-004
 -1.416705081180363E-004
 -1.391816516971711E-004
 -1.368372199462988E-004
 -1.346410078448419E-004
 -1.325849925884646E-004
 -1.306425668675313E-004
 -2.763443348719686E-004
 -2.753317009312480E-004
 -2.742150703838831E-004
 -2.729710895671067E-004
 -2.715889846800052E-004
 -2.700662019421737E-004
 -2.684053494094397E-004
 -2.666120809177928E-004
 -2.646936574126361E-004
 -2.626579915071604E-004
 -2.605130335352262E-004
 -2.582663961908091E-004
 -2.559251434976655E-004
 -2.534956909384312E-004
 -2.509837790139718E-004
 -2.483944937698319E-004
 -2.457323160043957E-004
 -2.430011867797510E-004
 -2.402045810887774E-004
 -2.373455845610571E-004
 -2.344269702263274E-004
 -2.314512738635221E-004
 -2.284208675208260E-004
 -2.253380315235550E-004
 -2.222050257961795E-004
 -2.190241616807775E-004
 -2.157978756640344E-004
 -2.125288065857569E-004
 -2.092198779671373E-004
 -2.058743871064344E-004
 -2.024961024813273E-004
 -1.990893707716868E-004
 -1.956592343916735E-004
 -1.922115597262799E-004
 -1.887531751670094E-004
 -1.852920163895914E-004
 -1.818372738520385E-004
 -1.783995339106915E-004
 -1.749908998157907E-004
 -1.716250715563295E-004
 -1.683173532845445E-004
 -1.650845427789403E-004
 -1.619446376473342E-004
 -1.589162657979973E-004
 -1.560177104994971E-004
 -1.532653496611243E-004
 -1.506712601524484E-004
 -1.482396449333752E-004
 -1.459616152911256E-004
 -1.438076918136190E-004
 -3.027089991002956E-004
 -3.016098669893738E-004
 -3.003988829527416E-004
 -2.990504729042701E-004
 -2.975527476096396E-004
 -2.959027592967408E-004
 -2.941031752243293E-004
 -2.921599765938350E-004
 -2.900808945050954E-004
 -2.878743715685393E-004
 -2.855488948981220E-004
 -2.831125884966760E-004
 -2.805729842496680E-004
 -2.779369136973671E-004
 -2.752104795613174E-004
 -2.723990782668693E-004
 -2.695074535923054E-004
 -2.665397680081437E-004
 -2.634996828664143E-004
 -2.603904418971155E-004
 -2.572149547873251E-004
 -2.539758792668976E-004
 -2.506757012625727E-004
 -2.473168134888990E-004
 -2.439015933933244E-004
 -2.404324817588888E-004
 -2.369120635270276E-004
 -2.333431525646483E-004
 -2.297288821899221E-004
 -2.260728032616501E-004
 -2.223789915325184E-004
 -2.186521657110754E-004
 -2.148978172067647E-004
 -2.111223517697214E-004
 -2.073332420200887E-004
 -2.035391880318833E-004
 -1.997502804147314E-004
 -1.959781563777188E-004
 -1.922361335751778E-004
 -1.885392984791786E-004
 -1.849045146896391E-004
 -1.813503008179976E-004
 -1.778965057279801E-004
 -1.745636788673259E-004
 -1.713719922765498E-004
 -1.683395148046135E-004
 -1.654795629726049E-004
 -1.627967500144890E-004
 -1.602812158898943E-004
 -1.579003345283991E-004
 -3.305180214396240E-004
 -3.293355045847842E-004
 -3.280333678883076E-004
 -3.265838163563493E-004
 -3.249738171730341E-004
 -3.231999826055142E-004
 -3.212649824623174E-004
 -3.191750630759342E-004
 -3.169383614633082E-004
 -3.145637864357259E-004
 -3.120603001439588E-004
 -3.094364792165535E-004
 -3.067002683511744E-004
 -3.038588639977662E-004
 -3.009186839146487E-004
 -2.978853916094204E-004
 -2.947639542732888E-004
 -2.915587197438568E-004
 -2.882735029996995E-004
 -2.849116762344880E-004
 -2.814762590649219E-004
 -2.779700071976062E-004
 -2.743954991108143E-004
 -2.707552211758452E-004
 -2.670516522355344E-004
 -2.632873490770691E-004
 -2.594650345103635E-004
 -2.555876899519205E-004
 -2.516586544982648E-004
 -2.476817324714388E-004
 -2.436613113023892E-004
 -2.396024913334398E-004
 -2.355112286096205E-004
 -2.313944908778679E-004
 -2.272604256817110E-004
 -2.231185374111967E-004
 -2.189798671705782E-004
 -2.148571649487469E-004
 -2.107650373146480E-004
 -2.067200449509979E-004
 -2.027407118455430E-004
 -1.988473905261978E-004
 -1.950619036190770E-004
 -1.914068488128189E-004
 -1.879044089059461E-004
 -1.845744467080572E-004
 -1.814315805706151E-004
 -1.784808227057222E-004
 -1.757112092738287E-004
 -1.730866452927729E-004
 -3.598888329300393E-004
 -3.586290652000869E-004
 -3.572419648919878E-004
 -3.556975874077718E-004
 -3.539817609108494E-004
 -3.520906191223442E-004
 -3.500267694734378E-004
 -3.477966439535873E-004
 -3.454086995975359E-004
 -3.428722245518534E-004
 -3.401965717055314E-004
 -3.373906907485613E-004
 -3.344628655665994E-004
 -3.314205903801311E-004
 -3.282705374323627E-004
 -3.250185831639336E-004
 -3.216698700742563E-004
 -3.182288888590162E-004
 -3.146995707251844E-004
 -3.110853835612518E-004
 -3.073894283265668E-004
 -3.036145339023278E-004
 -2.997633499725503E-004
 -2.958384384236066E-004
 -2.918423643946369E-004
 -2.877777885465300E-004
 -2.836475624366859E-004
 -2.794548290617465E-004
 -2.752031307471296E-004
 -2.708965265455340E-004
 -2.665397211834583E-004
 -2.621382072830959E-004
 -2.576984220228646E-004
 -2.532279184663959E-004
 -2.487355503203426E-004
 -2.442316666526719E-004
 -2.397283097945990E-004
 -2.352394048332524E-004
 -2.307809221889516E-004
 -2.263709849624393E-004
 -2.220298789566465E-004
 -2.177799040650906E-004
 -2.136449791378604E-004
 -2.096498758493661E-004
 -2.058189070188729E-004
 -2.021738266002156E-004
 -1.987306059374278E-004
 -1.954946256287435E-004
 -1.924536534472252E-004
 -1.895677517230049E-004
 -3.909545494251447E-004
 -3.896274218693519E-004
 -3.881651939537958E-004
 -3.865359417111891E-004
 -3.847244073397159E-004
 -3.827262232603042E-004
 -3.805438652275361E-004
 -3.781838554468417E-004
 -3.756548633485303E-004
 -3.729664459206192E-004
 -3.701282394137611E-004
 -3.671494659583647E-004
 -3.640386567675770E-004
 -3.608035216201708E-004
 -3.574509148206560E-004
 -3.539868627795023E-004
 -3.504166291815089E-004
 -3.467448015271638E-004
 -3.429753884352198E-004
 -3.391119210803425E-004
 -3.351575549761990E-004
 -3.311151702989084E-004
 -3.269874703482027E-004
 -3.227770787098228E-004
 -3.184866363737091E-004
 -3.141189005281573E-004
 -3.096768470748392E-004
 -3.051637791248636E-004
 -3.005834438306107E-004
 -2.959401599223598E-004
 -2.912389581565713E-004
 -2.864857365596616E-004
 -2.816874317263913E-004
 -2.768522064068458E-004
 -2.719896520024167E-004
 -2.671110021409588E-004
 -2.622293498622735E-004
 -2.573598556441943E-004
 -2.525199258968214E-004
 -2.477293307498699E-004
 -2.430102147984648E-004
 -2.383869333191367E-004
 -2.338856172055020E-004
 -2.295333296006950E-004
 -2.253566220713148E-004
 -2.213792230428577E-004
 -2.176184892440307E-004
 -2.140801129834084E-004
 -2.107503921204327E-004
 -2.075851195738109E-004
 -4.238725461580506E-004
 -4.224924100065493E-004
 -4.209691202032806E-004
 -4.192690739546928E-004
 -4.173760485243982E-004
 -4.152851799183152E-004
 -4.129987456060601E-004
 -4.105232509148360E-004
 -4.078674512226409E-004
 -4.050410405902807E-004
 -4.020538105218583E-004
 -3.989151365701222E-004
 -3.956336903109729E-004
 -3.922173034612247E-004
 -3.886729322937112E-004
 -3.850066860962047E-004
 -3.812238947008686E-004
 -3.773291982556651E-004
 -3.733266482484257E-004
 -3.692198129480223E-004
 -3.650118833751506E-004
 -3.607057779907706E-004
 -3.563042457476327E-004
 -3.518099681689246E-004
 -3.472256618308733E-004
 -3.425541831279598E-004
 -3.377986375373531E-004
 -3.329624958308555E-004
 -3.280497197889182E-004
 -3.230648999749526E-004
 -3.180134079700725E-004
 -3.129015650994283E-004
 -3.077368290099300E-004
 -3.025279983304985E-004
 -2.972854338815037E-004
 -2.920212922067067E-004
 -2.867497632102846E-004
 -2.814872978579195E-004
 -2.762528035505451E-004
 -2.710677729131324E-004
 -2.659562950771600E-004
 -2.609448752980592E-004
 -2.560619565829949E-004
 -2.513369927419126E-004
 -2.467988616751282E-004
 -2.424733251232798E-004
 -2.383791290078173E-004
 -2.345221868463854E-004
 -2.308870842671769E-004
 -2.274248677323188E-004
 -4.588363515616524E-004
 -4.574225792586570E-004
 -4.558569089157459E-004
 -4.541045241888958E-004
 -4.521484495447480E-004
 -4.499833729678334E-004
 -4.476113211047630E-004
 -4.450386724321759E-004
 -4.422741304150122E-004
 -4.393273799945316E-004
 -4.362082258736444E-004
 -4.329260666072298E-004
 -4.294895994158478E-004
 -4.259066806752923E-004
 -4.221842889957707E-004
 -4.183285537913008E-004
 -4.143448238223336E-004
 -4.102377585418005E-004
 -4.060114310602790E-004
 -4.016694358038736E-004
 -3.972149969664170E-004
 -3.926510759796084E-004
 -3.879804777286061E-004
 -3.832059562889285E-004
 -3.783303216972977E-004
 -3.733565497934078E-004
 -3.682878975255397E-004
 -3.631280263544497E-004
 -3.578811365120098E-004
 -3.525521148676545E-004
 -3.471466989890446E-004
 -3.416716595861309E-004
 -3.361350027900839E-004
 -3.305461924912284E-004
 -3.249163910313888E-004
 -3.192587135960580E-004
 -3.135884872810468E-004
 -3.079234994344086E-004
 -3.022842107128709E-004
 -2.966938952943519E-004
 -2.911786524109542E-004
 -2.857672078896869E-004
 -2.804903891084645E-004
 -2.753801082282213E-004
 -2.704676220806277E-004
 -2.657807464950759E-004
 -2.613395798385938E-004
 -2.571501241565672E-004
 -2.531949679145183E-004
 -2.494198926124004E-004
 -4.960916293903318E-004
 -4.946688731497337E-004
 -4.930841337108245E-004
 -4.913020463390902E-004
 -4.893052121998579E-004
 -4.870879837270536E-004
 -4.846521153513161E-004
 -4.820037608735048E-004
 -4.791514364973378E-004
 -4.761046708432406E-004
 -4.728731390627781E-004
 -4.694661341731565E-004
 -4.658922699573742E-004
 -4.621593400308430E-004
 -4.582742797872052E-004
 -4.542431940187919E-004
 -4.500714246598823E-004
 -4.457636414995686E-004
 -4.413239447157974E-004
 -4.367559723785472E-004
 -4.320630091018768E-004
 -4.272480941731561E-004
 -4.223141289986048E-004
 -4.172639847690115E-004
 -4.121006120030194E-004
 -4.068271541613084E-004
 -4.014470678973756E-004
 -3.959642527648992E-004
 -3.903831933308120E-004
 -3.847091166425227E-004
 -3.789481678202659E-004
 -3.731076061142505E-004
 -3.671960229691205E-004
 -3.612235823040880E-004
 -3.552022811141075E-004
 -3.491462252804408E-004
 -3.430719107125743E-004
 -3.369984929736512E-004
 -3.309480185413606E-004
 -3.249455766422432E-004
 -3.190193106237086E-004
 -3.132001999662907E-004
 -3.075214854561981E-004
 -3.020175569387432E-004
 -2.967220503442567E-004
 -2.916648015489619E-004
 -2.868671700282906E-004
 -2.823350631553219E-004
 -2.780487463792734E-004
 -2.739481942089283E-004
 -5.359570205966788E-004
 -5.345549416547217E-004
 -5.329784761362520E-004
 -5.311926079046061E-004
 -5.291799897810191E-004
 -5.269348409417792E-004
 -5.244586776678836E-004
 -5.217573668664335E-004
 -5.188391275691894E-004
 -5.157132064263418E-004
 -5.123890278662106E-004
 -5.088756747010457E-004
 -5.051815955249825E-004
 -5.013144649887822E-004
 -4.972811447656414E-004
 -4.930877088186469E-004
 -4.887395080262922E-004
 -4.842412574491770E-004
 -4.795971354372557E-004
 -4.748108879693969E-004
 -4.698859346174218E-004
 -4.648254746290020E-004
 -4.596325931177287E-004
 -4.543103684125631E-004
 -4.488619823671225E-004
 -4.432908359729484E-004
 -4.376006730097174E-004
 -4.317957147229930E-004
 -4.258808086619863E-004
 -4.198615948143592E-004
 -4.137446919793594E-004
 -4.075379068681320E-004
 -4.012504675514191E-004
 -3.948932814418740E-004
 -3.884792157065872E-004
 -3.820233945273696E-004
 -3.755435024282702E-004
 -3.690600753269930E-004
 -3.625967500730482E-004
 -3.561804277689622E-004
 -3.498412844203447E-004
 -3.436125321131111E-004
 -3.375297918851372E-004
 -3.316298815945615E-004
 -3.259487428217791E-004
 -3.205181227781386E-004
 -3.153604804298852E-004
 -3.104813874515775E-004
 -3.058584267262370E-004
 -3.014252307567756E-004
 -5.788505272230468E-004
 -5.775026877036304E-004
 -5.759643371414396E-004
 -5.742019594564010E-004
 -5.721989071755379E-004
 -5.699495893783400E-004
 -5.674554069447736E-004
 -5.647219477068251E-004
 -5.617570839591796E-004
 -5.585697111270330E-004
 -5.551689376958218E-004
 -5.515635891116769E-004
 -5.477619270581699E-004
 -5.437715138716079E-004
 -5.395991725586364E-004
 -5.352510079314241E-004
 -5.307324652634999E-004
 -5.260484107121857E-004
 -5.212032233732232E-004
 -5.162008928385978E-004
 -5.110451189838394E-004
 -5.057394127238890E-004
 -5.002871979175026E-004
 -4.946919156286441E-004
 -4.889571326822967E-004
 -4.830866570057052E-004
 -4.770846626283872E-004
 -4.709558274874828E-004
 -4.647054873389406E-004
 -4.583398090711249E-004
 -4.518659865295967E-004
 -4.452924614674581E-004
 -4.386291713141526E-004
 -4.318878239123953E-004
 -4.250821969086034E-004
 -4.182284557170183E-004
 -4.113454783774333E-004
 -4.044551674312255E-004
 -3.975827171609187E-004
 -3.907567877903789E-004
 -3.840095146836596E-004
 -3.773762476994284E-004
 -3.708948703065077E-004
 -3.646044853287042E-004
 -3.585431682369005E-004
 -3.527443716819125E-004
 -3.472314057394769E-004
 -3.420092028099471E-004
 -3.370522853272349E-004
 -3.322874631841019E-004
 -6.253218917148418E-004
 -6.240634051522032E-004
 -6.225926251143511E-004
 -6.208789459220139E-004
 -6.189072643162564E-004
 -6.166726592044843E-004
 -6.141766712398265E-004
 -6.114247352624360E-004
 -6.084244379296570E-004
 -6.051843613328607E-004
 -6.017133388150247E-004
 -5.980199974505390E-004
 -5.941124971085056E-004
 -5.899984019966095E-004
 -5.856846395332384E-004
 -5.811775151730914E-004
 -5.764827617661290E-004
 -5.716056092159179E-004
 -5.665508653382989E-004
 -5.613230025019688E-004
 -5.559262472504702E-004
 -5.503646719671817E-004
 -5.446422889888764E-004
 -5.387631485296524E-004
 -5.327314424943394E-004
 -5.265516167784884E-004
 -5.202284950539320E-004
 -5.137674173093216E-004
 -5.071743965783915E-004
 -5.004562972967478E-004
 -4.936210385287109E-004
 -4.866778247848744E-004
 -4.796374061860476E-004
 -4.725123680698714E-004
 -4.653174475119331E-004
 -4.580698702016907E-004
 -4.507896950994760E-004
 -4.435001455097272E-004
 -4.362278925476338E-004
 -4.290032389731359E-004
 -4.218601260291489E-004
 -4.148358505390724E-004
 -4.079703304985207E-004
 -4.013046898296284E-004
 -3.948788404047355E-004
 -3.887276131310800E-004
 -3.828748182880981E-004
 -3.773243829412353E-004
 -3.720473996596099E-004
 -3.669634987058927E-004
 -6.760909947593041E-004
 -6.749544233096283E-004
 -6.735755338923371E-004
 -6.719282741646529E-004
 -6.700001393853594E-004
 -6.677875543431370E-004
 -6.652926426844485E-004
 -6.625209955505106E-004
 -6.594801551811457E-004
 -6.561786060420688E-004
 -6.526251228638392E-004
 -6.488283668707296E-004
 -6.447966522492281E-004
 -6.405378274454273E-004
 -6.360592323123056E-004
 -6.313677040747861E-004
 -6.264696137211049E-004
 -6.213709206569399E-004
 -6.160772379306470E-004
 -6.105939035411028E-004
 -6.049260556335554E-004
 -5.990787110334308E-004
 -5.930568477654520E-004
 -5.868654930779949E-004
 -5.805098191541325E-004
 -5.739952491949405E-004
 -5.673275769478186E-004
 -5.605131030344501E-004
 -5.535587916062385E-004
 -5.464724508654915E-004
 -5.392629407955636E-004
 -5.319404109026642E-004
 -5.245165697583486E-004
 -5.170049863870338E-004
 -5.094214207651441E-004
 -5.017841764215203E-004
 -4.941144617461634E-004
 -4.864367372659225E-004
 -4.787790126713537E-004
 -4.711730382177513E-004
 -4.636543081099461E-004
 -4.562617557810081E-004
 -4.490369686672069E-004
 -4.420226780080782E-004
 -4.352601803664469E-004
 -4.287852126901424E-004
 -4.226216193849758E-004
 -4.167719015406234E-004
 -4.112034031557283E-004
 -4.058284377956234E-004
 -7.320915864762871E-004
 -7.311004584258913E-004
 -7.298254078072876E-004
 -7.282467372765355E-004
 -7.263557997189828E-004
 -7.241512780670450E-004
 -7.216365784230980E-004
 -7.188180251211753E-004
 -7.157036296490812E-004
 -7.123022670675174E-004
 -7.086231391697211E-004
 -7.046754372315714E-004
 -7.004681419003683E-004
 -6.960099158508618E-004
 -6.913090580372054E-004
 -6.863734979642246E-004
 -6.812108153533476E-004
 -6.758282756044705E-004
 -6.702328750678381E-004
 -6.644313927505810E-004
 -6.584304469629328E-004
 -6.522365567821823E-004
 -6.458562092190262E-004
 -6.392959337441310E-004
 -6.325623864203377E-004
 -6.256624463593148E-004
 -6.186033276023876E-004
 -6.113927098088075E-004
 -6.040388913166259E-004
 -5.965509681671145E-004
 -5.889390424843871E-004
 -5.812144630660257E-004
 -5.733900999769926E-004
 -5.654806531427284E-004
 -5.575029920275216E-004
 -5.494765190133745E-004
 -5.414235423994389E-004
 -5.333696351314641E-004
 -5.253439412047996E-004
 -5.173793715298029E-004
 -5.095126026212662E-004
 -5.017837517484246E-004
 -4.942355470732572E-004
 -4.869117352878013E-004
 -4.798543649999727E-004
 -4.730994417373108E-004
 -4.666702568170842E-004
 -4.605674299401400E-004
 -4.547543509441798E-004
 -4.491362287528081E-004
 -7.945185892485901E-004
 -7.936778001918628E-004
 -7.924957290911834E-004
 -7.909608505678652E-004
 -7.890698042054679E-004
 -7.868247156465378E-004
 -7.842313094647925E-004
 -7.812975934988484E-004
 -7.780329530639475E-004
 -7.744475370123497E-004
 -7.705518498490320E-004
 -7.663564879010072E-004
 -7.618719750440005E-004
 -7.571086663469282E-004
 -7.520766973960270E-004
 -7.467859639241698E-004
 -7.412461213635404E-004
 -7.354665975739427E-004
 -7.294566146317668E-004
 -7.232252174973855E-004
 -7.167813087882457E-004
 -7.101336899461347E-004
 -7.032911098944653E-004
 -6.962623229193555E-004
 -6.890561580271913E-004
 -6.816816024722940E-004
 -6.741479025027629E-004
 -6.664646846771545E-004
 -6.586421012821136E-004
 -6.506910034324398E-004
 -6.426231452398989E-004
 -6.344514219084930E-004
 -6.261901435373907E-004
 -6.178553445777553E-004
 -6.094651259078562E-004
 -6.010400218881564E-004
 -5.926033778604831E-004
 -5.841817134140147E-004
 -5.758050321067026E-004
 -5.675070174562425E-004
 -5.593250255754384E-004
 -5.512997436378967E-004
 -5.434743261813456E-004
 -5.358927423378452E-004
 -5.285969587620286E-004
 -5.216224350196603E-004
 -5.149912067964505E-004
 -5.087015592040044E-004
 -5.027129233580326E-004
 -4.969241319723820E-004
 -8.648756658071379E-004
 -8.641579383356615E-004
 -8.630207700879034E-004
 -8.614623991577066E-004
 -8.594862707483439E-004
 -8.570994347909345E-004
 -8.543113969300441E-004
 -8.511333000330840E-004
 -8.475773453897255E-004
 -8.436563866823342E-004
 -8.393836476478262E-004
 -8.347725276429393E-004
 -8.298364691918687E-004
 -8.245888689245911E-004
 -8.190430187369061E-004
 -8.132120680176669E-004
 -8.071090007582537E-004
 -8.007466235649969E-004
 -7.941375622372209E-004
 -7.872942658124334E-004
 -7.802290179326027E-004
 -7.729539561325009E-004
 -7.654811002615503E-004
 -7.578223917630381E-004
 -7.499897459884194E-004
 -7.419951201215473E-004
 -7.338505996444115E-004
 -7.255685065704851E-004
 -7.171615328703932E-004
 -7.086429025854307E-004
 -7.000265659475672E-004
 -6.913274283109849E-004
 -6.825616156483378E-004
 -6.737467765258473E-004
 -6.649024174907899E-004
 -6.560502641718307E-004
 -6.472146334344203E-004
 -6.384227916935398E-004
 -6.297052596673394E-004
 -6.210960027171780E-004
 -6.126324160527343E-004
 -6.043549722634886E-004
 -5.963063405391110E-004
 -5.885297066727436E-004
 -5.810659126838232E-004
 -5.739488841284510E-004
 -5.671986078353320E-004
 -5.608106442000229E-004
 -5.547407813256849E-004
 -5.488829300654289E-004
 -9.450176342355177E-004
 -9.443451711791926E-004
 -9.431484485650891E-004
 -9.414364620081031E-004
 -9.392209257233436E-004
 -9.365155948868499E-004
 -9.333357398329901E-004
 -9.296977389468434E-004
 -9.256187637924417E-004
 -9.211165355045507E-004
 -9.162091359418712E-004
 -9.109148607344383E-004
 -9.052521042930499E-004
 -8.992392692120255E-004
 -8.928946943996960E-004
 -8.862365977987995E-004
 -8.792830307903879E-004
 -8.720518423755206E-004
 -8.645606520475883E-004
 -8.568268309521814E-004
 -8.488674915135754E-004
 -8.406994862198485E-004
 -8.323394167153927E-004
 -8.238036547848476E-004
 -8.151083772051633E-004
 -8.062696168334652E-004
 -7.973033326407901E-004
 -7.882255017088336E-004
 -7.790522364287724E-004
 -7.697999302200965E-004
 -7.604854349578708E-004
 -7.511262728111847E-004
 -7.417408841956133E-004
 -7.323489117721299E-004
 -7.229715175266405E-004
 -7.136317254389912E-004
 -7.043547754525534E-004
 -6.951684643976139E-004
 -6.861034349670188E-004
 -6.771933530344788E-004
 -6.684748841648280E-004
 -6.599873389061468E-004
 -6.517717990344648E-004
 -6.438694575383704E-004
 -6.363187959504573E-004
 -6.291510731855133E-004
 -6.223833963286170E-004
 -6.160083671144587E-004
 -6.099789232241347E-004
 -6.041864878370750E-004
 -1.037179554014784E-003
 -1.036400068767283E-003
 -1.034958355321325E-003
 -1.032874020425888E-003
 -1.030168219493204E-003
 -1.026863457808551E-003
 -1.022983364371419E-003
 -1.018552464304919E-003
 -1.013595964386136E-003
 -1.008139558854246E-003
 -1.002209258084483E-003
 -9.958312400128245E-004
 -9.890317227307234E-004
 -9.818368560226649E-004
 -9.742726294664635E-004
 -9.663647948767557E-004
 -9.581388012052990E-004
 -9.496197404303467E-004
 -9.408323034269318E-004
 -9.318007452793133E-004
 -9.225488599564783E-004
 -9.130999647229503E-004
 -9.034768950900658E-004
 -8.937020115390579E-004
 -8.837972196549459E-004
 -8.737840057040328E-004
 -8.636834900520109E-004
 -8.535165011432374E-004
 -8.433036730008156E-004
 -8.330655693225153E-004
 -8.228228371514330E-004
 -8.125963926820252E-004
 -8.024076408544791E-004
 -7.922787287585793E-004
 -7.822328301671546E-004
 -7.722944543064221E-004
 -7.624897655725537E-004
 -7.528468914572270E-004
 -7.433961822120218E-004
 -7.341703661173462E-004
 -7.252045163521324E-004
 -7.165357063276126E-004
 -7.082021758106336E-004
 -7.002417546470339E-004
 -6.926891868778135E-004
 -6.855718554777808E-004
 -6.789032133434167E-004
 -6.726729614721065E-004
 -6.668326565240215E-004
 -6.612749449901156E-004
 -1.143980882768947E-003
 -1.142837382156880E-003
 -1.140853797626375E-003
 -1.138058302111610E-003
 -1.134482017098681E-003
 -1.130158412547887E-003
 -1.125122749558646E-003
 -1.119411586115060E-003
 -1.113062352548965E-003
 -1.106112995411453E-003
 -1.098601684031871E-003
 -1.090566572025816E-003
 -1.082045605458708E-003
 -1.073076369687615E-003
 -1.063695967696040E-003
 -1.053940923756517E-003
 -1.043847107336917E-003
 -1.033449673233196E-003
 -1.022783014898397E-003
 -1.011880728842077E-003
 -1.000775588771413E-003
 -9.894995288661707E-004
 -9.780836362113157E-004
 -9.665581529879631E-004
 -9.549524895280734E-004
 -9.432952498150329E-004
 -9.316142714142130E-004
 -9.199366821836907E-004
 -9.082889763739094E-004
 -8.966971128818110E-004
 -8.851866383767877E-004
 -8.737828376884740E-004
 -8.625109130795414E-004
 -8.513961926246982E-004
 -8.404643655684676E-004
 -8.297417388463494E-004
 -8.192555033194570E-004
 -8.090339899330147E-004
 -7.991068838379144E-004
 -7.895053470303271E-004
 -7.802619752293467E-004
 -7.714104797479805E-004
 -7.629849362739299E-004
 -7.550183746956982E-004
 -7.475403905627644E-004
 -7.405733302782642E-004
 -7.341264263946152E-004
 -7.281870199400550E-004
 -7.227076814590974E-004
 -7.175876021857611E-004
 -1.268389107862772E-003
 -1.266483210984930E-003
 -1.263513147519879E-003
 -1.259510694286729E-003
 -1.254516305756826E-003
 -1.248576620954610E-003
 -1.241742512820475E-003
 -1.234067580704698E-003
 -1.225607000064805E-003
 -1.216416656060221E-003
 -1.206552499988969E-003
 -1.196070078454831E-003
 -1.185024194703977E-003
 -1.173468669748165E-003
 -1.161456177754796E-003
 -1.149038135868107E-003
 -1.136264633259869E-003
 -1.123184387971660E-003
 -1.109844723122502E-003
 -1.096291556463428E-003
 -1.082569399170848E-003
 -1.068721361291314E-003
 -1.054789162452356E-003
 -1.040813147426226E-003
 -1.026832306903136E-003
 -1.012884304473765E-003
 -9.990055113267601E-004
 -9.852310505854384E-004
 -9.715948535148799E-004
 -9.581297300119339E-004
 -9.448674558145375E-004
 -9.318388786478849E-004
 -9.190740449609636E-004
 -9.066023478353843E-004
 -8.944526948285079E-004
 -8.826536916210600E-004
 -8.712338328970999E-004
 -8.602216852656283E-004
 -8.496460373106124E-004
 -8.395359778532979E-004
 -8.299208434945843E-004
 -8.208299482375957E-004
 -8.122919683336252E-004
 -8.043338002628205E-004
 -7.969786332521413E-004
 -7.902428723114960E-004
 -7.841314030881316E-004
 -7.786304920281086E-004
 -7.736973460983682E-004
 -7.692449901164660E-004
 -1.413622997622245E-003
 -1.410372286723738E-003
 -1.405782133180780E-003
 -1.399878718456219E-003
 -1.392709337890896E-003
 -1.384335696489435E-003
 -1.374828919773241E-003
 -1.364265882354320E-003
 -1.352726540144189E-003
 -1.340292021654023E-003
 -1.327043288185363E-003
 -1.313060216097854E-003
 -1.298420988627095E-003
 -1.283201711605288E-003
 -1.267476188399584E-003
 -1.251315805658410E-003
 -1.234789494007275E-003
 -1.217963737467997E-003
 -1.200902612714798E-003
 -1.183667844845503E-003
 -1.166318870535945E-003
 -1.148912902582233E-003
 -1.131504992178277E-003
 -1.114148087002494E-003
 -1.096893084479223E-003
 -1.079788880516587E-003
 -1.062882414726889E-003
 -1.046218713636591E-003
 -1.029840933752687E-003
 -1.013790406575782E-003
 -9.981066877323488E-004
 -9.828276123243940E-004
 -9.679893582813168E-004
 -9.536265188813679E-004
 -9.397721845020957E-004
 -9.264580318929011E-004
 -9.137144164898328E-004
 -9.015704591126484E-004
 -8.900541121820644E-004
 -8.791921815515645E-004
 -8.690102670014530E-004
 -8.595325658385235E-004
 -8.507814577220871E-004
 -8.427767518622617E-004
 -8.355344261191980E-004
 -8.290646158479947E-004
 -8.233685112995827E-004
 -8.184336862099833E-004
 -8.142271927330568E-004
 -8.106855035201329E-004
 -1.582971749889262E-003
 -1.577562760222951E-003
 -1.570485620288404E-003
 -1.561745834184400E-003
 -1.551392266500108E-003
 -1.539502827560160E-003
 -1.526174044763684E-003
 -1.511513549538097E-003
 -1.495634742934228E-003
 -1.478653074959715E-003
 -1.460683509646550E-003
 -1.441838852793037E-003
 -1.422228699715178E-003
 -1.401958821913005E-003
 -1.381130858502372E-003
 -1.359842213858458E-003
 -1.338186089755289E-003
 -1.316251600428974E-003
 -1.294123933999997E-003
 -1.271884534812488E-003
 -1.249611289402961E-003
 -1.227378704753829E-003
 -1.205258071758526E-003
 -1.183317609860838E-003
 -1.161622590959749E-003
 -1.140235442136170E-003
 -1.119215827741156E-003
 -1.098620712043441E-003
 -1.078504404042706E-003
 -1.058918586321064E-003
 -1.039912329940668E-003
 -1.021532097476202E-003
 -1.003821736267878E-003
 -9.868224639121479E-004
 -9.705728478418816E-004
 -9.551087805266360E-004
 -9.404634512570659E-004
 -9.266673145412618E-004
 -9.137480536113303E-004
 -9.017305351507302E-004
 -8.906367476564150E-004
 -8.804857102711469E-004
 -8.712933305909889E-004
 -8.630721777089087E-004
 -8.558311189340170E-004
 -8.495747429673517E-004
 -8.443024554369785E-004
 -8.400070800228951E-004
 -8.366727263630178E-004
 -8.342715780671303E-004
 -1.779504024791654E-003
 -1.770844061895084E-003
 -1.760136015031465E-003
 -1.747341789974697E-003
 -1.732502611158591E-003
 -1.715712350665264E-003
 -1.697098297684131E-003
 -1.676807472001074E-003
 -1.654997024687511E-003
 -1.631827637846556E-003
 -1.607459105042709E-003
 -1.582047480636193E-003
 -1.555743343825592E-003
 -1.528690842220759E-003
 -1.501027269262853E-003
 -1.472882996887610E-003
 -1.444381634877116E-003
 -1.415640325473800E-003
 -1.386770109182463E-003
 -1.357876317666866E-003
 -1.329058964122823E-003
 -1.300413111864622E-003
 -1.272029209174427E-003
 -1.243993383537617E-003
 -1.216387691816831E-003
 -1.189290325182832E-003
 -1.162775769046232E-003
 -1.136914919087546E-003
 -1.111775154974218E-003
 -1.087420373623450E-003
 -1.063910984058226E-003
 -1.041303866114326E-003
 -1.019652295605241E-003
 -9.990058391359934E-004
 -9.794102227117811E-004
 -9.609071797585249E-004
 -9.435342863478400E-004
 -9.273247945322389E-004
 -9.123074790660906E-004
 -8.985065187900591E-004
 -8.859414421191600E-004
 -8.746271770521457E-004
 -8.645742607639057E-004
 -8.557892831991230E-004
 -8.482756644953559E-004
 -8.420348992279380E-004
 -8.370684441440590E-004
 -8.333804830101279E-004
 -8.309818685671958E-004
 -8.298956486449079E-004
 -2.005642048487599E-003
 -1.992315047346737E-003
 -1.976517387680570E-003
 -1.958134408859871E-003
 -1.937185202763674E-003
 -1.913777155459372E-003
 -1.888073434095988E-003
 -1.860269982076260E-003
 -1.830579517680962E-003
 -1.799220629553373E-003
 -1.766410551605615E-003
 -1.732360568168482E-003
 -1.697273274896673E-003
 -1.661341127145661E-003
 -1.624745862145087E-003
 -1.587658496517971E-003
 -1.550239685980412E-003
 -1.512640296833683E-003
 -1.475002084734788E-003
 -1.437458409507306E-003
 -1.400134938637932E-003
 -1.363150309043456E-003
 -1.326616728484201E-003
 -1.290640506078024E-003
 -1.255322506695507E-003
 -1.220758527441317E-003
 -1.187039596467539E-003
 -1.154252195502704E-003
 -1.122478408039115E-003
 -1.091795995368652E-003
 -1.062278402839525E-003
 -1.033994699022977E-003
 -1.007009451161359E-003
 -9.813825415724829E-004
 -9.571689319004304E-004
 -9.344183856585675E-004
 -9.131751648817282E-004
 -8.934777246296039E-004
 -8.753584404464843E-004
 -8.588434199425125E-004
 -8.439524720414903E-004
 -8.306993383203269E-004
 -8.190923331451747E-004
 -8.091355969244026E-004
 -8.008312449730428E-004
 -7.941827996787855E-004
 -7.892004332614160E-004
 -7.859087350206925E-004
 -7.843579866063702E-004
 -7.846402120348700E-004
 -2.262583404393843E-003
 -2.242817298917486E-003
 -2.220131993089822E-003
 -2.194291056823863E-003
 -2.165270166338140E-003
 -2.133184682158557E-003
 -2.098237914025211E-003
 -2.060684783331282E-003
 -2.020806652449740E-003
 -1.978894265254442E-003
 -1.935236525820517E-003
 -1.890113428390551E-003
 -1.843791899744766E-003
 -1.796523651277790E-003
 -1.748544387382929E-003
 -1.700073900962691E-003
 -1.651316722669210E-003
 -1.602463090073399E-003
 -1.553690075464406E-003
 -1.505162763256980E-003
 -1.457035405271698E-003
 -1.409452508363659E-003
 -1.362549827006221E-003
 -1.316455245672121E-003
 -1.271289543851331E-003
 -1.227167041537984E-003
 -1.184196125900559E-003
 -1.142479661339465E-003
 -1.102115285739841E-003
 -1.063195595888634E-003
 -1.025808225103424E-003
 -9.900358164524493E-004
 -9.559558959040812E-004
 -9.236406517330945E-004
 -8.931566300630258E-004
 -8.645643621924187E-004
 -8.379179482646123E-004
 -8.132646350488431E-004
 -7.906444447856125E-004
 -7.700899393435158E-004
 -7.516262423675891E-004
 -7.352714956033612E-004
 -7.210379994135690E-004
 -7.089343884811532E-004
 -6.989693309994809E-004
 -6.911574270292207E-004
 -6.855282394327279E-004
 -6.821397339948532E-004
 -6.810978070688040E-004
 -6.825843671777944E-004
 -2.549570260431373E-003
 -2.521224969397861E-003
 -2.489511532753934E-003
 -2.454012223589978E-003
 -2.414630170653287E-003
 -2.371479066021755E-003
 -2.324805240849230E-003
 -2.274932795652761E-003
 -2.222225785839857E-003
 -2.167062717193065E-003
 -2.109819836525615E-003
 -2.050860656687050E-003
 -1.990529845962921E-003
 -1.929150119278494E-003
 -1.867021146424625E-003
 -1.804419773282826E-003
 -1.741601058710116E-003
 -1.678799780433134E-003
 -1.616232172257317E-003
 -1.554097733020805E-003
 -1.492581003170939E-003
 -1.431853243664222E-003
 -1.372073978564459E-003
 -1.313392380568124E-003
 -1.255948490216006E-003
 -1.199874266592656E-003
 -1.145294471255967E-003
 -1.092327389018225E-003
 -1.041085389798293E-003
 -9.916753357132910E-004
 -9.441988374052812E-004
 -8.987523637920835E-004
 -8.554272105063591E-004
 -8.143093348322444E-004
 -7.754790697045877E-004
 -7.390107372676725E-004
 -7.049721948950490E-004
 -6.734243651968274E-004
 -6.444208287415647E-004
 -6.180075971479805E-004
 -5.942232391347069E-004
 -5.730996088915671E-004
 -5.546635329201561E-004
 -5.389399594551971E-004
 -5.259572776775494E-004
 -5.157557864634024E-004
 -5.084006518375757E-004
 -5.040012026961483E-004
 -5.027392596562662E-004
 -5.049095134025375E-004
 -2.863035449878658E-003
 -2.823620321968672E-003
 -2.780419802904654E-003
 -2.732760986442445E-003
 -2.680436076324728E-003
 -2.623543558916179E-003
 -2.562374016560156E-003
 -2.497330939362811E-003
 -2.428876158429044E-003
 -2.357493026444788E-003
 -2.283662361095244E-003
 -2.207847423821181E-003
 -2.130485190715805E-003
 -2.051981931969810E-003
 -1.972711679848476E-003
 -1.893016575713664E-003
 -1.813208384796763E-003
 -1.733570684076913E-003
 -1.654361385446779E-003
 -1.575815368855567E-003
 -1.498147079747227E-003
 -1.421553000522217E-003
 -1.346213943479031E-003
 -1.272297137691896E-003
 -1.199958098203773E-003
 -1.129342275469117E-003
 -1.060586488171229E-003
 -9.938201448158413E-004
 -9.291662599997313E-004
 -8.667422708204804E-004
 -8.066606582567715E-004
 -7.490293781655598E-004
 -6.939521074770100E-004
 -6.415283139834948E-004
 -5.918531637406461E-004
 -5.450172897523173E-004
 -5.011064609144216E-004
 -4.602012134158251E-004
 -4.223765410188630E-004
 -3.877017901644889E-004
 -3.562409763477947E-004
 -3.280538370382580E-004
 -3.031980728604839E-004
 -2.817334156155677E-004
 -2.637284207055019E-004
 -2.492712515072072E-004
 -2.384862469699186E-004
 -2.315586728421844E-004
 -2.287704994843949E-004
 -2.305532418281336E-004
 -3.195697996409775E-003
 -3.142419967427683E-003
 -3.085004266267911E-003
 -3.022432744572679E-003
 -2.954343555227511E-003
 -2.880801857445207E-003
 -2.802143319262929E-003
 -2.718862553382156E-003
 -2.631536438016981E-003
 -2.540772774261014E-003
 -2.447176795350342E-003
 -2.351330195683959E-003
 -2.253778892886507E-003
 -2.155026793423546E-003
 -2.055533589951800E-003
 -1.955715181209318E-003
 -1.855945724029567E-003
 -1.756560634042196E-003
 -1.657860072498708E-003
 -1.560112613115976E-003
 -1.463558892162888E-003
 -1.368415120392759E-003
 -1.274876386471416E-003
 -1.183119715230951E-003
 -1.093306865403534E-003
 -1.005586864152986E-003
 -9.200982824111735E-004
 -8.369712577579146E-004
 -7.563292718786980E-004
 -6.782906886353269E-004
 -6.029700574597834E-004
 -5.304791859009337E-004
 -4.609279855593277E-004
 -3.944250982055141E-004
 -3.310783146970936E-004
 -2.709948097984688E-004
 -2.142812330344288E-004
 -1.610437217147146E-004
 -1.113879405941443E-004
 -6.541930794554812E-005
 -2.324364705065179E-005
  1.503138422759188E-005
  4.929357030890430E-005
  7.942137751318296E-005
  1.052761109155021E-004
  1.266895714693173E-004
  1.434452971680793E-004
  1.552504259488729E-004
  1.616929886647445E-004
  1.621844585747557E-004
 -3.535724575929785E-003
 -3.465552740121502E-003
 -3.390966460198742E-003
 -3.310514986259240E-003
 -3.223627067245224E-003
 -3.130322356521759E-003
 -3.030986775657967E-003
 -2.926222167931366E-003
 -2.816743587200681E-003
 -2.703309460199680E-003
 -2.586675631410300E-003
 -2.467566560922215E-003
 -2.346658497092696E-003
 -2.224570804729856E-003
 -2.101862735085666E-003
 -1.979033745843861E-003
 -1.856526062086902E-003
 -1.734728577656546E-003
 -1.613981484088116E-003
 -1.494581218287268E-003
 -1.376785464361279E-003
 -1.260818045585982E-003
 -1.146873610923522E-003
 -1.035122065432936E-003
 -9.257127220206222E-004
 -8.187781683486714E-004
 -7.144378511798170E-004
 -6.128013837938578E-004
 -5.139715823938003E-004
 -4.180472360862409E-004
 -3.251256131559077E-004
 -2.353047048048916E-004
 -1.486852070875506E-004
 -6.537224325093015E-005
  1.452316684825459E-005
  9.088287467475724E-005
  1.635805772545803E-004
  2.324809416873313E-004
  2.974387854518819E-004
  3.582981615747956E-004
  4.148911185352393E-004
  4.670357975783046E-004
  5.145333845642518E-004
  5.571632198869496E-004
  5.946750173234360E-004
  6.267765596052672E-004
  6.531145562246668E-004
  6.732465428393936E-004
  6.866032112648524E-004
  6.924184854301413E-004
 -3.866102556486076E-003
 -3.775766392345561E-003
 -3.680800239193263E-003
 -3.579196878316438E-003
 -3.470167707588091E-003
 -3.353674587846969E-003
 -3.230170182625684E-003
 -3.100398692422449E-003
 -2.965254624224113E-003
 -2.825688896997323E-003
 -2.682648190496756E-003
 -2.537036754807871E-003
 -2.389693546284774E-003
 -2.241379946241350E-003
 -2.092774748094429E-003
 -1.944474023073406E-003
 -1.796994142461920E-003
 -1.650776742436153E-003
 -1.506194801368652E-003
 -1.363559279688435E-003
 -1.223125969035517E-003
 -1.085102330525009E-003
 -9.496541893584342E-004
 -8.169122090517168E-004
 -6.869781037219622E-004
 -5.599305684087302E-004
 -4.358309200568286E-004
 -3.147284486256607E-004
 -1.966654807850236E-004
 -8.168215913479372E-005
  3.017906113994089E-005
  1.388691979733523E-004
  2.443288118767714E-004
  3.464843612804211E-004
  4.452448450179732E-004
  5.404987299856004E-004
  6.321111553798801E-004
  7.199213930592596E-004
  8.037405225659693E-004
  8.833492414936899E-004
  9.584956648081418E-004
  1.028892856546734E-003
  1.094215683244165E-003
  1.154096420777694E-003
  1.208118475936733E-003
  1.255807579548937E-003
  1.296619055033273E-003
  1.329915684154397E-003
  1.354924977141264E-003
  1.370726482735266E-003
 -4.164257759099546E-003
 -4.050051176522663E-003
 -3.930842802137134E-003
 -3.804152620092324E-003
 -3.668870363837658E-003
 -3.524964510909137E-003
 -3.373034259037806E-003
 -3.214037994815425E-003
 -3.049123193629107E-003
 -2.879509630755639E-003
 -2.706408584614031E-003
 -2.530969737880788E-003
 -2.354249013058593E-003
 -2.177191342683822E-003
 -2.000623574446858E-003
 -1.825254033772972E-003
 -1.651676380001653E-003
 -1.480376195014128E-003
 -1.311739273187760E-003
 -1.146060918540712E-003
 -9.835557705248853E-004
 -8.243678237888323E-004
 -6.685804090671413E-004
 -5.162259783217546E-004
 -3.672955955445132E-004
 -2.217480793809601E-004
 -7.951877718660838E-005
  5.947202623973736E-005
  1.953110470226605E-004
  3.280842620677918E-004
  4.578694639093461E-004
  5.847290885165026E-004
  7.087033024706315E-004
  8.298033467417561E-004
  9.480051455856226E-004
  1.063243199091631E-003
  1.175404785669553E-003
  1.284324507539045E-003
  1.389779222906913E-003
  1.491483431314724E-003
  1.589085219166934E-003
  1.682162914265667E-003
  1.770222565626568E-003
  1.852696091879847E-003
  1.928939271556515E-003
  1.998228112979140E-003
  2.059754034865015E-003
  2.112627567137685E-003
  2.155903328424602E-003
  2.188451144056233E-003
 -4.401780317770235E-003
 -4.258445733299808E-003
 -4.109603481347590E-003
 -3.951797750140254E-003
 -3.784082869664698E-003
 -3.606538775552857E-003
 -3.420005531535309E-003
 -3.225818328946955E-003
 -3.025560151302669E-003
 -2.820883554305272E-003
 -2.613398196259054E-003
 -2.404603800677944E-003
 -2.195851427357449E-003
 -1.988322552927481E-003
 -1.783020133149848E-003
 -1.580768255273775E-003
 -1.382218084908534E-003
 -1.187858314948924E-003
 -9.980286315927687E-004
 -8.129349793188302E-004
 -6.326656684251982E-004
 -4.572076181180419E-004
 -2.864622507837118E-004
 -1.202607396918034E-004
  4.162153958238362E-005
  1.994513918908032E-004
  3.535249769084175E-004
  5.041556783926824E-004
  6.516625385249780E-004
  7.963591122011047E-004
  9.385425961287743E-004
  1.078483101809976E-003
  1.216412969738454E-003
  1.352516064456056E-003
  1.486917045757355E-003
  1.619670677416240E-003
  1.750751304747056E-003
  1.880042695121450E-003
  2.007328478568059E-003
  2.132283444956112E-003
  2.254465980243366E-003
  2.373312063333872E-003
  2.488131715137962E-003
  2.598109839431150E-003
  2.702314787500924E-003
  2.799717525401183E-003
  2.889215663432082E-003
  2.969634499723944E-003
  3.039698586245981E-003
  3.098496682398018E-003
 -4.542871108136268E-003
 -4.361392517486979E-003
 -4.171861078325932E-003
 -3.972360149900863E-003
 -3.761206897462756E-003
 -3.538941363059580E-003
 -3.307274992060211E-003
 -3.068381386491144E-003
 -2.824577924890792E-003
 -2.578167701822577E-003
 -2.331333879668786E-003
 -2.086059485368970E-003
 -1.844071206488136E-003
 -1.606807814197291E-003
 -1.375410652312398E-003
 -1.150731317038451E-003
 -9.333511027085214E-004
 -7.236074014630286E-004
 -5.216233278484987E-004
 -3.273379544723378E-004
 -1.405354903369604E-004
  3.912754611211870E-005
  2.120975958447447E-004
  3.789018627133545E-004
  5.401285233254489E-004
  6.964090794547157E-004
  8.484025099213349E-004
  9.967808357341024E-004
  1.142215691740262E-003
  1.285365491987445E-003
  1.426862780881796E-003
  1.567301378317920E-003
  1.707222958632542E-003
  1.847102759201855E-003
  1.987334208244138E-003
  2.128212410735737E-003
  2.269916655550346E-003
  2.412492418856425E-003
  2.555833727910232E-003
  2.699667152489789E-003
  2.843538954774477E-003
  2.986806794320324E-003
  3.128636606243484E-003
  3.268004127493509E-003
  3.403701239462079E-003
  3.534356437080255E-003
  3.658507484785543E-003
  3.774803176496619E-003
  3.882272445468995E-003
  3.979194809107051E-003
 -4.541185196973571E-003
 -4.298063605543316E-003
 -4.048112063773066E-003
 -3.783216961108604E-003
 -3.505919156133651E-003
 -3.219012503051510E-003
 -2.925300695648447E-003
 -2.627948304670959E-003
 -2.330361185259565E-003
 -2.035873947393175E-003
 -1.747476594574816E-003
 -1.467653214151875E-003
 -1.198323412519402E-003
 -9.408535761932255E-004
 -6.961069903970787E-004
 -4.645108189453380E-004
 -2.461265260197767E-004
 -4.071652437379897E-005
  1.521962499168686E-004
  3.332768868695168E-004
  5.033350418316874E-004
  6.632887693241644E-004
  8.141347367556452E-004
  9.569238572668844E-004
  1.092741414641023E-003
  1.222690816843789E-003
  1.347880183322677E-003
  1.469411032719007E-003
  1.588368386600988E-003
  1.705811638624773E-003
  1.822765555788620E-003
  1.940210778612207E-003
  2.059073171092925E-003
  2.180211343640945E-003
  2.304401645202674E-003
  2.432319922192512E-003
  2.564519427450362E-003
  2.701404534316431E-003
  2.843200539110434E-003
  2.989921069177271E-003
  3.141336741966455E-003
  3.296951877248918E-003
  3.455999663917561E-003
  3.617467636844186E-003
  3.780157867036089E-003
  3.942757816899787E-003
  4.103842956179335E-003
  4.261731188691270E-003
  4.414680791037157E-003
  4.565398059544325E-003
 -4.328333357448717E-003
 -3.979013423627034E-003
 -3.606504918593014E-003
 -3.232622438335679E-003
 -2.855290438896938E-003
 -2.475915097731995E-003
 -2.099797633275025E-003
 -1.733228484461068E-003
 -1.381687542830438E-003
 -1.049211386800778E-003
 -7.383874805066824E-004
 -4.505882249882472E-004
 -1.862505079129913E-004
  5.487594368660905E-005
  2.735313682242685E-004
  4.707972101387984E-004
  6.479863929576057E-004
  8.065629852840764E-004
  9.480834127230346E-004
  1.074153398426040E-003
  1.186396490752919E-003
  1.286431258578434E-003
  1.375855071599457E-003
  1.456232938233018E-003
  1.529090238958540E-003
  1.595908436334209E-003
  1.658123010668072E-003
  1.717122992096053E-003
  1.774251553512457E-003
  1.830807204281284E-003
  1.888045185671589E-003
  1.947178713682912E-003
  2.009379734935989E-003
  2.075778839109114E-003
  2.147463877035223E-003
  2.225476621038354E-003
  2.310806411369265E-003
  2.404379093800711E-003
  2.507038642530665E-003
  2.619517811368093E-003
  2.742393527608961E-003
  2.876024098123096E-003
  3.020472220644089E-003
  3.175437302516105E-003
  3.340263405476162E-003
  3.514161300711937E-003
  3.696839617749264E-003
  3.889496518756306E-003
  4.094375693256486E-003
  4.303397857289104E-003
 -3.832346008162354E-003
 -3.215480650355533E-003
 -2.671221777513503E-003
 -2.127598742506697E-003
 -1.601134498424366E-003
 -1.113705040129656E-003
 -6.773405362298249E-004
 -2.954931428317807E-004
  3.341197014745394E-005
  3.133067864718213E-004
  5.489288578479695E-004
  7.450438309771383E-004
  9.061120807967401E-004
  1.036182647940364E-003
  1.138891265934388E-003
  1.217498629251551E-003
  1.274938613601323E-003
  1.313863748893742E-003
  1.336683828715743E-003
  1.345597350959280E-003
  1.342616906155623E-003
  1.329589939008113E-003
  1.308216157343757E-003
  1.280062568127110E-003
  1.246576824721639E-003
  1.209099329162517E-003
  1.168874363819168E-003
  1.127060428706441E-003
  1.084739930526449E-003
  1.042928406442939E-003
  1.002583573948969E-003
  9.646146885780332E-004
  9.298929796648018E-004
  8.992643392330862E-004
  8.735659732202721E-004
  8.536493775972605E-004
  8.404127065024520E-004
  8.348461609061942E-004
  8.380939973187300E-004
  8.515352153407724E-004
  8.768801829579322E-004
  9.162693694296886E-004
  9.723384347512511E-004
  1.048176560559361E-003
  1.147055707190424E-003
  1.271791382653383E-003
  1.423804265218887E-003
  1.603082360368585E-003
  1.814592368294348E-003
  2.101533309907280E-003
 -3.045307481044099E-003
 -2.141011281848342E-003
 -1.169533838099332E-003
 -4.134385238568607E-004
  1.044616282379051E-004
  4.284107554138251E-004
  6.093389647384355E-004
  6.889352470438290E-004
  6.977860498486074E-004
  6.573085822599447E-004
  5.821942923100481E-004
  4.824556883770573E-004
  3.649380744630265E-004
  2.343748786116856E-004
  9.410236172927396E-005
 -5.346541073791887E-005
 -2.065251661486359E-004
 -3.636824928236540E-004
 -5.238221532040719E-004
 -6.860255164965386E-004
 -8.495183939721638E-004
 -1.013638301302751E-003
 -1.177814048260184E-003
 -1.341553150194012E-003
 -1.504434277748616E-003
 -1.666103093161735E-003
 -1.826270553726983E-003
 -1.984713221116044E-003
 -2.141275377537280E-003
 -2.295872858277151E-003
 -2.448498476547299E-003
 -2.599228722305178E-003
 -2.748231009040324E-003
 -2.895770024021510E-003
 -3.042210548411826E-003
 -3.188012204132095E-003
 -3.333708574919666E-003
 -3.479858478894887E-003
 -3.626950045519632E-003
 -3.775227638278067E-003
 -3.924396481304159E-003
 -4.073139772349807E-003
 -4.218361211650977E-003
 -4.354056765423706E-003
 -4.469771850251571E-003
 -4.548861224415977E-003
 -4.567664972183628E-003
 -4.499458140804209E-003
 -4.335060237223467E-003
 -4.155056927073146E-003
 -2.688858190548224E-003
 -7.498808954722471E-004
 -4.889117383528061E-004
 -9.263611717685617E-004
 -1.631431931624264E-003
 -2.411193371878667E-003
 -3.180043711745850E-003
 -3.902435810464195E-003
 -4.566587019910993E-003
 -5.171901843105150E-003
 -5.722761446180689E-003
 -6.225409267453838E-003
 -6.686403048065023E-003
 -7.111881956883098E-003
 -7.507263036839164E-003
 -7.877161738159347E-003
 -8.225424779650693E-003
 -8.555213964976965E-003
 -8.869107577216536E-003
 -9.169201826445376E-003
 -9.457203857773183E-003
 -9.734512938024896E-003
 -1.000228926484337E-002
 -1.026151133486871E-002
 -1.051302353378614E-002
 -1.075757591085859E-002
 -1.099585818006827E-002
 -1.122852997347374E-002
 -1.145624933424164E-002
 -1.167970141999086E-002
 -1.189962941408739E-002
 -1.211686972004876E-002
 -1.233239363308755E-002
 -1.254735781167003E-002
 -1.276316594191139E-002
 -1.298154386068258E-002
 -1.320462980967717E-002
 -1.343507990615333E-002
 -1.367618529958708E-002
 -1.393198975959009E-002
 -1.420738035246607E-002
 -1.450809045794500E-002
 -1.484048426223919E-002
 -1.521084172972368E-002
 -1.562353310818031E-002
 -1.607672512890600E-002
 -1.655251690861970E-002
 -1.699420228667181E-002
 -1.725293020263071E-002
 -1.695944110571306E-002
 -4.085500519566629E-003
 -9.620924648633896E-003
 -1.321182425246024E-002
 -1.570750267174796E-002
 -1.753546786181702E-002
 -1.892953074324014E-002
 -2.002801739180514E-002
 -2.091833973306923E-002
 -2.165855262147791E-002
 -2.228856900338510E-002
 -2.283645824177854E-002
 -2.332224672633498E-002
 -2.376035390342678E-002
 -2.416122666240844E-002
 -2.453247118516662E-002
 -2.487965286860564E-002
 -2.520686844996744E-002
 -2.551715768447677E-002
 -2.581280013885363E-002
 -2.609552892725177E-002
 -2.636668409613235E-002
 -2.662732207156606E-002
 -2.687829312374643E-002
 -2.712029559217766E-002
 -2.735391328247257E-002
 -2.757964074899871E-002
 -2.779789995117813E-002
 -2.800905090074108E-002
 -2.821339832508703E-002
 -2.841119600906132E-002
 -2.860265031996917E-002
 -2.878792446980767E-002
 -2.896714535581831E-002
 -2.914041541771287E-002
 -2.930783299173009E-002
 -2.946952636341880E-002
 -2.962570953109502E-002
 -2.977677230519869E-002
 -2.992342506219778E-002
 -3.006693158622891E-002
 -3.020948638883570E-002
 -3.035483432763850E-002
 -3.050930769497300E-002
 -3.068360579105303E-002
 -3.089594388430738E-002
 -3.117783185792620E-002
 -3.158512712380192E-002
 -3.222015466686146E-002
 -3.327812301870817E-002
 -3.514925226406142E-002
  7.055863683549636E-003
  8.031229755454453E-003
  8.145289124672470E-003
  7.802465931927025E-003
  7.224864202556936E-003
  6.537243803834191E-003
  5.810334047974324E-003
  5.083993707794904E-003
  4.380093960482050E-003
  3.709909726621840E-003
  3.078459209511715E-003
  2.487093268392637E-003
  1.935056245021437E-003
  1.420431039195424E-003
  9.407105270023142E-004
  4.931400998848213E-004
  7.491922097751635E-005
 -3.166840231245450E-004
 -6.842719463461006E-004
 -1.030289041714871E-003
 -1.357013505258161E-003
 -1.666560372566390E-003
 -1.960891195263073E-003
 -2.241827109251972E-003
 -2.511063355542950E-003
 -2.770184067972429E-003
 -3.020676602151804E-003
 -3.263944946838071E-003
 -3.501321893360148E-003
 -3.734079675344120E-003
 -3.963438745679527E-003
 -4.190574231812410E-003
 -4.416619391948315E-003
 -4.642665057149909E-003
 -4.869753543478334E-003
 -5.098864786720622E-003
 -5.330891389893933E-003
 -5.566597734595664E-003
 -5.806556079278718E-003
 -6.051049341394698E-003
 -6.299925579195275E-003
 -6.552382356530324E-003
 -6.806649065910458E-003
 -7.059519911974023E-003
 -7.305665663393090E-003
 -7.536609624070675E-003
 -7.739170874685070E-003
 -7.892999215998142E-003
 -7.966398980941468E-003
 -7.908543299991062E-003
SCALARS elementIsPlast double 
LOOKUP_TABLE default
   1.00000000000000     
   1.00000000000000     
   1.00000000000000     
  0.000000000000000E+000
  0.000000000000000E+000
  0.000000000000000E+000
  0.000000000000000E+000
  0.000000000000000E+000
  0.000000000000000E+000
  0.000000000000000E+000
  0.000000000000000E+000
  0.000000000000000E+000
  0.000000000000000E+000
  0.000000000000000E+000
  0.000000000000000E+000
  0.000000000000000E+000
  0.000000000000000E+000
  0.000000000000000E+000
  0.000000000000000E+000
  0.000000000000000E+000
  0.000000000000000E+000
  0.000000000000000E+000
  0.000000000000000E+000
  0.000000000000000E+000
  0.000000000000000E+000
  0.000000000000000E+000
  0.000000000000000E+000
  0.000000000000000E+000
  0.000000000000000E+000
  0.000000000000000E+000
  0.000000000000000E+000
  0.000000000000000E+000
  0.000000000000000E+000
  0.000000000000000E+000
  0.000000000000000E+000
  0.000000000000000E+000
  0.000000000000000E+000
  0.000000000000000E+000
  0.000000000000000E+000
  0.000000000000000E+000
  0.000000000000000E+000
  0.000000000000000E+000
  0.000000000000000E+000
  0.000000000000000E+000
  0.000000000000000E+000
  0.000000000000000E+000
  0.000000000000000E+000
  0.000000000000000E+000
  0.000000000000000E+000
  0.000000000000000E+000
  0.000000000000000E+000
  0.000000000000000E+000
  0.000000000000000E+000
  0.000000000000000E+000
  0.000000000000000E+000
  0.000000000000000E+000
  0.000000000000000E+000
  0.000000000000000E+000
  0.000000000000000E+000
  0.000000000000000E+000
  0.000000000000000E+000
  0.000000000000000E+000
  0.000000000000000E+000
  0.000000000000000E+000
  0.000000000000000E+000
  0.000000000000000E+000
  0.000000000000000E+000
  0.000000000000000E+000
  0.000000000000000E+000
  0.000000000000000E+000
  0.000000000000000E+000
  0.000000000000000E+000
  0.000000000000000E+000
  0.000000000000000E+000
  0.000000000000000E+000
  0.000000000000000E+000
  0.000000000000000E+000
  0.000000000000000E+000
  0.000000000000000E+000
  0.000000000000000E+000
  0.000000000000000E+000
  0.000000000000000E+000
  0.000000000000000E+000
  0.000000000000000E+000
  0.000000000000000E+000
  0.000000000000000E+000
  0.000000000000000E+000
  0.000000000000000E+000
  0.000000000000000E+000
  0.000000000000000E+000
  0.000000000000000E+000
  0.000000000000000E+000
  0.000000000000000E+000
  0.000000000000000E+000
  0.000000000000000E+000
  0.000000000000000E+000
  0.000000000000000E+000
  0.000000000000000E+000
  0.000000000000000E+000
  0.000000000000000E+000
  0.000000000000000E+000
  0.000000000000000E+000
  0.000000000000000E+000
  0.000000000000000E+000
  0.000000000000000E+000
  0.000000000000000E+000
  0.000000000000000E+000
  0.000000000000000E+000
  0.000000000000000E+000
  0.000000000000000E+000
  0.000000000000000E+000
  0.000000000000000E+000
  0.000000000000000E+000
  0.000000000000000E+000
  0.000000000000000E+000
  0.000000000000000E+000
  0.000000000000000E+000
  0.000000000000000E+000
  0.000000000000000E+000
  0.000000000000000E+000
  0.000000000000000E+000
  0.000000000000000E+000
  0.000000000000000E+000
  0.000000000000000E+000
  0.000000000000000E+000
  0.000000000000000E+000
  0.000000000000000E+000
  0.000000000000000E+000
  0.000000000000000E+000
  0.000000000000000E+000
  0.000000000000000E+000
  0.000000000000000E+000
  0.000000000000000E+000
  0.000000000000000E+000
  0.000000000000000E+000
  0.000000000000000E+000
  0.000000000000000E+000
  0.000000000000000E+000
  0.000000000000000E+000
  0.000000000000000E+000
  0.000000000000000E+000
  0.000000000000000E+000
  0.000000000000000E+000
  0.000000000000000E+000
  0.000000000000000E+000
  0.000000000000000E+000
  0.000000000000000E+000
  0.000000000000000E+000
  0.000000000000000E+000
  0.000000000000000E+000
  0.000000000000000E+000
  0.000000000000000E+000
  0.000000000000000E+000
  0.000000000000000E+000
  0.000000000000000E+000
  0.000000000000000E+000
  0.000000000000000E+000
  0.000000000000000E+000
  0.000000000000000E+000
  0.000000000000000E+000
  0.000000000000000E+000
  0.000000000000000E+000
  0.000000000000000E+000
  0.000000000000000E+000
  0.000000000000000E+000
  0.000000000000000E+000
  0.000000000000000E+000
  0.000000000000000E+000
  0.000000000000000E+000
  0.000000000000000E+000
  0.000000000000000E+000
  0.000000000000000E+000
  0.000000000000000E+000
  0.000000000000000E+000
  0.000000000000000E+000
  0.000000000000000E+000
  0.000000000000000E+000
  0.000000000000000E+000
  0.000000000000000E+000
  0.000000000000000E+000
  0.000000000000000E+000
  0.000000000000000E+000
  0.000000000000000E+000
  0.000000000000000E+000
  0.000000000000000E+000
  0.000000000000000E+000
  0.000000000000000E+000
  0.000000000000000E+000
  0.000000000000000E+000
  0.000000000000000E+000
  0.000000000000000E+000
  0.000000000000000E+000
  0.000000000000000E+000
  0.000000000000000E+000
  0.000000000000000E+000
  0.000000000000000E+000
  0.000000000000000E+000
  0.000000000000000E+000
  0.000000000000000E+000
  0.000000000000000E+000
  0.000000000000000E+000
  0.000000000000000E+000
  0.000000000000000E+000
  0.000000000000000E+000
  0.000000000000000E+000
  0.000000000000000E+000
  0.000000000000000E+000
  0.000000000000000E+000
  0.000000000000000E+000
  0.000000000000000E+000
  0.000000000000000E+000
  0.000000000000000E+000
  0.000000000000000E+000
  0.000000000000000E+000
  0.000000000000000E+000
  0.000000000000000E+000
  0.000000000000000E+000
  0.000000000000000E+000
  0.000000000000000E+000
  0.000000000000000E+000
  0.000000000000000E+000
  0.000000000000000E+000
  0.000000000000000E+000
  0.000000000000000E+000
  0.000000000000000E+000
  0.000000000000000E+000
  0.000000000000000E+000
  0.000000000000000E+000
  0.000000000000000E+000
  0.000000000000000E+000
  0.000000000000000E+000
  0.000000000000000E+000
  0.000000000000000E+000
  0.000000000000000E+000
  0.000000000000000E+000
  0.000000000000000E+000
  0.000000000000000E+000
  0.000000000000000E+000
  0.000000000000000E+000
  0.000000000000000E+000
  0.000000000000000E+000
  0.000000000000000E+000
  0.000000000000000E+000
  0.000000000000000E+000
  0.000000000000000E+000
  0.000000000000000E+000
  0.000000000000000E+000
  0.000000000000000E+000
  0.000000000000000E+000
  0.000000000000000E+000
  0.000000000000000E+000
  0.000000000000000E+000
  0.000000000000000E+000
  0.000000000000000E+000
  0.000000000000000E+000
  0.000000000000000E+000
  0.000000000000000E+000
  0.000000000000000E+000
  0.000000000000000E+000
  0.000000000000000E+000
  0.000000000000000E+000
  0.000000000000000E+000
  0.000000000000000E+000
  0.000000000000000E+000
  0.000000000000000E+000
  0.000000000000000E+000
  0.000000000000000E+000
  0.000000000000000E+000
  0.000000000000000E+000
  0.000000000000000E+000
  0.000000000000000E+000
  0.000000000000000E+000
  0.000000000000000E+000
  0.000000000000000E+000
  0.000000000000000E+000
  0.000000000000000E+000
  0.000000000000000E+000
  0.000000000000000E+000
  0.000000000000000E+000
  0.000000000000000E+000
  0.000000000000000E+000
  0.000000000000000E+000
  0.000000000000000E+000
  0.000000000000000E+000
  0.000000000000000E+000
  0.000000000000000E+000
  0.000000000000000E+000
  0.000000000000000E+000
  0.000000000000000E+000
  0.000000000000000E+000
  0.000000000000000E+000
  0.000000000000000E+000
  0.000000000000000E+000
  0.000000000000000E+000
  0.000000000000000E+000
  0.000000000000000E+000
  0.000000000000000E+000
  0.000000000000000E+000
  0.000000000000000E+000
  0.000000000000000E+000
  0.000000000000000E+000
  0.000000000000000E+000
  0.000000000000000E+000
  0.000000000000000E+000
  0.000000000000000E+000
  0.000000000000000E+000
  0.000000000000000E+000
  0.000000000000000E+000
  0.000000000000000E+000
  0.000000000000000E+000
  0.000000000000000E+000
  0.000000000000000E+000
  0.000000000000000E+000
  0.000000000000000E+000
  0.000000000000000E+000
  0.000000000000000E+000
  0.000000000000000E+000
  0.000000000000000E+000
  0.000000000000000E+000
  0.000000000000000E+000
  0.000000000000000E+000
  0.000000000000000E+000
  0.000000000000000E+000
  0.000000000000000E+000
  0.000000000000000E+000
  0.000000000000000E+000
  0.000000000000000E+000
  0.000000000000000E+000
  0.000000000000000E+000
  0.000000000000000E+000
  0.000000000000000E+000
  0.000000000000000E+000
  0.000000000000000E+000
  0.000000000000000E+000
  0.000000000000000E+000
  0.000000000000000E+000
  0.000000000000000E+000
  0.000000000000000E+000
  0.000000000000000E+000
  0.000000000000000E+000
  0.000000000000000E+000
  0.000000000000000E+000
  0.000000000000000E+000
  0.000000000000000E+000
  0.000000000000000E+000
  0.000000000000000E+000
  0.000000000000000E+000
  0.000000000000000E+000
  0.000000000000000E+000
  0.000000000000000E+000
  0.000000000000000E+000
  0.000000000000000E+000
  0.000000000000000E+000
  0.000000000000000E+000
  0.000000000000000E+000
  0.000000000000000E+000
  0.000000000000000E+000
  0.000000000000000E+000
  0.000000000000000E+000
  0.000000000000000E+000
  0.000000000000000E+000
  0.000000000000000E+000
  0.000000000000000E+000
  0.000000000000000E+000
  0.000000000000000E+000
  0.000000000000000E+000
  0.000000000000000E+000
  0.000000000000000E+000
  0.000000000000000E+000
  0.000000000000000E+000
  0.000000000000000E+000
  0.000000000000000E+000
  0.000000000000000E+000
  0.000000000000000E+000
  0.000000000000000E+000
  0.000000000000000E+000
  0.000000000000000E+000
  0.000000000000000E+000
  0.000000000000000E+000
  0.000000000000000E+000
  0.000000000000000E+000
  0.000000000000000E+000
  0.000000000000000E+000
  0.000000000000000E+000
  0.000000000000000E+000
  0.000000000000000E+000
  0.000000000000000E+000
  0.000000000000000E+000
  0.000000000000000E+000
  0.000000000000000E+000
  0.000000000000000E+000
  0.000000000000000E+000
  0.000000000000000E+000
  0.000000000000000E+000
  0.000000000000000E+000
  0.000000000000000E+000
  0.000000000000000E+000
  0.000000000000000E+000
  0.000000000000000E+000
  0.000000000000000E+000
  0.000000000000000E+000
  0.000000000000000E+000
  0.000000000000000E+000
  0.000000000000000E+000
  0.000000000000000E+000
  0.000000000000000E+000
  0.000000000000000E+000
  0.000000000000000E+000
  0.000000000000000E+000
  0.000000000000000E+000
  0.000000000000000E+000
  0.000000000000000E+000
  0.000000000000000E+000
  0.000000000000000E+000
  0.000000000000000E+000
  0.000000000000000E+000
  0.000000000000000E+000
  0.000000000000000E+000
  0.000000000000000E+000
  0.000000000000000E+000
  0.000000000000000E+000
  0.000000000000000E+000
  0.000000000000000E+000
  0.000000000000000E+000
  0.000000000000000E+000
  0.000000000000000E+000
  0.000000000000000E+000
  0.000000000000000E+000
  0.000000000000000E+000
  0.000000000000000E+000
  0.000000000000000E+000
  0.000000000000000E+000
  0.000000000000000E+000
  0.000000000000000E+000
  0.000000000000000E+000
  0.000000000000000E+000
  0.000000000000000E+000
  0.000000000000000E+000
  0.000000000000000E+000
  0.000000000000000E+000
  0.000000000000000E+000
  0.000000000000000E+000
  0.000000000000000E+000
  0.000000000000000E+000
  0.000000000000000E+000
  0.000000000000000E+000
  0.000000000000000E+000
  0.000000000000000E+000
  0.000000000000000E+000
  0.000000000000000E+000
  0.000000000000000E+000
  0.000000000000000E+000
  0.000000000000000E+000
  0.000000000000000E+000
  0.000000000000000E+000
  0.000000000000000E+000
  0.000000000000000E+000
  0.000000000000000E+000
  0.000000000000000E+000
  0.000000000000000E+000
  0.000000000000000E+000
  0.000000000000000E+000
  0.000000000000000E+000
  0.000000000000000E+000
  0.000000000000000E+000
  0.000000000000000E+000
  0.000000000000000E+000
  0.000000000000000E+000
  0.000000000000000E+000
  0.000000000000000E+000
  0.000000000000000E+000
  0.000000000000000E+000
  0.000000000000000E+000
  0.000000000000000E+000
  0.000000000000000E+000
  0.000000000000000E+000
  0.000000000000000E+000
  0.000000000000000E+000
  0.000000000000000E+000
  0.000000000000000E+000
  0.000000000000000E+000
  0.000000000000000E+000
  0.000000000000000E+000
  0.000000000000000E+000
  0.000000000000000E+000
  0.000000000000000E+000
  0.000000000000000E+000
  0.000000000000000E+000
  0.000000000000000E+000
  0.000000000000000E+000
  0.000000000000000E+000
  0.000000000000000E+000
  0.000000000000000E+000
  0.000000000000000E+000
  0.000000000000000E+000
  0.000000000000000E+000
  0.000000000000000E+000
  0.000000000000000E+000
  0.000000000000000E+000
  0.000000000000000E+000
  0.000000000000000E+000
  0.000000000000000E+000
  0.000000000000000E+000
  0.000000000000000E+000
  0.000000000000000E+000
  0.000000000000000E+000
  0.000000000000000E+000
  0.000000000000000E+000
  0.000000000000000E+000
  0.000000000000000E+000
  0.000000000000000E+000
  0.000000000000000E+000
  0.000000000000000E+000
  0.000000000000000E+000
  0.000000000000000E+000
  0.000000000000000E+000
  0.000000000000000E+000
  0.000000000000000E+000
  0.000000000000000E+000
  0.000000000000000E+000
  0.000000000000000E+000
  0.000000000000000E+000
  0.000000000000000E+000
  0.000000000000000E+000
  0.000000000000000E+000
  0.000000000000000E+000
  0.000000000000000E+000
  0.000000000000000E+000
  0.000000000000000E+000
  0.000000000000000E+000
  0.000000000000000E+000
  0.000000000000000E+000
  0.000000000000000E+000
  0.000000000000000E+000
  0.000000000000000E+000
  0.000000000000000E+000
  0.000000000000000E+000
  0.000000000000000E+000
  0.000000000000000E+000
  0.000000000000000E+000
  0.000000000000000E+000
  0.000000000000000E+000
  0.000000000000000E+000
  0.000000000000000E+000
  0.000000000000000E+000
  0.000000000000000E+000
  0.000000000000000E+000
  0.000000000000000E+000
  0.000000000000000E+000
  0.000000000000000E+000
  0.000000000000000E+000
  0.000000000000000E+000
  0.000000000000000E+000
  0.000000000000000E+000
  0.000000000000000E+000
  0.000000000000000E+000
  0.000000000000000E+000
  0.000000000000000E+000
  0.000000000000000E+000
  0.000000000000000E+000
  0.000000000000000E+000
  0.000000000000000E+000
  0.000000000000000E+000
  0.000000000000000E+000
  0.000000000000000E+000
  0.000000000000000E+000
  0.000000000000000E+000
  0.000000000000000E+000
  0.000000000000000E+000
  0.000000000000000E+000
  0.000000000000000E+000
  0.000000000000000E+000
  0.000000000000000E+000
  0.000000000000000E+000
  0.000000000000000E+000
  0.000000000000000E+000
  0.000000000000000E+000
  0.000000000000000E+000
  0.000000000000000E+000
  0.000000000000000E+000
  0.000000000000000E+000
  0.000000000000000E+000
  0.000000000000000E+000
  0.000000000000000E+000
  0.000000000000000E+000
  0.000000000000000E+000
  0.000000000000000E+000
  0.000000000000000E+000
  0.000000000000000E+000
  0.000000000000000E+000
  0.000000000000000E+000
  0.000000000000000E+000
  0.000000000000000E+000
  0.000000000000000E+000
  0.000000000000000E+000
  0.000000000000000E+000
  0.000000000000000E+000
  0.000000000000000E+000
  0.000000000000000E+000
  0.000000000000000E+000
  0.000000000000000E+000
  0.000000000000000E+000
  0.000000000000000E+000
  0.000000000000000E+000
  0.000000000000000E+000
  0.000000000000000E+000
  0.000000000000000E+000
  0.000000000000000E+000
  0.000000000000000E+000
  0.000000000000000E+000
  0.000000000000000E+000
  0.000000000000000E+000
  0.000000000000000E+000
  0.000000000000000E+000
  0.000000000000000E+000
  0.000000000000000E+000
  0.000000000000000E+000
  0.000000000000000E+000
  0.000000000000000E+000
  0.000000000000000E+000
  0.000000000000000E+000
  0.000000000000000E+000
  0.000000000000000E+000
  0.000000000000000E+000
  0.000000000000000E+000
  0.000000000000000E+000
  0.000000000000000E+000
  0.000000000000000E+000
  0.000000000000000E+000
  0.000000000000000E+000
  0.000000000000000E+000
  0.000000000000000E+000
  0.000000000000000E+000
  0.000000000000000E+000
  0.000000000000000E+000
  0.000000000000000E+000
  0.000000000000000E+000
  0.000000000000000E+000
  0.000000000000000E+000
  0.000000000000000E+000
  0.000000000000000E+000
  0.000000000000000E+000
  0.000000000000000E+000
  0.000000000000000E+000
  0.000000000000000E+000
  0.000000000000000E+000
  0.000000000000000E+000
  0.000000000000000E+000
  0.000000000000000E+000
  0.000000000000000E+000
  0.000000000000000E+000
  0.000000000000000E+000
  0.000000000000000E+000
  0.000000000000000E+000
  0.000000000000000E+000
  0.000000000000000E+000
  0.000000000000000E+000
  0.000000000000000E+000
  0.000000000000000E+000
  0.000000000000000E+000
  0.000000000000000E+000
  0.000000000000000E+000
  0.000000000000000E+000
  0.000000000000000E+000
  0.000000000000000E+000
  0.000000000000000E+000
  0.000000000000000E+000
  0.000000000000000E+000
  0.000000000000000E+000
  0.000000000000000E+000
  0.000000000000000E+000
  0.000000000000000E+000
  0.000000000000000E+000
  0.000000000000000E+000
  0.000000000000000E+000
  0.000000000000000E+000
  0.000000000000000E+000
  0.000000000000000E+000
  0.000000000000000E+000
  0.000000000000000E+000
  0.000000000000000E+000
  0.000000000000000E+000
  0.000000000000000E+000
  0.000000000000000E+000
  0.000000000000000E+000
  0.000000000000000E+000
  0.000000000000000E+000
  0.000000000000000E+000
  0.000000000000000E+000
  0.000000000000000E+000
  0.000000000000000E+000
  0.000000000000000E+000
  0.000000000000000E+000
  0.000000000000000E+000
  0.000000000000000E+000
  0.000000000000000E+000
  0.000000000000000E+000
  0.000000000000000E+000
  0.000000000000000E+000
  0.000000000000000E+000
  0.000000000000000E+000
  0.000000000000000E+000
  0.000000000000000E+000
  0.000000000000000E+000
  0.000000000000000E+000
  0.000000000000000E+000
  0.000000000000000E+000
  0.000000000000000E+000
  0.000000000000000E+000
  0.000000000000000E+000
  0.000000000000000E+000
  0.000000000000000E+000
  0.000000000000000E+000
  0.000000000000000E+000
  0.000000000000000E+000
  0.000000000000000E+000
  0.000000000000000E+000
  0.000000000000000E+000
  0.000000000000000E+000
  0.000000000000000E+000
  0.000000000000000E+000
  0.000000000000000E+000
  0.000000000000000E+000
  0.000000000000000E+000
  0.000000000000000E+000
  0.000000000000000E+000
  0.000000000000000E+000
  0.000000000000000E+000
  0.000000000000000E+000
  0.000000000000000E+000
  0.000000000000000E+000
  0.000000000000000E+000
  0.000000000000000E+000
  0.000000000000000E+000
  0.000000000000000E+000
  0.000000000000000E+000
  0.000000000000000E+000
  0.000000000000000E+000
  0.000000000000000E+000
  0.000000000000000E+000
  0.000000000000000E+000
  0.000000000000000E+000
  0.000000000000000E+000
  0.000000000000000E+000
  0.000000000000000E+000
  0.000000000000000E+000
  0.000000000000000E+000
  0.000000000000000E+000
  0.000000000000000E+000
  0.000000000000000E+000
  0.000000000000000E+000
  0.000000000000000E+000
  0.000000000000000E+000
  0.000000000000000E+000
  0.000000000000000E+000
  0.000000000000000E+000
  0.000000000000000E+000
  0.000000000000000E+000
  0.000000000000000E+000
  0.000000000000000E+000
  0.000000000000000E+000
  0.000000000000000E+000
  0.000000000000000E+000
  0.000000000000000E+000
  0.000000000000000E+000
  0.000000000000000E+000
  0.000000000000000E+000
  0.000000000000000E+000
  0.000000000000000E+000
  0.000000000000000E+000
  0.000000000000000E+000
  0.000000000000000E+000
  0.000000000000000E+000
  0.000000000000000E+000
  0.000000000000000E+000
  0.000000000000000E+000
  0.000000000000000E+000
  0.000000000000000E+000
  0.000000000000000E+000
  0.000000000000000E+000
  0.000000000000000E+000
  0.000000000000000E+000
  0.000000000000000E+000
  0.000000000000000E+000
  0.000000000000000E+000
  0.000000000000000E+000
  0.000000000000000E+000
  0.000000000000000E+000
  0.000000000000000E+000
  0.000000000000000E+000
  0.000000000000000E+000
  0.000000000000000E+000
  0.000000000000000E+000
  0.000000000000000E+000
  0.000000000000000E+000
  0.000000000000000E+000
  0.000000000000000E+000
  0.000000000000000E+000
  0.000000000000000E+000
  0.000000000000000E+000
  0.000000000000000E+000
  0.000000000000000E+000
  0.000000000000000E+000
  0.000000000000000E+000
  0.000000000000000E+000
  0.000000000000000E+000
  0.000000000000000E+000
  0.000000000000000E+000
  0.000000000000000E+000
  0.000000000000000E+000
  0.000000000000000E+000
  0.000000000000000E+000
  0.000000000000000E+000
  0.000000000000000E+000
  0.000000000000000E+000
  0.000000000000000E+000
  0.000000000000000E+000
  0.000000000000000E+000
  0.000000000000000E+000
  0.000000000000000E+000
  0.000000000000000E+000
  0.000000000000000E+000
  0.000000000000000E+000
  0.000000000000000E+000
  0.000000000000000E+000
  0.000000000000000E+000
  0.000000000000000E+000
  0.000000000000000E+000
  0.000000000000000E+000
  0.000000000000000E+000
  0.000000000000000E+000
  0.000000000000000E+000
  0.000000000000000E+000
  0.000000000000000E+000
  0.000000000000000E+000
  0.000000000000000E+000
  0.000000000000000E+000
  0.000000000000000E+000
  0.000000000000000E+000
  0.000000000000000E+000
  0.000000000000000E+000
  0.000000000000000E+000
  0.000000000000000E+000
  0.000000000000000E+000
  0.000000000000000E+000
  0.000000000000000E+000
  0.000000000000000E+000
  0.000000000000000E+000
  0.000000000000000E+000
  0.000000000000000E+000
  0.000000000000000E+000
  0.000000000000000E+000
  0.000000000000000E+000
  0.000000000000000E+000
  0.000000000000000E+000
  0.000000000000000E+000
  0.000000000000000E+000
  0.000000000000000E+000
  0.000000000000000E+000
  0.000000000000000E+000
  0.000000000000000E+000
  0.000000000000000E+000
  0.000000000000000E+000
  0.000000000000000E+000
  0.000000000000000E+000
  0.000000000000000E+000
  0.000000000000000E+000
  0.000000000000000E+000
  0.000000000000000E+000
  0.000000000000000E+000
  0.000000000000000E+000
  0.000000000000000E+000
  0.000000000000000E+000
  0.000000000000000E+000
  0.000000000000000E+000
  0.000000000000000E+000
  0.000000000000000E+000
  0.000000000000000E+000
  0.000000000000000E+000
  0.000000000000000E+000
  0.000000000000000E+000
  0.000000000000000E+000
  0.000000000000000E+000
  0.000000000000000E+000
  0.000000000000000E+000
  0.000000000000000E+000
  0.000000000000000E+000
  0.000000000000000E+000
  0.000000000000000E+000
  0.000000000000000E+000
  0.000000000000000E+000
  0.000000000000000E+000
  0.000000000000000E+000
  0.000000000000000E+000
  0.000000000000000E+000
  0.000000000000000E+000
  0.000000000000000E+000
  0.000000000000000E+000
  0.000000000000000E+000
  0.000000000000000E+000
  0.000000000000000E+000
  0.000000000000000E+000
  0.000000000000000E+000
  0.000000000000000E+000
  0.000000000000000E+000
  0.000000000000000E+000
  0.000000000000000E+000
  0.000000000000000E+000
  0.000000000000000E+000
  0.000000000000000E+000
  0.000000000000000E+000
  0.000000000000000E+000
  0.000000000000000E+000
  0.000000000000000E+000
  0.000000000000000E+000
  0.000000000000000E+000
  0.000000000000000E+000
  0.000000000000000E+000
  0.000000000000000E+000
  0.000000000000000E+000
  0.000000000000000E+000
  0.000000000000000E+000
  0.000000000000000E+000
  0.000000000000000E+000
  0.000000000000000E+000
  0.000000000000000E+000
  0.000000000000000E+000
  0.000000000000000E+000
  0.000000000000000E+000
  0.000000000000000E+000
  0.000000000000000E+000
  0.000000000000000E+000
  0.000000000000000E+000
  0.000000000000000E+000
  0.000000000000000E+000
  0.000000000000000E+000
  0.000000000000000E+000
  0.000000000000000E+000
  0.000000000000000E+000
  0.000000000000000E+000
  0.000000000000000E+000
  0.000000000000000E+000
  0.000000000000000E+000
  0.000000000000000E+000
  0.000000000000000E+000
  0.000000000000000E+000
  0.000000000000000E+000
  0.000000000000000E+000
  0.000000000000000E+000
  0.000000000000000E+000
  0.000000000000000E+000
  0.000000000000000E+000
  0.000000000000000E+000
  0.000000000000000E+000
  0.000000000000000E+000
  0.000000000000000E+000
  0.000000000000000E+000
  0.000000000000000E+000
  0.000000000000000E+000
  0.000000000000000E+000
  0.000000000000000E+000
  0.000000000000000E+000
  0.000000000000000E+000
  0.000000000000000E+000
  0.000000000000000E+000
  0.000000000000000E+000
  0.000000000000000E+000
  0.000000000000000E+000
  0.000000000000000E+000
  0.000000000000000E+000
  0.000000000000000E+000
  0.000000000000000E+000
  0.000000000000000E+000
  0.000000000000000E+000
  0.000000000000000E+000
  0.000000000000000E+000
  0.000000000000000E+000
  0.000000000000000E+000
  0.000000000000000E+000
  0.000000000000000E+000
  0.000000000000000E+000
  0.000000000000000E+000
  0.000000000000000E+000
  0.000000000000000E+000
  0.000000000000000E+000
  0.000000000000000E+000
  0.000000000000000E+000
  0.000000000000000E+000
  0.000000000000000E+000
  0.000000000000000E+000
  0.000000000000000E+000
  0.000000000000000E+000
  0.000000000000000E+000
  0.000000000000000E+000
  0.000000000000000E+000
  0.000000000000000E+000
  0.000000000000000E+000
  0.000000000000000E+000
  0.000000000000000E+000
  0.000000000000000E+000
  0.000000000000000E+000
  0.000000000000000E+000
  0.000000000000000E+000
  0.000000000000000E+000
  0.000000000000000E+000
  0.000000000000000E+000
  0.000000000000000E+000
  0.000000000000000E+000
  0.000000000000000E+000
  0.000000000000000E+000
  0.000000000000000E+000
  0.000000000000000E+000
  0.000000000000000E+000
  0.000000000000000E+000
  0.000000000000000E+000
  0.000000000000000E+000
  0.000000000000000E+000
  0.000000000000000E+000
  0.000000000000000E+000
  0.000000000000000E+000
  0.000000000000000E+000
  0.000000000000000E+000
  0.000000000000000E+000
  0.000000000000000E+000
  0.000000000000000E+000
  0.000000000000000E+000
  0.000000000000000E+000
  0.000000000000000E+000
  0.000000000000000E+000
  0.000000000000000E+000
  0.000000000000000E+000
  0.000000000000000E+000
  0.000000000000000E+000
  0.000000000000000E+000
  0.000000000000000E+000
  0.000000000000000E+000
  0.000000000000000E+000
  0.000000000000000E+000
  0.000000000000000E+000
  0.000000000000000E+000
  0.000000000000000E+000
  0.000000000000000E+000
  0.000000000000000E+000
  0.000000000000000E+000
  0.000000000000000E+000
  0.000000000000000E+000
  0.000000000000000E+000
  0.000000000000000E+000
  0.000000000000000E+000
  0.000000000000000E+000
  0.000000000000000E+000
  0.000000000000000E+000
  0.000000000000000E+000
  0.000000000000000E+000
  0.000000000000000E+000
  0.000000000000000E+000
  0.000000000000000E+000
  0.000000000000000E+000
  0.000000000000000E+000
  0.000000000000000E+000
  0.000000000000000E+000
  0.000000000000000E+000
  0.000000000000000E+000
  0.000000000000000E+000
  0.000000000000000E+000
  0.000000000000000E+000
  0.000000000000000E+000
  0.000000000000000E+000
  0.000000000000000E+000
  0.000000000000000E+000
  0.000000000000000E+000
  0.000000000000000E+000
  0.000000000000000E+000
  0.000000000000000E+000
  0.000000000000000E+000
  0.000000000000000E+000
  0.000000000000000E+000
  0.000000000000000E+000
  0.000000000000000E+000
  0.000000000000000E+000
  0.000000000000000E+000
  0.000000000000000E+000
  0.000000000000000E+000
  0.000000000000000E+000
  0.000000000000000E+000
  0.000000000000000E+000
  0.000000000000000E+000
  0.000000000000000E+000
  0.000000000000000E+000
  0.000000000000000E+000
  0.000000000000000E+000
  0.000000000000000E+000
  0.000000000000000E+000
  0.000000000000000E+000
  0.000000000000000E+000
  0.000000000000000E+000
  0.000000000000000E+000
  0.000000000000000E+000
  0.000000000000000E+000
  0.000000000000000E+000
  0.000000000000000E+000
  0.000000000000000E+000
  0.000000000000000E+000
  0.000000000000000E+000
  0.000000000000000E+000
  0.000000000000000E+000
  0.000000000000000E+000
  0.000000000000000E+000
  0.000000000000000E+000
  0.000000000000000E+000
  0.000000000000000E+000
  0.000000000000000E+000
  0.000000000000000E+000
  0.000000000000000E+000
  0.000000000000000E+000
  0.000000000000000E+000
  0.000000000000000E+000
  0.000000000000000E+000
  0.000000000000000E+000
  0.000000000000000E+000
  0.000000000000000E+000
  0.000000000000000E+000
  0.000000000000000E+000
  0.000000000000000E+000
  0.000000000000000E+000
  0.000000000000000E+000
  0.000000000000000E+000
  0.000000000000000E+000
  0.000000000000000E+000
  0.000000000000000E+000
  0.000000000000000E+000
  0.000000000000000E+000
  0.000000000000000E+000
  0.000000000000000E+000
  0.000000000000000E+000
  0.000000000000000E+000
  0.000000000000000E+000
  0.000000000000000E+000
  0.000000000000000E+000
  0.000000000000000E+000
  0.000000000000000E+000
  0.000000000000000E+000
  0.000000000000000E+000
  0.000000000000000E+000
  0.000000000000000E+000
  0.000000000000000E+000
  0.000000000000000E+000
  0.000000000000000E+000
  0.000000000000000E+000
  0.000000000000000E+000
  0.000000000000000E+000
  0.000000000000000E+000
  0.000000000000000E+000
  0.000000000000000E+000
  0.000000000000000E+000
  0.000000000000000E+000
  0.000000000000000E+000
  0.000000000000000E+000
  0.000000000000000E+000
  0.000000000000000E+000
  0.000000000000000E+000
  0.000000000000000E+000
  0.000000000000000E+000
  0.000000000000000E+000
  0.000000000000000E+000
  0.000000000000000E+000
  0.000000000000000E+000
  0.000000000000000E+000
  0.000000000000000E+000
  0.000000000000000E+000
  0.000000000000000E+000
  0.000000000000000E+000
  0.000000000000000E+000
  0.000000000000000E+000
  0.000000000000000E+000
  0.000000000000000E+000
  0.000000000000000E+000
  0.000000000000000E+000
  0.000000000000000E+000
  0.000000000000000E+000
  0.000000000000000E+000
  0.000000000000000E+000
  0.000000000000000E+000
  0.000000000000000E+000
  0.000000000000000E+000
  0.000000000000000E+000
  0.000000000000000E+000
  0.000000000000000E+000
  0.000000000000000E+000
  0.000000000000000E+000
  0.000000000000000E+000
  0.000000000000000E+000
  0.000000000000000E+000
  0.000000000000000E+000
  0.000000000000000E+000
  0.000000000000000E+000
  0.000000000000000E+000
  0.000000000000000E+000
  0.000000000000000E+000
  0.000000000000000E+000
  0.000000000000000E+000
  0.000000000000000E+000
  0.000000000000000E+000
  0.000000000000000E+000
  0.000000000000000E+000
  0.000000000000000E+000
  0.000000000000000E+000
  0.000000000000000E+000
  0.000000000000000E+000
  0.000000000000000E+000
  0.000000000000000E+000
  0.000000000000000E+000
  0.000000000000000E+000
  0.000000000000000E+000
  0.000000000000000E+000
  0.000000000000000E+000
  0.000000000000000E+000
  0.000000000000000E+000
  0.000000000000000E+000
  0.000000000000000E+000
  0.000000000000000E+000
  0.000000000000000E+000
  0.000000000000000E+000
  0.000000000000000E+000
  0.000000000000000E+000
  0.000000000000000E+000
  0.000000000000000E+000
  0.000000000000000E+000
  0.000000000000000E+000
  0.000000000000000E+000
  0.000000000000000E+000
  0.000000000000000E+000
  0.000000000000000E+000
  0.000000000000000E+000
  0.000000000000000E+000
  0.000000000000000E+000
  0.000000000000000E+000
  0.000000000000000E+000
  0.000000000000000E+000
  0.000000000000000E+000
  0.000000000000000E+000
  0.000000000000000E+000
  0.000000000000000E+000
  0.000000000000000E+000
  0.000000000000000E+000
  0.000000000000000E+000
  0.000000000000000E+000
  0.000000000000000E+000
  0.000000000000000E+000
  0.000000000000000E+000
  0.000000000000000E+000
  0.000000000000000E+000
  0.000000000000000E+000
  0.000000000000000E+000
  0.000000000000000E+000
  0.000000000000000E+000
  0.000000000000000E+000
  0.000000000000000E+000
  0.000000000000000E+000
  0.000000000000000E+000
  0.000000000000000E+000
  0.000000000000000E+000
  0.000000000000000E+000
  0.000000000000000E+000
  0.000000000000000E+000
  0.000000000000000E+000
  0.000000000000000E+000
  0.000000000000000E+000
  0.000000000000000E+000
  0.000000000000000E+000
  0.000000000000000E+000
  0.000000000000000E+000
  0.000000000000000E+000
  0.000000000000000E+000
  0.000000000000000E+000
  0.000000000000000E+000
  0.000000000000000E+000
  0.000000000000000E+000
  0.000000000000000E+000
  0.000000000000000E+000
  0.000000000000000E+000
  0.000000000000000E+000
  0.000000000000000E+000
  0.000000000000000E+000
  0.000000000000000E+000
  0.000000000000000E+000
  0.000000000000000E+000
  0.000000000000000E+000
  0.000000000000000E+000
  0.000000000000000E+000
  0.000000000000000E+000
  0.000000000000000E+000
  0.000000000000000E+000
  0.000000000000000E+000
  0.000000000000000E+000
  0.000000000000000E+000
  0.000000000000000E+000
  0.000000000000000E+000
  0.000000000000000E+000
  0.000000000000000E+000
  0.000000000000000E+000
  0.000000000000000E+000
  0.000000000000000E+000
  0.000000000000000E+000
  0.000000000000000E+000
  0.000000000000000E+000
  0.000000000000000E+000
  0.000000000000000E+000
  0.000000000000000E+000
  0.000000000000000E+000
  0.000000000000000E+000
  0.000000000000000E+000
  0.000000000000000E+000
  0.000000000000000E+000
  0.000000000000000E+000
  0.000000000000000E+000
  0.000000000000000E+000
  0.000000000000000E+000
  0.000000000000000E+000
  0.000000000000000E+000
  0.000000000000000E+000
  0.000000000000000E+000
  0.000000000000000E+000
  0.000000000000000E+000
  0.000000000000000E+000
  0.000000000000000E+000
  0.000000000000000E+000
  0.000000000000000E+000
  0.000000000000000E+000
  0.000000000000000E+000
  0.000000000000000E+000
  0.000000000000000E+000
  0.000000000000000E+000
  0.000000000000000E+000
  0.000000000000000E+000
  0.000000000000000E+000
  0.000000000000000E+000
  0.000000000000000E+000
  0.000000000000000E+000
  0.000000000000000E+000
  0.000000000000000E+000
  0.000000000000000E+000
  0.000000000000000E+000
  0.000000000000000E+000
  0.000000000000000E+000
  0.000000000000000E+000
  0.000000000000000E+000
  0.000000000000000E+000
  0.000000000000000E+000
  0.000000000000000E+000
  0.000000000000000E+000
  0.000000000000000E+000
  0.000000000000000E+000
  0.000000000000000E+000
  0.000000000000000E+000
  0.000000000000000E+000
  0.000000000000000E+000
  0.000000000000000E+000
  0.000000000000000E+000
  0.000000000000000E+000
  0.000000000000000E+000
  0.000000000000000E+000
  0.000000000000000E+000
  0.000000000000000E+000
  0.000000000000000E+000
  0.000000000000000E+000
  0.000000000000000E+000
  0.000000000000000E+000
  0.000000000000000E+000
  0.000000000000000E+000
  0.000000000000000E+000
  0.000000000000000E+000
  0.000000000000000E+000
  0.000000000000000E+000
  0.000000000000000E+000
  0.000000000000000E+000
  0.000000000000000E+000
  0.000000000000000E+000
  0.000000000000000E+000
  0.000000000000000E+000
  0.000000000000000E+000
  0.000000000000000E+000
  0.000000000000000E+000
  0.000000000000000E+000
  0.000000000000000E+000
  0.000000000000000E+000
  0.000000000000000E+000
  0.000000000000000E+000
  0.000000000000000E+000
  0.000000000000000E+000
  0.000000000000000E+000
  0.000000000000000E+000
  0.000000000000000E+000
  0.000000000000000E+000
  0.000000000000000E+000
  0.000000000000000E+000
  0.000000000000000E+000
  0.000000000000000E+000
  0.000000000000000E+000
  0.000000000000000E+000
  0.000000000000000E+000
  0.000000000000000E+000
  0.000000000000000E+000
  0.000000000000000E+000
  0.000000000000000E+000
  0.000000000000000E+000
  0.000000000000000E+000
  0.000000000000000E+000
  0.000000000000000E+000
  0.000000000000000E+000
  0.000000000000000E+000
  0.000000000000000E+000
  0.000000000000000E+000
  0.000000000000000E+000
  0.000000000000000E+000
  0.000000000000000E+000
  0.000000000000000E+000
  0.000000000000000E+000
  0.000000000000000E+000
  0.000000000000000E+000
  0.000000000000000E+000
  0.000000000000000E+000
  0.000000000000000E+000
  0.000000000000000E+000
  0.000000000000000E+000
  0.000000000000000E+000
  0.000000000000000E+000
  0.000000000000000E+000
  0.000000000000000E+000
  0.000000000000000E+000
  0.000000000000000E+000
  0.000000000000000E+000
  0.000000000000000E+000
  0.000000000000000E+000
  0.000000000000000E+000
  0.000000000000000E+000
  0.000000000000000E+000
  0.000000000000000E+000
  0.000000000000000E+000
  0.000000000000000E+000
  0.000000000000000E+000
  0.000000000000000E+000
  0.000000000000000E+000
  0.000000000000000E+000
  0.000000000000000E+000
  0.000000000000000E+000
  0.000000000000000E+000
  0.000000000000000E+000
  0.000000000000000E+000
  0.000000000000000E+000
  0.000000000000000E+000
  0.000000000000000E+000
  0.000000000000000E+000
  0.000000000000000E+000
  0.000000000000000E+000
  0.000000000000000E+000
  0.000000000000000E+000
  0.000000000000000E+000
  0.000000000000000E+000
  0.000000000000000E+000
  0.000000000000000E+000
  0.000000000000000E+000
  0.000000000000000E+000
  0.000000000000000E+000
  0.000000000000000E+000
  0.000000000000000E+000
  0.000000000000000E+000
  0.000000000000000E+000
  0.000000000000000E+000
  0.000000000000000E+000
  0.000000000000000E+000
  0.000000000000000E+000
  0.000000000000000E+000
  0.000000000000000E+000
  0.000000000000000E+000
  0.000000000000000E+000
  0.000000000000000E+000
  0.000000000000000E+000
  0.000000000000000E+000
  0.000000000000000E+000
  0.000000000000000E+000
  0.000000000000000E+000
  0.000000000000000E+000
  0.000000000000000E+000
  0.000000000000000E+000
  0.000000000000000E+000
  0.000000000000000E+000
  0.000000000000000E+000
  0.000000000000000E+000
  0.000000000000000E+000
  0.000000000000000E+000
  0.000000000000000E+000
  0.000000000000000E+000
  0.000000000000000E+000
  0.000000000000000E+000
  0.000000000000000E+000
  0.000000000000000E+000
  0.000000000000000E+000
  0.000000000000000E+000
  0.000000000000000E+000
  0.000000000000000E+000
  0.000000000000000E+000
  0.000000000000000E+000
  0.000000000000000E+000
  0.000000000000000E+000
  0.000000000000000E+000
  0.000000000000000E+000
  0.000000000000000E+000
  0.000000000000000E+000
  0.000000000000000E+000
  0.000000000000000E+000
  0.000000000000000E+000
  0.000000000000000E+000
  0.000000000000000E+000
  0.000000000000000E+000
  0.000000000000000E+000
  0.000000000000000E+000
  0.000000000000000E+000
  0.000000000000000E+000
  0.000000000000000E+000
  0.000000000000000E+000
  0.000000000000000E+000
  0.000000000000000E+000
  0.000000000000000E+000
  0.000000000000000E+000
  0.000000000000000E+000
  0.000000000000000E+000
  0.000000000000000E+000
  0.000000000000000E+000
  0.000000000000000E+000
  0.000000000000000E+000
  0.000000000000000E+000
  0.000000000000000E+000
  0.000000000000000E+000
  0.000000000000000E+000
  0.000000000000000E+000
  0.000000000000000E+000
  0.000000000000000E+000
  0.000000000000000E+000
  0.000000000000000E+000
  0.000000000000000E+000
  0.000000000000000E+000
  0.000000000000000E+000
  0.000000000000000E+000
  0.000000000000000E+000
  0.000000000000000E+000
  0.000000000000000E+000
  0.000000000000000E+000
  0.000000000000000E+000
  0.000000000000000E+000
  0.000000000000000E+000
  0.000000000000000E+000
  0.000000000000000E+000
  0.000000000000000E+000
  0.000000000000000E+000
  0.000000000000000E+000
  0.000000000000000E+000
  0.000000000000000E+000
  0.000000000000000E+000
  0.000000000000000E+000
  0.000000000000000E+000
  0.000000000000000E+000
  0.000000000000000E+000
  0.000000000000000E+000
  0.000000000000000E+000
  0.000000000000000E+000
  0.000000000000000E+000
  0.000000000000000E+000
  0.000000000000000E+000
  0.000000000000000E+000
  0.000000000000000E+000
  0.000000000000000E+000
  0.000000000000000E+000
  0.000000000000000E+000
  0.000000000000000E+000
  0.000000000000000E+000
  0.000000000000000E+000
  0.000000000000000E+000
  0.000000000000000E+000
  0.000000000000000E+000
  0.000000000000000E+000
  0.000000000000000E+000
  0.000000000000000E+000
  0.000000000000000E+000
  0.000000000000000E+000
  0.000000000000000E+000
  0.000000000000000E+000
  0.000000000000000E+000
  0.000000000000000E+000
  0.000000000000000E+000
  0.000000000000000E+000
  0.000000000000000E+000
  0.000000000000000E+000
  0.000000000000000E+000
  0.000000000000000E+000
  0.000000000000000E+000
  0.000000000000000E+000
  0.000000000000000E+000
  0.000000000000000E+000
  0.000000000000000E+000
  0.000000000000000E+000
  0.000000000000000E+000
  0.000000000000000E+000
  0.000000000000000E+000
  0.000000000000000E+000
  0.000000000000000E+000
  0.000000000000000E+000
  0.000000000000000E+000
  0.000000000000000E+000
  0.000000000000000E+000
  0.000000000000000E+000
  0.000000000000000E+000
  0.000000000000000E+000
  0.000000000000000E+000
  0.000000000000000E+000
  0.000000000000000E+000
  0.000000000000000E+000
  0.000000000000000E+000
  0.000000000000000E+000
  0.000000000000000E+000
  0.000000000000000E+000
  0.000000000000000E+000
  0.000000000000000E+000
  0.000000000000000E+000
  0.000000000000000E+000
  0.000000000000000E+000
  0.000000000000000E+000
  0.000000000000000E+000
  0.000000000000000E+000
  0.000000000000000E+000
  0.000000000000000E+000
  0.000000000000000E+000
  0.000000000000000E+000
  0.000000000000000E+000
  0.000000000000000E+000
  0.000000000000000E+000
  0.000000000000000E+000
  0.000000000000000E+000
  0.000000000000000E+000
  0.000000000000000E+000
  0.000000000000000E+000
  0.000000000000000E+000
  0.000000000000000E+000
  0.000000000000000E+000
  0.000000000000000E+000
  0.000000000000000E+000
  0.000000000000000E+000
  0.000000000000000E+000
  0.000000000000000E+000
  0.000000000000000E+000
  0.000000000000000E+000
  0.000000000000000E+000
  0.000000000000000E+000
  0.000000000000000E+000
  0.000000000000000E+000
  0.000000000000000E+000
  0.000000000000000E+000
  0.000000000000000E+000
  0.000000000000000E+000
  0.000000000000000E+000
  0.000000000000000E+000
  0.000000000000000E+000
  0.000000000000000E+000
  0.000000000000000E+000
  0.000000000000000E+000
  0.000000000000000E+000
  0.000000000000000E+000
  0.000000000000000E+000
  0.000000000000000E+000
  0.000000000000000E+000
  0.000000000000000E+000
  0.000000000000000E+000
  0.000000000000000E+000
  0.000000000000000E+000
  0.000000000000000E+000
  0.000000000000000E+000
  0.000000000000000E+000
  0.000000000000000E+000
  0.000000000000000E+000
  0.000000000000000E+000
  0.000000000000000E+000
  0.000000000000000E+000
  0.000000000000000E+000
  0.000000000000000E+000
  0.000000000000000E+000
  0.000000000000000E+000
  0.000000000000000E+000
  0.000000000000000E+000
  0.000000000000000E+000
  0.000000000000000E+000
  0.000000000000000E+000
  0.000000000000000E+000
  0.000000000000000E+000
  0.000000000000000E+000
  0.000000000000000E+000
  0.000000000000000E+000
  0.000000000000000E+000
  0.000000000000000E+000
  0.000000000000000E+000
  0.000000000000000E+000
  0.000000000000000E+000
  0.000000000000000E+000
  0.000000000000000E+000
  0.000000000000000E+000
  0.000000000000000E+000
  0.000000000000000E+000
  0.000000000000000E+000
  0.000000000000000E+000
  0.000000000000000E+000
  0.000000000000000E+000
  0.000000000000000E+000
  0.000000000000000E+000
  0.000000000000000E+000
  0.000000000000000E+000
  0.000000000000000E+000
  0.000000000000000E+000
  0.000000000000000E+000
  0.000000000000000E+000
  0.000000000000000E+000
  0.000000000000000E+000
  0.000000000000000E+000
  0.000000000000000E+000
  0.000000000000000E+000
  0.000000000000000E+000
  0.000000000000000E+000
  0.000000000000000E+000
  0.000000000000000E+000
  0.000000000000000E+000
  0.000000000000000E+000
  0.000000000000000E+000
  0.000000000000000E+000
  0.000000000000000E+000
  0.000000000000000E+000
  0.000000000000000E+000
  0.000000000000000E+000
  0.000000000000000E+000
  0.000000000000000E+000
  0.000000000000000E+000
  0.000000000000000E+000
  0.000000000000000E+000
  0.000000000000000E+000
  0.000000000000000E+000
  0.000000000000000E+000
  0.000000000000000E+000
  0.000000000000000E+000
  0.000000000000000E+000
  0.000000000000000E+000
  0.000000000000000E+000
  0.000000000000000E+000
  0.000000000000000E+000
  0.000000000000000E+000
  0.000000000000000E+000
  0.000000000000000E+000
  0.000000000000000E+000
  0.000000000000000E+000
  0.000000000000000E+000
  0.000000000000000E+000
  0.000000000000000E+000
  0.000000000000000E+000
  0.000000000000000E+000
  0.000000000000000E+000
  0.000000000000000E+000
  0.000000000000000E+000
  0.000000000000000E+000
  0.000000000000000E+000
  0.000000000000000E+000
  0.000000000000000E+000
  0.000000000000000E+000
  0.000000000000000E+000
  0.000000000000000E+000
  0.000000000000000E+000
  0.000000000000000E+000
  0.000000000000000E+000
  0.000000000000000E+000
  0.000000000000000E+000
  0.000000000000000E+000
  0.000000000000000E+000
  0.000000000000000E+000
  0.000000000000000E+000
  0.000000000000000E+000
  0.000000000000000E+000
  0.000000000000000E+000
  0.000000000000000E+000
  0.000000000000000E+000
  0.000000000000000E+000
  0.000000000000000E+000
  0.000000000000000E+000
  0.000000000000000E+000
  0.000000000000000E+000
  0.000000000000000E+000
  0.000000000000000E+000
  0.000000000000000E+000
  0.000000000000000E+000
  0.000000000000000E+000
  0.000000000000000E+000
  0.000000000000000E+000
  0.000000000000000E+000
  0.000000000000000E+000
  0.000000000000000E+000
  0.000000000000000E+000
  0.000000000000000E+000
  0.000000000000000E+000
  0.000000000000000E+000
  0.000000000000000E+000
  0.000000000000000E+000
  0.000000000000000E+000
  0.000000000000000E+000
  0.000000000000000E+000
  0.000000000000000E+000
  0.000000000000000E+000
  0.000000000000000E+000
  0.000000000000000E+000
  0.000000000000000E+000
  0.000000000000000E+000
  0.000000000000000E+000
  0.000000000000000E+000
  0.000000000000000E+000
  0.000000000000000E+000
  0.000000000000000E+000
  0.000000000000000E+000
  0.000000000000000E+000
  0.000000000000000E+000
  0.000000000000000E+000
  0.000000000000000E+000
  0.000000000000000E+000
  0.000000000000000E+000
  0.000000000000000E+000
  0.000000000000000E+000
  0.000000000000000E+000
  0.000000000000000E+000
  0.000000000000000E+000
  0.000000000000000E+000
  0.000000000000000E+000
  0.000000000000000E+000
  0.000000000000000E+000
  0.000000000000000E+000
  0.000000000000000E+000
  0.000000000000000E+000
  0.000000000000000E+000
  0.000000000000000E+000
  0.000000000000000E+000
  0.000000000000000E+000
  0.000000000000000E+000
  0.000000000000000E+000
  0.000000000000000E+000
  0.000000000000000E+000
  0.000000000000000E+000
  0.000000000000000E+000
  0.000000000000000E+000
  0.000000000000000E+000
  0.000000000000000E+000
  0.000000000000000E+000
  0.000000000000000E+000
  0.000000000000000E+000
  0.000000000000000E+000
  0.000000000000000E+000
  0.000000000000000E+000
  0.000000000000000E+000
  0.000000000000000E+000
  0.000000000000000E+000
  0.000000000000000E+000
  0.000000000000000E+000
  0.000000000000000E+000
  0.000000000000000E+000
  0.000000000000000E+000
  0.000000000000000E+000
  0.000000000000000E+000
  0.000000000000000E+000
  0.000000000000000E+000
  0.000000000000000E+000
  0.000000000000000E+000
  0.000000000000000E+000
  0.000000000000000E+000
  0.000000000000000E+000
  0.000000000000000E+000
  0.000000000000000E+000
  0.000000000000000E+000
  0.000000000000000E+000
  0.000000000000000E+000
  0.000000000000000E+000
  0.000000000000000E+000
  0.000000000000000E+000
  0.000000000000000E+000
  0.000000000000000E+000
  0.000000000000000E+000
  0.000000000000000E+000
  0.000000000000000E+000
  0.000000000000000E+000
  0.000000000000000E+000
  0.000000000000000E+000
  0.000000000000000E+000
  0.000000000000000E+000
  0.000000000000000E+000
  0.000000000000000E+000
  0.000000000000000E+000
  0.000000000000000E+000
  0.000000000000000E+000
  0.000000000000000E+000
  0.000000000000000E+000
  0.000000000000000E+000
  0.000000000000000E+000
  0.000000000000000E+000
  0.000000000000000E+000
  0.000000000000000E+000
  0.000000000000000E+000
  0.000000000000000E+000
  0.000000000000000E+000
  0.000000000000000E+000
  0.000000000000000E+000
  0.000000000000000E+000
  0.000000000000000E+000
  0.000000000000000E+000
  0.000000000000000E+000
  0.000000000000000E+000
  0.000000000000000E+000
  0.000000000000000E+000
  0.000000000000000E+000
  0.000000000000000E+000
  0.000000000000000E+000
  0.000000000000000E+000
  0.000000000000000E+000
  0.000000000000000E+000
  0.000000000000000E+000
  0.000000000000000E+000
  0.000000000000000E+000
  0.000000000000000E+000
  0.000000000000000E+000
  0.000000000000000E+000
  0.000000000000000E+000
  0.000000000000000E+000
  0.000000000000000E+000
  0.000000000000000E+000
  0.000000000000000E+000
  0.000000000000000E+000
  0.000000000000000E+000
  0.000000000000000E+000
  0.000000000000000E+000
  0.000000000000000E+000
  0.000000000000000E+000
  0.000000000000000E+000
  0.000000000000000E+000
  0.000000000000000E+000
  0.000000000000000E+000
  0.000000000000000E+000
  0.000000000000000E+000
  0.000000000000000E+000
  0.000000000000000E+000
  0.000000000000000E+000
  0.000000000000000E+000
  0.000000000000000E+000
  0.000000000000000E+000
  0.000000000000000E+000
  0.000000000000000E+000
  0.000000000000000E+000
  0.000000000000000E+000
  0.000000000000000E+000
  0.000000000000000E+000
  0.000000000000000E+000
  0.000000000000000E+000
  0.000000000000000E+000
  0.000000000000000E+000
  0.000000000000000E+000
  0.000000000000000E+000
  0.000000000000000E+000
  0.000000000000000E+000
  0.000000000000000E+000
  0.000000000000000E+000
  0.000000000000000E+000
  0.000000000000000E+000
  0.000000000000000E+000
  0.000000000000000E+000
  0.000000000000000E+000
  0.000000000000000E+000
  0.000000000000000E+000
  0.000000000000000E+000
  0.000000000000000E+000
  0.000000000000000E+000
  0.000000000000000E+000
  0.000000000000000E+000
  0.000000000000000E+000
  0.000000000000000E+000
  0.000000000000000E+000
  0.000000000000000E+000
  0.000000000000000E+000
  0.000000000000000E+000
  0.000000000000000E+000
  0.000000000000000E+000
  0.000000000000000E+000
  0.000000000000000E+000
  0.000000000000000E+000
  0.000000000000000E+000
  0.000000000000000E+000
  0.000000000000000E+000
  0.000000000000000E+000
  0.000000000000000E+000
  0.000000000000000E+000
  0.000000000000000E+000
  0.000000000000000E+000
  0.000000000000000E+000
  0.000000000000000E+000
  0.000000000000000E+000
  0.000000000000000E+000
  0.000000000000000E+000
  0.000000000000000E+000
  0.000000000000000E+000
  0.000000000000000E+000
  0.000000000000000E+000
  0.000000000000000E+000
  0.000000000000000E+000
  0.000000000000000E+000
  0.000000000000000E+000
  0.000000000000000E+000
  0.000000000000000E+000
  0.000000000000000E+000
  0.000000000000000E+000
  0.000000000000000E+000
  0.000000000000000E+000
  0.000000000000000E+000
  0.000000000000000E+000
  0.000000000000000E+000
  0.000000000000000E+000
  0.000000000000000E+000
  0.000000000000000E+000
  0.000000000000000E+000
  0.000000000000000E+000
  0.000000000000000E+000
  0.000000000000000E+000
  0.000000000000000E+000
  0.000000000000000E+000
  0.000000000000000E+000
  0.000000000000000E+000
  0.000000000000000E+000
  0.000000000000000E+000
  0.000000000000000E+000
  0.000000000000000E+000
  0.000000000000000E+000
  0.000000000000000E+000
  0.000000000000000E+000
  0.000000000000000E+000
  0.000000000000000E+000
  0.000000000000000E+000
  0.000000000000000E+000
  0.000000000000000E+000
  0.000000000000000E+000
  0.000000000000000E+000
  0.000000000000000E+000
  0.000000000000000E+000
  0.000000000000000E+000
  0.000000000000000E+000
  0.000000000000000E+000
  0.000000000000000E+000
  0.000000000000000E+000
  0.000000000000000E+000
  0.000000000000000E+000
  0.000000000000000E+000
  0.000000000000000E+000
  0.000000000000000E+000
  0.000000000000000E+000
  0.000000000000000E+000
  0.000000000000000E+000
  0.000000000000000E+000
  0.000000000000000E+000
  0.000000000000000E+000
  0.000000000000000E+000
  0.000000000000000E+000
  0.000000000000000E+000
  0.000000000000000E+000
  0.000000000000000E+000
  0.000000000000000E+000
  0.000000000000000E+000
  0.000000000000000E+000
  0.000000000000000E+000
  0.000000000000000E+000
  0.000000000000000E+000
  0.000000000000000E+000
  0.000000000000000E+000
  0.000000000000000E+000
  0.000000000000000E+000
  0.000000000000000E+000
  0.000000000000000E+000
  0.000000000000000E+000
  0.000000000000000E+000
  0.000000000000000E+000
  0.000000000000000E+000
  0.000000000000000E+000
  0.000000000000000E+000
  0.000000000000000E+000
  0.000000000000000E+000
  0.000000000000000E+000
  0.000000000000000E+000
  0.000000000000000E+000
  0.000000000000000E+000
  0.000000000000000E+000
  0.000000000000000E+000
  0.000000000000000E+000
  0.000000000000000E+000
  0.000000000000000E+000
  0.000000000000000E+000
  0.000000000000000E+000
  0.000000000000000E+000
  0.000000000000000E+000
  0.000000000000000E+000
  0.000000000000000E+000
  0.000000000000000E+000
  0.000000000000000E+000
  0.000000000000000E+000
  0.000000000000000E+000
  0.000000000000000E+000
  0.000000000000000E+000
  0.000000000000000E+000
  0.000000000000000E+000
  0.000000000000000E+000
  0.000000000000000E+000
  0.000000000000000E+000
  0.000000000000000E+000
  0.000000000000000E+000
  0.000000000000000E+000
  0.000000000000000E+000
  0.000000000000000E+000
  0.000000000000000E+000
  0.000000000000000E+000
  0.000000000000000E+000
  0.000000000000000E+000
  0.000000000000000E+000
  0.000000000000000E+000
  0.000000000000000E+000
  0.000000000000000E+000
  0.000000000000000E+000
  0.000000000000000E+000
  0.000000000000000E+000
  0.000000000000000E+000
  0.000000000000000E+000
  0.000000000000000E+000
  0.000000000000000E+000
  0.000000000000000E+000
  0.000000000000000E+000
  0.000000000000000E+000
  0.000000000000000E+000
  0.000000000000000E+000
  0.000000000000000E+000
  0.000000000000000E+000
  0.000000000000000E+000
  0.000000000000000E+000
  0.000000000000000E+000
  0.000000000000000E+000
  0.000000000000000E+000
  0.000000000000000E+000
  0.000000000000000E+000
  0.000000000000000E+000
  0.000000000000000E+000
  0.000000000000000E+000
  0.000000000000000E+000
  0.000000000000000E+000
  0.000000000000000E+000
  0.000000000000000E+000
  0.000000000000000E+000
  0.000000000000000E+000
  0.000000000000000E+000
  0.000000000000000E+000
  0.000000000000000E+000
  0.000000000000000E+000
  0.000000000000000E+000
  0.000000000000000E+000
  0.000000000000000E+000
  0.000000000000000E+000
  0.000000000000000E+000
  0.000000000000000E+000
  0.000000000000000E+000
  0.000000000000000E+000
  0.000000000000000E+000
  0.000000000000000E+000
  0.000000000000000E+000
  0.000000000000000E+000
  0.000000000000000E+000
  0.000000000000000E+000
  0.000000000000000E+000
  0.000000000000000E+000
  0.000000000000000E+000
  0.000000000000000E+000
  0.000000000000000E+000
  0.000000000000000E+000
  0.000000000000000E+000
  0.000000000000000E+000
  0.000000000000000E+000
  0.000000000000000E+000
  0.000000000000000E+000
  0.000000000000000E+000
  0.000000000000000E+000
  0.000000000000000E+000
  0.000000000000000E+000
  0.000000000000000E+000
  0.000000000000000E+000
  0.000000000000000E+000
  0.000000000000000E+000
  0.000000000000000E+000
  0.000000000000000E+000
  0.000000000000000E+000
  0.000000000000000E+000
  0.000000000000000E+000
  0.000000000000000E+000
  0.000000000000000E+000
  0.000000000000000E+000
  0.000000000000000E+000
  0.000000000000000E+000
  0.000000000000000E+000
  0.000000000000000E+000
  0.000000000000000E+000
  0.000000000000000E+000
  0.000000000000000E+000
  0.000000000000000E+000
  0.000000000000000E+000
  0.000000000000000E+000
  0.000000000000000E+000
  0.000000000000000E+000
  0.000000000000000E+000
  0.000000000000000E+000
  0.000000000000000E+000
  0.000000000000000E+000
  0.000000000000000E+000
  0.000000000000000E+000
  0.000000000000000E+000
  0.000000000000000E+000
  0.000000000000000E+000
  0.000000000000000E+000
  0.000000000000000E+000
  0.000000000000000E+000
  0.000000000000000E+000
  0.000000000000000E+000
  0.000000000000000E+000
  0.000000000000000E+000
  0.000000000000000E+000
  0.000000000000000E+000
  0.000000000000000E+000
  0.000000000000000E+000
  0.000000000000000E+000
  0.000000000000000E+000
  0.000000000000000E+000
  0.000000000000000E+000
  0.000000000000000E+000
  0.000000000000000E+000
  0.000000000000000E+000
  0.000000000000000E+000
  0.000000000000000E+000
  0.000000000000000E+000
  0.000000000000000E+000
  0.000000000000000E+000
  0.000000000000000E+000
  0.000000000000000E+000
  0.000000000000000E+000
  0.000000000000000E+000
  0.000000000000000E+000
  0.000000000000000E+000
  0.000000000000000E+000
  0.000000000000000E+000
  0.000000000000000E+000
  0.000000000000000E+000
  0.000000000000000E+000
  0.000000000000000E+000
  0.000000000000000E+000
  0.000000000000000E+000
  0.000000000000000E+000
  0.000000000000000E+000
  0.000000000000000E+000
  0.000000000000000E+000
  0.000000000000000E+000
  0.000000000000000E+000
  0.000000000000000E+000
  0.000000000000000E+000
  0.000000000000000E+000
  0.000000000000000E+000
  0.000000000000000E+000
  0.000000000000000E+000
  0.000000000000000E+000
  0.000000000000000E+000
  0.000000000000000E+000
  0.000000000000000E+000
  0.000000000000000E+000
  0.000000000000000E+000
  0.000000000000000E+000
  0.000000000000000E+000
  0.000000000000000E+000
  0.000000000000000E+000
  0.000000000000000E+000
  0.000000000000000E+000
  0.000000000000000E+000
  0.000000000000000E+000
  0.000000000000000E+000
  0.000000000000000E+000
  0.000000000000000E+000
  0.000000000000000E+000
  0.000000000000000E+000
  0.000000000000000E+000
  0.000000000000000E+000
  0.000000000000000E+000
  0.000000000000000E+000
  0.000000000000000E+000
  0.000000000000000E+000
  0.000000000000000E+000
  0.000000000000000E+000
  0.000000000000000E+000
  0.000000000000000E+000
  0.000000000000000E+000
  0.000000000000000E+000
  0.000000000000000E+000
  0.000000000000000E+000
  0.000000000000000E+000
  0.000000000000000E+000
  0.000000000000000E+000
  0.000000000000000E+000
  0.000000000000000E+000
  0.000000000000000E+000
  0.000000000000000E+000
  0.000000000000000E+000
  0.000000000000000E+000
  0.000000000000000E+000
  0.000000000000000E+000
  0.000000000000000E+000
  0.000000000000000E+000
  0.000000000000000E+000
  0.000000000000000E+000
  0.000000000000000E+000
  0.000000000000000E+000
  0.000000000000000E+000
  0.000000000000000E+000
  0.000000000000000E+000
  0.000000000000000E+000
  0.000000000000000E+000
  0.000000000000000E+000
  0.000000000000000E+000
  0.000000000000000E+000
  0.000000000000000E+000
  0.000000000000000E+000
  0.000000000000000E+000
  0.000000000000000E+000
  0.000000000000000E+000
  0.000000000000000E+000
  0.000000000000000E+000
  0.000000000000000E+000
  0.000000000000000E+000
  0.000000000000000E+000
  0.000000000000000E+000
  0.000000000000000E+000
  0.000000000000000E+000
  0.000000000000000E+000
  0.000000000000000E+000
  0.000000000000000E+000
  0.000000000000000E+000
  0.000000000000000E+000
  0.000000000000000E+000
  0.000000000000000E+000
  0.000000000000000E+000
  0.000000000000000E+000
  0.000000000000000E+000
  0.000000000000000E+000
  0.000000000000000E+000
  0.000000000000000E+000
  0.000000000000000E+000
  0.000000000000000E+000
  0.000000000000000E+000
  0.000000000000000E+000
  0.000000000000000E+000
  0.000000000000000E+000
  0.000000000000000E+000
  0.000000000000000E+000
  0.000000000000000E+000
  0.000000000000000E+000
  0.000000000000000E+000
  0.000000000000000E+000
  0.000000000000000E+000
  0.000000000000000E+000
  0.000000000000000E+000
  0.000000000000000E+000
  0.000000000000000E+000
  0.000000000000000E+000
  0.000000000000000E+000
  0.000000000000000E+000
  0.000000000000000E+000
  0.000000000000000E+000
  0.000000000000000E+000
  0.000000000000000E+000
  0.000000000000000E+000
  0.000000000000000E+000
  0.000000000000000E+000
  0.000000000000000E+000
  0.000000000000000E+000
  0.000000000000000E+000
  0.000000000000000E+000
  0.000000000000000E+000
  0.000000000000000E+000
  0.000000000000000E+000
  0.000000000000000E+000
  0.000000000000000E+000
  0.000000000000000E+000
  0.000000000000000E+000
  0.000000000000000E+000
  0.000000000000000E+000
  0.000000000000000E+000
  0.000000000000000E+000
  0.000000000000000E+000
  0.000000000000000E+000
  0.000000000000000E+000
  0.000000000000000E+000
  0.000000000000000E+000
  0.000000000000000E+000
  0.000000000000000E+000
  0.000000000000000E+000
  0.000000000000000E+000
  0.000000000000000E+000
  0.000000000000000E+000
  0.000000000000000E+000
  0.000000000000000E+000
  0.000000000000000E+000
  0.000000000000000E+000
  0.000000000000000E+000
  0.000000000000000E+000
  0.000000000000000E+000
  0.000000000000000E+000
  0.000000000000000E+000
  0.000000000000000E+000
  0.000000000000000E+000
  0.000000000000000E+000
  0.000000000000000E+000
  0.000000000000000E+000
  0.000000000000000E+000
  0.000000000000000E+000
  0.000000000000000E+000
  0.000000000000000E+000
  0.000000000000000E+000
  0.000000000000000E+000
  0.000000000000000E+000
  0.000000000000000E+000
  0.000000000000000E+000
  0.000000000000000E+000
  0.000000000000000E+000
  0.000000000000000E+000
  0.000000000000000E+000
  0.000000000000000E+000
  0.000000000000000E+000
  0.000000000000000E+000
  0.000000000000000E+000
  0.000000000000000E+000
  0.000000000000000E+000
  0.000000000000000E+000
  0.000000000000000E+000
  0.000000000000000E+000
  0.000000000000000E+000
  0.000000000000000E+000
  0.000000000000000E+000
  0.000000000000000E+000
  0.000000000000000E+000
  0.000000000000000E+000
  0.000000000000000E+000
  0.000000000000000E+000
  0.000000000000000E+000
  0.000000000000000E+000
  0.000000000000000E+000
  0.000000000000000E+000
  0.000000000000000E+000
  0.000000000000000E+000
  0.000000000000000E+000
  0.000000000000000E+000
  0.000000000000000E+000
  0.000000000000000E+000
  0.000000000000000E+000
  0.000000000000000E+000
  0.000000000000000E+000
  0.000000000000000E+000
  0.000000000000000E+000
  0.000000000000000E+000
  0.000000000000000E+000
  0.000000000000000E+000
  0.000000000000000E+000
  0.000000000000000E+000
  0.000000000000000E+000
  0.000000000000000E+000
  0.000000000000000E+000
  0.000000000000000E+000
  0.000000000000000E+000
  0.000000000000000E+000
  0.000000000000000E+000
  0.000000000000000E+000
  0.000000000000000E+000
  0.000000000000000E+000
  0.000000000000000E+000
  0.000000000000000E+000
  0.000000000000000E+000
  0.000000000000000E+000
  0.000000000000000E+000
  0.000000000000000E+000
  0.000000000000000E+000
  0.000000000000000E+000
  0.000000000000000E+000
  0.000000000000000E+000
  0.000000000000000E+000
  0.000000000000000E+000
  0.000000000000000E+000
  0.000000000000000E+000
  0.000000000000000E+000
  0.000000000000000E+000
  0.000000000000000E+000
  0.000000000000000E+000
  0.000000000000000E+000
  0.000000000000000E+000
  0.000000000000000E+000
  0.000000000000000E+000
  0.000000000000000E+000
  0.000000000000000E+000
  0.000000000000000E+000
  0.000000000000000E+000
  0.000000000000000E+000
  0.000000000000000E+000
  0.000000000000000E+000
  0.000000000000000E+000
  0.000000000000000E+000
  0.000000000000000E+000
  0.000000000000000E+000
  0.000000000000000E+000
  0.000000000000000E+000
  0.000000000000000E+000
  0.000000000000000E+000
  0.000000000000000E+000
  0.000000000000000E+000
  0.000000000000000E+000
  0.000000000000000E+000
  0.000000000000000E+000
  0.000000000000000E+000
  0.000000000000000E+000
  0.000000000000000E+000
  0.000000000000000E+000
  0.000000000000000E+000
  0.000000000000000E+000
  0.000000000000000E+000
  0.000000000000000E+000
  0.000000000000000E+000
  0.000000000000000E+000
  0.000000000000000E+000
  0.000000000000000E+000
  0.000000000000000E+000
  0.000000000000000E+000
  0.000000000000000E+000
  0.000000000000000E+000
  0.000000000000000E+000
  0.000000000000000E+000
  0.000000000000000E+000
  0.000000000000000E+000
  0.000000000000000E+000
  0.000000000000000E+000
  0.000000000000000E+000
  0.000000000000000E+000
  0.000000000000000E+000
  0.000000000000000E+000
  0.000000000000000E+000
  0.000000000000000E+000
  0.000000000000000E+000
  0.000000000000000E+000
  0.000000000000000E+000
  0.000000000000000E+000
  0.000000000000000E+000
  0.000000000000000E+000
  0.000000000000000E+000
  0.000000000000000E+000
  0.000000000000000E+000
  0.000000000000000E+000
  0.000000000000000E+000
  0.000000000000000E+000
  0.000000000000000E+000
  0.000000000000000E+000
  0.000000000000000E+000
  0.000000000000000E+000
  0.000000000000000E+000
  0.000000000000000E+000
  0.000000000000000E+000
  0.000000000000000E+000
  0.000000000000000E+000
  0.000000000000000E+000
  0.000000000000000E+000
  0.000000000000000E+000
  0.000000000000000E+000
  0.000000000000000E+000
  0.000000000000000E+000
  0.000000000000000E+000
  0.000000000000000E+000
  0.000000000000000E+000
  0.000000000000000E+000
  0.000000000000000E+000
  0.000000000000000E+000
  0.000000000000000E+000
  0.000000000000000E+000
  0.000000000000000E+000
  0.000000000000000E+000
  0.000000000000000E+000
  0.000000000000000E+000
  0.000000000000000E+000
  0.000000000000000E+000
  0.000000000000000E+000
  0.000000000000000E+000
  0.000000000000000E+000
  0.000000000000000E+000
  0.000000000000000E+000
  0.000000000000000E+000
  0.000000000000000E+000
  0.000000000000000E+000
  0.000000000000000E+000
  0.000000000000000E+000
  0.000000000000000E+000
  0.000000000000000E+000
  0.000000000000000E+000
  0.000000000000000E+000
  0.000000000000000E+000
  0.000000000000000E+000
  0.000000000000000E+000
  0.000000000000000E+000
  0.000000000000000E+000
  0.000000000000000E+000
  0.000000000000000E+000
  0.000000000000000E+000
  0.000000000000000E+000
  0.000000000000000E+000
  0.000000000000000E+000
  0.000000000000000E+000
  0.000000000000000E+000
  0.000000000000000E+000
  0.000000000000000E+000
  0.000000000000000E+000
  0.000000000000000E+000
  0.000000000000000E+000
  0.000000000000000E+000
  0.000000000000000E+000
  0.000000000000000E+000
  0.000000000000000E+000
  0.000000000000000E+000
  0.000000000000000E+000
  0.000000000000000E+000
  0.000000000000000E+000
  0.000000000000000E+000
  0.000000000000000E+000
  0.000000000000000E+000
  0.000000000000000E+000
  0.000000000000000E+000
  0.000000000000000E+000
  0.000000000000000E+000
  0.000000000000000E+000
  0.000000000000000E+000
  0.000000000000000E+000
  0.000000000000000E+000
  0.000000000000000E+000
  0.000000000000000E+000
  0.000000000000000E+000
  0.000000000000000E+000
  0.000000000000000E+000
  0.000000000000000E+000
  0.000000000000000E+000
  0.000000000000000E+000
  0.000000000000000E+000
  0.000000000000000E+000
  0.000000000000000E+000
  0.000000000000000E+000
  0.000000000000000E+000
  0.000000000000000E+000
  0.000000000000000E+000
  0.000000000000000E+000
  0.000000000000000E+000
  0.000000000000000E+000
  0.000000000000000E+000
  0.000000000000000E+000
  0.000000000000000E+000
  0.000000000000000E+000
  0.000000000000000E+000
  0.000000000000000E+000
  0.000000000000000E+000
  0.000000000000000E+000
  0.000000000000000E+000
  0.000000000000000E+000
  0.000000000000000E+000
  0.000000000000000E+000
  0.000000000000000E+000
  0.000000000000000E+000
  0.000000000000000E+000
  0.000000000000000E+000
  0.000000000000000E+000
  0.000000000000000E+000
  0.000000000000000E+000
  0.000000000000000E+000
  0.000000000000000E+000
  0.000000000000000E+000
  0.000000000000000E+000
  0.000000000000000E+000
  0.000000000000000E+000
  0.000000000000000E+000
  0.000000000000000E+000
  0.000000000000000E+000
  0.000000000000000E+000
  0.000000000000000E+000
  0.000000000000000E+000
  0.000000000000000E+000
  0.000000000000000E+000
  0.000000000000000E+000
  0.000000000000000E+000
  0.000000000000000E+000
  0.000000000000000E+000
  0.000000000000000E+000
  0.000000000000000E+000
  0.000000000000000E+000
  0.000000000000000E+000
  0.000000000000000E+000
  0.000000000000000E+000
  0.000000000000000E+000
  0.000000000000000E+000
  0.000000000000000E+000
  0.000000000000000E+000
  0.000000000000000E+000
  0.000000000000000E+000
  0.000000000000000E+000
  0.000000000000000E+000
  0.000000000000000E+000
  0.000000000000000E+000
  0.000000000000000E+000
  0.000000000000000E+000
  0.000000000000000E+000
  0.000000000000000E+000
  0.000000000000000E+000
  0.000000000000000E+000
  0.000000000000000E+000
  0.000000000000000E+000
  0.000000000000000E+000
  0.000000000000000E+000
  0.000000000000000E+000
  0.000000000000000E+000
  0.000000000000000E+000
  0.000000000000000E+000
  0.000000000000000E+000
  0.000000000000000E+000
  0.000000000000000E+000
  0.000000000000000E+000
  0.000000000000000E+000
  0.000000000000000E+000
  0.000000000000000E+000
  0.000000000000000E+000
  0.000000000000000E+000
  0.000000000000000E+000
  0.000000000000000E+000
  0.000000000000000E+000
  0.000000000000000E+000
  0.000000000000000E+000
  0.000000000000000E+000
  0.000000000000000E+000
  0.000000000000000E+000
  0.000000000000000E+000
  0.000000000000000E+000
  0.000000000000000E+000
  0.000000000000000E+000
  0.000000000000000E+000
  0.000000000000000E+000
  0.000000000000000E+000
  0.000000000000000E+000
  0.000000000000000E+000
  0.000000000000000E+000
  0.000000000000000E+000
  0.000000000000000E+000
  0.000000000000000E+000
  0.000000000000000E+000
  0.000000000000000E+000
  0.000000000000000E+000
  0.000000000000000E+000
  0.000000000000000E+000
  0.000000000000000E+000
  0.000000000000000E+000
  0.000000000000000E+000
  0.000000000000000E+000
  0.000000000000000E+000
  0.000000000000000E+000
  0.000000000000000E+000
  0.000000000000000E+000
  0.000000000000000E+000
  0.000000000000000E+000
  0.000000000000000E+000
  0.000000000000000E+000
  0.000000000000000E+000
  0.000000000000000E+000
  0.000000000000000E+000
  0.000000000000000E+000
  0.000000000000000E+000
  0.000000000000000E+000
  0.000000000000000E+000
  0.000000000000000E+000
  0.000000000000000E+000
  0.000000000000000E+000
  0.000000000000000E+000
  0.000000000000000E+000
  0.000000000000000E+000
  0.000000000000000E+000
  0.000000000000000E+000
  0.000000000000000E+000
  0.000000000000000E+000
  0.000000000000000E+000
  0.000000000000000E+000
  0.000000000000000E+000
  0.000000000000000E+000
  0.000000000000000E+000
  0.000000000000000E+000
  0.000000000000000E+000
  0.000000000000000E+000
  0.000000000000000E+000
  0.000000000000000E+000
  0.000000000000000E+000
  0.000000000000000E+000
  0.000000000000000E+000
  0.000000000000000E+000
  0.000000000000000E+000
  0.000000000000000E+000
  0.000000000000000E+000
  0.000000000000000E+000
  0.000000000000000E+000
  0.000000000000000E+000
  0.000000000000000E+000
  0.000000000000000E+000
  0.000000000000000E+000
  0.000000000000000E+000
  0.000000000000000E+000
  0.000000000000000E+000
  0.000000000000000E+000
  0.000000000000000E+000
  0.000000000000000E+000
  0.000000000000000E+000
  0.000000000000000E+000
  0.000000000000000E+000
  0.000000000000000E+000
  0.000000000000000E+000
  0.000000000000000E+000
  0.000000000000000E+000
  0.000000000000000E+000
  0.000000000000000E+000
  0.000000000000000E+000
  0.000000000000000E+000
  0.000000000000000E+000
  0.000000000000000E+000
  0.000000000000000E+000
  0.000000000000000E+000
  0.000000000000000E+000
  0.000000000000000E+000
  0.000000000000000E+000
  0.000000000000000E+000
  0.000000000000000E+000
  0.000000000000000E+000
  0.000000000000000E+000
  0.000000000000000E+000
  0.000000000000000E+000
  0.000000000000000E+000
  0.000000000000000E+000
  0.000000000000000E+000
  0.000000000000000E+000
  0.000000000000000E+000
  0.000000000000000E+000
  0.000000000000000E+000
  0.000000000000000E+000
  0.000000000000000E+000
  0.000000000000000E+000
  0.000000000000000E+000
  0.000000000000000E+000
  0.000000000000000E+000
  0.000000000000000E+000
  0.000000000000000E+000
  0.000000000000000E+000
  0.000000000000000E+000
  0.000000000000000E+000
  0.000000000000000E+000
  0.000000000000000E+000
  0.000000000000000E+000
  0.000000000000000E+000
  0.000000000000000E+000
  0.000000000000000E+000
  0.000000000000000E+000
  0.000000000000000E+000
  0.000000000000000E+000
  0.000000000000000E+000
  0.000000000000000E+000
  0.000000000000000E+000
  0.000000000000000E+000
  0.000000000000000E+000
  0.000000000000000E+000
  0.000000000000000E+000
  0.000000000000000E+000
  0.000000000000000E+000
  0.000000000000000E+000
  0.000000000000000E+000
  0.000000000000000E+000
  0.000000000000000E+000
  0.000000000000000E+000
  0.000000000000000E+000
  0.000000000000000E+000
  0.000000000000000E+000
  0.000000000000000E+000
  0.000000000000000E+000
  0.000000000000000E+000
  0.000000000000000E+000
  0.000000000000000E+000
  0.000000000000000E+000
  0.000000000000000E+000
  0.000000000000000E+000
  0.000000000000000E+000
  0.000000000000000E+000
  0.000000000000000E+000
  0.000000000000000E+000
  0.000000000000000E+000
  0.000000000000000E+000
  0.000000000000000E+000
  0.000000000000000E+000
  0.000000000000000E+000
  0.000000000000000E+000
  0.000000000000000E+000
  0.000000000000000E+000
  0.000000000000000E+000
  0.000000000000000E+000
  0.000000000000000E+000
  0.000000000000000E+000
  0.000000000000000E+000
  0.000000000000000E+000
  0.000000000000000E+000
  0.000000000000000E+000
  0.000000000000000E+000
  0.000000000000000E+000
  0.000000000000000E+000
  0.000000000000000E+000
  0.000000000000000E+000
  0.000000000000000E+000
  0.000000000000000E+000
  0.000000000000000E+000
  0.000000000000000E+000
  0.000000000000000E+000
  0.000000000000000E+000
  0.000000000000000E+000
  0.000000000000000E+000
  0.000000000000000E+000
  0.000000000000000E+000
  0.000000000000000E+000
  0.000000000000000E+000
  0.000000000000000E+000
  0.000000000000000E+000
  0.000000000000000E+000
  0.000000000000000E+000
  0.000000000000000E+000
  0.000000000000000E+000
  0.000000000000000E+000
  0.000000000000000E+000
  0.000000000000000E+000
  0.000000000000000E+000
  0.000000000000000E+000
  0.000000000000000E+000
  0.000000000000000E+000
  0.000000000000000E+000
  0.000000000000000E+000
  0.000000000000000E+000
  0.000000000000000E+000
  0.000000000000000E+000
  0.000000000000000E+000
  0.000000000000000E+000
  0.000000000000000E+000
  0.000000000000000E+000
  0.000000000000000E+000
  0.000000000000000E+000
  0.000000000000000E+000
  0.000000000000000E+000
  0.000000000000000E+000
  0.000000000000000E+000
  0.000000000000000E+000
  0.000000000000000E+000
  0.000000000000000E+000
  0.000000000000000E+000
  0.000000000000000E+000
  0.000000000000000E+000
  0.000000000000000E+000
  0.000000000000000E+000
  0.000000000000000E+000
  0.000000000000000E+000
  0.000000000000000E+000
  0.000000000000000E+000
  0.000000000000000E+000
  0.000000000000000E+000
  0.000000000000000E+000
  0.000000000000000E+000
  0.000000000000000E+000
  0.000000000000000E+000
  0.000000000000000E+000
  0.000000000000000E+000
  0.000000000000000E+000
  0.000000000000000E+000
  0.000000000000000E+000
  0.000000000000000E+000
  0.000000000000000E+000
  0.000000000000000E+000
  0.000000000000000E+000
  0.000000000000000E+000
  0.000000000000000E+000
  0.000000000000000E+000
  0.000000000000000E+000
  0.000000000000000E+000
  0.000000000000000E+000
  0.000000000000000E+000
  0.000000000000000E+000
  0.000000000000000E+000
  0.000000000000000E+000
  0.000000000000000E+000
  0.000000000000000E+000
  0.000000000000000E+000
  0.000000000000000E+000
  0.000000000000000E+000
  0.000000000000000E+000
  0.000000000000000E+000
  0.000000000000000E+000
  0.000000000000000E+000
  0.000000000000000E+000
  0.000000000000000E+000
  0.000000000000000E+000
  0.000000000000000E+000
  0.000000000000000E+000
  0.000000000000000E+000
  0.000000000000000E+000
  0.000000000000000E+000
  0.000000000000000E+000
  0.000000000000000E+000
  0.000000000000000E+000
  0.000000000000000E+000
  0.000000000000000E+000
  0.000000000000000E+000
  0.000000000000000E+000
  0.000000000000000E+000
  0.000000000000000E+000
  0.000000000000000E+000
  0.000000000000000E+000
  0.000000000000000E+000
  0.000000000000000E+000
  0.000000000000000E+000
  0.000000000000000E+000
  0.000000000000000E+000
  0.000000000000000E+000
  0.000000000000000E+000
  0.000000000000000E+000
  0.000000000000000E+000
  0.000000000000000E+000
  0.000000000000000E+000
  0.000000000000000E+000
  0.000000000000000E+000
  0.000000000000000E+000
  0.000000000000000E+000
  0.000000000000000E+000
  0.000000000000000E+000
  0.000000000000000E+000
  0.000000000000000E+000
  0.000000000000000E+000
  0.000000000000000E+000
  0.000000000000000E+000
  0.000000000000000E+000
  0.000000000000000E+000
  0.000000000000000E+000
  0.000000000000000E+000
  0.000000000000000E+000
  0.000000000000000E+000
  0.000000000000000E+000
  0.000000000000000E+000
  0.000000000000000E+000
  0.000000000000000E+000
  0.000000000000000E+000
  0.000000000000000E+000
  0.000000000000000E+000
  0.000000000000000E+000
  0.000000000000000E+000
  0.000000000000000E+000
  0.000000000000000E+000
  0.000000000000000E+000
  0.000000000000000E+000
  0.000000000000000E+000
  0.000000000000000E+000
  0.000000000000000E+000
  0.000000000000000E+000
  0.000000000000000E+000
  0.000000000000000E+000
  0.000000000000000E+000
  0.000000000000000E+000
  0.000000000000000E+000
  0.000000000000000E+000
  0.000000000000000E+000
  0.000000000000000E+000
  0.000000000000000E+000
  0.000000000000000E+000
  0.000000000000000E+000
  0.000000000000000E+000
  0.000000000000000E+000
  0.000000000000000E+000
  0.000000000000000E+000
  0.000000000000000E+000
  0.000000000000000E+000
  0.000000000000000E+000
  0.000000000000000E+000
  0.000000000000000E+000
  0.000000000000000E+000
  0.000000000000000E+000
  0.000000000000000E+000
  0.000000000000000E+000
  0.000000000000000E+000
  0.000000000000000E+000
  0.000000000000000E+000
  0.000000000000000E+000
  0.000000000000000E+000
  0.000000000000000E+000
  0.000000000000000E+000
  0.000000000000000E+000
  0.000000000000000E+000
  0.000000000000000E+000
  0.000000000000000E+000
  0.000000000000000E+000
  0.000000000000000E+000
  0.000000000000000E+000
  0.000000000000000E+000
  0.000000000000000E+000
  0.000000000000000E+000
  0.000000000000000E+000
  0.000000000000000E+000
  0.000000000000000E+000
  0.000000000000000E+000
  0.000000000000000E+000
  0.000000000000000E+000
  0.000000000000000E+000
  0.000000000000000E+000
  0.000000000000000E+000
  0.000000000000000E+000
  0.000000000000000E+000
  0.000000000000000E+000
  0.000000000000000E+000
  0.000000000000000E+000
  0.000000000000000E+000
  0.000000000000000E+000
  0.000000000000000E+000
  0.000000000000000E+000
  0.000000000000000E+000
  0.000000000000000E+000
  0.000000000000000E+000
  0.000000000000000E+000
  0.000000000000000E+000
  0.000000000000000E+000
  0.000000000000000E+000
  0.000000000000000E+000
  0.000000000000000E+000
  0.000000000000000E+000
  0.000000000000000E+000
  0.000000000000000E+000
  0.000000000000000E+000
  0.000000000000000E+000
  0.000000000000000E+000
  0.000000000000000E+000
  0.000000000000000E+000
  0.000000000000000E+000
  0.000000000000000E+000
  0.000000000000000E+000
  0.000000000000000E+000
  0.000000000000000E+000
  0.000000000000000E+000
  0.000000000000000E+000
  0.000000000000000E+000
  0.000000000000000E+000
  0.000000000000000E+000
  0.000000000000000E+000
  0.000000000000000E+000
  0.000000000000000E+000
  0.000000000000000E+000
  0.000000000000000E+000
  0.000000000000000E+000
  0.000000000000000E+000
  0.000000000000000E+000
  0.000000000000000E+000
  0.000000000000000E+000
  0.000000000000000E+000
  0.000000000000000E+000
  0.000000000000000E+000
  0.000000000000000E+000
  0.000000000000000E+000
  0.000000000000000E+000
  0.000000000000000E+000
  0.000000000000000E+000
  0.000000000000000E+000
  0.000000000000000E+000
  0.000000000000000E+000
  0.000000000000000E+000
  0.000000000000000E+000
  0.000000000000000E+000
  0.000000000000000E+000
  0.000000000000000E+000
  0.000000000000000E+000
  0.000000000000000E+000
  0.000000000000000E+000
  0.000000000000000E+000
  0.000000000000000E+000
  0.000000000000000E+000
  0.000000000000000E+000
  0.000000000000000E+000
  0.000000000000000E+000
  0.000000000000000E+000
  0.000000000000000E+000
  0.000000000000000E+000
  0.000000000000000E+000
  0.000000000000000E+000
  0.000000000000000E+000
  0.000000000000000E+000
  0.000000000000000E+000
  0.000000000000000E+000
  0.000000000000000E+000
  0.000000000000000E+000
  0.000000000000000E+000
  0.000000000000000E+000
  0.000000000000000E+000
  0.000000000000000E+000
  0.000000000000000E+000
  0.000000000000000E+000
  0.000000000000000E+000
  0.000000000000000E+000
  0.000000000000000E+000
  0.000000000000000E+000
  0.000000000000000E+000
  0.000000000000000E+000
  0.000000000000000E+000
  0.000000000000000E+000
  0.000000000000000E+000
  0.000000000000000E+000
  0.000000000000000E+000
  0.000000000000000E+000
  0.000000000000000E+000
  0.000000000000000E+000
  0.000000000000000E+000
  0.000000000000000E+000
  0.000000000000000E+000
  0.000000000000000E+000
  0.000000000000000E+000
  0.000000000000000E+000
  0.000000000000000E+000
  0.000000000000000E+000
  0.000000000000000E+000
  0.000000000000000E+000
  0.000000000000000E+000
  0.000000000000000E+000
  0.000000000000000E+000
  0.000000000000000E+000
  0.000000000000000E+000
  0.000000000000000E+000
  0.000000000000000E+000
  0.000000000000000E+000
  0.000000000000000E+000
  0.000000000000000E+000
  0.000000000000000E+000
  0.000000000000000E+000
  0.000000000000000E+000
  0.000000000000000E+000
  0.000000000000000E+000
  0.000000000000000E+000
  0.000000000000000E+000
  0.000000000000000E+000
  0.000000000000000E+000
  0.000000000000000E+000
  0.000000000000000E+000
  0.000000000000000E+000
  0.000000000000000E+000
  0.000000000000000E+000
  0.000000000000000E+000
  0.000000000000000E+000
  0.000000000000000E+000
  0.000000000000000E+000
  0.000000000000000E+000
  0.000000000000000E+000
  0.000000000000000E+000
  0.000000000000000E+000
  0.000000000000000E+000
  0.000000000000000E+000
  0.000000000000000E+000
  0.000000000000000E+000
  0.000000000000000E+000
  0.000000000000000E+000
  0.000000000000000E+000
  0.000000000000000E+000
  0.000000000000000E+000
  0.000000000000000E+000
  0.000000000000000E+000
  0.000000000000000E+000
  0.000000000000000E+000
  0.000000000000000E+000
  0.000000000000000E+000
  0.000000000000000E+000
  0.000000000000000E+000
  0.000000000000000E+000
  0.000000000000000E+000
  0.000000000000000E+000
  0.000000000000000E+000
  0.000000000000000E+000
  0.000000000000000E+000
  0.000000000000000E+000
  0.000000000000000E+000
  0.000000000000000E+000
  0.000000000000000E+000
  0.000000000000000E+000
  0.000000000000000E+000
  0.000000000000000E+000
  0.000000000000000E+000
  0.000000000000000E+000
  0.000000000000000E+000
  0.000000000000000E+000
  0.000000000000000E+000
  0.000000000000000E+000
  0.000000000000000E+000
  0.000000000000000E+000
  0.000000000000000E+000
  0.000000000000000E+000
  0.000000000000000E+000
  0.000000000000000E+000
  0.000000000000000E+000
  0.000000000000000E+000
  0.000000000000000E+000
  0.000000000000000E+000
  0.000000000000000E+000
  0.000000000000000E+000
  0.000000000000000E+000
  0.000000000000000E+000
  0.000000000000000E+000
  0.000000000000000E+000
  0.000000000000000E+000
  0.000000000000000E+000
  0.000000000000000E+000
  0.000000000000000E+000
  0.000000000000000E+000
  0.000000000000000E+000
  0.000000000000000E+000
  0.000000000000000E+000
  0.000000000000000E+000
  0.000000000000000E+000
  0.000000000000000E+000
  0.000000000000000E+000
  0.000000000000000E+000
  0.000000000000000E+000
  0.000000000000000E+000
  0.000000000000000E+000
  0.000000000000000E+000
  0.000000000000000E+000
  0.000000000000000E+000
  0.000000000000000E+000
  0.000000000000000E+000
  0.000000000000000E+000
  0.000000000000000E+000
  0.000000000000000E+000
  0.000000000000000E+000
  0.000000000000000E+000
  0.000000000000000E+000
  0.000000000000000E+000
  0.000000000000000E+000
  0.000000000000000E+000
  0.000000000000000E+000
  0.000000000000000E+000
  0.000000000000000E+000
  0.000000000000000E+000
  0.000000000000000E+000
  0.000000000000000E+000
  0.000000000000000E+000
  0.000000000000000E+000
  0.000000000000000E+000
  0.000000000000000E+000
  0.000000000000000E+000
  0.000000000000000E+000
  0.000000000000000E+000
  0.000000000000000E+000
  0.000000000000000E+000
  0.000000000000000E+000
  0.000000000000000E+000
  0.000000000000000E+000
  0.000000000000000E+000
  0.000000000000000E+000
  0.000000000000000E+000
  0.000000000000000E+000
  0.000000000000000E+000
  0.000000000000000E+000
  0.000000000000000E+000
  0.000000000000000E+000
  0.000000000000000E+000
  0.000000000000000E+000
  0.000000000000000E+000
  0.000000000000000E+000
  0.000000000000000E+000
  0.000000000000000E+000
  0.000000000000000E+000
  0.000000000000000E+000
  0.000000000000000E+000
  0.000000000000000E+000
  0.000000000000000E+000
  0.000000000000000E+000
  0.000000000000000E+000
  0.000000000000000E+000
  0.000000000000000E+000
  0.000000000000000E+000
  0.000000000000000E+000
  0.000000000000000E+000
  0.000000000000000E+000
  0.000000000000000E+000
  0.000000000000000E+000
  0.000000000000000E+000
  0.000000000000000E+000
  0.000000000000000E+000
  0.000000000000000E+000
  0.000000000000000E+000
  0.000000000000000E+000
  0.000000000000000E+000
  0.000000000000000E+000
  0.000000000000000E+000
  0.000000000000000E+000
  0.000000000000000E+000
  0.000000000000000E+000
  0.000000000000000E+000
  0.000000000000000E+000
  0.000000000000000E+000
  0.000000000000000E+000
  0.000000000000000E+000
  0.000000000000000E+000
  0.000000000000000E+000
  0.000000000000000E+000
  0.000000000000000E+000
  0.000000000000000E+000
  0.000000000000000E+000
  0.000000000000000E+000
  0.000000000000000E+000
  0.000000000000000E+000
  0.000000000000000E+000
  0.000000000000000E+000
  0.000000000000000E+000
  0.000000000000000E+000
  0.000000000000000E+000
  0.000000000000000E+000
  0.000000000000000E+000
  0.000000000000000E+000
  0.000000000000000E+000
  0.000000000000000E+000
  0.000000000000000E+000
  0.000000000000000E+000
  0.000000000000000E+000
  0.000000000000000E+000
  0.000000000000000E+000
  0.000000000000000E+000
  0.000000000000000E+000
  0.000000000000000E+000
  0.000000000000000E+000
  0.000000000000000E+000
  0.000000000000000E+000
  0.000000000000000E+000
  0.000000000000000E+000
  0.000000000000000E+000
  0.000000000000000E+000
  0.000000000000000E+000
  0.000000000000000E+000
  0.000000000000000E+000
  0.000000000000000E+000
  0.000000000000000E+000
  0.000000000000000E+000
  0.000000000000000E+000
  0.000000000000000E+000
  0.000000000000000E+000
  0.000000000000000E+000
  0.000000000000000E+000
  0.000000000000000E+000
  0.000000000000000E+000
  0.000000000000000E+000
  0.000000000000000E+000
  0.000000000000000E+000
  0.000000000000000E+000
  0.000000000000000E+000
  0.000000000000000E+000
  0.000000000000000E+000
  0.000000000000000E+000
  0.000000000000000E+000
  0.000000000000000E+000
  0.000000000000000E+000
  0.000000000000000E+000
  0.000000000000000E+000
  0.000000000000000E+000
  0.000000000000000E+000
  0.000000000000000E+000
  0.000000000000000E+000
  0.000000000000000E+000
  0.000000000000000E+000
  0.000000000000000E+000
  0.000000000000000E+000
  0.000000000000000E+000
  0.000000000000000E+000
  0.000000000000000E+000
  0.000000000000000E+000
  0.000000000000000E+000
  0.000000000000000E+000
  0.000000000000000E+000
  0.000000000000000E+000
  0.000000000000000E+000
  0.000000000000000E+000
  0.000000000000000E+000
  0.000000000000000E+000
  0.000000000000000E+000
  0.000000000000000E+000
  0.000000000000000E+000
  0.000000000000000E+000
  0.000000000000000E+000
  0.000000000000000E+000
  0.000000000000000E+000
  0.000000000000000E+000
  0.000000000000000E+000
  0.000000000000000E+000
  0.000000000000000E+000
  0.000000000000000E+000
  0.000000000000000E+000
  0.000000000000000E+000
  0.000000000000000E+000
  0.000000000000000E+000
  0.000000000000000E+000
  0.000000000000000E+000
  0.000000000000000E+000
  0.000000000000000E+000
  0.000000000000000E+000
  0.000000000000000E+000
  0.000000000000000E+000
  0.000000000000000E+000
  0.000000000000000E+000
  0.000000000000000E+000
  0.000000000000000E+000
  0.000000000000000E+000
  0.000000000000000E+000
  0.000000000000000E+000
  0.000000000000000E+000
  0.000000000000000E+000
  0.000000000000000E+000
  0.000000000000000E+000
  0.000000000000000E+000
  0.000000000000000E+000
  0.000000000000000E+000
  0.000000000000000E+000
  0.000000000000000E+000
  0.000000000000000E+000
  0.000000000000000E+000
  0.000000000000000E+000
  0.000000000000000E+000
  0.000000000000000E+000
  0.000000000000000E+000
  0.000000000000000E+000
  0.000000000000000E+000
  0.000000000000000E+000
  0.000000000000000E+000
  0.000000000000000E+000
  0.000000000000000E+000
  0.000000000000000E+000
  0.000000000000000E+000
  0.000000000000000E+000
  0.000000000000000E+000
  0.000000000000000E+000
  0.000000000000000E+000
  0.000000000000000E+000
  0.000000000000000E+000
  0.000000000000000E+000
  0.000000000000000E+000
  0.000000000000000E+000
  0.000000000000000E+000
  0.000000000000000E+000
  0.000000000000000E+000
  0.000000000000000E+000
  0.000000000000000E+000
  0.000000000000000E+000
  0.000000000000000E+000
  0.000000000000000E+000
  0.000000000000000E+000
  0.000000000000000E+000
  0.000000000000000E+000
  0.000000000000000E+000
  0.000000000000000E+000
  0.000000000000000E+000
  0.000000000000000E+000
  0.000000000000000E+000
  0.000000000000000E+000
  0.000000000000000E+000
  0.000000000000000E+000
  0.000000000000000E+000
  0.000000000000000E+000
  0.000000000000000E+000
  0.000000000000000E+000
  0.000000000000000E+000
  0.000000000000000E+000
  0.000000000000000E+000
  0.000000000000000E+000
  0.000000000000000E+000
  0.000000000000000E+000
  0.000000000000000E+000
  0.000000000000000E+000
  0.000000000000000E+000
  0.000000000000000E+000
  0.000000000000000E+000
  0.000000000000000E+000
  0.000000000000000E+000
  0.000000000000000E+000
  0.000000000000000E+000
  0.000000000000000E+000
  0.000000000000000E+000
  0.000000000000000E+000
  0.000000000000000E+000
  0.000000000000000E+000
  0.000000000000000E+000
  0.000000000000000E+000
  0.000000000000000E+000
  0.000000000000000E+000
  0.000000000000000E+000
  0.000000000000000E+000
  0.000000000000000E+000
  0.000000000000000E+000
  0.000000000000000E+000
  0.000000000000000E+000
  0.000000000000000E+000
  0.000000000000000E+000
  0.000000000000000E+000
  0.000000000000000E+000
  0.000000000000000E+000
  0.000000000000000E+000
  0.000000000000000E+000
  0.000000000000000E+000
  0.000000000000000E+000
  0.000000000000000E+000
  0.000000000000000E+000
  0.000000000000000E+000
  0.000000000000000E+000
  0.000000000000000E+000
  0.000000000000000E+000
  0.000000000000000E+000
  0.000000000000000E+000
  0.000000000000000E+000
  0.000000000000000E+000
  0.000000000000000E+000
  0.000000000000000E+000
  0.000000000000000E+000
  0.000000000000000E+000
  0.000000000000000E+000
  0.000000000000000E+000
  0.000000000000000E+000
  0.000000000000000E+000
  0.000000000000000E+000
  0.000000000000000E+000
  0.000000000000000E+000
  0.000000000000000E+000
  0.000000000000000E+000
  0.000000000000000E+000
  0.000000000000000E+000
  0.000000000000000E+000
  0.000000000000000E+000
  0.000000000000000E+000
  0.000000000000000E+000
  0.000000000000000E+000
  0.000000000000000E+000
  0.000000000000000E+000
  0.000000000000000E+000
  0.000000000000000E+000
  0.000000000000000E+000
  0.000000000000000E+000
  0.000000000000000E+000
  0.000000000000000E+000
  0.000000000000000E+000
  0.000000000000000E+000
  0.000000000000000E+000
  0.000000000000000E+000
  0.000000000000000E+000
  0.000000000000000E+000
  0.000000000000000E+000
  0.000000000000000E+000
  0.000000000000000E+000
  0.000000000000000E+000
  0.000000000000000E+000
  0.000000000000000E+000
  0.000000000000000E+000
  0.000000000000000E+000
  0.000000000000000E+000
  0.000000000000000E+000
  0.000000000000000E+000
  0.000000000000000E+000
  0.000000000000000E+000
  0.000000000000000E+000
  0.000000000000000E+000
  0.000000000000000E+000
  0.000000000000000E+000
  0.000000000000000E+000
  0.000000000000000E+000
  0.000000000000000E+000
  0.000000000000000E+000
  0.000000000000000E+000
  0.000000000000000E+000
  0.000000000000000E+000
  0.000000000000000E+000
  0.000000000000000E+000
  0.000000000000000E+000
  0.000000000000000E+000
  0.000000000000000E+000
  0.000000000000000E+000
  0.000000000000000E+000
  0.000000000000000E+000
  0.000000000000000E+000
  0.000000000000000E+000
  0.000000000000000E+000
  0.000000000000000E+000
  0.000000000000000E+000
  0.000000000000000E+000
  0.000000000000000E+000
  0.000000000000000E+000
  0.000000000000000E+000
  0.000000000000000E+000
  0.000000000000000E+000
  0.000000000000000E+000
  0.000000000000000E+000
  0.000000000000000E+000
  0.000000000000000E+000
  0.000000000000000E+000
  0.000000000000000E+000
  0.000000000000000E+000
  0.000000000000000E+000
  0.000000000000000E+000
  0.000000000000000E+000
  0.000000000000000E+000
  0.000000000000000E+000
  0.000000000000000E+000
  0.000000000000000E+000
  0.000000000000000E+000
  0.000000000000000E+000
  0.000000000000000E+000
  0.000000000000000E+000
  0.000000000000000E+000
  0.000000000000000E+000
  0.000000000000000E+000
  0.000000000000000E+000
  0.000000000000000E+000
  0.000000000000000E+000
  0.000000000000000E+000
  0.000000000000000E+000
  0.000000000000000E+000
  0.000000000000000E+000
  0.000000000000000E+000
  0.000000000000000E+000
  0.000000000000000E+000
  0.000000000000000E+000
  0.000000000000000E+000
  0.000000000000000E+000
  0.000000000000000E+000
  0.000000000000000E+000
  0.000000000000000E+000
  0.000000000000000E+000
  0.000000000000000E+000
  0.000000000000000E+000
  0.000000000000000E+000
  0.000000000000000E+000
  0.000000000000000E+000
  0.000000000000000E+000
  0.000000000000000E+000
  0.000000000000000E+000
  0.000000000000000E+000
  0.000000000000000E+000
  0.000000000000000E+000
  0.000000000000000E+000
  0.000000000000000E+000
  0.000000000000000E+000
  0.000000000000000E+000
  0.000000000000000E+000
  0.000000000000000E+000
  0.000000000000000E+000
  0.000000000000000E+000
  0.000000000000000E+000
  0.000000000000000E+000
  0.000000000000000E+000
  0.000000000000000E+000
  0.000000000000000E+000
  0.000000000000000E+000
  0.000000000000000E+000
  0.000000000000000E+000
  0.000000000000000E+000
  0.000000000000000E+000
  0.000000000000000E+000
  0.000000000000000E+000
  0.000000000000000E+000
  0.000000000000000E+000
  0.000000000000000E+000
  0.000000000000000E+000
  0.000000000000000E+000
  0.000000000000000E+000
  0.000000000000000E+000
  0.000000000000000E+000
  0.000000000000000E+000
  0.000000000000000E+000
  0.000000000000000E+000
  0.000000000000000E+000
  0.000000000000000E+000
  0.000000000000000E+000
  0.000000000000000E+000
  0.000000000000000E+000
  0.000000000000000E+000
  0.000000000000000E+000
  0.000000000000000E+000
  0.000000000000000E+000
  0.000000000000000E+000
  0.000000000000000E+000
  0.000000000000000E+000
  0.000000000000000E+000
  0.000000000000000E+000
  0.000000000000000E+000
  0.000000000000000E+000
  0.000000000000000E+000
  0.000000000000000E+000
  0.000000000000000E+000
  0.000000000000000E+000
  0.000000000000000E+000
  0.000000000000000E+000
  0.000000000000000E+000
  0.000000000000000E+000
  0.000000000000000E+000
  0.000000000000000E+000
  0.000000000000000E+000
  0.000000000000000E+000
  0.000000000000000E+000
  0.000000000000000E+000
  0.000000000000000E+000
  0.000000000000000E+000
  0.000000000000000E+000
  0.000000000000000E+000
  0.000000000000000E+000
  0.000000000000000E+000
  0.000000000000000E+000
  0.000000000000000E+000
  0.000000000000000E+000
  0.000000000000000E+000
  0.000000000000000E+000
  0.000000000000000E+000
  0.000000000000000E+000
  0.000000000000000E+000
  0.000000000000000E+000
  0.000000000000000E+000
  0.000000000000000E+000
  0.000000000000000E+000
  0.000000000000000E+000
  0.000000000000000E+000
  0.000000000000000E+000
  0.000000000000000E+000
  0.000000000000000E+000
  0.000000000000000E+000
  0.000000000000000E+000
  0.000000000000000E+000
  0.000000000000000E+000
  0.000000000000000E+000
  0.000000000000000E+000
  0.000000000000000E+000
  0.000000000000000E+000
  0.000000000000000E+000
  0.000000000000000E+000
  0.000000000000000E+000
  0.000000000000000E+000
  0.000000000000000E+000
  0.000000000000000E+000
  0.000000000000000E+000
  0.000000000000000E+000
  0.000000000000000E+000
  0.000000000000000E+000
  0.000000000000000E+000
  0.000000000000000E+000
  0.000000000000000E+000
  0.000000000000000E+000
  0.000000000000000E+000
  0.000000000000000E+000
  0.000000000000000E+000
  0.000000000000000E+000
  0.000000000000000E+000
  0.000000000000000E+000
  0.000000000000000E+000
  0.000000000000000E+000
  0.000000000000000E+000
  0.000000000000000E+000
  0.000000000000000E+000
  0.000000000000000E+000
  0.000000000000000E+000
  0.000000000000000E+000
  0.000000000000000E+000
  0.000000000000000E+000
  0.000000000000000E+000
  0.000000000000000E+000
  0.000000000000000E+000
  0.000000000000000E+000
  0.000000000000000E+000
  0.000000000000000E+000
  0.000000000000000E+000
  0.000000000000000E+000
  0.000000000000000E+000
  0.000000000000000E+000
  0.000000000000000E+000
  0.000000000000000E+000
  0.000000000000000E+000
  0.000000000000000E+000
  0.000000000000000E+000
  0.000000000000000E+000
  0.000000000000000E+000
  0.000000000000000E+000
  0.000000000000000E+000
  0.000000000000000E+000
  0.000000000000000E+000
  0.000000000000000E+000
  0.000000000000000E+000
  0.000000000000000E+000
  0.000000000000000E+000
  0.000000000000000E+000
  0.000000000000000E+000
  0.000000000000000E+000
  0.000000000000000E+000
  0.000000000000000E+000
  0.000000000000000E+000
  0.000000000000000E+000
  0.000000000000000E+000
  0.000000000000000E+000
  0.000000000000000E+000
  0.000000000000000E+000
  0.000000000000000E+000
  0.000000000000000E+000
  0.000000000000000E+000
  0.000000000000000E+000
  0.000000000000000E+000
  0.000000000000000E+000
  0.000000000000000E+000
  0.000000000000000E+000
  0.000000000000000E+000
  0.000000000000000E+000
  0.000000000000000E+000
  0.000000000000000E+000
  0.000000000000000E+000
  0.000000000000000E+000
  0.000000000000000E+000
  0.000000000000000E+000
  0.000000000000000E+000
  0.000000000000000E+000
  0.000000000000000E+000
  0.000000000000000E+000
  0.000000000000000E+000
  0.000000000000000E+000
  0.000000000000000E+000
  0.000000000000000E+000
  0.000000000000000E+000
  0.000000000000000E+000
  0.000000000000000E+000
  0.000000000000000E+000
  0.000000000000000E+000
  0.000000000000000E+000
  0.000000000000000E+000
  0.000000000000000E+000
  0.000000000000000E+000
  0.000000000000000E+000
  0.000000000000000E+000
  0.000000000000000E+000
  0.000000000000000E+000
  0.000000000000000E+000
  0.000000000000000E+000
  0.000000000000000E+000
  0.000000000000000E+000
  0.000000000000000E+000
  0.000000000000000E+000
  0.000000000000000E+000
  0.000000000000000E+000
  0.000000000000000E+000
  0.000000000000000E+000
  0.000000000000000E+000
  0.000000000000000E+000
  0.000000000000000E+000
  0.000000000000000E+000
  0.000000000000000E+000
  0.000000000000000E+000
  0.000000000000000E+000
  0.000000000000000E+000
  0.000000000000000E+000
  0.000000000000000E+000
  0.000000000000000E+000
  0.000000000000000E+000
  0.000000000000000E+000
  0.000000000000000E+000
  0.000000000000000E+000
  0.000000000000000E+000
  0.000000000000000E+000
  0.000000000000000E+000
  0.000000000000000E+000
  0.000000000000000E+000
  0.000000000000000E+000
  0.000000000000000E+000
  0.000000000000000E+000
  0.000000000000000E+000
  0.000000000000000E+000
  0.000000000000000E+000
  0.000000000000000E+000
  0.000000000000000E+000
  0.000000000000000E+000
  0.000000000000000E+000
  0.000000000000000E+000
  0.000000000000000E+000
  0.000000000000000E+000
  0.000000000000000E+000
  0.000000000000000E+000
  0.000000000000000E+000
  0.000000000000000E+000
  0.000000000000000E+000
  0.000000000000000E+000
  0.000000000000000E+000
  0.000000000000000E+000
  0.000000000000000E+000
  0.000000000000000E+000
  0.000000000000000E+000
  0.000000000000000E+000
  0.000000000000000E+000
  0.000000000000000E+000
  0.000000000000000E+000
  0.000000000000000E+000
  0.000000000000000E+000
  0.000000000000000E+000
  0.000000000000000E+000
  0.000000000000000E+000
  0.000000000000000E+000
  0.000000000000000E+000
  0.000000000000000E+000
  0.000000000000000E+000
  0.000000000000000E+000
  0.000000000000000E+000
  0.000000000000000E+000
  0.000000000000000E+000
  0.000000000000000E+000
  0.000000000000000E+000
  0.000000000000000E+000
  0.000000000000000E+000
  0.000000000000000E+000
  0.000000000000000E+000
  0.000000000000000E+000
  0.000000000000000E+000
  0.000000000000000E+000
  0.000000000000000E+000
  0.000000000000000E+000
  0.000000000000000E+000
  0.000000000000000E+000
  0.000000000000000E+000
  0.000000000000000E+000
  0.000000000000000E+000
  0.000000000000000E+000
  0.000000000000000E+000
  0.000000000000000E+000
  0.000000000000000E+000
  0.000000000000000E+000
  0.000000000000000E+000
  0.000000000000000E+000
  0.000000000000000E+000
  0.000000000000000E+000
  0.000000000000000E+000
  0.000000000000000E+000
  0.000000000000000E+000
  0.000000000000000E+000
  0.000000000000000E+000
  0.000000000000000E+000
  0.000000000000000E+000
  0.000000000000000E+000
  0.000000000000000E+000
  0.000000000000000E+000
  0.000000000000000E+000
  0.000000000000000E+000
  0.000000000000000E+000
  0.000000000000000E+000
  0.000000000000000E+000
  0.000000000000000E+000
  0.000000000000000E+000
  0.000000000000000E+000
  0.000000000000000E+000
  0.000000000000000E+000
  0.000000000000000E+000
  0.000000000000000E+000
  0.000000000000000E+000
  0.000000000000000E+000
  0.000000000000000E+000
  0.000000000000000E+000
  0.000000000000000E+000
  0.000000000000000E+000
  0.000000000000000E+000
  0.000000000000000E+000
  0.000000000000000E+000
  0.000000000000000E+000
  0.000000000000000E+000
  0.000000000000000E+000
  0.000000000000000E+000
  0.000000000000000E+000
  0.000000000000000E+000
  0.000000000000000E+000
  0.000000000000000E+000
  0.000000000000000E+000
  0.000000000000000E+000
  0.000000000000000E+000
  0.000000000000000E+000
  0.000000000000000E+000
  0.000000000000000E+000
  0.000000000000000E+000
  0.000000000000000E+000
  0.000000000000000E+000
  0.000000000000000E+000
  0.000000000000000E+000
  0.000000000000000E+000
  0.000000000000000E+000
  0.000000000000000E+000
  0.000000000000000E+000
  0.000000000000000E+000
  0.000000000000000E+000
  0.000000000000000E+000
  0.000000000000000E+000
  0.000000000000000E+000
  0.000000000000000E+000
  0.000000000000000E+000
  0.000000000000000E+000
  0.000000000000000E+000
  0.000000000000000E+000
  0.000000000000000E+000
  0.000000000000000E+000
  0.000000000000000E+000
  0.000000000000000E+000
  0.000000000000000E+000
  0.000000000000000E+000
  0.000000000000000E+000
  0.000000000000000E+000
  0.000000000000000E+000
  0.000000000000000E+000
  0.000000000000000E+000
  0.000000000000000E+000
  0.000000000000000E+000
  0.000000000000000E+000
  0.000000000000000E+000
  0.000000000000000E+000
  0.000000000000000E+000
  0.000000000000000E+000
  0.000000000000000E+000
  0.000000000000000E+000
  0.000000000000000E+000
  0.000000000000000E+000
  0.000000000000000E+000
  0.000000000000000E+000
  0.000000000000000E+000
  0.000000000000000E+000
  0.000000000000000E+000
  0.000000000000000E+000
  0.000000000000000E+000
  0.000000000000000E+000
  0.000000000000000E+000
  0.000000000000000E+000
  0.000000000000000E+000
  0.000000000000000E+000
  0.000000000000000E+000
  0.000000000000000E+000
  0.000000000000000E+000
  0.000000000000000E+000
  0.000000000000000E+000
  0.000000000000000E+000
  0.000000000000000E+000
  0.000000000000000E+000
  0.000000000000000E+000
  0.000000000000000E+000
  0.000000000000000E+000
  0.000000000000000E+000
  0.000000000000000E+000
  0.000000000000000E+000
  0.000000000000000E+000
  0.000000000000000E+000
  0.000000000000000E+000
  0.000000000000000E+000
  0.000000000000000E+000
  0.000000000000000E+000
  0.000000000000000E+000
  0.000000000000000E+000
  0.000000000000000E+000
  0.000000000000000E+000
  0.000000000000000E+000
  0.000000000000000E+000
  0.000000000000000E+000
  0.000000000000000E+000
  0.000000000000000E+000
  0.000000000000000E+000
  0.000000000000000E+000
  0.000000000000000E+000
  0.000000000000000E+000
  0.000000000000000E+000
  0.000000000000000E+000
  0.000000000000000E+000
  0.000000000000000E+000
  0.000000000000000E+000
  0.000000000000000E+000
  0.000000000000000E+000
  0.000000000000000E+000
  0.000000000000000E+000
  0.000000000000000E+000
  0.000000000000000E+000
  0.000000000000000E+000
  0.000000000000000E+000
  0.000000000000000E+000
  0.000000000000000E+000
  0.000000000000000E+000
  0.000000000000000E+000
  0.000000000000000E+000
  0.000000000000000E+000
  0.000000000000000E+000
  0.000000000000000E+000
  0.000000000000000E+000
  0.000000000000000E+000
  0.000000000000000E+000
  0.000000000000000E+000
  0.000000000000000E+000
  0.000000000000000E+000
  0.000000000000000E+000
  0.000000000000000E+000
  0.000000000000000E+000
  0.000000000000000E+000
  0.000000000000000E+000
  0.000000000000000E+000
  0.000000000000000E+000
  0.000000000000000E+000
  0.000000000000000E+000
  0.000000000000000E+000
  0.000000000000000E+000
  0.000000000000000E+000
  0.000000000000000E+000
  0.000000000000000E+000
  0.000000000000000E+000
  0.000000000000000E+000
  0.000000000000000E+000
  0.000000000000000E+000
  0.000000000000000E+000
  0.000000000000000E+000
  0.000000000000000E+000
  0.000000000000000E+000
  0.000000000000000E+000
  0.000000000000000E+000
  0.000000000000000E+000
  0.000000000000000E+000
  0.000000000000000E+000
  0.000000000000000E+000
  0.000000000000000E+000
  0.000000000000000E+000
  0.000000000000000E+000
  0.000000000000000E+000
  0.000000000000000E+000
  0.000000000000000E+000
  0.000000000000000E+000
  0.000000000000000E+000
  0.000000000000000E+000
  0.000000000000000E+000
  0.000000000000000E+000
  0.000000000000000E+000
  0.000000000000000E+000
  0.000000000000000E+000
  0.000000000000000E+000
  0.000000000000000E+000
  0.000000000000000E+000
  0.000000000000000E+000
  0.000000000000000E+000
  0.000000000000000E+000
  0.000000000000000E+000
  0.000000000000000E+000
  0.000000000000000E+000
  0.000000000000000E+000
  0.000000000000000E+000
  0.000000000000000E+000
  0.000000000000000E+000
  0.000000000000000E+000
  0.000000000000000E+000
  0.000000000000000E+000
  0.000000000000000E+000
  0.000000000000000E+000
  0.000000000000000E+000
  0.000000000000000E+000
  0.000000000000000E+000
  0.000000000000000E+000
  0.000000000000000E+000
  0.000000000000000E+000
  0.000000000000000E+000
  0.000000000000000E+000
  0.000000000000000E+000
  0.000000000000000E+000
  0.000000000000000E+000
  0.000000000000000E+000
  0.000000000000000E+000
  0.000000000000000E+000
  0.000000000000000E+000
  0.000000000000000E+000
  0.000000000000000E+000
  0.000000000000000E+000
  0.000000000000000E+000
  0.000000000000000E+000
  0.000000000000000E+000
  0.000000000000000E+000
  0.000000000000000E+000
  0.000000000000000E+000
  0.000000000000000E+000
  0.000000000000000E+000
  0.000000000000000E+000
  0.000000000000000E+000
  0.000000000000000E+000
  0.000000000000000E+000
  0.000000000000000E+000
  0.000000000000000E+000
  0.000000000000000E+000
  0.000000000000000E+000
  0.000000000000000E+000
  0.000000000000000E+000
  0.000000000000000E+000
  0.000000000000000E+000
  0.000000000000000E+000
  0.000000000000000E+000
  0.000000000000000E+000
  0.000000000000000E+000
  0.000000000000000E+000
  0.000000000000000E+000
  0.000000000000000E+000
  0.000000000000000E+000
  0.000000000000000E+000
  0.000000000000000E+000
  0.000000000000000E+000
  0.000000000000000E+000
  0.000000000000000E+000
  0.000000000000000E+000
  0.000000000000000E+000
  0.000000000000000E+000
  0.000000000000000E+000
  0.000000000000000E+000
  0.000000000000000E+000
  0.000000000000000E+000
  0.000000000000000E+000
  0.000000000000000E+000
  0.000000000000000E+000
  0.000000000000000E+000
  0.000000000000000E+000
  0.000000000000000E+000
  0.000000000000000E+000
  0.000000000000000E+000
  0.000000000000000E+000
  0.000000000000000E+000
  0.000000000000000E+000
  0.000000000000000E+000
  0.000000000000000E+000
  0.000000000000000E+000
  0.000000000000000E+000
  0.000000000000000E+000
  0.000000000000000E+000
  0.000000000000000E+000
  0.000000000000000E+000
  0.000000000000000E+000
  0.000000000000000E+000
  0.000000000000000E+000
  0.000000000000000E+000
  0.000000000000000E+000
  0.000000000000000E+000
  0.000000000000000E+000
  0.000000000000000E+000
  0.000000000000000E+000
  0.000000000000000E+000
  0.000000000000000E+000
  0.000000000000000E+000
  0.000000000000000E+000
  0.000000000000000E+000
  0.000000000000000E+000
  0.000000000000000E+000
  0.000000000000000E+000
  0.000000000000000E+000
  0.000000000000000E+000
  0.000000000000000E+000
  0.000000000000000E+000
  0.000000000000000E+000
  0.000000000000000E+000
  0.000000000000000E+000
  0.000000000000000E+000
  0.000000000000000E+000
  0.000000000000000E+000
  0.000000000000000E+000
  0.000000000000000E+000
  0.000000000000000E+000
  0.000000000000000E+000
  0.000000000000000E+000
  0.000000000000000E+000
  0.000000000000000E+000
  0.000000000000000E+000
  0.000000000000000E+000
  0.000000000000000E+000
  0.000000000000000E+000
  0.000000000000000E+000
  0.000000000000000E+000
  0.000000000000000E+000
  0.000000000000000E+000
  0.000000000000000E+000
  0.000000000000000E+000
  0.000000000000000E+000
  0.000000000000000E+000
  0.000000000000000E+000
  0.000000000000000E+000
  0.000000000000000E+000
  0.000000000000000E+000
  0.000000000000000E+000
  0.000000000000000E+000
  0.000000000000000E+000
  0.000000000000000E+000
  0.000000000000000E+000
  0.000000000000000E+000
  0.000000000000000E+000
  0.000000000000000E+000
  0.000000000000000E+000
  0.000000000000000E+000
  0.000000000000000E+000
  0.000000000000000E+000
  0.000000000000000E+000
  0.000000000000000E+000
  0.000000000000000E+000
  0.000000000000000E+000
  0.000000000000000E+000
  0.000000000000000E+000
  0.000000000000000E+000
  0.000000000000000E+000
  0.000000000000000E+000
  0.000000000000000E+000
  0.000000000000000E+000
  0.000000000000000E+000
  0.000000000000000E+000
  0.000000000000000E+000
  0.000000000000000E+000
  0.000000000000000E+000
  0.000000000000000E+000
  0.000000000000000E+000
  0.000000000000000E+000
  0.000000000000000E+000
  0.000000000000000E+000
  0.000000000000000E+000
  0.000000000000000E+000
  0.000000000000000E+000
  0.000000000000000E+000
  0.000000000000000E+000
  0.000000000000000E+000
  0.000000000000000E+000
  0.000000000000000E+000
  0.000000000000000E+000
  0.000000000000000E+000
  0.000000000000000E+000
  0.000000000000000E+000
  0.000000000000000E+000
  0.000000000000000E+000
  0.000000000000000E+000
  0.000000000000000E+000
  0.000000000000000E+000
  0.000000000000000E+000
  0.000000000000000E+000
  0.000000000000000E+000
  0.000000000000000E+000
  0.000000000000000E+000
  0.000000000000000E+000
  0.000000000000000E+000
  0.000000000000000E+000
  0.000000000000000E+000
  0.000000000000000E+000
  0.000000000000000E+000
  0.000000000000000E+000
  0.000000000000000E+000
  0.000000000000000E+000
  0.000000000000000E+000
  0.000000000000000E+000
  0.000000000000000E+000
  0.000000000000000E+000
  0.000000000000000E+000
  0.000000000000000E+000
  0.000000000000000E+000
  0.000000000000000E+000
  0.000000000000000E+000
  0.000000000000000E+000
  0.000000000000000E+000
  0.000000000000000E+000
  0.000000000000000E+000
  0.000000000000000E+000
  0.000000000000000E+000
  0.000000000000000E+000
  0.000000000000000E+000
  0.000000000000000E+000
  0.000000000000000E+000
  0.000000000000000E+000
  0.000000000000000E+000
  0.000000000000000E+000
  0.000000000000000E+000
  0.000000000000000E+000
  0.000000000000000E+000
  0.000000000000000E+000
  0.000000000000000E+000
  0.000000000000000E+000
  0.000000000000000E+000
  0.000000000000000E+000
  0.000000000000000E+000
  0.000000000000000E+000
  0.000000000000000E+000
  0.000000000000000E+000
  0.000000000000000E+000
  0.000000000000000E+000
  0.000000000000000E+000
  0.000000000000000E+000
  0.000000000000000E+000
  0.000000000000000E+000
  0.000000000000000E+000
  0.000000000000000E+000
  0.000000000000000E+000
  0.000000000000000E+000
  0.000000000000000E+000
  0.000000000000000E+000
  0.000000000000000E+000
  0.000000000000000E+000
  0.000000000000000E+000
  0.000000000000000E+000
  0.000000000000000E+000
  0.000000000000000E+000
  0.000000000000000E+000
  0.000000000000000E+000
  0.000000000000000E+000
  0.000000000000000E+000
  0.000000000000000E+000
  0.000000000000000E+000
  0.000000000000000E+000
  0.000000000000000E+000
  0.000000000000000E+000
  0.000000000000000E+000
  0.000000000000000E+000
  0.000000000000000E+000
  0.000000000000000E+000
  0.000000000000000E+000
  0.000000000000000E+000
  0.000000000000000E+000
  0.000000000000000E+000
  0.000000000000000E+000
  0.000000000000000E+000
  0.000000000000000E+000
  0.000000000000000E+000
  0.000000000000000E+000
  0.000000000000000E+000
  0.000000000000000E+000
  0.000000000000000E+000
  0.000000000000000E+000
  0.000000000000000E+000
  0.000000000000000E+000
  0.000000000000000E+000
  0.000000000000000E+000
  0.000000000000000E+000
  0.000000000000000E+000
  0.000000000000000E+000
  0.000000000000000E+000
  0.000000000000000E+000
  0.000000000000000E+000
  0.000000000000000E+000
  0.000000000000000E+000
  0.000000000000000E+000
  0.000000000000000E+000
  0.000000000000000E+000
  0.000000000000000E+000
  0.000000000000000E+000
  0.000000000000000E+000
  0.000000000000000E+000
  0.000000000000000E+000
  0.000000000000000E+000
  0.000000000000000E+000
  0.000000000000000E+000
  0.000000000000000E+000
  0.000000000000000E+000
  0.000000000000000E+000
  0.000000000000000E+000
  0.000000000000000E+000
  0.000000000000000E+000
  0.000000000000000E+000
  0.000000000000000E+000
  0.000000000000000E+000
  0.000000000000000E+000
  0.000000000000000E+000
  0.000000000000000E+000
  0.000000000000000E+000
  0.000000000000000E+000
  0.000000000000000E+000
  0.000000000000000E+000
  0.000000000000000E+000
  0.000000000000000E+000
  0.000000000000000E+000
  0.000000000000000E+000
  0.000000000000000E+000
  0.000000000000000E+000
  0.000000000000000E+000
  0.000000000000000E+000
  0.000000000000000E+000
  0.000000000000000E+000
  0.000000000000000E+000
  0.000000000000000E+000
  0.000000000000000E+000
  0.000000000000000E+000
  0.000000000000000E+000
  0.000000000000000E+000
  0.000000000000000E+000
  0.000000000000000E+000
  0.000000000000000E+000
  0.000000000000000E+000
  0.000000000000000E+000
  0.000000000000000E+000
  0.000000000000000E+000
  0.000000000000000E+000
  0.000000000000000E+000
  0.000000000000000E+000
  0.000000000000000E+000
  0.000000000000000E+000
  0.000000000000000E+000
  0.000000000000000E+000
  0.000000000000000E+000
  0.000000000000000E+000
  0.000000000000000E+000
  0.000000000000000E+000
  0.000000000000000E+000
  0.000000000000000E+000
  0.000000000000000E+000
  0.000000000000000E+000
  0.000000000000000E+000
  0.000000000000000E+000
  0.000000000000000E+000
  0.000000000000000E+000
  0.000000000000000E+000
  0.000000000000000E+000
  0.000000000000000E+000
  0.000000000000000E+000
  0.000000000000000E+000
  0.000000000000000E+000
  0.000000000000000E+000
  0.000000000000000E+000
  0.000000000000000E+000
  0.000000000000000E+000
  0.000000000000000E+000
  0.000000000000000E+000
  0.000000000000000E+000
  0.000000000000000E+000
  0.000000000000000E+000
  0.000000000000000E+000
  0.000000000000000E+000
  0.000000000000000E+000
  0.000000000000000E+000
  0.000000000000000E+000
  0.000000000000000E+000
  0.000000000000000E+000
  0.000000000000000E+000
  0.000000000000000E+000
  0.000000000000000E+000
  0.000000000000000E+000
  0.000000000000000E+000
  0.000000000000000E+000
  0.000000000000000E+000
  0.000000000000000E+000
  0.000000000000000E+000
  0.000000000000000E+000
  0.000000000000000E+000
  0.000000000000000E+000
  0.000000000000000E+000
  0.000000000000000E+000
  0.000000000000000E+000
  0.000000000000000E+000
  0.000000000000000E+000
  0.000000000000000E+000
  0.000000000000000E+000
  0.000000000000000E+000
  0.000000000000000E+000
  0.000000000000000E+000
  0.000000000000000E+000
  0.000000000000000E+000
  0.000000000000000E+000
  0.000000000000000E+000
  0.000000000000000E+000
  0.000000000000000E+000
  0.000000000000000E+000
  0.000000000000000E+000
  0.000000000000000E+000
  0.000000000000000E+000
  0.000000000000000E+000
  0.000000000000000E+000
  0.000000000000000E+000
  0.000000000000000E+000
  0.000000000000000E+000
  0.000000000000000E+000
  0.000000000000000E+000
  0.000000000000000E+000
  0.000000000000000E+000
  0.000000000000000E+000
  0.000000000000000E+000
  0.000000000000000E+000
  0.000000000000000E+000
  0.000000000000000E+000
  0.000000000000000E+000
  0.000000000000000E+000
  0.000000000000000E+000
  0.000000000000000E+000
  0.000000000000000E+000
  0.000000000000000E+000
  0.000000000000000E+000
  0.000000000000000E+000
  0.000000000000000E+000
  0.000000000000000E+000
  0.000000000000000E+000
  0.000000000000000E+000
  0.000000000000000E+000
  0.000000000000000E+000
  0.000000000000000E+000
  0.000000000000000E+000
  0.000000000000000E+000
  0.000000000000000E+000
  0.000000000000000E+000
  0.000000000000000E+000
  0.000000000000000E+000
  0.000000000000000E+000
  0.000000000000000E+000
  0.000000000000000E+000
  0.000000000000000E+000
  0.000000000000000E+000
  0.000000000000000E+000
  0.000000000000000E+000
  0.000000000000000E+000
  0.000000000000000E+000
  0.000000000000000E+000
  0.000000000000000E+000
  0.000000000000000E+000
  0.000000000000000E+000
  0.000000000000000E+000
  0.000000000000000E+000
  0.000000000000000E+000
  0.000000000000000E+000
  0.000000000000000E+000
  0.000000000000000E+000
  0.000000000000000E+000
  0.000000000000000E+000
  0.000000000000000E+000
  0.000000000000000E+000
  0.000000000000000E+000
  0.000000000000000E+000
  0.000000000000000E+000
  0.000000000000000E+000
  0.000000000000000E+000
  0.000000000000000E+000
  0.000000000000000E+000
  0.000000000000000E+000
  0.000000000000000E+000
  0.000000000000000E+000
  0.000000000000000E+000
  0.000000000000000E+000
  0.000000000000000E+000
  0.000000000000000E+000
  0.000000000000000E+000
  0.000000000000000E+000
  0.000000000000000E+000
  0.000000000000000E+000
  0.000000000000000E+000
  0.000000000000000E+000
  0.000000000000000E+000
  0.000000000000000E+000
  0.000000000000000E+000
  0.000000000000000E+000
  0.000000000000000E+000
  0.000000000000000E+000
  0.000000000000000E+000
  0.000000000000000E+000
  0.000000000000000E+000
  0.000000000000000E+000
  0.000000000000000E+000
  0.000000000000000E+000
  0.000000000000000E+000
  0.000000000000000E+000
  0.000000000000000E+000
  0.000000000000000E+000
  0.000000000000000E+000
  0.000000000000000E+000
  0.000000000000000E+000
  0.000000000000000E+000
  0.000000000000000E+000
  0.000000000000000E+000
  0.000000000000000E+000
  0.000000000000000E+000
  0.000000000000000E+000
  0.000000000000000E+000
  0.000000000000000E+000
  0.000000000000000E+000
  0.000000000000000E+000
  0.000000000000000E+000
  0.000000000000000E+000
  0.000000000000000E+000
  0.000000000000000E+000
  0.000000000000000E+000
  0.000000000000000E+000
  0.000000000000000E+000
  0.000000000000000E+000
  0.000000000000000E+000
  0.000000000000000E+000
  0.000000000000000E+000
  0.000000000000000E+000
  0.000000000000000E+000
  0.000000000000000E+000
  0.000000000000000E+000
  0.000000000000000E+000
  0.000000000000000E+000
  0.000000000000000E+000
  0.000000000000000E+000
  0.000000000000000E+000
  0.000000000000000E+000
  0.000000000000000E+000
  0.000000000000000E+000
  0.000000000000000E+000
  0.000000000000000E+000
  0.000000000000000E+000
  0.000000000000000E+000
  0.000000000000000E+000
  0.000000000000000E+000
  0.000000000000000E+000
  0.000000000000000E+000
  0.000000000000000E+000
  0.000000000000000E+000
  0.000000000000000E+000
  0.000000000000000E+000
  0.000000000000000E+000
  0.000000000000000E+000
  0.000000000000000E+000
  0.000000000000000E+000
  0.000000000000000E+000
  0.000000000000000E+000
  0.000000000000000E+000
  0.000000000000000E+000
  0.000000000000000E+000
  0.000000000000000E+000
  0.000000000000000E+000
  0.000000000000000E+000
  0.000000000000000E+000
  0.000000000000000E+000
  0.000000000000000E+000
  0.000000000000000E+000
  0.000000000000000E+000
  0.000000000000000E+000
  0.000000000000000E+000
  0.000000000000000E+000
  0.000000000000000E+000
  0.000000000000000E+000
  0.000000000000000E+000
  0.000000000000000E+000
  0.000000000000000E+000
  0.000000000000000E+000
  0.000000000000000E+000
  0.000000000000000E+000
  0.000000000000000E+000
  0.000000000000000E+000
  0.000000000000000E+000
  0.000000000000000E+000
  0.000000000000000E+000
  0.000000000000000E+000
  0.000000000000000E+000
  0.000000000000000E+000
  0.000000000000000E+000
  0.000000000000000E+000
  0.000000000000000E+000
  0.000000000000000E+000
  0.000000000000000E+000
  0.000000000000000E+000
  0.000000000000000E+000
  0.000000000000000E+000
  0.000000000000000E+000
  0.000000000000000E+000
  0.000000000000000E+000
  0.000000000000000E+000
  0.000000000000000E+000
  0.000000000000000E+000
  0.000000000000000E+000
  0.000000000000000E+000
  0.000000000000000E+000
  0.000000000000000E+000
  0.000000000000000E+000
  0.000000000000000E+000
  0.000000000000000E+000
  0.000000000000000E+000
  0.000000000000000E+000
  0.000000000000000E+000
  0.000000000000000E+000
  0.000000000000000E+000
  0.000000000000000E+000
  0.000000000000000E+000
  0.000000000000000E+000
  0.000000000000000E+000
  0.000000000000000E+000
  0.000000000000000E+000
  0.000000000000000E+000
  0.000000000000000E+000
  0.000000000000000E+000
  0.000000000000000E+000
  0.000000000000000E+000
  0.000000000000000E+000
  0.000000000000000E+000
  0.000000000000000E+000
  0.000000000000000E+000
  0.000000000000000E+000
  0.000000000000000E+000
  0.000000000000000E+000
  0.000000000000000E+000
  0.000000000000000E+000
  0.000000000000000E+000
  0.000000000000000E+000
  0.000000000000000E+000
  0.000000000000000E+000
  0.000000000000000E+000
  0.000000000000000E+000
  0.000000000000000E+000
  0.000000000000000E+000
  0.000000000000000E+000
  0.000000000000000E+000
  0.000000000000000E+000
  0.000000000000000E+000
  0.000000000000000E+000
  0.000000000000000E+000
  0.000000000000000E+000
  0.000000000000000E+000
  0.000000000000000E+000
  0.000000000000000E+000
  0.000000000000000E+000
  0.000000000000000E+000
  0.000000000000000E+000
  0.000000000000000E+000
  0.000000000000000E+000
  0.000000000000000E+000
  0.000000000000000E+000
  0.000000000000000E+000
  0.000000000000000E+000
  0.000000000000000E+000
  0.000000000000000E+000
  0.000000000000000E+000
  0.000000000000000E+000
  0.000000000000000E+000
  0.000000000000000E+000
  0.000000000000000E+000
  0.000000000000000E+000
  0.000000000000000E+000
  0.000000000000000E+000
  0.000000000000000E+000
  0.000000000000000E+000
  0.000000000000000E+000
  0.000000000000000E+000
  0.000000000000000E+000
  0.000000000000000E+000
  0.000000000000000E+000
  0.000000000000000E+000
  0.000000000000000E+000
  0.000000000000000E+000
  0.000000000000000E+000
  0.000000000000000E+000
  0.000000000000000E+000
  0.000000000000000E+000
  0.000000000000000E+000
  0.000000000000000E+000
  0.000000000000000E+000
  0.000000000000000E+000
  0.000000000000000E+000
  0.000000000000000E+000
  0.000000000000000E+000
  0.000000000000000E+000
  0.000000000000000E+000
  0.000000000000000E+000
  0.000000000000000E+000
  0.000000000000000E+000
  0.000000000000000E+000
  0.000000000000000E+000
  0.000000000000000E+000
  0.000000000000000E+000
  0.000000000000000E+000
  0.000000000000000E+000
  0.000000000000000E+000
  0.000000000000000E+000
  0.000000000000000E+000
  0.000000000000000E+000
  0.000000000000000E+000
  0.000000000000000E+000
  0.000000000000000E+000
  0.000000000000000E+000
  0.000000000000000E+000
  0.000000000000000E+000
  0.000000000000000E+000
  0.000000000000000E+000
  0.000000000000000E+000
  0.000000000000000E+000
  0.000000000000000E+000
  0.000000000000000E+000
  0.000000000000000E+000
  0.000000000000000E+000
  0.000000000000000E+000
  0.000000000000000E+000
  0.000000000000000E+000
  0.000000000000000E+000
  0.000000000000000E+000
  0.000000000000000E+000
  0.000000000000000E+000
  0.000000000000000E+000
  0.000000000000000E+000
  0.000000000000000E+000
  0.000000000000000E+000
  0.000000000000000E+000
  0.000000000000000E+000
  0.000000000000000E+000
  0.000000000000000E+000
  0.000000000000000E+000
  0.000000000000000E+000
  0.000000000000000E+000
  0.000000000000000E+000
  0.000000000000000E+000
  0.000000000000000E+000
  0.000000000000000E+000
